assumption(fr14_e2).
assumption(fr20_a1).
assumption(fr22_a1).
assumption(fr7_e4).
assumption(fr1_e1).
assumption(fr1_f1).
contrary(fr14_e2,fr7_e4).
contrary(fr20_a1,fr1_s1).
contrary(fr22_a1,fr1_f1).
contrary(fr7_e4,fr1_s1).
contrary(fr1_e1,fr17_t4).
contrary(fr1_f1,fr1_y1).
head(r_fr1_0,fr1_s1).
body(r_fr1_0,fr9_p5).
body(r_fr1_0,fr1_y1).
head(r_fr1_1,fr1_s1).
head(r_fr1_2,fr4_u2).
body(r_fr1_2,fr1_y1).
head(r_fr1_3,fr4_u2).
body(r_fr1_3,fr20_a1).
body(r_fr1_3,fr1_s1).
head(r_fr1_4,fr9_p5).
head(r_fr1_5,fr9_p5).
body(r_fr1_5,fr25_r1).
head(r_fr1_6,fr24_r3).
body(r_fr1_6,fr14_e2).
body(r_fr1_6,fr9_p5).
head(r_fr1_7,fr24_r3).
body(r_fr1_7,fr20_a1).
head(r_fr1_8,fr25_r1).
body(r_fr1_8,fr1_f1).
head(r_fr1_9,fr25_r1).
body(r_fr1_9,fr4_u2).
head(r_fr1_10,fr1_q1).
body(r_fr1_10,fr1_y1).
head(r_fr1_11,fr1_q1).
head(r_fr1_12,fr1_r1).
body(r_fr1_12,fr1_q1).
head(r_fr1_13,fr1_r1).
head(r_fr1_14,fr1_y1).
body(r_fr1_14,fr4_u2).
body(r_fr1_14,fr17_t4).
head(r_fr1_15,fr1_y1).

assumption(fr20_a2).
assumption(fr2_b1).
assumption(fr2_c1).
assumption(fr9_a2).
assumption(fr2_e1).
assumption(fr2_f1).
assumption(fr2_a2).
assumption(fr2_b2).
assumption(fr2_c2).
assumption(fr2_d2).
assumption(fr2_e2).
assumption(fr2_f2).
assumption(fr2_a3).
assumption(fr2_b3).
assumption(fr2_c3).
contrary(fr20_a2,fr20_s1).
contrary(fr2_a2,fr2_d2).
contrary(fr2_a3,fr2_f1).
contrary(fr2_b1,fr20_s1).
contrary(fr2_b2,fr2_a2).
contrary(fr2_b3,fr13_p2).
contrary(fr2_c1,fr2_c2).
contrary(fr2_c2,fr2_b3).
contrary(fr2_c3,fr2_w2).
contrary(fr9_a2,fr2_a2).
contrary(fr2_d2,fr2_r2).
contrary(fr2_e1,fr20_a2).
contrary(fr2_e2,fr2_w2).
contrary(fr2_f1,fr2_f2).
contrary(fr2_f2,fr2_e1).
head(r_fr2_0,fr13_p2).
body(r_fr2_0,fr2_d2).
body(r_fr2_0,fr2_e1).
body(r_fr2_0,fr2_f1).
head(r_fr2_1,fr13_p2).
body(r_fr2_1,fr2_s2).
head(r_fr2_2,fr13_p2).
body(r_fr2_2,fr2_b1).
body(r_fr2_2,fr2_c1).
body(r_fr2_2,fr2_c2).
body(r_fr2_2,fr2_q3).
body(r_fr2_2,fr2_r3).
body(r_fr2_2,fr2_s2).
head(r_fr2_3,fr13_p2).
body(r_fr2_3,fr2_e1).
body(r_fr2_3,fr23_t2).
body(r_fr2_3,fr2_w1).
head(r_fr2_4,fr13_p2).
body(r_fr2_4,fr2_p2).
body(r_fr2_4,fr6_v1).
body(r_fr2_4,fr2_q3).
body(r_fr2_4,fr2_u2).
body(r_fr2_4,fr23_t2).
body(r_fr2_4,fr2_z2).
head(r_fr2_5,fr13_p2).
body(r_fr2_5,fr2_u2).
head(r_fr2_6,fr13_p2).
body(r_fr2_6,fr2_c1).
body(r_fr2_6,fr2_f1).
body(r_fr2_6,fr2_f2).
head(r_fr2_7,fr13_p2).
head(r_fr2_8,fr13_p2).
body(r_fr2_8,fr2_b2).
body(r_fr2_8,fr2_c2).
body(r_fr2_8,fr2_q3).
body(r_fr2_8,fr2_r3).
body(r_fr2_8,fr2_t1).
head(r_fr2_9,fr13_p2).
body(r_fr2_9,fr2_a3).
body(r_fr2_9,fr2_c2).
body(r_fr2_9,fr9_a2).
body(r_fr2_9,fr2_f2).
body(r_fr2_9,fr2_s1).
body(r_fr2_9,fr2_t2).
head(r_fr2_10,fr13_p2).
body(r_fr2_10,fr2_c3).
body(r_fr2_10,fr9_a2).
body(r_fr2_10,fr22_u1).
body(r_fr2_10,fr2_s1).
body(r_fr2_10,fr2_s2).
body(r_fr2_10,fr2_t2).
head(r_fr2_11,fr13_p2).
body(r_fr2_11,fr2_a3).
body(r_fr2_11,fr9_a2).
body(r_fr2_11,fr2_s1).
body(r_fr2_11,fr2_w1).
body(r_fr2_11,fr2_w2).
body(r_fr2_11,fr17_s4).
head(r_fr2_12,fr13_p2).
body(r_fr2_12,fr2_c1).
body(r_fr2_12,fr2_c2).
body(r_fr2_12,fr22_u1).
body(r_fr2_12,fr21_v1).
body(r_fr2_12,fr2_z2).
head(r_fr2_13,fr13_p2).
body(r_fr2_13,fr20_a2).
body(r_fr2_13,fr9_a2).
body(r_fr2_13,fr22_u1).
body(r_fr2_13,fr2_q2).
head(r_fr2_14,fr13_p2).
body(r_fr2_14,fr20_a2).
body(r_fr2_14,fr2_u2).
head(r_fr2_15,fr13_p2).
body(r_fr2_15,fr2_a2).
body(r_fr2_15,fr2_b2).
body(r_fr2_15,fr2_b3).
body(r_fr2_15,fr2_e2).
head(r_fr2_16,fr2_u2).
body(r_fr2_16,fr20_a2).
body(r_fr2_16,fr2_a2).
body(r_fr2_16,fr2_c2).
body(r_fr2_16,fr2_e1).
body(r_fr2_16,fr6_v1).
body(r_fr2_16,fr23_t2).
head(r_fr2_17,fr2_u2).
body(r_fr2_17,fr13_p2).
body(r_fr2_17,fr2_q3).
body(r_fr2_17,fr2_s1).
body(r_fr2_17,fr2_s2).
body(r_fr2_17,fr2_v2).
body(r_fr2_17,fr2_z2).
head(r_fr2_18,fr2_u2).
body(r_fr2_18,fr2_b1).
body(r_fr2_18,fr2_b2).
body(r_fr2_18,fr2_c3).
body(r_fr2_18,fr9_a2).
body(r_fr2_18,fr2_d2).
body(r_fr2_18,fr6_v1).
head(r_fr2_19,fr2_u2).
body(r_fr2_19,fr2_a2).
body(r_fr2_19,fr2_f2).
body(r_fr2_19,fr2_t2).
body(r_fr2_19,fr23_t2).
head(r_fr2_20,fr2_u2).
body(r_fr2_20,fr23_t2).
head(r_fr2_21,fr2_u2).
body(r_fr2_21,fr2_b1).
body(r_fr2_21,fr9_a2).
body(r_fr2_21,fr11_v1).
body(r_fr2_21,fr20_s1).
head(r_fr2_22,fr2_u2).
body(r_fr2_22,fr2_b1).
body(r_fr2_22,fr2_b3).
body(r_fr2_22,fr2_f1).
body(r_fr2_22,fr2_t2).
head(r_fr2_23,fr2_u2).
body(r_fr2_23,fr2_b1).
body(r_fr2_23,fr2_d2).
body(r_fr2_23,fr2_e1).
body(r_fr2_23,fr2_s1).
head(r_fr2_24,fr2_u2).
body(r_fr2_24,fr2_t1).
head(r_fr2_25,fr2_u2).
head(r_fr2_26,fr2_u2).
body(r_fr2_26,fr20_a2).
body(r_fr2_26,fr2_c2).
head(r_fr2_27,fr2_u2).
body(r_fr2_27,fr20_a2).
body(r_fr2_27,fr2_a3).
body(r_fr2_27,fr2_c3).
body(r_fr2_27,fr2_f2).
head(r_fr2_28,fr2_u2).
body(r_fr2_28,fr2_b3).
body(r_fr2_28,fr17_s4).
head(r_fr2_29,fr2_u2).
body(r_fr2_29,fr21_v1).
head(r_fr2_30,fr2_u2).
body(r_fr2_30,fr2_a2).
body(r_fr2_30,fr2_a3).
body(r_fr2_30,fr2_e2).
body(r_fr2_30,fr11_v1).
body(r_fr2_30,fr20_s1).
body(r_fr2_30,fr2_z2).
head(r_fr2_31,fr2_u2).
body(r_fr2_31,fr2_a2).
body(r_fr2_31,fr9_a2).
body(r_fr2_31,fr2_d2).
body(r_fr2_31,fr2_f2).
head(r_fr2_32,fr2_u2).
body(r_fr2_32,fr2_v2).
body(r_fr2_32,fr2_w2).
head(r_fr2_33,fr2_r3).
body(r_fr2_33,fr2_a2).
body(r_fr2_33,fr2_b1).
body(r_fr2_33,fr20_s1).
body(r_fr2_33,fr2_z2).
head(r_fr2_34,fr2_r3).
body(r_fr2_34,fr2_p2).
body(r_fr2_34,fr23_t2).
body(r_fr2_34,fr2_x2).
head(r_fr2_35,fr2_r3).
body(r_fr2_35,fr2_c2).
head(r_fr2_36,fr2_r3).
body(r_fr2_36,fr2_d2).
body(r_fr2_36,fr2_r2).
body(r_fr2_36,fr2_s2).
head(r_fr2_37,fr2_r3).
body(r_fr2_37,fr2_q3).
body(r_fr2_37,fr17_s4).
head(r_fr2_38,fr2_r3).
body(r_fr2_38,fr2_a2).
body(r_fr2_38,fr2_b3).
body(r_fr2_38,fr9_a2).
body(r_fr2_38,fr2_f1).
body(r_fr2_38,fr2_u2).
head(r_fr2_39,fr2_r3).
body(r_fr2_39,fr2_b3).
body(r_fr2_39,fr2_u2).
head(r_fr2_40,fr2_r3).
body(r_fr2_40,fr2_a3).
body(r_fr2_40,fr2_c3).
body(r_fr2_40,fr2_f1).
body(r_fr2_40,fr2_f2).
body(r_fr2_40,fr2_p2).
body(r_fr2_40,fr2_w1).
head(r_fr2_41,fr2_r3).
head(r_fr2_42,fr2_r3).
body(r_fr2_42,fr2_a3).
head(r_fr2_43,fr2_r3).
body(r_fr2_43,fr22_u1).
body(r_fr2_43,fr13_p2).
body(r_fr2_43,fr2_v2).
head(r_fr2_44,fr2_r3).
body(r_fr2_44,fr2_q3).
body(r_fr2_44,fr2_t1).
body(r_fr2_44,fr20_s1).
head(r_fr2_45,fr2_r3).
body(r_fr2_45,fr2_b1).
body(r_fr2_45,fr2_c2).
body(r_fr2_45,fr2_f1).
head(r_fr2_46,fr2_r3).
body(r_fr2_46,fr2_v2).
body(r_fr2_46,fr2_x1).
head(r_fr2_47,fr2_r3).
body(r_fr2_47,fr22_u1).
body(r_fr2_47,fr2_p2).
body(r_fr2_47,fr2_x2).
body(r_fr2_47,fr4_p2).
body(r_fr2_47,fr2_z2).
head(r_fr2_48,fr2_s2).
body(r_fr2_48,fr2_a2).
body(r_fr2_48,fr2_c1).
body(r_fr2_48,fr9_a2).
body(r_fr2_48,fr11_v1).
head(r_fr2_49,fr2_s2).
body(r_fr2_49,fr22_u1).
body(r_fr2_49,fr2_t1).
body(r_fr2_49,fr17_s4).
head(r_fr2_50,fr2_s2).
body(r_fr2_50,fr2_b3).
body(r_fr2_50,fr2_c3).
body(r_fr2_50,fr2_d2).
body(r_fr2_50,fr2_e2).
body(r_fr2_50,fr2_f1).
head(r_fr2_51,fr2_s2).
body(r_fr2_51,fr2_b2).
body(r_fr2_51,fr2_e2).
body(r_fr2_51,fr2_v2).
body(r_fr2_51,fr4_p2).
body(r_fr2_51,fr2_z2).
head(r_fr2_52,fr2_s2).
body(r_fr2_52,fr2_b3).
body(r_fr2_52,fr2_e1).
head(r_fr2_53,fr2_s2).
body(r_fr2_53,fr9_a2).
body(r_fr2_53,fr2_e1).
head(r_fr2_54,fr2_s2).
body(r_fr2_54,fr2_q2).
body(r_fr2_54,fr2_z2).
head(r_fr2_55,fr2_s2).
body(r_fr2_55,fr2_a2).
body(r_fr2_55,fr2_c2).
body(r_fr2_55,fr9_a2).
head(r_fr2_56,fr2_s2).
body(r_fr2_56,fr2_f2).
head(r_fr2_57,fr2_s2).
body(r_fr2_57,fr2_e2).
head(r_fr2_58,fr2_s2).
body(r_fr2_58,fr2_a2).
body(r_fr2_58,fr2_a3).
head(r_fr2_59,fr2_s2).
body(r_fr2_59,fr20_s1).
head(r_fr2_60,fr2_s2).
body(r_fr2_60,fr2_a3).
body(r_fr2_60,fr2_e1).
body(r_fr2_60,fr2_e2).
body(r_fr2_60,fr2_x1).
body(r_fr2_60,fr17_s4).
head(r_fr2_61,fr2_s2).
body(r_fr2_61,fr2_b2).
body(r_fr2_61,fr2_b3).
body(r_fr2_61,fr22_u1).
body(r_fr2_61,fr21_v1).
head(r_fr2_62,fr2_s2).
body(r_fr2_62,fr2_b3).
body(r_fr2_62,fr2_c3).
body(r_fr2_62,fr2_d2).
body(r_fr2_62,fr2_e2).
body(r_fr2_62,fr6_v1).
head(r_fr2_63,fr23_t2).
body(r_fr2_63,fr2_b2).
body(r_fr2_63,fr2_t1).
body(r_fr2_63,fr2_u2).
head(r_fr2_64,fr23_t2).
body(r_fr2_64,fr6_v1).
body(r_fr2_64,fr17_s4).
head(r_fr2_65,fr23_t2).
body(r_fr2_65,fr2_c3).
body(r_fr2_65,fr2_f1).
body(r_fr2_65,fr2_v2).
body(r_fr2_65,fr2_z2).
head(r_fr2_66,fr23_t2).
body(r_fr2_66,fr2_p2).
body(r_fr2_66,fr2_r2).
body(r_fr2_66,fr21_v1).
body(r_fr2_66,fr2_u2).
head(r_fr2_67,fr23_t2).
body(r_fr2_67,fr2_t1).
body(r_fr2_67,fr2_v2).
body(r_fr2_67,fr2_w1).
head(r_fr2_68,fr23_t2).
head(r_fr2_69,fr23_t2).
body(r_fr2_69,fr2_a3).
body(r_fr2_69,fr2_b1).
body(r_fr2_69,fr2_c2).
body(r_fr2_69,fr2_e1).
body(r_fr2_69,fr2_f1).
body(r_fr2_69,fr2_f2).
head(r_fr2_70,fr23_t2).
body(r_fr2_70,fr20_s1).
head(r_fr2_71,fr23_t2).
body(r_fr2_71,fr2_b1).
body(r_fr2_71,fr2_b3).
body(r_fr2_71,fr13_p2).
body(r_fr2_71,fr2_w2).
body(r_fr2_71,fr2_x1).
body(r_fr2_71,fr4_p2).
head(r_fr2_72,fr23_t2).
body(r_fr2_72,fr2_p2).
body(r_fr2_72,fr2_w1).
body(r_fr2_72,fr2_x1).
body(r_fr2_72,fr2_x2).
head(r_fr2_73,fr23_t2).
body(r_fr2_73,fr2_a2).
body(r_fr2_73,fr2_b1).
body(r_fr2_73,fr2_b2).
body(r_fr2_73,fr2_b3).
body(r_fr2_73,fr9_a2).
body(r_fr2_73,fr2_e1).
head(r_fr2_74,fr23_t2).
body(r_fr2_74,fr2_b1).
body(r_fr2_74,fr9_a2).
body(r_fr2_74,fr13_p2).
body(r_fr2_74,fr2_t1).
body(r_fr2_74,fr20_s1).
head(r_fr2_75,fr23_t2).
body(r_fr2_75,fr2_e2).
body(r_fr2_75,fr2_q2).
head(r_fr2_76,fr23_t2).
body(r_fr2_76,fr2_d2).
head(r_fr2_77,fr2_p2).
body(r_fr2_77,fr2_f2).
body(r_fr2_77,fr2_u2).
head(r_fr2_78,fr2_p2).
body(r_fr2_78,fr2_e1).
body(r_fr2_78,fr2_e2).
body(r_fr2_78,fr2_u2).
head(r_fr2_79,fr2_p2).
body(r_fr2_79,fr2_q3).
body(r_fr2_79,fr20_s1).
head(r_fr2_80,fr2_p2).
body(r_fr2_80,fr2_f1).
head(r_fr2_81,fr2_p2).
body(r_fr2_81,fr2_t2).
body(r_fr2_81,fr2_x1).
body(r_fr2_81,fr2_z2).
head(r_fr2_82,fr2_p2).
body(r_fr2_82,fr13_p2).
body(r_fr2_82,fr2_r3).
body(r_fr2_82,fr2_t2).
body(r_fr2_82,fr17_s4).
head(r_fr2_83,fr2_p2).
head(r_fr2_84,fr2_p2).
body(r_fr2_84,fr22_u1).
body(r_fr2_84,fr2_q2).
body(r_fr2_84,fr2_x1).
head(r_fr2_85,fr2_p2).
body(r_fr2_85,fr2_a3).
body(r_fr2_85,fr2_b1).
body(r_fr2_85,fr2_b3).
body(r_fr2_85,fr9_a2).
body(r_fr2_85,fr2_d2).
body(r_fr2_85,fr2_e1).
head(r_fr2_86,fr2_p2).
body(r_fr2_86,fr2_c3).
body(r_fr2_86,fr2_d2).
body(r_fr2_86,fr2_q3).
body(r_fr2_86,fr17_s4).
head(r_fr2_87,fr2_p2).
body(r_fr2_87,fr2_b1).
head(r_fr2_88,fr2_p2).
body(r_fr2_88,fr2_b1).
body(r_fr2_88,fr2_c2).
body(r_fr2_88,fr2_f2).
body(r_fr2_88,fr6_v1).
body(r_fr2_88,fr2_v2).
body(r_fr2_88,fr2_x1).
head(r_fr2_89,fr2_p2).
body(r_fr2_89,fr2_b1).
body(r_fr2_89,fr2_f1).
body(r_fr2_89,fr2_q2).
body(r_fr2_89,fr2_z2).
head(r_fr2_90,fr2_p2).
body(r_fr2_90,fr2_c2).
body(r_fr2_90,fr2_d2).
body(r_fr2_90,fr2_e1).
head(r_fr2_91,fr2_q2).
body(r_fr2_91,fr2_b2).
body(r_fr2_91,fr2_e1).
body(r_fr2_91,fr2_s1).
head(r_fr2_92,fr2_q2).
body(r_fr2_92,fr20_a2).
body(r_fr2_92,fr2_a2).
body(r_fr2_92,fr2_b1).
body(r_fr2_92,fr9_a2).
body(r_fr2_92,fr2_d2).
body(r_fr2_92,fr2_f1).
head(r_fr2_93,fr2_q2).
body(r_fr2_93,fr2_a3).
body(r_fr2_93,fr2_c3).
head(r_fr2_94,fr2_q2).
body(r_fr2_94,fr2_b3).
body(r_fr2_94,fr2_r3).
head(r_fr2_95,fr2_q2).
body(r_fr2_95,fr2_f2).
head(r_fr2_96,fr2_q2).
body(r_fr2_96,fr2_c2).
body(r_fr2_96,fr20_s1).
head(r_fr2_97,fr2_q2).
body(r_fr2_97,fr2_c1).
body(r_fr2_97,fr11_v1).
body(r_fr2_97,fr21_v1).
head(r_fr2_98,fr2_q2).
body(r_fr2_98,fr2_b2).
body(r_fr2_98,fr2_b3).
body(r_fr2_98,fr2_c1).
body(r_fr2_98,fr2_c3).
body(r_fr2_98,fr2_d2).
body(r_fr2_98,fr2_f2).
head(r_fr2_99,fr2_q2).
body(r_fr2_99,fr2_a3).
head(r_fr2_100,fr2_q2).
body(r_fr2_100,fr2_a2).
head(r_fr2_101,fr2_q2).
body(r_fr2_101,fr20_a2).
body(r_fr2_101,fr2_d2).
body(r_fr2_101,fr2_e1).
body(r_fr2_101,fr22_u1).
body(r_fr2_101,fr2_x1).
body(r_fr2_101,fr2_z2).
head(r_fr2_102,fr2_q2).
body(r_fr2_102,fr2_a2).
body(r_fr2_102,fr2_b2).
body(r_fr2_102,fr9_a2).
body(r_fr2_102,fr2_u2).
head(r_fr2_103,fr2_q2).
body(r_fr2_103,fr2_b2).
body(r_fr2_103,fr2_z2).
head(r_fr2_104,fr2_q2).
body(r_fr2_104,fr2_f1).
body(r_fr2_104,fr2_t1).
head(r_fr2_105,fr2_q2).
head(r_fr2_106,fr2_q2).
body(r_fr2_106,fr2_a2).
body(r_fr2_106,fr2_b3).
body(r_fr2_106,fr2_c3).
head(r_fr2_107,fr2_q3).
body(r_fr2_107,fr2_b3).
body(r_fr2_107,fr9_a2).
body(r_fr2_107,fr2_p2).
body(r_fr2_107,fr2_s2).
body(r_fr2_107,fr2_v2).
head(r_fr2_108,fr2_q3).
body(r_fr2_108,fr2_a3).
body(r_fr2_108,fr2_b2).
body(r_fr2_108,fr2_f2).
body(r_fr2_108,fr2_p2).
body(r_fr2_108,fr2_t1).
head(r_fr2_109,fr2_q3).
body(r_fr2_109,fr2_s2).
head(r_fr2_110,fr2_q3).
body(r_fr2_110,fr2_c1).
body(r_fr2_110,fr2_c3).
body(r_fr2_110,fr4_p2).
head(r_fr2_111,fr2_q3).
body(r_fr2_111,fr2_b1).
body(r_fr2_111,fr22_u1).
body(r_fr2_111,fr2_t2).
body(r_fr2_111,fr2_x2).
head(r_fr2_112,fr2_q3).
body(r_fr2_112,fr2_a2).
body(r_fr2_112,fr2_b3).
body(r_fr2_112,fr9_a2).
body(r_fr2_112,fr2_q2).
body(r_fr2_112,fr2_s2).
body(r_fr2_112,fr23_t2).
head(r_fr2_113,fr2_q3).
body(r_fr2_113,fr20_a2).
body(r_fr2_113,fr2_a2).
body(r_fr2_113,fr2_b1).
body(r_fr2_113,fr2_c1).
head(r_fr2_114,fr2_q3).
body(r_fr2_114,fr2_a3).
body(r_fr2_114,fr2_b1).
body(r_fr2_114,fr2_b3).
body(r_fr2_114,fr2_c2).
body(r_fr2_114,fr2_d2).
body(r_fr2_114,fr2_p2).
head(r_fr2_115,fr2_q3).
body(r_fr2_115,fr20_a2).
body(r_fr2_115,fr2_c3).
body(r_fr2_115,fr2_e1).
body(r_fr2_115,fr2_f1).
body(r_fr2_115,fr6_v1).
body(r_fr2_115,fr11_v1).
head(r_fr2_116,fr2_q3).
body(r_fr2_116,fr2_a3).
body(r_fr2_116,fr2_c1).
body(r_fr2_116,fr2_f2).
head(r_fr2_117,fr2_q3).
head(r_fr2_118,fr2_q3).
body(r_fr2_118,fr20_a2).
body(r_fr2_118,fr2_a2).
body(r_fr2_118,fr2_b2).
body(r_fr2_118,fr2_c1).
body(r_fr2_118,fr2_e2).
body(r_fr2_118,fr2_f1).
head(r_fr2_119,fr2_q3).
body(r_fr2_119,fr2_w2).
head(r_fr2_120,fr2_q3).
body(r_fr2_120,fr2_c1).
body(r_fr2_120,fr22_u1).
body(r_fr2_120,fr2_r3).
body(r_fr2_120,fr2_x1).
head(r_fr2_121,fr2_q3).
body(r_fr2_121,fr2_b1).
body(r_fr2_121,fr2_e2).
body(r_fr2_121,fr2_u2).
head(r_fr2_122,fr2_q3).
body(r_fr2_122,fr2_b3).
body(r_fr2_122,fr2_w2).
head(r_fr2_123,fr2_r2).
body(r_fr2_123,fr2_a2).
body(r_fr2_123,fr9_a2).
body(r_fr2_123,fr2_f2).
body(r_fr2_123,fr22_u1).
body(r_fr2_123,fr2_x1).
head(r_fr2_124,fr2_r2).
body(r_fr2_124,fr2_b2).
body(r_fr2_124,fr2_b3).
body(r_fr2_124,fr13_p2).
body(r_fr2_124,fr2_s2).
body(r_fr2_124,fr2_u2).
body(r_fr2_124,fr2_w1).
head(r_fr2_125,fr2_r2).
body(r_fr2_125,fr2_q2).
head(r_fr2_126,fr2_r2).
body(r_fr2_126,fr13_p2).
body(r_fr2_126,fr2_s1).
body(r_fr2_126,fr23_t2).
body(r_fr2_126,fr2_w2).
body(r_fr2_126,fr2_x1).
body(r_fr2_126,fr2_x2).
head(r_fr2_127,fr2_r2).
body(r_fr2_127,fr22_u1).
body(r_fr2_127,fr11_v1).
body(r_fr2_127,fr2_v2).
head(r_fr2_128,fr2_r2).
body(r_fr2_128,fr2_t1).
head(r_fr2_129,fr2_r2).
body(r_fr2_129,fr2_a2).
body(r_fr2_129,fr2_b1).
body(r_fr2_129,fr2_b2).
body(r_fr2_129,fr2_c3).
head(r_fr2_130,fr2_r2).
body(r_fr2_130,fr2_a2).
body(r_fr2_130,fr2_a3).
head(r_fr2_131,fr2_r2).
body(r_fr2_131,fr20_a2).
body(r_fr2_131,fr2_a3).
body(r_fr2_131,fr2_b3).
body(r_fr2_131,fr2_c1).
head(r_fr2_132,fr2_r2).
body(r_fr2_132,fr2_e2).
head(r_fr2_133,fr2_r2).
head(r_fr2_134,fr2_r2).
body(r_fr2_134,fr20_a2).
body(r_fr2_134,fr2_a2).
body(r_fr2_134,fr2_b2).
body(r_fr2_134,fr2_b3).
body(r_fr2_134,fr2_c3).
body(r_fr2_134,fr2_e1).
head(r_fr2_135,fr2_r2).
body(r_fr2_135,fr2_a2).
body(r_fr2_135,fr2_b2).
body(r_fr2_135,fr2_c3).
body(r_fr2_135,fr9_a2).
body(r_fr2_135,fr2_f2).
body(r_fr2_135,fr2_p2).
head(r_fr2_136,fr2_r2).
body(r_fr2_136,fr2_b2).
body(r_fr2_136,fr2_c3).
body(r_fr2_136,fr2_f1).
head(r_fr2_137,fr2_r2).
body(r_fr2_137,fr2_a2).
body(r_fr2_137,fr2_a3).
body(r_fr2_137,fr2_t2).
head(r_fr2_138,fr2_r2).
body(r_fr2_138,fr2_b1).
head(r_fr2_139,fr2_r2).
body(r_fr2_139,fr23_t2).
body(r_fr2_139,fr20_s1).
head(r_fr2_140,fr2_v2).
body(r_fr2_140,fr2_c1).
body(r_fr2_140,fr2_q3).
body(r_fr2_140,fr2_r2).
head(r_fr2_141,fr2_v2).
body(r_fr2_141,fr2_a3).
body(r_fr2_141,fr2_b1).
body(r_fr2_141,fr2_b2).
body(r_fr2_141,fr2_c3).
body(r_fr2_141,fr2_d2).
body(r_fr2_141,fr2_r3).
head(r_fr2_142,fr2_v2).
body(r_fr2_142,fr2_b2).
body(r_fr2_142,fr2_r3).
head(r_fr2_143,fr2_v2).
body(r_fr2_143,fr2_c2).
body(r_fr2_143,fr2_u2).
body(r_fr2_143,fr2_x2).
head(r_fr2_144,fr2_v2).
body(r_fr2_144,fr2_c1).
body(r_fr2_144,fr2_c3).
body(r_fr2_144,fr2_f1).
head(r_fr2_145,fr2_v2).
body(r_fr2_145,fr2_q2).
head(r_fr2_146,fr2_v2).
body(r_fr2_146,fr20_a2).
body(r_fr2_146,fr13_p2).
body(r_fr2_146,fr2_s1).
body(r_fr2_146,fr21_v1).
body(r_fr2_146,fr20_s1).
head(r_fr2_147,fr2_v2).
body(r_fr2_147,fr2_b1).
body(r_fr2_147,fr2_b3).
body(r_fr2_147,fr2_e2).
body(r_fr2_147,fr2_q2).
head(r_fr2_148,fr2_v2).
body(r_fr2_148,fr2_x1).
head(r_fr2_149,fr2_v2).
body(r_fr2_149,fr2_b1).
body(r_fr2_149,fr2_f2).
head(r_fr2_150,fr2_v2).
body(r_fr2_150,fr6_v1).
head(r_fr2_151,fr2_v2).
body(r_fr2_151,fr13_p2).
head(r_fr2_152,fr2_v2).
head(r_fr2_153,fr2_v2).
body(r_fr2_153,fr2_b3).
body(r_fr2_153,fr2_c2).
body(r_fr2_153,fr13_p2).
body(r_fr2_153,fr2_q2).
body(r_fr2_153,fr2_u2).
body(r_fr2_153,fr20_s1).
head(r_fr2_154,fr22_u1).
body(r_fr2_154,fr11_v1).
head(r_fr2_155,fr22_u1).
body(r_fr2_155,fr2_d2).
body(r_fr2_155,fr2_f1).
head(r_fr2_156,fr22_u1).
body(r_fr2_156,fr2_a3).
body(r_fr2_156,fr2_e2).
head(r_fr2_157,fr22_u1).
body(r_fr2_157,fr2_b3).
body(r_fr2_157,fr6_v1).
body(r_fr2_157,fr2_q2).
body(r_fr2_157,fr11_v1).
body(r_fr2_157,fr21_v1).
body(r_fr2_157,fr2_w1).
head(r_fr2_158,fr22_u1).
body(r_fr2_158,fr2_a2).
body(r_fr2_158,fr2_t1).
head(r_fr2_159,fr22_u1).
body(r_fr2_159,fr6_v1).
body(r_fr2_159,fr2_s2).
head(r_fr2_160,fr22_u1).
body(r_fr2_160,fr2_c2).
body(r_fr2_160,fr9_a2).
body(r_fr2_160,fr6_v1).
body(r_fr2_160,fr2_q2).
body(r_fr2_160,fr11_v1).
body(r_fr2_160,fr21_v1).
head(r_fr2_161,fr22_u1).
body(r_fr2_161,fr2_q2).
body(r_fr2_161,fr2_r2).
body(r_fr2_161,fr2_u2).
body(r_fr2_161,fr2_w1).
head(r_fr2_162,fr22_u1).
body(r_fr2_162,fr20_a2).
body(r_fr2_162,fr2_b2).
body(r_fr2_162,fr2_b3).
body(r_fr2_162,fr2_c3).
body(r_fr2_162,fr2_d2).
head(r_fr2_163,fr22_u1).
body(r_fr2_163,fr2_a3).
body(r_fr2_163,fr2_d2).
body(r_fr2_163,fr2_e1).
body(r_fr2_163,fr2_f1).
body(r_fr2_163,fr2_u2).
head(r_fr2_164,fr22_u1).
body(r_fr2_164,fr2_b2).
head(r_fr2_165,fr22_u1).
body(r_fr2_165,fr2_b3).
head(r_fr2_166,fr22_u1).
body(r_fr2_166,fr2_b3).
body(r_fr2_166,fr21_v1).
head(r_fr2_167,fr22_u1).
body(r_fr2_167,fr20_a2).
body(r_fr2_167,fr2_b2).
body(r_fr2_167,fr2_c1).
body(r_fr2_167,fr2_d2).
body(r_fr2_167,fr2_t2).
body(r_fr2_167,fr2_x1).
head(r_fr2_168,fr2_t2).
body(r_fr2_168,fr13_p2).
body(r_fr2_168,fr2_q3).
body(r_fr2_168,fr11_v1).
body(r_fr2_168,fr2_w2).
body(r_fr2_168,fr17_s4).
body(r_fr2_168,fr4_p2).
head(r_fr2_169,fr2_t2).
body(r_fr2_169,fr20_a2).
body(r_fr2_169,fr2_a3).
body(r_fr2_169,fr2_c2).
body(r_fr2_169,fr2_c3).
body(r_fr2_169,fr2_w1).
head(r_fr2_170,fr2_t2).
body(r_fr2_170,fr2_f2).
body(r_fr2_170,fr2_r2).
head(r_fr2_171,fr2_t2).
body(r_fr2_171,fr2_c2).
body(r_fr2_171,fr9_a2).
body(r_fr2_171,fr2_d2).
body(r_fr2_171,fr2_f1).
head(r_fr2_172,fr2_t2).
body(r_fr2_172,fr20_a2).
body(r_fr2_172,fr9_a2).
body(r_fr2_172,fr2_d2).
body(r_fr2_172,fr2_e1).
body(r_fr2_172,fr11_v1).
head(r_fr2_173,fr2_t2).
body(r_fr2_173,fr2_a2).
body(r_fr2_173,fr2_b1).
body(r_fr2_173,fr2_t1).
head(r_fr2_174,fr2_t2).
body(r_fr2_174,fr2_b1).
body(r_fr2_174,fr6_v1).
body(r_fr2_174,fr2_w1).
body(r_fr2_174,fr4_p2).
head(r_fr2_175,fr2_t2).
body(r_fr2_175,fr2_b2).
body(r_fr2_175,fr2_c2).
body(r_fr2_175,fr2_e2).
body(r_fr2_175,fr22_u1).
head(r_fr2_176,fr2_t2).
body(r_fr2_176,fr2_d2).
head(r_fr2_177,fr2_t2).
body(r_fr2_177,fr20_a2).
body(r_fr2_177,fr2_b3).
body(r_fr2_177,fr2_d2).
body(r_fr2_177,fr2_e2).
body(r_fr2_177,fr2_f1).
head(r_fr2_178,fr2_t2).
body(r_fr2_178,fr2_a3).
body(r_fr2_178,fr2_b2).
body(r_fr2_178,fr2_b3).
body(r_fr2_178,fr2_c2).
body(r_fr2_178,fr2_e1).
body(r_fr2_178,fr2_q2).
head(r_fr2_179,fr2_t2).
head(r_fr2_180,fr2_t2).
body(r_fr2_180,fr2_w1).
head(r_fr2_181,fr2_t2).
body(r_fr2_181,fr2_a2).
body(r_fr2_181,fr2_a3).
body(r_fr2_181,fr2_b1).
body(r_fr2_181,fr2_b3).
body(r_fr2_181,fr2_c3).
body(r_fr2_181,fr2_u2).
head(r_fr2_182,fr2_t2).
body(r_fr2_182,fr2_a2).
body(r_fr2_182,fr2_b1).
head(r_fr2_183,fr2_t1).
body(r_fr2_183,fr20_a2).
body(r_fr2_183,fr2_v2).
body(r_fr2_183,fr2_x2).
head(r_fr2_184,fr2_t1).
body(r_fr2_184,fr2_a2).
body(r_fr2_184,fr2_s2).
head(r_fr2_185,fr2_t1).
body(r_fr2_185,fr2_q3).
head(r_fr2_186,fr2_t1).
body(r_fr2_186,fr2_x1).
head(r_fr2_187,fr2_t1).
body(r_fr2_187,fr2_b1).
body(r_fr2_187,fr2_c1).
body(r_fr2_187,fr6_v1).
body(r_fr2_187,fr2_s1).
body(r_fr2_187,fr17_s4).
head(r_fr2_188,fr2_t1).
body(r_fr2_188,fr2_q2).
body(r_fr2_188,fr20_s1).
head(r_fr2_189,fr2_t1).
head(r_fr2_190,fr2_t1).
body(r_fr2_190,fr20_a2).
head(r_fr2_191,fr2_t1).
body(r_fr2_191,fr2_e2).
head(r_fr2_192,fr2_t1).
body(r_fr2_192,fr2_b1).
body(r_fr2_192,fr2_f1).
body(r_fr2_192,fr2_q2).
body(r_fr2_192,fr21_v1).
head(r_fr2_193,fr2_t1).
body(r_fr2_193,fr2_a2).
body(r_fr2_193,fr2_b1).
body(r_fr2_193,fr2_e2).
body(r_fr2_193,fr13_p2).
body(r_fr2_193,fr2_t2).
body(r_fr2_193,fr2_x2).
head(r_fr2_194,fr2_t1).
body(r_fr2_194,fr22_u1).
body(r_fr2_194,fr2_q3).
body(r_fr2_194,fr2_r3).
head(r_fr2_195,fr2_t1).
body(r_fr2_195,fr2_f2).
body(r_fr2_195,fr2_p2).
head(r_fr2_196,fr2_t1).
body(r_fr2_196,fr2_a2).
body(r_fr2_196,fr2_r2).
body(r_fr2_196,fr2_t2).
head(r_fr2_197,fr2_s1).
body(r_fr2_197,fr2_d2).
head(r_fr2_198,fr2_s1).
body(r_fr2_198,fr2_a2).
body(r_fr2_198,fr2_b1).
body(r_fr2_198,fr2_f2).
body(r_fr2_198,fr6_v1).
body(r_fr2_198,fr2_v2).
head(r_fr2_199,fr2_s1).
body(r_fr2_199,fr2_p2).
body(r_fr2_199,fr2_q2).
body(r_fr2_199,fr2_r2).
body(r_fr2_199,fr2_r3).
body(r_fr2_199,fr2_w1).
body(r_fr2_199,fr2_x1).
head(r_fr2_200,fr2_s1).
body(r_fr2_200,fr2_c3).
head(r_fr2_201,fr2_s1).
body(r_fr2_201,fr2_x1).
body(r_fr2_201,fr20_s1).
head(r_fr2_202,fr2_s1).
body(r_fr2_202,fr20_a2).
body(r_fr2_202,fr2_b1).
body(r_fr2_202,fr2_b2).
head(r_fr2_203,fr2_s1).
body(r_fr2_203,fr23_t2).
head(r_fr2_204,fr2_s1).
body(r_fr2_204,fr20_a2).
body(r_fr2_204,fr2_a2).
body(r_fr2_204,fr2_b1).
body(r_fr2_204,fr2_c2).
body(r_fr2_204,fr2_d2).
body(r_fr2_204,fr2_f2).
head(r_fr2_205,fr2_s1).
body(r_fr2_205,fr20_a2).
body(r_fr2_205,fr2_u2).
head(r_fr2_206,fr2_s1).
body(r_fr2_206,fr2_a3).
body(r_fr2_206,fr2_b3).
body(r_fr2_206,fr2_c1).
body(r_fr2_206,fr2_f2).
head(r_fr2_207,fr2_s1).
body(r_fr2_207,fr2_q2).
body(r_fr2_207,fr11_v1).
body(r_fr2_207,fr2_t1).
body(r_fr2_207,fr21_v1).
body(r_fr2_207,fr2_u2).
body(r_fr2_207,fr2_w2).
head(r_fr2_208,fr2_s1).
body(r_fr2_208,fr2_b3).
body(r_fr2_208,fr2_q2).
head(r_fr2_209,fr2_s1).
head(r_fr2_210,fr2_s1).
body(r_fr2_210,fr2_a2).
body(r_fr2_210,fr2_b3).
body(r_fr2_210,fr13_p2).
body(r_fr2_210,fr2_r2).
body(r_fr2_210,fr2_w2).
body(r_fr2_210,fr2_z2).
head(r_fr2_211,fr2_s1).
body(r_fr2_211,fr4_p2).
head(r_fr2_212,fr2_s1).
body(r_fr2_212,fr2_a2).
body(r_fr2_212,fr2_c2).
body(r_fr2_212,fr2_q2).
body(r_fr2_212,fr2_t1).
head(r_fr2_213,fr2_s1).
body(r_fr2_213,fr20_a2).
body(r_fr2_213,fr2_a2).
body(r_fr2_213,fr2_b2).
body(r_fr2_213,fr2_d2).
body(r_fr2_213,fr2_e1).
body(r_fr2_213,fr2_f2).
head(r_fr2_214,fr21_v1).
body(r_fr2_214,fr2_b2).
body(r_fr2_214,fr2_b3).
body(r_fr2_214,fr2_c3).
body(r_fr2_214,fr2_d2).
head(r_fr2_215,fr21_v1).
body(r_fr2_215,fr20_a2).
body(r_fr2_215,fr2_b1).
body(r_fr2_215,fr2_c3).
body(r_fr2_215,fr9_a2).
body(r_fr2_215,fr2_d2).
head(r_fr2_216,fr21_v1).
body(r_fr2_216,fr20_a2).
body(r_fr2_216,fr9_a2).
body(r_fr2_216,fr2_e2).
body(r_fr2_216,fr6_v1).
head(r_fr2_217,fr21_v1).
body(r_fr2_217,fr23_t2).
body(r_fr2_217,fr2_x1).
body(r_fr2_217,fr2_z2).
head(r_fr2_218,fr21_v1).
body(r_fr2_218,fr2_a3).
head(r_fr2_219,fr21_v1).
body(r_fr2_219,fr2_a2).
body(r_fr2_219,fr2_b2).
body(r_fr2_219,fr2_d2).
body(r_fr2_219,fr2_s1).
body(r_fr2_219,fr2_t2).
body(r_fr2_219,fr2_w2).
head(r_fr2_220,fr21_v1).
body(r_fr2_220,fr2_b1).
body(r_fr2_220,fr2_b3).
body(r_fr2_220,fr2_c3).
body(r_fr2_220,fr2_d2).
body(r_fr2_220,fr2_w1).
body(r_fr2_220,fr2_x1).
head(r_fr2_221,fr21_v1).
body(r_fr2_221,fr2_c2).
body(r_fr2_221,fr13_p2).
head(r_fr2_222,fr21_v1).
body(r_fr2_222,fr2_a2).
body(r_fr2_222,fr2_a3).
body(r_fr2_222,fr2_c1).
body(r_fr2_222,fr2_c3).
body(r_fr2_222,fr2_v2).
body(r_fr2_222,fr2_z2).
head(r_fr2_223,fr21_v1).
body(r_fr2_223,fr9_a2).
body(r_fr2_223,fr2_t1).
body(r_fr2_223,fr2_w2).
head(r_fr2_224,fr21_v1).
body(r_fr2_224,fr2_p2).
body(r_fr2_224,fr6_v1).
body(r_fr2_224,fr2_r2).
body(r_fr2_224,fr23_t2).
head(r_fr2_225,fr21_v1).
body(r_fr2_225,fr2_a2).
body(r_fr2_225,fr2_c1).
head(r_fr2_226,fr21_v1).
body(r_fr2_226,fr2_a3).
body(r_fr2_226,fr2_f2).
head(r_fr2_227,fr21_v1).
body(r_fr2_227,fr2_r3).
body(r_fr2_227,fr2_x1).
head(r_fr2_228,fr11_v1).
body(r_fr2_228,fr22_u1).
head(r_fr2_229,fr11_v1).
body(r_fr2_229,fr2_d2).
body(r_fr2_229,fr2_e1).
body(r_fr2_229,fr2_s1).
head(r_fr2_230,fr11_v1).
body(r_fr2_230,fr2_r3).
body(r_fr2_230,fr2_w2).
body(r_fr2_230,fr2_x1).
body(r_fr2_230,fr17_s4).
head(r_fr2_231,fr11_v1).
body(r_fr2_231,fr2_c2).
body(r_fr2_231,fr2_c3).
body(r_fr2_231,fr2_r3).
body(r_fr2_231,fr2_u2).
head(r_fr2_232,fr11_v1).
body(r_fr2_232,fr2_t1).
head(r_fr2_233,fr11_v1).
body(r_fr2_233,fr2_b1).
body(r_fr2_233,fr2_c1).
body(r_fr2_233,fr2_c3).
head(r_fr2_234,fr11_v1).
body(r_fr2_234,fr2_c2).
body(r_fr2_234,fr9_a2).
body(r_fr2_234,fr21_v1).
body(r_fr2_234,fr2_v2).
body(r_fr2_234,fr17_s4).
head(r_fr2_235,fr11_v1).
body(r_fr2_235,fr2_a2).
body(r_fr2_235,fr2_t1).
body(r_fr2_235,fr2_t2).
head(r_fr2_236,fr11_v1).
body(r_fr2_236,fr2_a3).
head(r_fr2_237,fr11_v1).
body(r_fr2_237,fr2_s2).
body(r_fr2_237,fr2_t1).
body(r_fr2_237,fr21_v1).
head(r_fr2_238,fr11_v1).
head(r_fr2_239,fr11_v1).
body(r_fr2_239,fr2_a2).
body(r_fr2_239,fr2_a3).
body(r_fr2_239,fr2_c3).
body(r_fr2_239,fr2_u2).
body(r_fr2_239,fr2_w2).
head(r_fr2_240,fr11_v1).
body(r_fr2_240,fr2_a3).
body(r_fr2_240,fr2_c2).
body(r_fr2_240,fr2_x1).
body(r_fr2_240,fr2_x2).
body(r_fr2_240,fr2_z2).
head(r_fr2_241,fr11_v1).
body(r_fr2_241,fr2_a2).
body(r_fr2_241,fr9_a2).
head(r_fr2_242,fr20_s1).
body(r_fr2_242,fr6_v1).
body(r_fr2_242,fr13_p2).
body(r_fr2_242,fr2_s2).
body(r_fr2_242,fr21_v1).
body(r_fr2_242,fr2_w1).
body(r_fr2_242,fr2_x2).
head(r_fr2_243,fr20_s1).
body(r_fr2_243,fr2_w1).
head(r_fr2_244,fr20_s1).
body(r_fr2_244,fr2_a2).
body(r_fr2_244,fr23_t2).
head(r_fr2_245,fr20_s1).
body(r_fr2_245,fr2_c3).
body(r_fr2_245,fr2_x2).
head(r_fr2_246,fr20_s1).
body(r_fr2_246,fr20_a2).
body(r_fr2_246,fr2_b3).
body(r_fr2_246,fr2_c2).
body(r_fr2_246,fr9_a2).
body(r_fr2_246,fr2_f2).
body(r_fr2_246,fr13_p2).
head(r_fr2_247,fr20_s1).
body(r_fr2_247,fr20_a2).
body(r_fr2_247,fr9_a2).
body(r_fr2_247,fr2_f1).
body(r_fr2_247,fr2_q3).
body(r_fr2_247,fr2_v2).
body(r_fr2_247,fr4_p2).
head(r_fr2_248,fr20_s1).
body(r_fr2_248,fr20_a2).
body(r_fr2_248,fr2_c1).
body(r_fr2_248,fr2_c2).
head(r_fr2_249,fr20_s1).
body(r_fr2_249,fr2_a3).
body(r_fr2_249,fr2_x2).
head(r_fr2_250,fr20_s1).
body(r_fr2_250,fr2_a2).
body(r_fr2_250,fr2_f2).
body(r_fr2_250,fr6_v1).
body(r_fr2_250,fr2_q3).
body(r_fr2_250,fr11_v1).
head(r_fr2_251,fr20_s1).
body(r_fr2_251,fr6_v1).
body(r_fr2_251,fr2_t1).
body(r_fr2_251,fr2_w1).
body(r_fr2_251,fr2_x1).
body(r_fr2_251,fr17_s4).
body(r_fr2_251,fr2_z2).
head(r_fr2_252,fr20_s1).
body(r_fr2_252,fr2_a2).
body(r_fr2_252,fr2_b3).
body(r_fr2_252,fr9_a2).
body(r_fr2_252,fr2_f2).
body(r_fr2_252,fr21_v1).
body(r_fr2_252,fr2_x1).
head(r_fr2_253,fr20_s1).
body(r_fr2_253,fr2_w2).
head(r_fr2_254,fr20_s1).
body(r_fr2_254,fr2_p2).
head(r_fr2_255,fr20_s1).
body(r_fr2_255,fr2_c3).
body(r_fr2_255,fr2_d2).
body(r_fr2_255,fr2_f2).
body(r_fr2_255,fr2_u2).
head(r_fr2_256,fr2_x2).
body(r_fr2_256,fr2_b2).
body(r_fr2_256,fr4_p2).
head(r_fr2_257,fr2_x2).
body(r_fr2_257,fr2_c2).
body(r_fr2_257,fr2_d2).
body(r_fr2_257,fr2_e1).
body(r_fr2_257,fr2_e2).
body(r_fr2_257,fr2_f2).
head(r_fr2_258,fr2_x2).
body(r_fr2_258,fr2_a3).
body(r_fr2_258,fr2_c2).
head(r_fr2_259,fr2_x2).
body(r_fr2_259,fr2_c1).
body(r_fr2_259,fr9_a2).
body(r_fr2_259,fr2_d2).
body(r_fr2_259,fr2_f2).
body(r_fr2_259,fr2_s2).
body(r_fr2_259,fr21_v1).
head(r_fr2_260,fr2_x2).
body(r_fr2_260,fr2_q3).
body(r_fr2_260,fr2_r3).
body(r_fr2_260,fr2_s1).
body(r_fr2_260,fr2_t2).
body(r_fr2_260,fr2_z2).
head(r_fr2_261,fr2_x2).
body(r_fr2_261,fr23_t2).
body(r_fr2_261,fr17_s4).
body(r_fr2_261,fr20_s1).
head(r_fr2_262,fr2_x2).
body(r_fr2_262,fr2_p2).
body(r_fr2_262,fr2_q2).
body(r_fr2_262,fr11_v1).
body(r_fr2_262,fr2_r3).
body(r_fr2_262,fr2_t1).
head(r_fr2_263,fr2_x2).
head(r_fr2_264,fr2_x2).
body(r_fr2_264,fr11_v1).
body(r_fr2_264,fr4_p2).
head(r_fr2_265,fr2_x2).
body(r_fr2_265,fr2_d2).
body(r_fr2_265,fr2_s1).
body(r_fr2_265,fr2_w2).
head(r_fr2_266,fr2_x2).
body(r_fr2_266,fr2_t2).
head(r_fr2_267,fr2_x2).
body(r_fr2_267,fr2_e1).
body(r_fr2_267,fr2_r3).
head(r_fr2_268,fr2_x2).
body(r_fr2_268,fr2_b2).
body(r_fr2_268,fr11_v1).
body(r_fr2_268,fr2_w1).
head(r_fr2_269,fr2_x2).
body(r_fr2_269,fr2_a2).
body(r_fr2_269,fr2_b1).
body(r_fr2_269,fr2_c1).
body(r_fr2_269,fr2_c2).
body(r_fr2_269,fr2_f2).
head(r_fr2_270,fr2_x2).
body(r_fr2_270,fr2_x1).
body(r_fr2_270,fr2_z2).
head(r_fr2_271,fr4_p2).
body(r_fr2_271,fr20_a2).
head(r_fr2_272,fr4_p2).
body(r_fr2_272,fr2_c1).
body(r_fr2_272,fr2_c2).
body(r_fr2_272,fr2_s2).
body(r_fr2_272,fr2_x1).
head(r_fr2_273,fr4_p2).
body(r_fr2_273,fr2_a3).
body(r_fr2_273,fr2_f1).
head(r_fr2_274,fr4_p2).
body(r_fr2_274,fr2_q3).
body(r_fr2_274,fr2_s2).
body(r_fr2_274,fr2_w2).
body(r_fr2_274,fr20_s1).
head(r_fr2_275,fr4_p2).
body(r_fr2_275,fr20_a2).
body(r_fr2_275,fr2_f1).
head(r_fr2_276,fr4_p2).
body(r_fr2_276,fr2_a3).
body(r_fr2_276,fr2_c1).
body(r_fr2_276,fr2_c2).
body(r_fr2_276,fr2_c3).
body(r_fr2_276,fr17_s4).
head(r_fr2_277,fr4_p2).
body(r_fr2_277,fr2_c3).
body(r_fr2_277,fr2_v2).
body(r_fr2_277,fr17_s4).
body(r_fr2_277,fr20_s1).
head(r_fr2_278,fr4_p2).
head(r_fr2_279,fr4_p2).
body(r_fr2_279,fr2_e2).
body(r_fr2_279,fr22_u1).
body(r_fr2_279,fr11_v1).
body(r_fr2_279,fr2_s2).
body(r_fr2_279,fr2_u2).
body(r_fr2_279,fr2_w2).
head(r_fr2_280,fr4_p2).
body(r_fr2_280,fr2_e2).
body(r_fr2_280,fr2_r2).
body(r_fr2_280,fr2_t1).
body(r_fr2_280,fr20_s1).
head(r_fr2_281,fr4_p2).
body(r_fr2_281,fr20_a2).
body(r_fr2_281,fr2_c3).
head(r_fr2_282,fr4_p2).
body(r_fr2_282,fr2_a2).
body(r_fr2_282,fr2_f1).
head(r_fr2_283,fr4_p2).
body(r_fr2_283,fr2_a2).
body(r_fr2_283,fr2_b1).
head(r_fr2_284,fr4_p2).
body(r_fr2_284,fr20_a2).
body(r_fr2_284,fr2_b3).
body(r_fr2_284,fr2_c3).
body(r_fr2_284,fr22_u1).
head(r_fr2_285,fr4_p2).
body(r_fr2_285,fr2_f2).
head(r_fr2_286,fr4_p2).
body(r_fr2_286,fr2_c3).
body(r_fr2_286,fr2_s2).
body(r_fr2_286,fr2_t2).
body(r_fr2_286,fr2_w2).
head(r_fr2_287,fr4_p2).
body(r_fr2_287,fr2_b2).
body(r_fr2_287,fr2_c1).
body(r_fr2_287,fr2_d2).
body(r_fr2_287,fr2_x2).
head(r_fr2_288,fr6_v1).
body(r_fr2_288,fr23_t2).
body(r_fr2_288,fr17_s4).
head(r_fr2_289,fr6_v1).
body(r_fr2_289,fr13_p2).
body(r_fr2_289,fr2_q2).
body(r_fr2_289,fr2_r2).
body(r_fr2_289,fr4_p2).
head(r_fr2_290,fr6_v1).
body(r_fr2_290,fr2_a2).
body(r_fr2_290,fr2_c1).
body(r_fr2_290,fr2_q2).
body(r_fr2_290,fr2_r2).
body(r_fr2_290,fr2_w1).
head(r_fr2_291,fr6_v1).
body(r_fr2_291,fr2_w2).
head(r_fr2_292,fr6_v1).
body(r_fr2_292,fr2_a3).
body(r_fr2_292,fr2_c1).
body(r_fr2_292,fr9_a2).
body(r_fr2_292,fr2_f1).
head(r_fr2_293,fr6_v1).
body(r_fr2_293,fr2_b2).
head(r_fr2_294,fr6_v1).
body(r_fr2_294,fr2_c2).
body(r_fr2_294,fr2_s1).
body(r_fr2_294,fr2_w1).
head(r_fr2_295,fr6_v1).
body(r_fr2_295,fr13_p2).
body(r_fr2_295,fr17_s4).
head(r_fr2_296,fr6_v1).
body(r_fr2_296,fr2_b3).
head(r_fr2_297,fr6_v1).
body(r_fr2_297,fr2_f1).
body(r_fr2_297,fr2_r2).
body(r_fr2_297,fr23_t2).
head(r_fr2_298,fr6_v1).
head(r_fr2_299,fr6_v1).
body(r_fr2_299,fr2_c3).
body(r_fr2_299,fr2_e2).
body(r_fr2_299,fr11_v1).
body(r_fr2_299,fr2_s2).
body(r_fr2_299,fr2_t1).
body(r_fr2_299,fr2_z2).
head(r_fr2_300,fr6_v1).
body(r_fr2_300,fr2_a2).
body(r_fr2_300,fr9_a2).
body(r_fr2_300,fr2_e2).
body(r_fr2_300,fr11_v1).
body(r_fr2_300,fr23_t2).
body(r_fr2_300,fr2_w2).
head(r_fr2_301,fr6_v1).
body(r_fr2_301,fr20_a2).
body(r_fr2_301,fr13_p2).

assumption(fr3_a1).
assumption(fr3_b1).
assumption(fr17_c2).
assumption(fr19_c1).
assumption(fr3_e1).
assumption(fr17_d1).
contrary(fr3_a1,fr22_u1).
contrary(fr3_b1,fr4_u2).
contrary(fr17_c2,fr19_c1).
contrary(fr19_c1,fr3_y1).
contrary(fr3_e1,fr9_s1).
contrary(fr17_d1,fr17_c2).
head(r_fr3_0,fr3_y1).
head(r_fr3_1,fr3_y1).
body(r_fr3_1,fr3_a1).
head(r_fr3_2,fr25_r1).
body(r_fr3_2,fr3_x1).
head(r_fr3_3,fr25_r1).
body(r_fr3_3,fr4_u2).
body(r_fr3_3,fr5_t3).
head(r_fr3_4,fr4_u2).
body(r_fr3_4,fr3_b1).
body(r_fr3_4,fr19_c1).
head(r_fr3_5,fr4_u2).
head(r_fr3_6,fr9_s1).
body(r_fr3_6,fr13_p3).
body(r_fr3_6,fr11_v1).
head(r_fr3_7,fr9_s1).
body(r_fr3_7,fr17_c2).
body(r_fr3_7,fr11_v1).
head(r_fr3_8,fr3_x1).
head(r_fr3_9,fr3_x1).
body(r_fr3_9,fr3_a1).
body(r_fr3_9,fr19_c1).
head(r_fr3_10,fr11_v1).
body(r_fr3_10,fr3_b1).
head(r_fr3_11,fr11_v1).
head(r_fr3_12,fr13_p3).
body(r_fr3_12,fr5_t3).
body(r_fr3_12,fr3_v1).
head(r_fr3_13,fr13_p3).
head(r_fr3_14,fr3_v1).
body(r_fr3_14,fr22_u1).
body(r_fr3_14,fr5_t3).
head(r_fr3_15,fr3_v1).
body(r_fr3_15,fr22_u1).

assumption(fr4_a1).
assumption(fr4_b1).
assumption(fr4_c1).
assumption(fr4_d1).
assumption(fr4_e1).
assumption(fr4_f1).
assumption(fr4_a2).
assumption(fr4_b2).
assumption(fr4_c2).
assumption(fr4_d2).
assumption(fr24_d2).
assumption(fr4_f2).
assumption(fr4_a3).
assumption(fr4_b3).
assumption(fr4_c3).
contrary(fr4_a1,fr4_w3).
contrary(fr4_a2,fr14_y1).
contrary(fr4_a3,fr4_e1).
contrary(fr4_b1,fr14_w1).
contrary(fr4_b2,fr9_v1).
contrary(fr4_b3,fr4_s3).
contrary(fr4_c1,fr4_u4).
contrary(fr4_c2,fr24_d2).
contrary(fr4_c3,fr4_f1).
contrary(fr4_d1,fr4_u4).
contrary(fr4_d2,fr4_z4).
contrary(fr4_e1,fr4_c1).
contrary(fr24_d2,fr4_z4).
contrary(fr4_f1,fr24_d2).
contrary(fr4_f2,fr14_r3).
head(r_fr4_0,fr4_s3).
body(r_fr4_0,fr4_a3).
body(r_fr4_0,fr4_b1).
head(r_fr4_1,fr4_s3).
body(r_fr4_1,fr4_a2).
body(r_fr4_1,fr4_a3).
body(r_fr4_1,fr4_d2).
body(r_fr4_1,fr4_f1).
body(r_fr4_1,fr4_r4).
body(r_fr4_1,fr14_y1).
head(r_fr4_2,fr4_s3).
head(r_fr4_3,fr4_s3).
body(r_fr4_3,fr4_a3).
body(r_fr4_3,fr4_d1).
body(r_fr4_3,fr4_f2).
head(r_fr4_4,fr4_p5).
body(r_fr4_4,fr4_a3).
body(r_fr4_4,fr4_b2).
body(r_fr4_4,fr4_v4).
head(r_fr4_5,fr4_p5).
body(r_fr4_5,fr4_p2).
head(r_fr4_6,fr4_p5).
body(r_fr4_6,fr4_b1).
body(r_fr4_6,fr4_d1).
body(r_fr4_6,fr4_f1).
body(r_fr4_6,fr4_s2).
head(r_fr4_7,fr4_p5).
body(r_fr4_7,fr4_b3).
body(r_fr4_7,fr4_f2).
body(r_fr4_7,fr17_x1).
body(r_fr4_7,fr4_v3).
body(r_fr4_7,fr4_y1).
head(r_fr4_8,fr4_v3).
body(r_fr4_8,fr4_q2).
head(r_fr4_9,fr4_v3).
body(r_fr4_9,fr14_w1).
body(r_fr4_9,fr4_q4).
body(r_fr4_9,fr9_v1).
body(r_fr4_9,fr4_u1).
body(r_fr4_9,fr4_u2).
body(r_fr4_9,fr4_v1).
head(r_fr4_10,fr4_v3).
body(r_fr4_10,fr4_a1).
head(r_fr4_11,fr4_v3).
head(r_fr4_12,fr4_w2).
body(r_fr4_12,fr14_w1).
head(r_fr4_13,fr4_w2).
head(r_fr4_14,fr4_w2).
body(r_fr4_14,fr17_t4).
head(r_fr4_15,fr4_w2).
body(r_fr4_15,fr4_a1).
head(r_fr4_16,fr4_s1).
body(r_fr4_16,fr4_b3).
body(r_fr4_16,fr4_c2).
body(r_fr4_16,fr14_w1).
body(r_fr4_16,fr9_r1).
head(r_fr4_17,fr4_s1).
body(r_fr4_17,fr4_a2).
body(r_fr4_17,fr4_r2).
body(r_fr4_17,fr4_s2).
body(r_fr4_17,fr5_t3).
body(r_fr4_17,fr4_z2).
head(r_fr4_18,fr4_s1).
body(r_fr4_18,fr4_d1).
body(r_fr4_18,fr4_u4).
body(r_fr4_18,fr4_x4).
head(r_fr4_19,fr4_s1).
body(r_fr4_19,fr4_b3).
body(r_fr4_19,fr4_e1).
body(r_fr4_19,fr4_f1).
body(r_fr4_19,fr4_v4).
head(r_fr4_20,fr4_z4).
body(r_fr4_20,fr4_a2).
body(r_fr4_20,fr4_a3).
body(r_fr4_20,fr4_b3).
body(r_fr4_20,fr4_c2).
body(r_fr4_20,fr4_c3).
body(r_fr4_20,fr14_w1).
head(r_fr4_21,fr4_z4).
body(r_fr4_21,fr4_c2).
body(r_fr4_21,fr4_f2).
body(r_fr4_21,fr7_t4).
body(r_fr4_21,fr9_v1).
body(r_fr4_21,fr17_x1).
body(r_fr4_21,fr4_y2).
head(r_fr4_22,fr4_w1).
body(r_fr4_22,fr4_a2).
body(r_fr4_22,fr4_b1).
body(r_fr4_22,fr4_b2).
body(r_fr4_22,fr4_c1).
body(r_fr4_22,fr4_c2).
head(r_fr4_23,fr4_w1).
body(r_fr4_23,fr4_b3).
body(r_fr4_23,fr4_c3).
head(r_fr4_24,fr4_w1).
body(r_fr4_24,fr4_b3).
body(r_fr4_24,fr4_c2).
body(r_fr4_24,fr4_d2).
body(r_fr4_24,fr14_r3).
head(r_fr4_25,fr4_w1).
head(r_fr4_26,fr4_w1).
body(r_fr4_26,fr4_a1).
body(r_fr4_26,fr4_a2).
body(r_fr4_26,fr4_b3).
body(r_fr4_26,fr4_u2).
body(r_fr4_26,fr5_t3).
head(r_fr4_27,fr4_u3).
body(r_fr4_27,fr4_a2).
body(r_fr4_27,fr4_a3).
head(r_fr4_28,fr4_u3).
body(r_fr4_28,fr4_a1).
body(r_fr4_28,fr4_a2).
body(r_fr4_28,fr4_d2).
body(r_fr4_28,fr4_p3).
head(r_fr4_29,fr4_r2).
body(r_fr4_29,fr4_b3).
body(r_fr4_29,fr4_q4).
body(r_fr4_29,fr4_r1).
head(r_fr4_30,fr4_r2).
body(r_fr4_30,fr4_f1).
head(r_fr4_31,fr4_r2).
head(r_fr4_32,fr4_u2).
head(r_fr4_33,fr4_u2).
body(r_fr4_33,fr4_a2).
body(r_fr4_33,fr4_a3).
body(r_fr4_33,fr4_f2).
head(r_fr4_34,fr4_u2).
body(r_fr4_34,fr4_c2).
head(r_fr4_35,fr4_u2).
body(r_fr4_35,fr17_t4).
body(r_fr4_35,fr4_q3).
body(r_fr4_35,fr4_q4).
body(r_fr4_35,fr4_r3).
body(r_fr4_35,fr9_r1).
head(r_fr4_36,fr4_r4).
body(r_fr4_36,fr4_q2).
body(r_fr4_36,fr17_x1).
body(r_fr4_36,fr4_w3).
head(r_fr4_37,fr4_r4).
body(r_fr4_37,fr4_q4).
body(r_fr4_37,fr4_r1).
body(r_fr4_37,fr4_s2).
body(r_fr4_37,fr4_x4).
body(r_fr4_37,fr4_z2).
head(r_fr4_38,fr4_u4).
body(r_fr4_38,fr4_a3).
body(r_fr4_38,fr4_b2).
body(r_fr4_38,fr4_b3).
body(r_fr4_38,fr4_d2).
body(r_fr4_38,fr4_y2).
head(r_fr4_39,fr4_u4).
body(r_fr4_39,fr4_d1).
body(r_fr4_39,fr4_q4).
body(r_fr4_39,fr17_x1).
body(r_fr4_39,fr4_t4).
body(r_fr4_39,fr12_u1).
head(r_fr4_40,fr4_u4).
body(r_fr4_40,fr4_a1).
body(r_fr4_40,fr4_c3).
body(r_fr4_40,fr4_f1).
body(r_fr4_40,fr7_t4).
body(r_fr4_40,fr4_z1).
body(r_fr4_40,fr4_z2).
head(r_fr4_41,fr4_u4).
body(r_fr4_41,fr4_c3).
body(r_fr4_41,fr4_v1).
head(r_fr4_42,fr4_p1).
body(r_fr4_42,fr4_a3).
body(r_fr4_42,fr4_f2).
head(r_fr4_43,fr4_p1).
body(r_fr4_43,fr4_b1).
body(r_fr4_43,fr4_d1).
body(r_fr4_43,fr4_q2).
body(r_fr4_43,fr4_x4).
head(r_fr4_44,fr4_p1).
head(r_fr4_45,fr4_s2).
body(r_fr4_45,fr4_a1).
body(r_fr4_45,fr4_c1).
body(r_fr4_45,fr4_c3).
body(r_fr4_45,fr4_d1).
body(r_fr4_45,fr14_y1).
head(r_fr4_46,fr4_s2).
head(r_fr4_47,fr4_s2).
body(r_fr4_47,fr4_q3).
body(r_fr4_47,fr4_z1).
head(r_fr4_48,fr4_s2).
body(r_fr4_48,fr4_p2).
body(r_fr4_48,fr14_y1).
head(r_fr4_49,fr14_r3).
body(r_fr4_49,fr14_w1).
body(r_fr4_49,fr4_q4).
body(r_fr4_49,fr14_v1).
body(r_fr4_49,fr4_x4).
head(r_fr4_50,fr14_r3).
body(r_fr4_50,fr4_d2).
body(r_fr4_50,fr4_p2).
body(r_fr4_50,fr4_r1).
head(r_fr4_51,fr14_r3).
body(r_fr4_51,fr4_a1).
body(r_fr4_51,fr4_b3).
body(r_fr4_51,fr4_d1).
body(r_fr4_51,fr4_d2).
body(r_fr4_51,fr4_p3).
head(r_fr4_52,fr14_r3).
body(r_fr4_52,fr4_c1).
body(r_fr4_52,fr7_t4).
body(r_fr4_52,fr4_v4).
body(r_fr4_52,fr4_y2).
body(r_fr4_52,fr12_u1).
head(r_fr4_53,fr14_r3).
body(r_fr4_53,fr4_b1).
body(r_fr4_53,fr4_b3).
body(r_fr4_53,fr4_d1).
body(r_fr4_53,fr4_f1).
body(r_fr4_53,fr9_v1).
body(r_fr4_53,fr5_t3).
head(r_fr4_54,fr4_z3).
body(r_fr4_54,fr4_b1).
body(r_fr4_54,fr4_c1).
body(r_fr4_54,fr4_d2).
head(r_fr4_55,fr4_z3).
body(r_fr4_55,fr4_c2).
head(r_fr4_56,fr9_v1).
body(r_fr4_56,fr4_a2).
body(r_fr4_56,fr4_a3).
body(r_fr4_56,fr4_c2).
body(r_fr4_56,fr4_f2).
head(r_fr4_57,fr9_v1).
body(r_fr4_57,fr4_a3).
body(r_fr4_57,fr14_w1).
body(r_fr4_57,fr4_v4).
body(r_fr4_57,fr4_y1).
head(r_fr4_58,fr9_v1).
body(r_fr4_58,fr17_t4).
head(r_fr4_59,fr14_w1).
body(r_fr4_59,fr4_c3).
body(r_fr4_59,fr4_d1).
body(r_fr4_59,fr4_f1).
body(r_fr4_59,fr4_f2).
body(r_fr4_59,fr4_y2).
head(r_fr4_60,fr14_w1).
body(r_fr4_60,fr4_a1).
body(r_fr4_60,fr4_c1).
body(r_fr4_60,fr4_e1).
body(r_fr4_60,fr4_p3).
head(r_fr4_61,fr14_w1).
body(r_fr4_61,fr4_c3).
body(r_fr4_61,fr4_t4).
body(r_fr4_61,fr11_v1).
head(r_fr4_62,fr7_t4).
body(r_fr4_62,fr4_a2).
body(r_fr4_62,fr4_b2).
body(r_fr4_62,fr24_d2).
body(r_fr4_62,fr4_q4).
head(r_fr4_63,fr7_t4).
body(r_fr4_63,fr4_e1).
head(r_fr4_64,fr4_y2).
body(r_fr4_64,fr4_b1).
body(r_fr4_64,fr4_b2).
body(r_fr4_64,fr4_p3).
head(r_fr4_65,fr4_y2).
body(r_fr4_65,fr4_a1).
body(r_fr4_65,fr24_d2).
body(r_fr4_65,fr17_t4).
head(r_fr4_66,fr4_y2).
body(r_fr4_66,fr4_q3).
body(r_fr4_66,fr14_v1).
body(r_fr4_66,fr9_r1).
head(r_fr4_67,fr4_y2).
body(r_fr4_67,fr17_t4).
body(r_fr4_67,fr4_q3).

assumption(fr5_a1).
assumption(fr5_b1).
assumption(fr5_c1).
assumption(fr5_d1).
assumption(fr5_e1).
assumption(fr5_f1).
assumption(fr5_a2).
assumption(fr5_b2).
assumption(fr5_c2).
assumption(fr5_d2).
assumption(fr5_e2).
assumption(fr20_e1).
assumption(fr15_e2).
assumption(fr5_b3).
assumption(fr5_c3).
contrary(fr5_a1,fr5_p5).
contrary(fr5_a2,fr5_y5).
contrary(fr15_e2,fr5_b1).
contrary(fr5_b1,fr5_v1).
contrary(fr5_b2,fr5_s3).
contrary(fr5_b3,fr5_y5).
contrary(fr5_c1,fr19_v1).
contrary(fr5_c2,fr5_z1).
contrary(fr5_c3,fr19_s1).
contrary(fr5_d1,fr20_v2).
contrary(fr5_d2,fr5_a2).
contrary(fr5_e1,fr5_a2).
contrary(fr5_e2,fr5_u5).
contrary(fr5_f1,fr5_v1).
contrary(fr20_e1,fr7_t4).
head(r_fr5_0,fr12_r1).
body(r_fr5_0,fr5_e1).
body(r_fr5_0,fr20_e1).
body(r_fr5_0,fr5_p4).
body(r_fr5_0,fr5_u1).
body(r_fr5_0,fr5_v2).
body(r_fr5_0,fr5_w3).
head(r_fr5_1,fr12_r1).
body(r_fr5_1,fr5_e1).
body(r_fr5_1,fr5_q1).
body(r_fr5_1,fr2_p2).
head(r_fr5_2,fr12_r1).
body(r_fr5_2,fr5_b2).
body(r_fr5_2,fr5_c1).
body(r_fr5_2,fr5_f1).
head(r_fr5_3,fr5_y4).
body(r_fr5_3,fr5_c1).
body(r_fr5_3,fr5_e1).
head(r_fr5_4,fr5_y4).
head(r_fr5_5,fr5_y4).
body(r_fr5_5,fr5_d1).
body(r_fr5_5,fr5_e2).
head(r_fr5_6,fr5_y4).
body(r_fr5_6,fr5_w5).
body(r_fr5_6,fr5_y1).
head(r_fr5_7,fr5_y4).
body(r_fr5_7,fr5_c3).
body(r_fr5_7,fr5_d2).
body(r_fr5_7,fr5_e2).
body(r_fr5_7,fr5_z1).
head(r_fr5_8,fr5_q2).
body(r_fr5_8,fr5_a1).
body(r_fr5_8,fr5_b1).
body(r_fr5_8,fr5_b2).
body(r_fr5_8,fr5_f1).
body(r_fr5_8,fr5_q6).
head(r_fr5_9,fr5_q2).
body(r_fr5_9,fr5_b2).
body(r_fr5_9,fr5_b3).
body(r_fr5_9,fr5_c1).
body(r_fr5_9,fr5_c3).
body(r_fr5_9,fr5_d1).
body(r_fr5_9,fr5_w3).
head(r_fr5_10,fr5_q2).
body(r_fr5_10,fr5_c2).
body(r_fr5_10,fr5_e2).
head(r_fr5_11,fr5_q2).
body(r_fr5_11,fr5_q3).
body(r_fr5_11,fr5_v6).
head(r_fr5_12,fr5_q3).
body(r_fr5_12,fr5_b2).
body(r_fr5_12,fr5_d2).
body(r_fr5_12,fr5_p2).
body(r_fr5_12,fr5_w1).
body(r_fr5_12,fr20_v2).
body(r_fr5_12,fr5_x4).
head(r_fr5_13,fr5_q3).
head(r_fr5_14,fr5_q3).
body(r_fr5_14,fr5_d2).
head(r_fr5_15,fr5_q3).
body(r_fr5_15,fr5_c2).
body(r_fr5_15,fr5_c3).
body(r_fr5_15,fr5_v1).
body(r_fr5_15,fr6_q2).
head(r_fr5_16,fr11_q3).
body(r_fr5_16,fr5_e1).
body(r_fr5_16,fr5_p2).
body(r_fr5_16,fr5_v2).
body(r_fr5_16,fr5_v5).
body(r_fr5_16,fr5_z4).
head(r_fr5_17,fr11_q3).
body(r_fr5_17,fr15_e2).
body(r_fr5_17,fr5_b3).
body(r_fr5_17,fr5_e2).
body(r_fr5_17,fr7_t4).
body(r_fr5_17,fr5_u1).
head(r_fr5_18,fr11_q3).
body(r_fr5_18,fr5_p4).
body(r_fr5_18,fr19_s1).
body(r_fr5_18,fr10_s1).
body(r_fr5_18,fr5_s6).
body(r_fr5_18,fr5_v5).
head(r_fr5_19,fr5_u1).
body(r_fr5_19,fr5_b3).
body(r_fr5_19,fr5_d2).
body(r_fr5_19,fr5_r3).
body(r_fr5_19,fr5_v1).
body(r_fr5_19,fr5_w6).
body(r_fr5_19,fr19_z1).
head(r_fr5_20,fr5_u1).
body(r_fr5_20,fr5_a2).
body(r_fr5_20,fr5_c3).
body(r_fr5_20,fr5_q6).
head(r_fr5_21,fr5_u1).
body(r_fr5_21,fr5_d2).
body(r_fr5_21,fr5_r6).
body(r_fr5_21,fr19_v1).
body(r_fr5_21,fr5_y3).
body(r_fr5_21,fr5_z4).
head(r_fr5_22,fr5_u1).
body(r_fr5_22,fr5_c1).
head(r_fr5_23,fr5_u1).
body(r_fr5_23,fr5_p1).
body(r_fr5_23,fr5_s5).
body(r_fr5_23,fr5_t3).
body(r_fr5_23,fr5_w5).
head(r_fr5_24,fr5_y3).
body(r_fr5_24,fr15_e2).
body(r_fr5_24,fr5_b2).
body(r_fr5_24,fr5_c2).
body(r_fr5_24,fr5_c3).
body(r_fr5_24,fr5_d1).
body(r_fr5_24,fr5_f1).
head(r_fr5_25,fr5_y3).
body(r_fr5_25,fr5_e2).
head(r_fr5_26,fr5_y3).
head(r_fr5_27,fr5_y3).
body(r_fr5_27,fr5_a1).
body(r_fr5_27,fr5_e2).
body(r_fr5_27,fr7_t4).
head(r_fr5_28,fr5_q6).
body(r_fr5_28,fr5_b3).
body(r_fr5_28,fr5_c1).
body(r_fr5_28,fr5_d2).
head(r_fr5_29,fr5_q6).
body(r_fr5_29,fr5_p2).
body(r_fr5_29,fr5_t3).
body(r_fr5_29,fr5_u6).
body(r_fr5_29,fr5_z2).
body(r_fr5_29,fr5_z4).
head(r_fr5_30,fr5_q6).
body(r_fr5_30,fr5_a2).
body(r_fr5_30,fr5_c2).
body(r_fr5_30,fr5_d2).
head(r_fr5_31,fr5_q6).
body(r_fr5_31,fr5_p3).
body(r_fr5_31,fr5_s3).
body(r_fr5_31,fr5_s6).
body(r_fr5_31,fr5_u6).
head(r_fr5_32,fr5_q6).
head(r_fr5_33,fr19_s1).
body(r_fr5_33,fr15_e2).
body(r_fr5_33,fr5_c3).
body(r_fr5_33,fr5_d1).
head(r_fr5_34,fr19_s1).
body(r_fr5_34,fr5_a1).
body(r_fr5_34,fr15_e2).
body(r_fr5_34,fr5_b3).
body(r_fr5_34,fr5_d1).
body(r_fr5_34,fr5_e1).
body(r_fr5_34,fr19_v1).
head(r_fr5_35,fr19_s1).
body(r_fr5_35,fr5_d1).
body(r_fr5_35,fr5_p6).
body(r_fr5_35,fr5_w5).
body(r_fr5_35,fr5_x5).
head(r_fr5_36,fr19_s1).
body(r_fr5_36,fr15_e2).
body(r_fr5_36,fr5_e1).
body(r_fr5_36,fr5_e2).
body(r_fr5_36,fr5_r4).
body(r_fr5_36,fr5_z1).
body(r_fr5_36,fr5_z5).
head(r_fr5_37,fr19_s1).
body(r_fr5_37,fr5_a1).
body(r_fr5_37,fr5_b3).
body(r_fr5_37,fr5_c3).
body(r_fr5_37,fr5_e1).
body(r_fr5_37,fr5_x2).
head(r_fr5_38,fr5_v3).
head(r_fr5_39,fr5_v3).
body(r_fr5_39,fr5_r6).
head(r_fr5_40,fr5_v3).
body(r_fr5_40,fr5_b1).
body(r_fr5_40,fr5_r3).
body(r_fr5_40,fr5_u6).
head(r_fr5_41,fr5_v3).
body(r_fr5_41,fr5_a1).
body(r_fr5_41,fr5_a2).
body(r_fr5_41,fr5_c1).
head(r_fr5_42,fr5_v3).
body(r_fr5_42,fr5_e2).
head(r_fr5_43,fr5_t6).
body(r_fr5_43,fr5_b3).
body(r_fr5_43,fr5_w3).
head(r_fr5_44,fr5_t6).
head(r_fr5_45,fr5_t6).
body(r_fr5_45,fr5_b1).
body(r_fr5_45,fr20_e1).
body(r_fr5_45,fr5_w3).
head(r_fr5_46,fr5_t6).
body(r_fr5_46,fr5_w1).
head(r_fr5_47,fr5_t6).
body(r_fr5_47,fr5_a1).
body(r_fr5_47,fr5_c1).
body(r_fr5_47,fr5_c2).
body(r_fr5_47,fr5_c3).
body(r_fr5_47,fr5_d2).
body(r_fr5_47,fr5_t5).
head(r_fr5_48,fr5_s6).
body(r_fr5_48,fr5_b2).
body(r_fr5_48,fr5_c1).
body(r_fr5_48,fr5_d2).
body(r_fr5_48,fr5_e1).
head(r_fr5_49,fr5_s6).
body(r_fr5_49,fr5_w3).
head(r_fr5_50,fr5_x2).
body(r_fr5_50,fr5_a2).
body(r_fr5_50,fr5_b3).
body(r_fr5_50,fr5_c1).
body(r_fr5_50,fr7_t4).
body(r_fr5_50,fr6_q2).
body(r_fr5_50,fr5_z3).
head(r_fr5_51,fr5_x2).
body(r_fr5_51,fr15_e2).
body(r_fr5_51,fr5_f1).
body(r_fr5_51,fr5_t3).
body(r_fr5_51,fr5_v6).
body(r_fr5_51,fr5_w5).
head(r_fr5_52,fr5_x2).
body(r_fr5_52,fr5_e2).
body(r_fr5_52,fr5_f1).
body(r_fr5_52,fr5_p3).
body(r_fr5_52,fr5_r6).
body(r_fr5_52,fr5_v6).
body(r_fr5_52,fr5_w6).
head(r_fr5_53,fr5_x2).
body(r_fr5_53,fr5_a1).
body(r_fr5_53,fr5_a2).
body(r_fr5_53,fr5_c2).
body(r_fr5_53,fr20_e1).
head(r_fr5_54,fr5_x2).
body(r_fr5_54,fr5_c1).
body(r_fr5_54,fr5_d1).
body(r_fr5_54,fr5_d2).
body(r_fr5_54,fr20_e1).
head(r_fr5_55,fr5_t1).
head(r_fr5_56,fr5_t1).
body(r_fr5_56,fr5_b2).
body(r_fr5_56,fr5_c1).
body(r_fr5_56,fr5_u2).
body(r_fr5_56,fr5_y5).
head(r_fr5_57,fr5_v1).
body(r_fr5_57,fr5_d2).
head(r_fr5_58,fr5_v1).
body(r_fr5_58,fr5_a1).
body(r_fr5_58,fr5_b1).
body(r_fr5_58,fr5_e1).
head(r_fr5_59,fr5_v1).
body(r_fr5_59,fr5_q1).
body(r_fr5_59,fr5_s3).
body(r_fr5_59,fr5_t3).
body(r_fr5_59,fr5_w1).
body(r_fr5_59,fr20_v2).
body(r_fr5_59,fr5_z1).
head(r_fr5_60,fr5_v1).
body(r_fr5_60,fr5_c1).
body(r_fr5_60,fr5_c2).
body(r_fr5_60,fr5_e2).
head(r_fr5_61,fr5_w5).
body(r_fr5_61,fr23_w1).
body(r_fr5_61,fr5_r6).
body(r_fr5_61,fr5_s3).
body(r_fr5_61,fr5_y1).
head(r_fr5_62,fr5_w5).
body(r_fr5_62,fr5_a2).
body(r_fr5_62,fr5_b2).
body(r_fr5_62,fr5_c2).
body(r_fr5_62,fr5_c3).
body(r_fr5_62,fr5_d1).
head(r_fr5_63,fr7_t4).
head(r_fr5_64,fr7_t4).
body(r_fr5_64,fr5_p2).
body(r_fr5_64,fr5_s2).
body(r_fr5_64,fr5_u2).
body(r_fr5_64,fr5_w3).
body(r_fr5_64,fr5_z1).
body(r_fr5_64,fr5_z5).
head(r_fr5_65,fr7_t4).
body(r_fr5_65,fr5_d1).
body(r_fr5_65,fr5_e1).
body(r_fr5_65,fr5_f1).
body(r_fr5_65,fr5_v2).
head(r_fr5_66,fr7_t4).
body(r_fr5_66,fr5_q1).
body(r_fr5_66,fr5_v2).
body(r_fr5_66,fr5_x5).
body(r_fr5_66,fr5_z2).
body(r_fr5_66,fr5_z3).
head(r_fr5_67,fr7_t4).
body(r_fr5_67,fr15_e2).
body(r_fr5_67,fr5_c3).
body(r_fr5_67,fr5_e2).
head(r_fr5_68,fr5_z2).
body(r_fr5_68,fr5_d1).
body(r_fr5_68,fr20_e1).
body(r_fr5_68,fr5_p1).
body(r_fr5_68,fr5_p5).
body(r_fr5_68,fr5_x5).
body(r_fr5_68,fr5_y2).
head(r_fr5_69,fr5_z2).
body(r_fr5_69,fr5_c3).
body(r_fr5_69,fr5_d2).
body(r_fr5_69,fr10_s1).
body(r_fr5_69,fr5_u6).
body(r_fr5_69,fr5_z3).
head(r_fr5_70,fr5_z2).
head(r_fr5_71,fr5_z2).
body(r_fr5_71,fr5_p4).
body(r_fr5_71,fr5_p6).
body(r_fr5_71,fr5_r4).
body(r_fr5_71,fr5_u2).
body(r_fr5_71,fr5_v2).
body(r_fr5_71,fr5_x5).
head(r_fr5_72,fr5_p5).
body(r_fr5_72,fr5_b2).
body(r_fr5_72,fr5_f1).
head(r_fr5_73,fr5_p5).
body(r_fr5_73,fr5_a2).
body(r_fr5_73,fr5_d2).
body(r_fr5_73,fr5_f1).
body(r_fr5_73,fr5_r4).
body(r_fr5_73,fr5_y5).
body(r_fr5_73,fr5_z3).
head(r_fr5_74,fr5_p5).
body(r_fr5_74,fr5_s5).
head(r_fr5_75,fr5_p5).
body(r_fr5_75,fr5_a1).
body(r_fr5_75,fr5_b2).
body(r_fr5_75,fr5_c2).
body(r_fr5_75,fr5_d2).
body(r_fr5_75,fr5_y1).
head(r_fr5_76,fr20_v2).
body(r_fr5_76,fr5_a1).
body(r_fr5_76,fr5_c1).
body(r_fr5_76,fr5_d1).
body(r_fr5_76,fr5_d2).
body(r_fr5_76,fr5_e1).
body(r_fr5_76,fr20_e1).
head(r_fr5_77,fr20_v2).
body(r_fr5_77,fr5_b1).
body(r_fr5_77,fr5_c2).

assumption(fr6_a1).
assumption(fr15_c1).
assumption(fr6_c1).
assumption(fr6_d1).
assumption(fr6_e1).
assumption(fr22_d1).
assumption(fr6_a2).
assumption(fr6_b2).
assumption(fr6_c2).
assumption(fr6_d2).
assumption(fr6_e2).
assumption(fr22_a1).
assumption(fr6_a3).
assumption(fr6_b3).
assumption(fr17_e2).
contrary(fr6_a1,fr22_a1).
contrary(fr6_a2,fr6_v2).
contrary(fr6_a3,fr11_v1).
contrary(fr15_c1,fr25_y2).
contrary(fr6_b2,fr25_y2).
contrary(fr6_b3,fr6_b2).
contrary(fr6_c1,fr6_s1).
contrary(fr6_c2,fr22_d1).
contrary(fr17_e2,fr6_b3).
contrary(fr6_d1,fr6_q3).
contrary(fr6_d2,fr17_r1).
contrary(fr6_e1,fr6_r3).
contrary(fr6_e2,fr6_s2).
contrary(fr22_d1,fr6_s1).
contrary(fr22_a1,fr6_e1).
head(r_fr6_0,fr4_u2).
body(r_fr6_0,fr17_e2).
body(r_fr6_0,fr25_w4).
head(r_fr6_1,fr4_u2).
body(r_fr6_1,fr6_a2).
body(r_fr6_1,fr15_c1).
body(r_fr6_1,fr6_c1).
body(r_fr6_1,fr22_a1).
body(r_fr6_1,fr17_r1).
body(r_fr6_1,fr25_y2).
head(r_fr6_2,fr4_u2).
body(r_fr6_2,fr6_a2).
body(r_fr6_2,fr6_a3).
body(r_fr6_2,fr6_b3).
body(r_fr6_2,fr6_e1).
body(r_fr6_2,fr22_a1).
body(r_fr6_2,fr6_w2).
head(r_fr6_3,fr4_u2).
body(r_fr6_3,fr11_v1).
body(r_fr6_3,fr6_s2).
body(r_fr6_3,fr6_u1).
body(r_fr6_3,fr6_v1).
body(r_fr6_3,fr6_v2).
body(r_fr6_3,fr8_p1).
head(r_fr6_4,fr4_u2).
body(r_fr6_4,fr6_b2).
body(r_fr6_4,fr6_b3).
body(r_fr6_4,fr6_c2).
body(r_fr6_4,fr6_d2).
body(r_fr6_4,fr22_a1).
body(r_fr6_4,fr25_y2).
head(r_fr6_5,fr4_u2).
body(r_fr6_5,fr6_c2).
head(r_fr6_6,fr4_u2).
body(r_fr6_6,fr6_a2).
body(r_fr6_6,fr15_c1).
body(r_fr6_6,fr6_c1).
body(r_fr6_6,fr17_e2).
body(r_fr6_6,fr6_e2).
body(r_fr6_6,fr22_d1).
head(r_fr6_7,fr4_u2).
head(r_fr6_8,fr4_u2).
body(r_fr6_8,fr6_s2).
body(r_fr6_8,fr6_v1).
body(r_fr6_8,fr6_w2).
body(r_fr6_8,fr6_y2).
head(r_fr6_9,fr4_u2).
body(r_fr6_9,fr6_e1).
body(r_fr6_9,fr6_p2).
body(r_fr6_9,fr6_p3).
body(r_fr6_9,fr3_x1).
head(r_fr6_10,fr4_u2).
body(r_fr6_10,fr15_c1).
body(r_fr6_10,fr6_e2).
head(r_fr6_11,fr4_u2).
body(r_fr6_11,fr15_c1).
body(r_fr6_11,fr6_q2).
body(r_fr6_11,fr6_s2).
body(r_fr6_11,fr8_s3).
body(r_fr6_11,fr6_w2).
body(r_fr6_11,fr25_w4).
head(r_fr6_12,fr4_u2).
body(r_fr6_12,fr15_c1).
body(r_fr6_12,fr6_e1).
head(r_fr6_13,fr4_u2).
body(r_fr6_13,fr6_q3).
body(r_fr6_13,fr6_s1).
body(r_fr6_13,fr6_v1).
head(r_fr6_14,fr4_u2).
body(r_fr6_14,fr6_b3).
body(r_fr6_14,fr17_e2).
body(r_fr6_14,fr6_d2).
body(r_fr6_14,fr6_q3).
body(r_fr6_14,fr6_u1).
head(r_fr6_15,fr6_q3).
body(r_fr6_15,fr6_b3).
body(r_fr6_15,fr6_s1).
body(r_fr6_15,fr8_p1).
head(r_fr6_16,fr6_q3).
body(r_fr6_16,fr3_x1).
body(r_fr6_16,fr6_x1).
body(r_fr6_16,fr25_y2).
head(r_fr6_17,fr6_q3).
body(r_fr6_17,fr6_e1).
head(r_fr6_18,fr6_q3).
body(r_fr6_18,fr6_a1).
body(r_fr6_18,fr6_a2).
body(r_fr6_18,fr15_c1).
body(r_fr6_18,fr17_e2).
body(r_fr6_18,fr6_p3).
body(r_fr6_18,fr17_r1).
head(r_fr6_19,fr6_q3).
body(r_fr6_19,fr6_a2).
body(r_fr6_19,fr6_a3).
body(r_fr6_19,fr15_c1).
body(r_fr6_19,fr6_b2).
body(r_fr6_19,fr6_c2).
body(r_fr6_19,fr6_d1).
head(r_fr6_20,fr6_q3).
body(r_fr6_20,fr15_c1).
body(r_fr6_20,fr6_c1).
body(r_fr6_20,fr6_e1).
body(r_fr6_20,fr6_e2).
body(r_fr6_20,fr22_d1).
body(r_fr6_20,fr22_a1).
head(r_fr6_21,fr6_q3).
body(r_fr6_21,fr6_d1).
body(r_fr6_21,fr6_e2).
body(r_fr6_21,fr3_x1).
body(r_fr6_21,fr6_u1).
body(r_fr6_21,fr6_v1).
body(r_fr6_21,fr25_y2).
head(r_fr6_22,fr6_q3).
body(r_fr6_22,fr6_y2).
head(r_fr6_23,fr6_q3).
body(r_fr6_23,fr6_a1).
body(r_fr6_23,fr6_d1).
body(r_fr6_23,fr11_v1).
body(r_fr6_23,fr6_r3).
body(r_fr6_23,fr8_s3).
body(r_fr6_23,fr6_u2).
head(r_fr6_24,fr6_q3).
body(r_fr6_24,fr6_a3).
body(r_fr6_24,fr6_c2).
body(r_fr6_24,fr6_t1).
body(r_fr6_24,fr8_s3).
body(r_fr6_24,fr6_v1).
head(r_fr6_25,fr6_q3).
body(r_fr6_25,fr6_c1).
body(r_fr6_25,fr6_d1).
body(r_fr6_25,fr6_e2).
body(r_fr6_25,fr22_a1).
head(r_fr6_26,fr6_q3).
body(r_fr6_26,fr17_r1).
head(r_fr6_27,fr6_q3).
body(r_fr6_27,fr6_a3).
body(r_fr6_27,fr15_c1).
body(r_fr6_27,fr6_b2).
body(r_fr6_27,fr6_c2).
body(r_fr6_27,fr6_r3).
body(r_fr6_27,fr6_u2).
head(r_fr6_28,fr6_q3).
head(r_fr6_29,fr6_q3).
body(r_fr6_29,fr6_a1).
head(r_fr6_30,fr25_y2).
body(r_fr6_30,fr6_e2).
body(r_fr6_30,fr11_v1).
body(r_fr6_30,fr6_t1).
body(r_fr6_30,fr8_s3).
head(r_fr6_31,fr25_y2).
body(r_fr6_31,fr6_b2).
body(r_fr6_31,fr6_t1).
body(r_fr6_31,fr6_u2).
head(r_fr6_32,fr25_y2).
body(r_fr6_32,fr6_e2).
body(r_fr6_32,fr6_p2).
body(r_fr6_32,fr6_p3).
body(r_fr6_32,fr6_s2).
body(r_fr6_32,fr6_u1).
head(r_fr6_33,fr25_y2).
body(r_fr6_33,fr6_a3).
body(r_fr6_33,fr17_e2).
body(r_fr6_33,fr6_d1).
body(r_fr6_33,fr6_d2).
body(r_fr6_33,fr6_e1).
body(r_fr6_33,fr22_a1).
head(r_fr6_34,fr25_y2).
body(r_fr6_34,fr8_p1).
head(r_fr6_35,fr25_y2).
body(r_fr6_35,fr6_a2).
body(r_fr6_35,fr6_c1).
body(r_fr6_35,fr6_c2).
body(r_fr6_35,fr6_d2).
body(r_fr6_35,fr22_a1).
head(r_fr6_36,fr25_y2).
body(r_fr6_36,fr6_a3).
head(r_fr6_37,fr25_y2).
body(r_fr6_37,fr17_e2).
body(r_fr6_37,fr6_e2).
body(r_fr6_37,fr6_q1).
body(r_fr6_37,fr6_q2).
body(r_fr6_37,fr6_s2).
body(r_fr6_37,fr6_v1).
head(r_fr6_38,fr25_y2).
body(r_fr6_38,fr6_c2).
body(r_fr6_38,fr6_s1).
body(r_fr6_38,fr6_w2).
body(r_fr6_38,fr6_y1).
head(r_fr6_39,fr25_y2).
body(r_fr6_39,fr6_a3).
body(r_fr6_39,fr6_e2).
body(r_fr6_39,fr22_a1).
body(r_fr6_39,fr6_q2).
head(r_fr6_40,fr25_y2).
body(r_fr6_40,fr15_c1).
body(r_fr6_40,fr17_e2).
body(r_fr6_40,fr8_p1).
head(r_fr6_41,fr25_y2).
body(r_fr6_41,fr6_p3).
body(r_fr6_41,fr6_s2).
body(r_fr6_41,fr6_y2).
head(r_fr6_42,fr25_y2).
body(r_fr6_42,fr6_a2).
body(r_fr6_42,fr8_p1).
head(r_fr6_43,fr25_y2).
body(r_fr6_43,fr15_c1).
body(r_fr6_43,fr6_e2).
body(r_fr6_43,fr22_a1).
body(r_fr6_43,fr6_r3).
body(r_fr6_43,fr8_s3).
body(r_fr6_43,fr6_v2).
head(r_fr6_44,fr25_y2).
body(r_fr6_44,fr6_q2).
body(r_fr6_44,fr6_s1).
body(r_fr6_44,fr6_t1).
body(r_fr6_44,fr6_v2).
body(r_fr6_44,fr6_x1).
body(r_fr6_44,fr6_y2).
head(r_fr6_45,fr25_y2).
body(r_fr6_45,fr6_a2).
body(r_fr6_45,fr15_c1).
body(r_fr6_45,fr6_b3).
body(r_fr6_45,fr6_c2).
body(r_fr6_45,fr22_d1).
head(r_fr6_46,fr25_y2).
body(r_fr6_46,fr6_c1).
body(r_fr6_46,fr6_d1).
body(r_fr6_46,fr6_u2).
body(r_fr6_46,fr6_x1).
body(r_fr6_46,fr25_w4).
head(r_fr6_47,fr3_x1).
body(r_fr6_47,fr22_d1).
head(r_fr6_48,fr3_x1).
body(r_fr6_48,fr6_b2).
body(r_fr6_48,fr6_u2).
head(r_fr6_49,fr3_x1).
body(r_fr6_49,fr6_a1).
body(r_fr6_49,fr6_b2).
body(r_fr6_49,fr22_a1).
body(r_fr6_49,fr6_q2).
body(r_fr6_49,fr6_s2).
head(r_fr6_50,fr3_x1).
body(r_fr6_50,fr6_c2).
body(r_fr6_50,fr6_t1).
head(r_fr6_51,fr3_x1).
body(r_fr6_51,fr6_e1).
body(r_fr6_51,fr22_d1).
body(r_fr6_51,fr6_p2).
body(r_fr6_51,fr6_t1).
body(r_fr6_51,fr8_p1).
body(r_fr6_51,fr6_y1).
head(r_fr6_52,fr3_x1).
body(r_fr6_52,fr6_b3).
body(r_fr6_52,fr6_p2).
body(r_fr6_52,fr6_s2).
body(r_fr6_52,fr8_p1).
head(r_fr6_53,fr3_x1).
body(r_fr6_53,fr6_a1).
body(r_fr6_53,fr6_p3).
head(r_fr6_54,fr3_x1).
body(r_fr6_54,fr6_e2).
body(r_fr6_54,fr6_p3).
body(r_fr6_54,fr17_r1).
body(r_fr6_54,fr6_r3).
body(r_fr6_54,fr6_s2).
body(r_fr6_54,fr6_y1).
head(r_fr6_55,fr3_x1).
body(r_fr6_55,fr6_v1).
head(r_fr6_56,fr3_x1).
body(r_fr6_56,fr6_a2).
body(r_fr6_56,fr6_c1).
head(r_fr6_57,fr3_x1).
body(r_fr6_57,fr6_a1).
body(r_fr6_57,fr17_e2).
body(r_fr6_57,fr6_p3).
body(r_fr6_57,fr6_y2).
head(r_fr6_58,fr3_x1).
body(r_fr6_58,fr6_y1).
head(r_fr6_59,fr3_x1).
head(r_fr6_60,fr3_x1).
body(r_fr6_60,fr6_a3).
head(r_fr6_61,fr8_p1).
body(r_fr6_61,fr17_r1).
body(r_fr6_61,fr6_s2).
body(r_fr6_61,fr25_w4).
head(r_fr6_62,fr8_p1).
body(r_fr6_62,fr6_c2).
body(r_fr6_62,fr6_y1).
head(r_fr6_63,fr8_p1).
body(r_fr6_63,fr6_a3).
body(r_fr6_63,fr6_e1).
body(r_fr6_63,fr6_w2).
body(r_fr6_63,fr25_w4).
head(r_fr6_64,fr8_p1).
body(r_fr6_64,fr22_d1).
body(r_fr6_64,fr8_s3).
body(r_fr6_64,fr6_x1).
head(r_fr6_65,fr8_p1).
body(r_fr6_65,fr6_a3).
body(r_fr6_65,fr6_e1).
body(r_fr6_65,fr6_e2).
body(r_fr6_65,fr11_v1).
body(r_fr6_65,fr6_u2).
head(r_fr6_66,fr8_p1).
body(r_fr6_66,fr6_e2).
head(r_fr6_67,fr8_p1).
body(r_fr6_67,fr15_c1).
body(r_fr6_67,fr17_e2).
body(r_fr6_67,fr6_d2).
body(r_fr6_67,fr22_a1).
body(r_fr6_67,fr17_r1).
head(r_fr6_68,fr8_p1).
body(r_fr6_68,fr6_b2).
body(r_fr6_68,fr6_w2).
body(r_fr6_68,fr6_x1).
head(r_fr6_69,fr8_p1).
body(r_fr6_69,fr15_c1).
head(r_fr6_70,fr8_p1).
body(r_fr6_70,fr22_a1).
head(r_fr6_71,fr8_p1).
body(r_fr6_71,fr22_d1).
body(r_fr6_71,fr6_t1).
head(r_fr6_72,fr8_p1).
body(r_fr6_72,fr6_e1).
body(r_fr6_72,fr6_p3).
body(r_fr6_72,fr6_t1).
head(r_fr6_73,fr8_p1).
body(r_fr6_73,fr6_u2).
head(r_fr6_74,fr8_p1).
body(r_fr6_74,fr6_b2).
head(r_fr6_75,fr8_p1).
head(r_fr6_76,fr8_p1).
body(r_fr6_76,fr6_c1).
body(r_fr6_76,fr6_v2).
body(r_fr6_76,fr6_x1).
head(r_fr6_77,fr6_q2).
body(r_fr6_77,fr6_a3).
body(r_fr6_77,fr15_c1).
body(r_fr6_77,fr6_e1).
body(r_fr6_77,fr22_d1).
body(r_fr6_77,fr6_r3).
head(r_fr6_78,fr6_q2).
body(r_fr6_78,fr6_p3).
body(r_fr6_78,fr6_x1).
body(r_fr6_78,fr6_y2).
head(r_fr6_79,fr6_q2).
body(r_fr6_79,fr17_r1).
body(r_fr6_79,fr6_s2).
body(r_fr6_79,fr8_s3).
body(r_fr6_79,fr6_u1).
body(r_fr6_79,fr6_y2).
head(r_fr6_80,fr6_q2).
body(r_fr6_80,fr6_a3).
body(r_fr6_80,fr6_e2).
body(r_fr6_80,fr6_v1).
body(r_fr6_80,fr6_y2).
head(r_fr6_81,fr6_q2).
body(r_fr6_81,fr6_s1).
body(r_fr6_81,fr8_s3).
body(r_fr6_81,fr6_x1).
head(r_fr6_82,fr6_q2).
body(r_fr6_82,fr6_s1).
body(r_fr6_82,fr6_x1).
head(r_fr6_83,fr6_q2).
body(r_fr6_83,fr6_a2).
body(r_fr6_83,fr6_c1).
body(r_fr6_83,fr6_c2).
body(r_fr6_83,fr22_a1).
head(r_fr6_84,fr6_q2).
body(r_fr6_84,fr17_e2).
body(r_fr6_84,fr6_e2).
head(r_fr6_85,fr6_q2).
body(r_fr6_85,fr6_e2).
head(r_fr6_86,fr6_q2).
body(r_fr6_86,fr6_a1).
body(r_fr6_86,fr6_s1).
body(r_fr6_86,fr8_s3).
body(r_fr6_86,fr6_u1).
body(r_fr6_86,fr25_w4).
body(r_fr6_86,fr6_y1).
head(r_fr6_87,fr6_q2).
body(r_fr6_87,fr6_a3).
body(r_fr6_87,fr15_c1).
body(r_fr6_87,fr8_s3).
body(r_fr6_87,fr6_u1).
body(r_fr6_87,fr6_v1).
head(r_fr6_88,fr6_q2).
body(r_fr6_88,fr15_c1).
body(r_fr6_88,fr6_d2).
body(r_fr6_88,fr22_d1).
body(r_fr6_88,fr22_a1).
body(r_fr6_88,fr6_v1).
head(r_fr6_89,fr6_q2).
body(r_fr6_89,fr6_b3).
body(r_fr6_89,fr6_c1).
body(r_fr6_89,fr6_q1).
body(r_fr6_89,fr17_r1).
body(r_fr6_89,fr6_w2).
head(r_fr6_90,fr6_q2).
body(r_fr6_90,fr6_v2).
head(r_fr6_91,fr6_q2).
body(r_fr6_91,fr6_a2).
body(r_fr6_91,fr6_p2).
body(r_fr6_91,fr6_t1).
head(r_fr6_92,fr6_x1).
body(r_fr6_92,fr17_e2).
body(r_fr6_92,fr6_p3).
body(r_fr6_92,fr6_s2).
head(r_fr6_93,fr6_x1).
body(r_fr6_93,fr11_v1).
body(r_fr6_93,fr6_q1).
body(r_fr6_93,fr8_s3).
body(r_fr6_93,fr6_u2).
head(r_fr6_94,fr6_x1).
body(r_fr6_94,fr6_e1).
body(r_fr6_94,fr6_v2).
head(r_fr6_95,fr6_x1).
body(r_fr6_95,fr6_a2).
body(r_fr6_95,fr6_e1).
body(r_fr6_95,fr6_r3).
body(r_fr6_95,fr6_s1).
body(r_fr6_95,fr6_u2).
body(r_fr6_95,fr6_v1).
head(r_fr6_96,fr6_x1).
body(r_fr6_96,fr6_p3).
body(r_fr6_96,fr6_r3).
body(r_fr6_96,fr6_s2).
body(r_fr6_96,fr6_u2).
body(r_fr6_96,fr6_w2).
body(r_fr6_96,fr25_w4).
head(r_fr6_97,fr6_x1).
body(r_fr6_97,fr6_a1).
body(r_fr6_97,fr6_a3).
body(r_fr6_97,fr6_c1).
body(r_fr6_97,fr6_d1).
body(r_fr6_97,fr6_d2).
body(r_fr6_97,fr22_d1).
head(r_fr6_98,fr6_x1).
body(r_fr6_98,fr6_a1).
body(r_fr6_98,fr6_b2).
body(r_fr6_98,fr6_c1).
body(r_fr6_98,fr6_c2).
body(r_fr6_98,fr6_d1).
body(r_fr6_98,fr11_v1).
head(r_fr6_99,fr6_x1).
body(r_fr6_99,fr25_w4).
head(r_fr6_100,fr6_x1).
body(r_fr6_100,fr6_q1).
body(r_fr6_100,fr6_v2).
head(r_fr6_101,fr6_x1).
body(r_fr6_101,fr6_q1).
body(r_fr6_101,fr6_s2).
body(r_fr6_101,fr6_t1).
body(r_fr6_101,fr6_u2).
head(r_fr6_102,fr6_x1).
body(r_fr6_102,fr15_c1).
body(r_fr6_102,fr6_b3).
body(r_fr6_102,fr6_d1).
body(r_fr6_102,fr6_d2).
body(r_fr6_102,fr6_e1).
body(r_fr6_102,fr6_e2).
head(r_fr6_103,fr6_x1).
body(r_fr6_103,fr6_a3).
body(r_fr6_103,fr6_q1).
body(r_fr6_103,fr6_s2).
head(r_fr6_104,fr6_x1).
body(r_fr6_104,fr15_c1).
body(r_fr6_104,fr6_b2).
body(r_fr6_104,fr6_c1).
body(r_fr6_104,fr6_e2).
body(r_fr6_104,fr6_v1).
head(r_fr6_105,fr6_x1).
body(r_fr6_105,fr6_d1).
body(r_fr6_105,fr22_a1).
head(r_fr6_106,fr6_x1).
head(r_fr6_107,fr6_x1).
body(r_fr6_107,fr11_v1).
head(r_fr6_108,fr6_u2).
body(r_fr6_108,fr15_c1).
body(r_fr6_108,fr6_b2).
body(r_fr6_108,fr6_c2).
body(r_fr6_108,fr17_e2).
body(r_fr6_108,fr22_a1).
head(r_fr6_109,fr6_u2).
body(r_fr6_109,fr6_e2).
body(r_fr6_109,fr17_r1).
body(r_fr6_109,fr6_s1).
body(r_fr6_109,fr6_t1).
body(r_fr6_109,fr6_v1).
body(r_fr6_109,fr6_y2).
head(r_fr6_110,fr6_u2).
body(r_fr6_110,fr6_c1).
body(r_fr6_110,fr22_d1).
head(r_fr6_111,fr6_u2).
body(r_fr6_111,fr8_s3).
body(r_fr6_111,fr6_y1).
head(r_fr6_112,fr6_u2).
body(r_fr6_112,fr6_s1).
head(r_fr6_113,fr6_u2).
body(r_fr6_113,fr22_d1).
body(r_fr6_113,fr6_s1).
body(r_fr6_113,fr6_s2).
head(r_fr6_114,fr6_u2).
body(r_fr6_114,fr6_b2).
body(r_fr6_114,fr6_e2).
head(r_fr6_115,fr6_u2).
body(r_fr6_115,fr6_d1).
head(r_fr6_116,fr6_u2).
body(r_fr6_116,fr22_d1).
body(r_fr6_116,fr6_p2).
body(r_fr6_116,fr6_w2).
head(r_fr6_117,fr6_u2).
body(r_fr6_117,fr6_b3).
body(r_fr6_117,fr6_d2).
body(r_fr6_117,fr6_q1).
body(r_fr6_117,fr6_u1).
body(r_fr6_117,fr6_v1).
head(r_fr6_118,fr6_u2).
body(r_fr6_118,fr15_c1).
body(r_fr6_118,fr6_d1).
body(r_fr6_118,fr22_d1).
head(r_fr6_119,fr6_u2).
body(r_fr6_119,fr15_c1).
body(r_fr6_119,fr17_e2).
head(r_fr6_120,fr6_u2).
body(r_fr6_120,fr6_a2).
body(r_fr6_120,fr6_p2).
body(r_fr6_120,fr6_r3).
body(r_fr6_120,fr6_v2).
head(r_fr6_121,fr6_u2).
head(r_fr6_122,fr6_u2).
body(r_fr6_122,fr6_p3).
body(r_fr6_122,fr17_r1).
head(r_fr6_123,fr6_u2).
body(r_fr6_123,fr6_c1).
body(r_fr6_123,fr6_c2).
body(r_fr6_123,fr6_y2).
head(r_fr6_124,fr6_y1).
body(r_fr6_124,fr6_a2).
body(r_fr6_124,fr6_b2).
body(r_fr6_124,fr6_e1).
body(r_fr6_124,fr8_s3).
body(r_fr6_124,fr6_v1).
body(r_fr6_124,fr6_y2).
head(r_fr6_125,fr6_y1).
body(r_fr6_125,fr6_a1).
body(r_fr6_125,fr15_c1).
body(r_fr6_125,fr6_c2).
body(r_fr6_125,fr6_d1).
body(r_fr6_125,fr6_e1).
body(r_fr6_125,fr6_e2).
head(r_fr6_126,fr6_y1).
body(r_fr6_126,fr6_c1).
body(r_fr6_126,fr17_e2).
body(r_fr6_126,fr6_d1).
head(r_fr6_127,fr6_y1).
body(r_fr6_127,fr6_b2).
body(r_fr6_127,fr6_c2).
body(r_fr6_127,fr17_e2).
body(r_fr6_127,fr6_d1).
head(r_fr6_128,fr6_y1).
body(r_fr6_128,fr6_a2).
body(r_fr6_128,fr6_a3).
body(r_fr6_128,fr6_c1).
body(r_fr6_128,fr6_d1).
body(r_fr6_128,fr22_d1).
body(r_fr6_128,fr22_a1).
head(r_fr6_129,fr6_y1).
body(r_fr6_129,fr6_a1).
body(r_fr6_129,fr6_p2).
body(r_fr6_129,fr6_v2).
head(r_fr6_130,fr6_y1).
body(r_fr6_130,fr22_a1).
head(r_fr6_131,fr6_y1).
head(r_fr6_132,fr6_y1).
body(r_fr6_132,fr6_a2).
body(r_fr6_132,fr6_d1).
body(r_fr6_132,fr11_v1).
body(r_fr6_132,fr6_p3).
body(r_fr6_132,fr8_s3).
head(r_fr6_133,fr6_y1).
body(r_fr6_133,fr6_u1).
body(r_fr6_133,fr6_w2).
head(r_fr6_134,fr6_y1).
body(r_fr6_134,fr6_p3).
body(r_fr6_134,fr6_u1).
body(r_fr6_134,fr25_w4).
head(r_fr6_135,fr6_y1).
body(r_fr6_135,fr6_e1).
head(r_fr6_136,fr6_y1).
body(r_fr6_136,fr15_c1).
body(r_fr6_136,fr6_b2).
body(r_fr6_136,fr6_e1).
body(r_fr6_136,fr22_a1).
body(r_fr6_136,fr6_t1).
body(r_fr6_136,fr25_w4).
head(r_fr6_137,fr6_y1).
body(r_fr6_137,fr11_v1).
body(r_fr6_137,fr6_t1).
head(r_fr6_138,fr6_v1).
body(r_fr6_138,fr6_b3).
body(r_fr6_138,fr6_d1).
body(r_fr6_138,fr22_a1).
body(r_fr6_138,fr6_s1).
head(r_fr6_139,fr6_v1).
body(r_fr6_139,fr6_d2).
head(r_fr6_140,fr6_v1).
body(r_fr6_140,fr22_d1).
head(r_fr6_141,fr6_v1).
body(r_fr6_141,fr6_a1).
body(r_fr6_141,fr6_b2).
body(r_fr6_141,fr6_r3).
head(r_fr6_142,fr6_v1).
body(r_fr6_142,fr11_v1).
body(r_fr6_142,fr6_p3).
body(r_fr6_142,fr6_q1).
body(r_fr6_142,fr6_s2).
body(r_fr6_142,fr6_v2).
head(r_fr6_143,fr6_v1).
body(r_fr6_143,fr22_a1).
head(r_fr6_144,fr6_v1).
body(r_fr6_144,fr8_s3).
head(r_fr6_145,fr6_v1).
body(r_fr6_145,fr6_a1).
body(r_fr6_145,fr6_p3).
body(r_fr6_145,fr6_v2).
head(r_fr6_146,fr6_v1).
body(r_fr6_146,fr22_d1).
body(r_fr6_146,fr17_r1).
head(r_fr6_147,fr6_v1).
body(r_fr6_147,fr6_c2).
body(r_fr6_147,fr6_d2).
head(r_fr6_148,fr6_v1).
body(r_fr6_148,fr6_a1).
body(r_fr6_148,fr15_c1).
body(r_fr6_148,fr6_e2).
body(r_fr6_148,fr17_r1).
body(r_fr6_148,fr6_u1).
head(r_fr6_149,fr6_v1).
head(r_fr6_150,fr6_v1).
body(r_fr6_150,fr6_p3).
head(r_fr6_151,fr6_v1).
body(r_fr6_151,fr6_a3).
body(r_fr6_151,fr6_c1).
body(r_fr6_151,fr6_d2).
body(r_fr6_151,fr6_e2).
body(r_fr6_151,fr6_s1).
head(r_fr6_152,fr6_s1).
body(r_fr6_152,fr6_p2).
body(r_fr6_152,fr8_s3).
body(r_fr6_152,fr6_u1).
head(r_fr6_153,fr6_s1).
body(r_fr6_153,fr6_a1).
body(r_fr6_153,fr6_a2).
body(r_fr6_153,fr6_b2).
body(r_fr6_153,fr6_e2).
body(r_fr6_153,fr22_d1).
head(r_fr6_154,fr6_s1).
body(r_fr6_154,fr6_u1).
head(r_fr6_155,fr6_s1).
body(r_fr6_155,fr6_a3).
body(r_fr6_155,fr15_c1).
body(r_fr6_155,fr6_c1).
body(r_fr6_155,fr6_r3).
body(r_fr6_155,fr6_v2).
body(r_fr6_155,fr25_w4).
head(r_fr6_156,fr6_s1).
body(r_fr6_156,fr22_a1).
head(r_fr6_157,fr6_s1).
body(r_fr6_157,fr6_b3).
head(r_fr6_158,fr6_s1).
body(r_fr6_158,fr6_c1).
body(r_fr6_158,fr11_v1).
body(r_fr6_158,fr6_u1).
body(r_fr6_158,fr6_v2).
body(r_fr6_158,fr25_w4).
head(r_fr6_159,fr6_s1).
head(r_fr6_160,fr6_s1).
body(r_fr6_160,fr6_p3).
body(r_fr6_160,fr6_r3).
body(r_fr6_160,fr6_v2).
head(r_fr6_161,fr6_s1).
body(r_fr6_161,fr6_c2).
body(r_fr6_161,fr22_a1).
body(r_fr6_161,fr6_w2).
body(r_fr6_161,fr25_w4).
head(r_fr6_162,fr6_s1).
body(r_fr6_162,fr6_c2).
head(r_fr6_163,fr6_s1).
body(r_fr6_163,fr6_b3).
body(r_fr6_163,fr17_e2).
body(r_fr6_163,fr6_d1).
body(r_fr6_163,fr22_a1).
body(r_fr6_163,fr6_p3).
body(r_fr6_163,fr8_s3).
head(r_fr6_164,fr6_s1).
body(r_fr6_164,fr17_r1).
body(r_fr6_164,fr6_t1).
body(r_fr6_164,fr8_s3).
body(r_fr6_164,fr6_u1).
head(r_fr6_165,fr6_s1).
body(r_fr6_165,fr6_a3).
head(r_fr6_166,fr6_s1).
body(r_fr6_166,fr6_a1).
body(r_fr6_166,fr22_d1).
body(r_fr6_166,fr6_p3).
head(r_fr6_167,fr6_s1).
body(r_fr6_167,fr6_p3).
head(r_fr6_168,fr8_s3).
body(r_fr6_168,fr6_q1).
body(r_fr6_168,fr6_r3).
body(r_fr6_168,fr6_t1).
body(r_fr6_168,fr6_u1).
body(r_fr6_168,fr6_w2).
head(r_fr6_169,fr8_s3).
body(r_fr6_169,fr22_d1).
body(r_fr6_169,fr6_q1).
body(r_fr6_169,fr17_r1).
body(r_fr6_169,fr6_u1).
body(r_fr6_169,fr6_v2).
body(r_fr6_169,fr25_w4).
head(r_fr6_170,fr8_s3).
body(r_fr6_170,fr6_a3).
body(r_fr6_170,fr6_d1).
body(r_fr6_170,fr17_r1).
body(r_fr6_170,fr6_r3).
body(r_fr6_170,fr6_s2).
head(r_fr6_171,fr8_s3).
body(r_fr6_171,fr22_d1).
body(r_fr6_171,fr6_p3).
body(r_fr6_171,fr17_r1).
body(r_fr6_171,fr25_w4).
head(r_fr6_172,fr8_s3).
body(r_fr6_172,fr6_b2).
body(r_fr6_172,fr6_d1).
body(r_fr6_172,fr6_e1).
body(r_fr6_172,fr22_d1).
body(r_fr6_172,fr17_r1).
body(r_fr6_172,fr6_r3).
head(r_fr6_173,fr8_s3).
body(r_fr6_173,fr6_b3).
body(r_fr6_173,fr6_d1).
body(r_fr6_173,fr22_a1).
body(r_fr6_173,fr6_q1).
body(r_fr6_173,fr17_r1).
head(r_fr6_174,fr8_s3).
body(r_fr6_174,fr6_d2).
head(r_fr6_175,fr8_s3).
body(r_fr6_175,fr6_d2).
body(r_fr6_175,fr6_e2).
body(r_fr6_175,fr22_a1).
body(r_fr6_175,fr6_u1).
body(r_fr6_175,fr6_w2).
body(r_fr6_175,fr25_w4).
head(r_fr6_176,fr8_s3).
body(r_fr6_176,fr6_q1).
body(r_fr6_176,fr6_t1).
body(r_fr6_176,fr25_w4).
head(r_fr6_177,fr8_s3).
body(r_fr6_177,fr6_p2).
head(r_fr6_178,fr8_s3).
body(r_fr6_178,fr22_d1).
body(r_fr6_178,fr6_p3).
body(r_fr6_178,fr6_y2).
head(r_fr6_179,fr8_s3).
body(r_fr6_179,fr6_a1).
body(r_fr6_179,fr6_p2).
body(r_fr6_179,fr6_p3).
body(r_fr6_179,fr6_s2).
body(r_fr6_179,fr6_t1).
body(r_fr6_179,fr6_u1).
head(r_fr6_180,fr8_s3).
body(r_fr6_180,fr6_e2).
body(r_fr6_180,fr6_q1).
body(r_fr6_180,fr6_r3).
body(r_fr6_180,fr6_w2).
head(r_fr6_181,fr8_s3).
head(r_fr6_182,fr6_w2).
body(r_fr6_182,fr6_e2).
body(r_fr6_182,fr6_s2).
body(r_fr6_182,fr6_t1).
body(r_fr6_182,fr6_y2).
head(r_fr6_183,fr6_w2).
body(r_fr6_183,fr6_a2).
body(r_fr6_183,fr6_a3).
body(r_fr6_183,fr6_b2).
body(r_fr6_183,fr6_c1).
body(r_fr6_183,fr17_e2).
body(r_fr6_183,fr22_d1).
head(r_fr6_184,fr6_w2).
body(r_fr6_184,fr6_c2).
head(r_fr6_185,fr6_w2).
body(r_fr6_185,fr6_e1).
body(r_fr6_185,fr6_p3).
body(r_fr6_185,fr6_r3).
body(r_fr6_185,fr6_y2).
head(r_fr6_186,fr6_w2).
body(r_fr6_186,fr22_d1).
body(r_fr6_186,fr11_v1).
body(r_fr6_186,fr6_p2).
body(r_fr6_186,fr6_p3).
head(r_fr6_187,fr6_w2).
body(r_fr6_187,fr6_a1).
body(r_fr6_187,fr6_p3).
body(r_fr6_187,fr25_w4).
body(r_fr6_187,fr6_y2).
head(r_fr6_188,fr6_w2).
body(r_fr6_188,fr15_c1).
body(r_fr6_188,fr22_d1).
body(r_fr6_188,fr22_a1).
body(r_fr6_188,fr11_v1).
body(r_fr6_188,fr6_q1).
body(r_fr6_188,fr17_r1).
head(r_fr6_189,fr6_w2).
body(r_fr6_189,fr15_c1).
body(r_fr6_189,fr6_b2).
body(r_fr6_189,fr6_c1).
body(r_fr6_189,fr6_c2).
body(r_fr6_189,fr6_d2).
body(r_fr6_189,fr6_e1).
head(r_fr6_190,fr6_w2).
body(r_fr6_190,fr6_a2).
body(r_fr6_190,fr6_s2).
body(r_fr6_190,fr6_v2).
head(r_fr6_191,fr6_w2).
body(r_fr6_191,fr6_b2).
body(r_fr6_191,fr17_e2).
body(r_fr6_191,fr22_a1).
body(r_fr6_191,fr6_p2).
body(r_fr6_191,fr6_p3).
body(r_fr6_191,fr6_s2).
head(r_fr6_192,fr6_w2).
body(r_fr6_192,fr6_a2).
body(r_fr6_192,fr22_d1).
body(r_fr6_192,fr11_v1).
body(r_fr6_192,fr25_w4).
head(r_fr6_193,fr6_w2).
body(r_fr6_193,fr6_a2).
body(r_fr6_193,fr6_b2).
body(r_fr6_193,fr6_c1).
body(r_fr6_193,fr6_c2).
body(r_fr6_193,fr6_e1).
body(r_fr6_193,fr22_d1).
head(r_fr6_194,fr6_w2).
body(r_fr6_194,fr22_a1).
body(r_fr6_194,fr6_p3).
body(r_fr6_194,fr6_s2).
body(r_fr6_194,fr6_t1).
body(r_fr6_194,fr6_u1).
body(r_fr6_194,fr6_y2).
head(r_fr6_195,fr6_w2).
body(r_fr6_195,fr6_p2).
body(r_fr6_195,fr6_q1).
body(r_fr6_195,fr6_r3).
body(r_fr6_195,fr6_s2).
body(r_fr6_195,fr6_u1).
body(r_fr6_195,fr6_v2).
head(r_fr6_196,fr6_w2).
body(r_fr6_196,fr6_a1).
body(r_fr6_196,fr15_c1).
body(r_fr6_196,fr6_d2).
body(r_fr6_196,fr22_a1).
body(r_fr6_196,fr17_r1).
head(r_fr6_197,fr6_w2).
body(r_fr6_197,fr6_a2).
body(r_fr6_197,fr6_b3).
body(r_fr6_197,fr6_c1).
head(r_fr6_198,fr6_r3).
body(r_fr6_198,fr6_b2).
body(r_fr6_198,fr6_p3).
head(r_fr6_199,fr6_r3).
body(r_fr6_199,fr6_p3).
head(r_fr6_200,fr6_r3).
body(r_fr6_200,fr17_e2).
body(r_fr6_200,fr6_d1).
body(r_fr6_200,fr6_t1).
head(r_fr6_201,fr6_r3).
body(r_fr6_201,fr22_a1).
body(r_fr6_201,fr6_t1).
head(r_fr6_202,fr6_r3).
body(r_fr6_202,fr6_a1).
body(r_fr6_202,fr6_e2).
body(r_fr6_202,fr25_w4).
head(r_fr6_203,fr6_r3).
body(r_fr6_203,fr6_u1).
head(r_fr6_204,fr6_r3).
body(r_fr6_204,fr6_s2).
head(r_fr6_205,fr6_r3).
body(r_fr6_205,fr6_a1).
body(r_fr6_205,fr22_a1).
body(r_fr6_205,fr6_p2).
body(r_fr6_205,fr6_p3).
body(r_fr6_205,fr6_v2).
head(r_fr6_206,fr6_r3).
head(r_fr6_207,fr6_r3).
body(r_fr6_207,fr6_a2).
body(r_fr6_207,fr22_a1).
body(r_fr6_207,fr6_q1).
head(r_fr6_208,fr6_r3).
body(r_fr6_208,fr6_b2).
body(r_fr6_208,fr6_c2).
body(r_fr6_208,fr17_e2).
body(r_fr6_208,fr6_d1).
body(r_fr6_208,fr22_d1).
head(r_fr6_209,fr6_r3).
body(r_fr6_209,fr6_a1).
body(r_fr6_209,fr6_a2).
body(r_fr6_209,fr6_c2).
head(r_fr6_210,fr6_r3).
body(r_fr6_210,fr6_q1).
body(r_fr6_210,fr17_r1).
body(r_fr6_210,fr6_v2).
head(r_fr6_211,fr6_r3).
body(r_fr6_211,fr6_a2).
body(r_fr6_211,fr6_a3).
body(r_fr6_211,fr6_b2).
body(r_fr6_211,fr6_e1).
body(r_fr6_211,fr6_e2).
body(r_fr6_211,fr6_p2).
head(r_fr6_212,fr6_r3).
body(r_fr6_212,fr6_y2).
head(r_fr6_213,fr6_r3).
body(r_fr6_213,fr6_a3).
body(r_fr6_213,fr6_b3).
body(r_fr6_213,fr6_q1).
body(r_fr6_213,fr6_t1).
body(r_fr6_213,fr6_u1).
head(r_fr6_214,fr6_r3).
body(r_fr6_214,fr15_c1).
body(r_fr6_214,fr17_e2).
head(r_fr6_215,fr25_w4).
body(r_fr6_215,fr6_d2).
body(r_fr6_215,fr6_t1).
head(r_fr6_216,fr25_w4).
body(r_fr6_216,fr6_s2).
body(r_fr6_216,fr6_y2).
head(r_fr6_217,fr25_w4).
body(r_fr6_217,fr11_v1).
head(r_fr6_218,fr25_w4).
body(r_fr6_218,fr6_p2).
head(r_fr6_219,fr25_w4).
body(r_fr6_219,fr6_y2).
head(r_fr6_220,fr25_w4).
body(r_fr6_220,fr6_p3).
body(r_fr6_220,fr6_q1).
head(r_fr6_221,fr25_w4).
body(r_fr6_221,fr15_c1).
body(r_fr6_221,fr6_b2).
head(r_fr6_222,fr25_w4).
body(r_fr6_222,fr6_e1).
head(r_fr6_223,fr25_w4).
body(r_fr6_223,fr6_p3).
body(r_fr6_223,fr6_u1).
head(r_fr6_224,fr25_w4).
body(r_fr6_224,fr6_a1).
body(r_fr6_224,fr17_r1).
head(r_fr6_225,fr25_w4).
body(r_fr6_225,fr6_d2).
head(r_fr6_226,fr25_w4).
body(r_fr6_226,fr6_q1).
head(r_fr6_227,fr25_w4).
body(r_fr6_227,fr6_a2).
body(r_fr6_227,fr6_b2).
body(r_fr6_227,fr17_r1).
body(r_fr6_227,fr6_y2).
head(r_fr6_228,fr25_w4).
head(r_fr6_229,fr25_w4).
body(r_fr6_229,fr6_p3).
head(r_fr6_230,fr6_u1).
body(r_fr6_230,fr6_e2).
body(r_fr6_230,fr6_p3).
body(r_fr6_230,fr6_v2).
head(r_fr6_231,fr6_u1).
body(r_fr6_231,fr6_a2).
body(r_fr6_231,fr6_d2).
body(r_fr6_231,fr22_d1).
head(r_fr6_232,fr6_u1).
body(r_fr6_232,fr6_b3).
body(r_fr6_232,fr6_d2).
body(r_fr6_232,fr6_e1).
body(r_fr6_232,fr22_d1).
body(r_fr6_232,fr22_a1).
head(r_fr6_233,fr6_u1).
body(r_fr6_233,fr6_e2).
body(r_fr6_233,fr11_v1).
body(r_fr6_233,fr6_p2).
body(r_fr6_233,fr6_v2).
head(r_fr6_234,fr6_u1).
body(r_fr6_234,fr6_p2).
body(r_fr6_234,fr6_s2).
head(r_fr6_235,fr6_u1).
body(r_fr6_235,fr6_a1).
body(r_fr6_235,fr6_d1).
head(r_fr6_236,fr6_u1).
body(r_fr6_236,fr6_c2).
body(r_fr6_236,fr6_p2).
body(r_fr6_236,fr17_r1).
body(r_fr6_236,fr6_v2).
head(r_fr6_237,fr6_u1).
body(r_fr6_237,fr11_v1).
head(r_fr6_238,fr6_u1).
body(r_fr6_238,fr6_c2).
body(r_fr6_238,fr11_v1).
body(r_fr6_238,fr6_v2).
head(r_fr6_239,fr6_u1).
body(r_fr6_239,fr11_v1).
body(r_fr6_239,fr6_q1).
head(r_fr6_240,fr6_u1).
body(r_fr6_240,fr6_c1).
body(r_fr6_240,fr6_p2).
body(r_fr6_240,fr6_q1).
body(r_fr6_240,fr6_s2).
body(r_fr6_240,fr6_t1).
body(r_fr6_240,fr6_v2).
head(r_fr6_241,fr6_u1).
body(r_fr6_241,fr6_e2).
body(r_fr6_241,fr6_p2).
body(r_fr6_241,fr6_p3).
body(r_fr6_241,fr6_q1).
body(r_fr6_241,fr6_t1).
body(r_fr6_241,fr6_v2).
head(r_fr6_242,fr6_u1).
body(r_fr6_242,fr6_s2).
head(r_fr6_243,fr6_u1).
head(r_fr6_244,fr6_p2).
body(r_fr6_244,fr11_v1).
body(r_fr6_244,fr6_q1).
body(r_fr6_244,fr17_r1).
body(r_fr6_244,fr6_s2).
body(r_fr6_244,fr6_t1).
body(r_fr6_244,fr6_y2).
head(r_fr6_245,fr6_p2).
body(r_fr6_245,fr15_c1).
body(r_fr6_245,fr22_a1).
body(r_fr6_245,fr11_v1).
body(r_fr6_245,fr6_p3).
body(r_fr6_245,fr6_s2).
body(r_fr6_245,fr6_t1).
head(r_fr6_246,fr6_p2).
body(r_fr6_246,fr6_y2).
head(r_fr6_247,fr6_p2).
body(r_fr6_247,fr6_e1).
body(r_fr6_247,fr6_e2).
body(r_fr6_247,fr22_d1).
body(r_fr6_247,fr6_p3).
body(r_fr6_247,fr6_s2).
body(r_fr6_247,fr6_y2).
head(r_fr6_248,fr6_p2).
body(r_fr6_248,fr15_c1).
body(r_fr6_248,fr6_b3).
body(r_fr6_248,fr6_c2).
body(r_fr6_248,fr17_e2).
body(r_fr6_248,fr6_d2).
body(r_fr6_248,fr6_e1).
head(r_fr6_249,fr6_p2).
body(r_fr6_249,fr6_b3).
body(r_fr6_249,fr22_d1).
body(r_fr6_249,fr6_s2).
head(r_fr6_250,fr6_p2).
head(r_fr6_251,fr6_p2).
body(r_fr6_251,fr6_p3).
body(r_fr6_251,fr6_s2).
head(r_fr6_252,fr6_p2).
body(r_fr6_252,fr17_e2).
body(r_fr6_252,fr22_d1).
head(r_fr6_253,fr6_p2).
body(r_fr6_253,fr17_r1).
body(r_fr6_253,fr6_s2).
head(r_fr6_254,fr6_p2).
body(r_fr6_254,fr15_c1).
body(r_fr6_254,fr6_b2).
body(r_fr6_254,fr6_d1).
body(r_fr6_254,fr11_v1).
body(r_fr6_254,fr6_s2).
head(r_fr6_255,fr6_p2).
body(r_fr6_255,fr6_s2).
body(r_fr6_255,fr6_t1).
head(r_fr6_256,fr6_p2).
body(r_fr6_256,fr6_a2).
body(r_fr6_256,fr6_b3).
body(r_fr6_256,fr17_r1).
body(r_fr6_256,fr6_t1).
body(r_fr6_256,fr6_v2).
body(r_fr6_256,fr6_y2).
head(r_fr6_257,fr6_p2).
body(r_fr6_257,fr11_v1).
body(r_fr6_257,fr6_q1).
body(r_fr6_257,fr6_s2).
body(r_fr6_257,fr6_t1).
body(r_fr6_257,fr6_v2).
body(r_fr6_257,fr6_y2).
head(r_fr6_258,fr6_p2).
body(r_fr6_258,fr6_b3).
head(r_fr6_259,fr6_p2).
body(r_fr6_259,fr6_a2).
body(r_fr6_259,fr6_c1).
body(r_fr6_259,fr6_e1).
body(r_fr6_259,fr22_a1).
body(r_fr6_259,fr6_s2).
body(r_fr6_259,fr6_v2).
head(r_fr6_260,fr6_q1).
body(r_fr6_260,fr15_c1).
body(r_fr6_260,fr11_v1).
body(r_fr6_260,fr6_p3).
body(r_fr6_260,fr17_r1).
body(r_fr6_260,fr6_s2).
body(r_fr6_260,fr6_v2).
head(r_fr6_261,fr6_q1).
body(r_fr6_261,fr15_c1).
body(r_fr6_261,fr6_b2).
body(r_fr6_261,fr6_c2).
body(r_fr6_261,fr6_d1).
body(r_fr6_261,fr6_d2).
body(r_fr6_261,fr6_t1).
head(r_fr6_262,fr6_q1).
body(r_fr6_262,fr6_b3).
body(r_fr6_262,fr17_e2).
body(r_fr6_262,fr22_a1).
body(r_fr6_262,fr6_p3).
body(r_fr6_262,fr6_v2).
head(r_fr6_263,fr6_q1).
body(r_fr6_263,fr6_d2).
body(r_fr6_263,fr22_a1).
head(r_fr6_264,fr6_q1).
body(r_fr6_264,fr15_c1).
head(r_fr6_265,fr6_q1).
body(r_fr6_265,fr11_v1).
body(r_fr6_265,fr6_p3).
body(r_fr6_265,fr17_r1).
body(r_fr6_265,fr6_s2).
body(r_fr6_265,fr6_y2).
head(r_fr6_266,fr6_q1).
head(r_fr6_267,fr6_q1).
body(r_fr6_267,fr6_y2).
head(r_fr6_268,fr6_q1).
body(r_fr6_268,fr6_c1).
head(r_fr6_269,fr6_q1).
body(r_fr6_269,fr11_v1).
body(r_fr6_269,fr6_p3).
head(r_fr6_270,fr6_q1).
body(r_fr6_270,fr11_v1).
body(r_fr6_270,fr6_p3).
body(r_fr6_270,fr17_r1).
body(r_fr6_270,fr6_s2).
body(r_fr6_270,fr6_t1).
body(r_fr6_270,fr6_v2).
head(r_fr6_271,fr6_q1).
body(r_fr6_271,fr6_c1).
body(r_fr6_271,fr17_e2).
body(r_fr6_271,fr6_s2).
head(r_fr6_272,fr6_q1).
body(r_fr6_272,fr6_a1).
body(r_fr6_272,fr6_c2).
head(r_fr6_273,fr6_q1).
body(r_fr6_273,fr6_c2).
body(r_fr6_273,fr17_e2).
body(r_fr6_273,fr6_e1).
body(r_fr6_273,fr6_e2).
head(r_fr6_274,fr17_r1).
body(r_fr6_274,fr6_d2).
body(r_fr6_274,fr6_p3).
body(r_fr6_274,fr6_y2).
head(r_fr6_275,fr17_r1).
body(r_fr6_275,fr17_e2).
body(r_fr6_275,fr6_d2).
head(r_fr6_276,fr17_r1).
body(r_fr6_276,fr11_v1).
body(r_fr6_276,fr6_p3).
body(r_fr6_276,fr6_v2).
body(r_fr6_276,fr6_y2).
head(r_fr6_277,fr17_r1).
body(r_fr6_277,fr15_c1).
body(r_fr6_277,fr6_b3).
body(r_fr6_277,fr17_e2).
body(r_fr6_277,fr6_d2).
body(r_fr6_277,fr6_e1).
body(r_fr6_277,fr22_a1).
head(r_fr6_278,fr17_r1).
body(r_fr6_278,fr6_a3).
body(r_fr6_278,fr6_e2).
head(r_fr6_279,fr17_r1).
body(r_fr6_279,fr6_a1).
head(r_fr6_280,fr17_r1).
body(r_fr6_280,fr6_s2).
body(r_fr6_280,fr6_v2).
head(r_fr6_281,fr17_r1).
body(r_fr6_281,fr11_v1).
head(r_fr6_282,fr17_r1).
body(r_fr6_282,fr6_v2).
body(r_fr6_282,fr6_y2).
head(r_fr6_283,fr17_r1).
body(r_fr6_283,fr6_v2).
head(r_fr6_284,fr17_r1).
body(r_fr6_284,fr6_a2).
body(r_fr6_284,fr6_a3).
body(r_fr6_284,fr11_v1).
head(r_fr6_285,fr17_r1).
body(r_fr6_285,fr17_e2).
head(r_fr6_286,fr17_r1).
body(r_fr6_286,fr6_c1).
body(r_fr6_286,fr6_d2).
body(r_fr6_286,fr6_s2).
body(r_fr6_286,fr6_v2).
head(r_fr6_287,fr17_r1).
body(r_fr6_287,fr6_a1).
body(r_fr6_287,fr6_a3).
body(r_fr6_287,fr15_c1).
body(r_fr6_287,fr6_b2).
body(r_fr6_287,fr6_d1).
body(r_fr6_287,fr22_a1).
head(r_fr6_288,fr17_r1).
body(r_fr6_288,fr6_c2).
head(r_fr6_289,fr17_r1).
head(r_fr6_290,fr17_r1).
body(r_fr6_290,fr6_d1).
head(r_fr6_291,fr6_y2).
body(r_fr6_291,fr15_c1).
body(r_fr6_291,fr6_b3).
body(r_fr6_291,fr6_c1).
body(r_fr6_291,fr6_e1).
head(r_fr6_292,fr6_y2).
body(r_fr6_292,fr17_e2).
body(r_fr6_292,fr22_a1).
body(r_fr6_292,fr6_p3).
head(r_fr6_293,fr6_y2).
body(r_fr6_293,fr6_v2).
head(r_fr6_294,fr6_y2).
body(r_fr6_294,fr6_b2).
body(r_fr6_294,fr6_c1).
body(r_fr6_294,fr22_a1).
body(r_fr6_294,fr11_v1).
head(r_fr6_295,fr6_y2).
body(r_fr6_295,fr6_a1).
body(r_fr6_295,fr6_b3).
body(r_fr6_295,fr11_v1).
body(r_fr6_295,fr6_p3).
body(r_fr6_295,fr6_s2).
body(r_fr6_295,fr6_t1).
head(r_fr6_296,fr6_y2).
head(r_fr6_297,fr6_y2).
body(r_fr6_297,fr6_a3).
body(r_fr6_297,fr6_b3).
body(r_fr6_297,fr6_c1).
body(r_fr6_297,fr17_e2).
body(r_fr6_297,fr6_t1).
body(r_fr6_297,fr6_v2).
head(r_fr6_298,fr6_y2).
body(r_fr6_298,fr6_a2).
body(r_fr6_298,fr15_c1).
body(r_fr6_298,fr6_c1).
body(r_fr6_298,fr6_e2).
body(r_fr6_298,fr6_t1).
body(r_fr6_298,fr6_v2).
head(r_fr6_299,fr6_y2).
body(r_fr6_299,fr6_b3).
body(r_fr6_299,fr6_c2).
body(r_fr6_299,fr6_d2).
body(r_fr6_299,fr22_a1).
body(r_fr6_299,fr6_s2).
body(r_fr6_299,fr6_t1).
head(r_fr6_300,fr6_y2).
body(r_fr6_300,fr6_b3).
body(r_fr6_300,fr6_c2).
body(r_fr6_300,fr11_v1).
body(r_fr6_300,fr6_p3).
body(r_fr6_300,fr6_v2).
head(r_fr6_301,fr6_y2).
body(r_fr6_301,fr6_c1).
body(r_fr6_301,fr17_e2).
body(r_fr6_301,fr11_v1).
head(r_fr6_302,fr6_y2).
body(r_fr6_302,fr11_v1).
body(r_fr6_302,fr6_p3).
body(r_fr6_302,fr6_s2).
body(r_fr6_302,fr6_t1).
body(r_fr6_302,fr6_v2).
head(r_fr6_303,fr6_y2).
body(r_fr6_303,fr6_d2).
body(r_fr6_303,fr6_p3).
head(r_fr6_304,fr6_y2).
body(r_fr6_304,fr6_d1).
body(r_fr6_304,fr22_a1).
head(r_fr6_305,fr6_y2).
body(r_fr6_305,fr6_d1).
head(r_fr6_306,fr6_y2).
body(r_fr6_306,fr6_c2).
body(r_fr6_306,fr11_v1).
body(r_fr6_306,fr6_p3).
body(r_fr6_306,fr6_t1).
body(r_fr6_306,fr6_v2).
head(r_fr6_307,fr6_y2).
body(r_fr6_307,fr11_v1).
body(r_fr6_307,fr6_s2).

assumption(fr7_a1).
assumption(fr7_b1).
assumption(fr7_c1).
assumption(fr7_d1).
assumption(fr7_e1).
assumption(fr7_f1).
assumption(fr19_c1).
assumption(fr7_b2).
assumption(fr7_c2).
assumption(fr7_d2).
assumption(fr7_e2).
assumption(fr7_f2).
assumption(fr22_d1).
assumption(fr7_b3).
assumption(fr7_c3).
assumption(fr7_d3).
assumption(fr7_e3).
assumption(fr7_f3).
assumption(fr7_a4).
assumption(fr7_b4).
assumption(fr7_c4).
assumption(fr7_d4).
assumption(fr7_e4).
assumption(fr7_f4).
assumption(fr7_a5).
assumption(fr7_b5).
assumption(fr7_c5).
assumption(fr8_a2).
assumption(fr7_e5).
assumption(fr22_a1).
assumption(fr7_a6).
assumption(fr7_b6).
assumption(fr7_c6).
contrary(fr7_a1,fr7_r2).
contrary(fr19_c1,fr7_c6).
contrary(fr22_d1,fr7_t5).
contrary(fr7_a4,fr7_x2).
contrary(fr7_a5,fr7_b4).
contrary(fr7_a6,fr7_e3).
contrary(fr7_b1,fr7_b2).
contrary(fr7_b2,fr7_b4).
contrary(fr7_b3,fr4_u2).
contrary(fr7_b4,fr7_r2).
contrary(fr7_b5,fr7_b3).
contrary(fr7_b6,fr7_f4).
contrary(fr7_c1,fr7_p1).
contrary(fr7_c2,fr8_a2).
contrary(fr7_c3,fr9_s3).
contrary(fr7_c4,fr7_x5).
contrary(fr7_c5,fr7_s1).
contrary(fr7_c6,fr7_c3).
contrary(fr7_d1,fr7_u5).
contrary(fr7_d2,fr8_q1).
contrary(fr7_d3,fr7_z5).
contrary(fr7_d4,fr7_d1).
contrary(fr8_a2,fr23_s1).
contrary(fr7_e1,fr7_e3).
contrary(fr7_e2,fr7_r3).
contrary(fr7_e3,fr7_s4).
contrary(fr7_e4,fr7_s2).
contrary(fr7_e5,fr7_b2).
contrary(fr7_f1,fr7_p3).
contrary(fr7_f2,fr7_b4).
contrary(fr7_f3,fr7_r4).
contrary(fr7_f4,fr7_w1).
contrary(fr22_a1,fr7_b2).
head(r_fr7_0,fr8_p3).
body(r_fr7_0,fr7_c2).
body(r_fr7_0,fr7_c3).
body(r_fr7_0,fr7_c6).
body(r_fr7_0,fr7_d2).
body(r_fr7_0,fr7_f4).
head(r_fr7_1,fr8_p3).
body(r_fr7_1,fr7_d4).
body(r_fr7_1,fr7_e2).
body(r_fr7_1,fr7_p3).
body(r_fr7_1,fr7_q4).
body(r_fr7_1,fr4_u2).
body(r_fr7_1,fr7_r3).
body(r_fr7_1,fr7_t2).
body(r_fr7_1,fr7_v4).
body(r_fr7_1,fr7_w1).
body(r_fr7_1,fr7_w3).
body(r_fr7_1,fr7_y2).
body(r_fr7_1,fr7_z2).
head(r_fr7_2,fr8_p3).
body(r_fr7_2,fr7_c5).
head(r_fr7_3,fr8_p3).
body(r_fr7_3,fr7_d1).
body(r_fr7_3,fr7_d2).
body(r_fr7_3,fr7_d3).
body(r_fr7_3,fr8_a2).
body(r_fr7_3,fr7_e4).
body(r_fr7_3,fr22_a1).
body(r_fr7_3,fr7_v5).
head(r_fr7_4,fr8_p3).
body(r_fr7_4,fr7_a1).
body(r_fr7_4,fr7_b2).
body(r_fr7_4,fr7_b3).
body(r_fr7_4,fr7_p1).
body(r_fr7_4,fr7_p2).
body(r_fr7_4,fr7_r2).
body(r_fr7_4,fr7_r3).
body(r_fr7_4,fr4_v3).
body(r_fr7_4,fr7_v2).
body(r_fr7_4,fr7_w1).
body(r_fr7_4,fr7_w2).
body(r_fr7_4,fr7_y3).
body(r_fr7_4,fr7_z1).
head(r_fr7_5,fr8_p3).
body(r_fr7_5,fr7_a1).
body(r_fr7_5,fr7_b1).
body(r_fr7_5,fr7_c6).
body(r_fr7_5,fr7_d2).
body(r_fr7_5,fr7_d4).
body(r_fr7_5,fr8_a2).
body(r_fr7_5,fr7_f3).
body(r_fr7_5,fr22_a1).
body(r_fr7_5,fr7_r1).
body(r_fr7_5,fr7_s5).
body(r_fr7_5,fr7_z2).
body(r_fr7_5,fr7_z4).
head(r_fr7_6,fr8_p3).
body(r_fr7_6,fr22_d1).
body(r_fr7_6,fr7_e5).
head(r_fr7_7,fr8_p3).
body(r_fr7_7,fr7_p2).
body(r_fr7_7,fr7_r5).
body(r_fr7_7,fr7_s1).
body(r_fr7_7,fr7_s5).
body(r_fr7_7,fr7_w1).
body(r_fr7_7,fr7_z4).
head(r_fr7_8,fr8_p3).
body(r_fr7_8,fr7_r5).
head(r_fr7_9,fr8_p3).
body(r_fr7_9,fr7_p2).
body(r_fr7_9,fr7_r1).
body(r_fr7_9,fr7_r5).
body(r_fr7_9,fr7_s2).
body(r_fr7_9,fr7_u1).
body(r_fr7_9,fr7_v5).
body(r_fr7_9,fr7_x4).
head(r_fr7_10,fr7_q2).
body(r_fr7_10,fr7_p1).
body(r_fr7_10,fr7_r2).
body(r_fr7_10,fr7_t2).
body(r_fr7_10,fr7_v4).
body(r_fr7_10,fr7_v5).
body(r_fr7_10,fr7_z2).
head(r_fr7_11,fr7_q2).
body(r_fr7_11,fr7_a1).
body(r_fr7_11,fr7_p2).
body(r_fr7_11,fr7_p4).
body(r_fr7_11,fr7_r4).
body(r_fr7_11,fr23_s1).
body(r_fr7_11,fr9_s3).
body(r_fr7_11,fr7_w1).
body(r_fr7_11,fr7_x1).
body(r_fr7_11,fr7_z1).
head(r_fr7_12,fr7_q2).
body(r_fr7_12,fr7_q4).
body(r_fr7_12,fr7_s1).
body(r_fr7_12,fr7_x5).
body(r_fr7_12,fr7_y4).
body(r_fr7_12,fr7_z2).
head(r_fr7_13,fr7_p4).
body(r_fr7_13,fr19_c1).
body(r_fr7_13,fr7_a5).
body(r_fr7_13,fr7_a6).
body(r_fr7_13,fr7_b1).
body(r_fr7_13,fr7_b5).
body(r_fr7_13,fr7_b6).
body(r_fr7_13,fr7_c4).
body(r_fr7_13,fr7_d2).
body(r_fr7_13,fr7_e2).
body(r_fr7_13,fr7_f1).
body(r_fr7_13,fr7_f3).
body(r_fr7_13,fr22_a1).
head(r_fr7_14,fr7_p4).
body(r_fr7_14,fr7_c3).
body(r_fr7_14,fr7_c5).
body(r_fr7_14,fr7_d3).
body(r_fr7_14,fr7_z1).
head(r_fr7_15,fr7_p4).
head(r_fr7_16,fr7_r3).
body(r_fr7_16,fr7_a6).
body(r_fr7_16,fr7_b6).
body(r_fr7_16,fr7_c3).
body(r_fr7_16,fr7_f2).
body(r_fr7_16,fr7_s3).
body(r_fr7_16,fr7_u5).
body(r_fr7_16,fr7_x1).
body(r_fr7_16,fr7_x3).
head(r_fr7_17,fr7_r3).
body(r_fr7_17,fr7_p2).
body(r_fr7_17,fr7_q3).
body(r_fr7_17,fr7_r4).
body(r_fr7_17,fr7_s2).
body(r_fr7_17,fr7_u2).
body(r_fr7_17,fr23_s1).
body(r_fr7_17,fr7_u5).
body(r_fr7_17,fr7_v1).
body(r_fr7_17,fr7_v5).
body(r_fr7_17,fr7_w2).
body(r_fr7_17,fr7_x3).
body(r_fr7_17,fr7_x5).
head(r_fr7_18,fr7_y2).
body(r_fr7_18,fr7_b5).
body(r_fr7_18,fr7_d2).
body(r_fr7_18,fr7_f3).
head(r_fr7_19,fr7_y2).
body(r_fr7_19,fr7_a1).
body(r_fr7_19,fr22_d1).
body(r_fr7_19,fr7_b3).
body(r_fr7_19,fr7_c2).
body(r_fr7_19,fr7_c6).
body(r_fr7_19,fr7_d2).
body(r_fr7_19,fr7_e2).
head(r_fr7_20,fr7_u3).
body(r_fr7_20,fr7_c1).
body(r_fr7_20,fr7_d3).
body(r_fr7_20,fr7_e2).
head(r_fr7_21,fr7_u3).
body(r_fr7_21,fr19_c1).
body(r_fr7_21,fr7_b5).
body(r_fr7_21,fr7_c4).
body(r_fr7_21,fr7_e1).
body(r_fr7_21,fr7_e2).
body(r_fr7_21,fr7_r4).
body(r_fr7_21,fr7_s4).
body(r_fr7_21,fr7_s5).
head(r_fr7_22,fr7_u3).
body(r_fr7_22,fr22_a1).
body(r_fr7_22,fr7_u1).
body(r_fr7_22,fr7_y4).
body(r_fr7_22,fr7_z1).
head(r_fr7_23,fr7_u3).
body(r_fr7_23,fr7_f4).
head(r_fr7_24,fr7_u3).
body(r_fr7_24,fr7_c5).
head(r_fr7_25,fr7_u3).
head(r_fr7_26,fr7_x5).
body(r_fr7_26,fr19_c1).
body(r_fr7_26,fr7_d2).
body(r_fr7_26,fr7_p5).
body(r_fr7_26,fr4_u2).
body(r_fr7_26,fr7_r2).
body(r_fr7_26,fr7_s4).
body(r_fr7_26,fr7_u1).
body(r_fr7_26,fr7_v2).
body(r_fr7_26,fr7_x4).
head(r_fr7_27,fr7_x5).
body(r_fr7_27,fr7_b6).
body(r_fr7_27,fr7_d1).
body(r_fr7_27,fr7_r2).
body(r_fr7_27,fr7_r4).
body(r_fr7_27,fr7_u1).
body(r_fr7_27,fr7_u5).
head(r_fr7_28,fr7_x5).
body(r_fr7_28,fr7_c1).
body(r_fr7_28,fr7_c4).
body(r_fr7_28,fr7_d1).
body(r_fr7_28,fr7_t2).
body(r_fr7_28,fr7_v5).
head(r_fr7_29,fr7_x5).
body(r_fr7_29,fr7_q3).
body(r_fr7_29,fr4_u2).
body(r_fr7_29,fr7_s4).
body(r_fr7_29,fr7_u5).
body(r_fr7_29,fr7_v2).
body(r_fr7_29,fr7_w5).
body(r_fr7_29,fr7_y1).
body(r_fr7_29,fr7_z2).
head(r_fr7_30,fr7_x5).
body(r_fr7_30,fr7_r4).
body(r_fr7_30,fr23_s1).
body(r_fr7_30,fr7_v2).
body(r_fr7_30,fr7_x4).
head(r_fr7_31,fr7_x5).
body(r_fr7_31,fr7_b3).
body(r_fr7_31,fr7_b4).
body(r_fr7_31,fr7_c6).
body(r_fr7_31,fr8_a2).
body(r_fr7_31,fr7_e1).
body(r_fr7_31,fr7_e4).
body(r_fr7_31,fr7_f1).
body(r_fr7_31,fr7_s1).
head(r_fr7_32,fr7_x5).
body(r_fr7_32,fr7_a4).
body(r_fr7_32,fr7_a5).
body(r_fr7_32,fr7_a6).
body(r_fr7_32,fr7_b3).
body(r_fr7_32,fr7_d1).
body(r_fr7_32,fr7_e1).
head(r_fr7_33,fr7_q4).
head(r_fr7_34,fr7_q4).
body(r_fr7_34,fr7_p2).
body(r_fr7_34,fr7_q1).
body(r_fr7_34,fr7_q3).
body(r_fr7_34,fr7_s1).
body(r_fr7_34,fr7_s5).
body(r_fr7_34,fr4_v3).
body(r_fr7_34,fr7_t2).
body(r_fr7_34,fr23_s1).
body(r_fr7_34,fr7_w3).
body(r_fr7_34,fr7_x1).
body(r_fr7_34,fr7_x3).
body(r_fr7_34,fr7_z5).
head(r_fr7_35,fr7_q4).
body(r_fr7_35,fr7_p2).
body(r_fr7_35,fr7_q1).
body(r_fr7_35,fr4_u2).
body(r_fr7_35,fr7_r1).
body(r_fr7_35,fr7_r4).
body(r_fr7_35,fr7_s5).
body(r_fr7_35,fr7_w3).
body(r_fr7_35,fr7_x4).
body(r_fr7_35,fr7_y3).
body(r_fr7_35,fr7_z1).
body(r_fr7_35,fr7_z4).
head(r_fr7_36,fr7_q4).
body(r_fr7_36,fr7_p3).
body(r_fr7_36,fr7_q3).
body(r_fr7_36,fr4_u2).
body(r_fr7_36,fr7_s1).
body(r_fr7_36,fr7_s2).
body(r_fr7_36,fr7_s3).
body(r_fr7_36,fr7_s4).
body(r_fr7_36,fr7_t2).
body(r_fr7_36,fr7_v2).
body(r_fr7_36,fr9_s3).
body(r_fr7_36,fr7_v5).
body(r_fr7_36,fr7_x2).
body(r_fr7_36,fr7_x3).
head(r_fr7_37,fr7_q4).
body(r_fr7_37,fr7_b1).
body(r_fr7_37,fr7_b5).
body(r_fr7_37,fr7_b6).
body(r_fr7_37,fr7_c5).
body(r_fr7_37,fr7_c6).
body(r_fr7_37,fr7_d2).
body(r_fr7_37,fr7_e1).
body(r_fr7_37,fr7_p1).
body(r_fr7_37,fr7_w2).
body(r_fr7_37,fr7_w5).
head(r_fr7_38,fr7_q4).
body(r_fr7_38,fr19_c1).
body(r_fr7_38,fr7_a6).
body(r_fr7_38,fr7_b4).
body(r_fr7_38,fr7_c5).
body(r_fr7_38,fr7_c6).
body(r_fr7_38,fr7_e3).
body(r_fr7_38,fr7_e4).
body(r_fr7_38,fr7_f1).
body(r_fr7_38,fr7_z5).
head(r_fr7_39,fr7_q4).
body(r_fr7_39,fr7_a1).
body(r_fr7_39,fr7_b1).
body(r_fr7_39,fr7_e3).
body(r_fr7_39,fr7_f1).
body(r_fr7_39,fr7_p2).
body(r_fr7_39,fr7_s2).
body(r_fr7_39,fr7_s5).
body(r_fr7_39,fr7_t2).
body(r_fr7_39,fr8_q1).
body(r_fr7_39,fr7_x4).
body(r_fr7_39,fr7_y1).
body(r_fr7_39,fr7_z2).
head(r_fr7_40,fr7_q4).
body(r_fr7_40,fr7_b1).
body(r_fr7_40,fr7_p1).
body(r_fr7_40,fr7_p3).
body(r_fr7_40,fr7_q1).
body(r_fr7_40,fr7_s2).
body(r_fr7_40,fr7_s3).
body(r_fr7_40,fr7_t5).
body(r_fr7_40,fr7_w4).
body(r_fr7_40,fr7_w5).
body(r_fr7_40,fr7_z1).
body(r_fr7_40,fr7_z2).
head(r_fr7_41,fr7_q4).
body(r_fr7_41,fr7_s1).
body(r_fr7_41,fr23_s1).
body(r_fr7_41,fr7_z4).
head(r_fr7_42,fr7_q4).
body(r_fr7_42,fr7_b1).
body(r_fr7_42,fr7_b5).
body(r_fr7_42,fr7_c1).
body(r_fr7_42,fr7_d3).
body(r_fr7_42,fr7_e3).
body(r_fr7_42,fr7_f2).
body(r_fr7_42,fr7_y1).
head(r_fr7_43,fr7_q4).
body(r_fr7_43,fr7_a5).
body(r_fr7_43,fr7_a6).
body(r_fr7_43,fr7_b2).
body(r_fr7_43,fr7_b5).
body(r_fr7_43,fr7_b6).
body(r_fr7_43,fr7_d3).
body(r_fr7_43,fr7_p5).
head(r_fr7_44,fr7_s1).
body(r_fr7_44,fr7_a4).
body(r_fr7_44,fr7_b1).
body(r_fr7_44,fr7_c2).
body(r_fr7_44,fr7_e4).
body(r_fr7_44,fr7_e5).
body(r_fr7_44,fr7_f1).
body(r_fr7_44,fr22_a1).
body(r_fr7_44,fr9_s3).
body(r_fr7_44,fr7_y1).
head(r_fr7_45,fr7_s1).
body(r_fr7_45,fr7_a5).
body(r_fr7_45,fr7_r2).
head(r_fr7_46,fr7_s1).
body(r_fr7_46,fr7_c6).
body(r_fr7_46,fr7_f2).
body(r_fr7_46,fr7_q1).
body(r_fr7_46,fr7_u2).
body(r_fr7_46,fr7_u5).
body(r_fr7_46,fr7_w5).
body(r_fr7_46,fr7_x4).
body(r_fr7_46,fr7_y3).
head(r_fr7_47,fr7_s1).
body(r_fr7_47,fr7_b2).
head(r_fr7_48,fr7_s1).
body(r_fr7_48,fr7_f1).
body(r_fr7_48,fr7_p3).
head(r_fr7_49,fr7_s1).
body(r_fr7_49,fr7_b1).
body(r_fr7_49,fr7_b3).
body(r_fr7_49,fr7_b6).
body(r_fr7_49,fr7_d3).
body(r_fr7_49,fr7_d4).
body(r_fr7_49,fr8_a2).
body(r_fr7_49,fr7_e1).
body(r_fr7_49,fr7_f3).
head(r_fr7_50,fr7_s1).
body(r_fr7_50,fr7_a4).
body(r_fr7_50,fr7_b2).
body(r_fr7_50,fr7_b3).
body(r_fr7_50,fr7_b4).
body(r_fr7_50,fr7_b6).
body(r_fr7_50,fr7_c1).
body(r_fr7_50,fr7_d4).
body(r_fr7_50,fr7_e2).
body(r_fr7_50,fr7_e3).
body(r_fr7_50,fr7_e4).
body(r_fr7_50,fr7_f4).
body(r_fr7_50,fr22_a1).
body(r_fr7_50,fr7_y3).
head(r_fr7_51,fr7_s1).
head(r_fr7_52,fr7_s1).
body(r_fr7_52,fr7_a4).
body(r_fr7_52,fr7_c6).
body(r_fr7_52,fr7_e4).
body(r_fr7_52,fr7_f1).
body(r_fr7_52,fr22_a1).
body(r_fr7_52,fr7_p3).
body(r_fr7_52,fr7_p5).
body(r_fr7_52,fr7_q1).
body(r_fr7_52,fr4_u2).
body(r_fr7_52,fr7_w3).
body(r_fr7_52,fr7_x2).
head(r_fr7_53,fr7_s1).
body(r_fr7_53,fr7_b2).
body(r_fr7_53,fr7_s5).
body(r_fr7_53,fr8_q1).
body(r_fr7_53,fr7_t4).
body(r_fr7_53,fr7_u5).
body(r_fr7_53,fr7_v5).
body(r_fr7_53,fr7_w2).
body(r_fr7_53,fr7_w4).
body(r_fr7_53,fr7_x1).
body(r_fr7_53,fr7_y3).
head(r_fr7_54,fr7_s1).
body(r_fr7_54,fr22_d1).
body(r_fr7_54,fr7_a5).
body(r_fr7_54,fr7_a6).
body(r_fr7_54,fr7_d2).
body(r_fr7_54,fr7_d3).
body(r_fr7_54,fr7_e1).
body(r_fr7_54,fr22_a1).
body(r_fr7_54,fr7_w1).
body(r_fr7_54,fr7_w3).
head(r_fr7_55,fr7_r5).
body(r_fr7_55,fr7_a1).
body(r_fr7_55,fr19_c1).
body(r_fr7_55,fr7_c4).
body(r_fr7_55,fr7_c6).
body(r_fr7_55,fr7_f4).
body(r_fr7_55,fr7_r1).
body(r_fr7_55,fr7_t4).
body(r_fr7_55,fr7_u5).
body(r_fr7_55,fr7_v1).
body(r_fr7_55,fr7_w2).
body(r_fr7_55,fr7_w4).
head(r_fr7_56,fr7_r5).
body(r_fr7_56,fr4_u2).
body(r_fr7_56,fr7_r1).
body(r_fr7_56,fr7_r4).
body(r_fr7_56,fr7_s5).
body(r_fr7_56,fr7_t5).
body(r_fr7_56,fr7_w4).
body(r_fr7_56,fr7_w5).
body(r_fr7_56,fr7_z1).
head(r_fr7_57,fr7_r5).
body(r_fr7_57,fr7_p2).
body(r_fr7_57,fr7_s4).
body(r_fr7_57,fr9_s3).
body(r_fr7_57,fr7_v5).
body(r_fr7_57,fr7_z1).
head(r_fr7_58,fr7_r5).
body(r_fr7_58,fr7_a4).
body(r_fr7_58,fr7_b3).
body(r_fr7_58,fr7_c6).
body(r_fr7_58,fr7_e1).
body(r_fr7_58,fr4_u2).
body(r_fr7_58,fr7_u5).
body(r_fr7_58,fr9_s3).
body(r_fr7_58,fr7_z2).
head(r_fr7_59,fr7_r5).
body(r_fr7_59,fr7_f1).
body(r_fr7_59,fr7_u2).
body(r_fr7_59,fr7_v4).
body(r_fr7_59,fr7_x1).
body(r_fr7_59,fr7_x4).
body(r_fr7_59,fr7_z1).
body(r_fr7_59,fr7_z5).
head(r_fr7_60,fr7_r5).
body(r_fr7_60,fr7_b1).
body(r_fr7_60,fr7_b2).
body(r_fr7_60,fr7_c1).
body(r_fr7_60,fr7_c3).
body(r_fr7_60,fr7_c6).
body(r_fr7_60,fr7_w2).
head(r_fr7_61,fr7_r5).
body(r_fr7_61,fr7_f2).
body(r_fr7_61,fr7_p2).
body(r_fr7_61,fr7_s4).
body(r_fr7_61,fr7_s5).
body(r_fr7_61,fr7_u1).
body(r_fr7_61,fr23_s1).
body(r_fr7_61,fr7_v1).
body(r_fr7_61,fr7_w2).
body(r_fr7_61,fr7_x1).
body(r_fr7_61,fr7_x2).
head(r_fr7_62,fr7_r5).
body(r_fr7_62,fr7_s5).
body(r_fr7_62,fr7_z2).
head(r_fr7_63,fr7_r5).
body(r_fr7_63,fr7_e3).
body(r_fr7_63,fr7_f1).
body(r_fr7_63,fr7_v4).
body(r_fr7_63,fr7_y4).
body(r_fr7_63,fr7_z2).
body(r_fr7_63,fr7_z1).
head(r_fr7_64,fr7_t2).
body(r_fr7_64,fr7_b1).
body(r_fr7_64,fr7_e4).
body(r_fr7_64,fr7_s2).
body(r_fr7_64,fr7_s3).
body(r_fr7_64,fr8_q1).
body(r_fr7_64,fr7_u2).
body(r_fr7_64,fr9_s3).
body(r_fr7_64,fr7_x3).
body(r_fr7_64,fr7_x4).
body(r_fr7_64,fr7_y3).
body(r_fr7_64,fr7_z1).
head(r_fr7_65,fr7_t2).
body(r_fr7_65,fr7_b6).
body(r_fr7_65,fr7_c1).
body(r_fr7_65,fr7_e3).
body(r_fr7_65,fr7_e5).
body(r_fr7_65,fr22_a1).
head(r_fr7_66,fr7_t2).
body(r_fr7_66,fr7_a5).
body(r_fr7_66,fr7_t5).
body(r_fr7_66,fr7_v5).
body(r_fr7_66,fr7_z1).
head(r_fr7_67,fr7_t2).
body(r_fr7_67,fr7_a6).
body(r_fr7_67,fr7_b4).
body(r_fr7_67,fr7_r4).
body(r_fr7_67,fr7_u1).
body(r_fr7_67,fr7_v1).
body(r_fr7_67,fr9_s3).
body(r_fr7_67,fr7_v5).
body(r_fr7_67,fr7_w3).
body(r_fr7_67,fr7_y1).
body(r_fr7_67,fr7_z1).
head(r_fr7_68,fr7_t2).
body(r_fr7_68,fr7_b2).
body(r_fr7_68,fr7_w3).
head(r_fr7_69,fr7_t2).
body(r_fr7_69,fr19_c1).
body(r_fr7_69,fr7_b2).
body(r_fr7_69,fr7_b5).
body(r_fr7_69,fr7_c3).
body(r_fr7_69,fr7_d3).
body(r_fr7_69,fr8_a2).
head(r_fr7_70,fr7_t2).
head(r_fr7_71,fr7_t2).
body(r_fr7_71,fr7_a1).
body(r_fr7_71,fr7_b4).
body(r_fr7_71,fr7_b5).
body(r_fr7_71,fr7_c2).
body(r_fr7_71,fr7_c3).
body(r_fr7_71,fr7_c5).
body(r_fr7_71,fr7_c6).
body(r_fr7_71,fr7_d2).
body(r_fr7_71,fr8_a2).
body(r_fr7_71,fr7_s4).
body(r_fr7_71,fr8_q1).
body(r_fr7_71,fr7_y1).
body(r_fr7_71,fr7_z1).
head(r_fr7_72,fr7_t2).
body(r_fr7_72,fr7_a5).
body(r_fr7_72,fr7_d3).
body(r_fr7_72,fr7_d4).
body(r_fr7_72,fr7_e3).
body(r_fr7_72,fr7_f3).
body(r_fr7_72,fr7_p5).
body(r_fr7_72,fr7_s2).
body(r_fr7_72,fr7_s4).
body(r_fr7_72,fr7_z1).
head(r_fr7_73,fr7_t2).
body(r_fr7_73,fr19_c1).
body(r_fr7_73,fr22_d1).
body(r_fr7_73,fr7_a5).
body(r_fr7_73,fr7_b4).
body(r_fr7_73,fr7_b6).
body(r_fr7_73,fr7_c2).
body(r_fr7_73,fr7_c5).
body(r_fr7_73,fr7_d3).
body(r_fr7_73,fr7_e1).
body(r_fr7_73,fr7_f2).
body(r_fr7_73,fr7_f3).
body(r_fr7_73,fr7_f4).
head(r_fr7_74,fr7_r4).
body(r_fr7_74,fr7_d1).
body(r_fr7_74,fr7_e2).
body(r_fr7_74,fr7_s2).
head(r_fr7_75,fr7_r4).
body(r_fr7_75,fr22_d1).
body(r_fr7_75,fr7_a5).
body(r_fr7_75,fr7_b5).
body(r_fr7_75,fr7_c5).
body(r_fr7_75,fr7_d1).
body(r_fr7_75,fr7_e2).
head(r_fr7_76,fr7_r4).
body(r_fr7_76,fr7_c1).
body(r_fr7_76,fr4_u2).
body(r_fr7_76,fr7_r2).
body(r_fr7_76,fr8_q1).
body(r_fr7_76,fr7_v1).
body(r_fr7_76,fr7_x1).
body(r_fr7_76,fr7_y1).
body(r_fr7_76,fr7_z1).
head(r_fr7_77,fr7_r4).
body(r_fr7_77,fr7_a5).
body(r_fr7_77,fr7_b5).
body(r_fr7_77,fr7_d2).
body(r_fr7_77,fr7_e1).
body(r_fr7_77,fr7_e4).
body(r_fr7_77,fr7_f3).
body(r_fr7_77,fr22_a1).
body(r_fr7_77,fr7_s2).
body(r_fr7_77,fr7_z4).
head(r_fr7_78,fr7_r4).
body(r_fr7_78,fr7_d1).
body(r_fr7_78,fr7_d2).
body(r_fr7_78,fr8_a2).
body(r_fr7_78,fr7_e2).
body(r_fr7_78,fr8_q1).
body(r_fr7_78,fr7_w4).
head(r_fr7_79,fr7_r4).
body(r_fr7_79,fr7_b4).
body(r_fr7_79,fr7_c1).
body(r_fr7_79,fr7_f3).
body(r_fr7_79,fr7_p2).
body(r_fr7_79,fr4_u2).
body(r_fr7_79,fr7_u2).
body(r_fr7_79,fr7_v4).
body(r_fr7_79,fr7_w3).
body(r_fr7_79,fr7_z4).
head(r_fr7_80,fr7_r4).
body(r_fr7_80,fr7_c1).
body(r_fr7_80,fr7_p2).
body(r_fr7_80,fr7_p3).
body(r_fr7_80,fr7_s2).
body(r_fr7_80,fr7_s3).
body(r_fr7_80,fr4_v3).
body(r_fr7_80,fr7_t4).
body(r_fr7_80,fr7_x3).
body(r_fr7_80,fr7_y1).
body(r_fr7_80,fr7_z1).
head(r_fr7_81,fr7_r4).
body(r_fr7_81,fr7_p3).
body(r_fr7_81,fr4_u2).
body(r_fr7_81,fr7_t5).
body(r_fr7_81,fr9_s3).
body(r_fr7_81,fr7_w2).
body(r_fr7_81,fr7_w5).
body(r_fr7_81,fr7_z2).
head(r_fr7_82,fr7_q1).
body(r_fr7_82,fr7_b5).
body(r_fr7_82,fr7_d4).
body(r_fr7_82,fr7_e1).
body(r_fr7_82,fr7_f2).
body(r_fr7_82,fr7_x1).
head(r_fr7_83,fr7_q1).
body(r_fr7_83,fr4_u2).
body(r_fr7_83,fr7_r2).
body(r_fr7_83,fr7_s4).
body(r_fr7_83,fr7_v4).
body(r_fr7_83,fr7_w1).
body(r_fr7_83,fr7_y3).
body(r_fr7_83,fr7_z2).
body(r_fr7_83,fr7_z4).
body(r_fr7_83,fr7_z5).
head(r_fr7_84,fr7_q1).
body(r_fr7_84,fr7_c2).
body(r_fr7_84,fr7_d1).
body(r_fr7_84,fr7_d2).
body(r_fr7_84,fr7_e3).
body(r_fr7_84,fr7_e5).
body(r_fr7_84,fr7_f1).
body(r_fr7_84,fr7_v4).
head(r_fr7_85,fr7_q1).
body(r_fr7_85,fr7_c5).
head(r_fr7_86,fr7_q1).
body(r_fr7_86,fr19_c1).
body(r_fr7_86,fr7_c3).
body(r_fr7_86,fr7_d3).
body(r_fr7_86,fr7_e3).
body(r_fr7_86,fr7_s3).
body(r_fr7_86,fr4_v3).
body(r_fr7_86,fr7_u1).
body(r_fr7_86,fr9_s3).
body(r_fr7_86,fr7_v4).
body(r_fr7_86,fr7_v5).
body(r_fr7_86,fr7_x1).
head(r_fr7_87,fr7_q1).
body(r_fr7_87,fr7_b5).
body(r_fr7_87,fr7_p1).
body(r_fr7_87,fr7_p5).
body(r_fr7_87,fr7_x4).
head(r_fr7_88,fr7_q1).
body(r_fr7_88,fr7_b4).
body(r_fr7_88,fr22_a1).
head(r_fr7_89,fr7_q1).
body(r_fr7_89,fr22_d1).
body(r_fr7_89,fr7_b1).
body(r_fr7_89,fr7_b6).
body(r_fr7_89,fr7_c6).
body(r_fr7_89,fr7_d3).
body(r_fr7_89,fr7_e1).
body(r_fr7_89,fr7_e3).
body(r_fr7_89,fr7_e4).
body(r_fr7_89,fr22_a1).
body(r_fr7_89,fr4_v3).
body(r_fr7_89,fr7_w5).
head(r_fr7_90,fr7_q1).
body(r_fr7_90,fr7_c1).
body(r_fr7_90,fr7_e1).
body(r_fr7_90,fr22_a1).
body(r_fr7_90,fr7_p1).
body(r_fr7_90,fr7_p3).
body(r_fr7_90,fr7_p5).
body(r_fr7_90,fr7_s5).
body(r_fr7_90,fr7_w3).
body(r_fr7_90,fr7_x3).
body(r_fr7_90,fr7_x4).
body(r_fr7_90,fr7_z5).
head(r_fr7_91,fr7_q1).
body(r_fr7_91,fr7_a4).
body(r_fr7_91,fr7_a6).
body(r_fr7_91,fr7_b1).
body(r_fr7_91,fr7_c1).
body(r_fr7_91,fr7_d1).
body(r_fr7_91,fr7_d2).
body(r_fr7_91,fr7_d3).
body(r_fr7_91,fr7_d4).
body(r_fr7_91,fr7_f4).
body(r_fr7_91,fr7_p3).
body(r_fr7_91,fr7_z2).
head(r_fr7_92,fr7_q1).
body(r_fr7_92,fr7_f3).
head(r_fr7_93,fr9_s3).
body(r_fr7_93,fr7_p1).
body(r_fr7_93,fr7_p2).
body(r_fr7_93,fr7_p5).
body(r_fr7_93,fr7_q3).
body(r_fr7_93,fr7_s2).
body(r_fr7_93,fr7_x4).
body(r_fr7_93,fr7_y4).
body(r_fr7_93,fr7_z2).
body(r_fr7_93,fr7_z2).
head(r_fr7_94,fr9_s3).
body(r_fr7_94,fr22_d1).
body(r_fr7_94,fr7_p2).
body(r_fr7_94,fr7_t4).
body(r_fr7_94,fr7_u1).
body(r_fr7_94,fr7_y1).
head(r_fr7_95,fr7_p1).
body(r_fr7_95,fr22_d1).
body(r_fr7_95,fr7_a6).
body(r_fr7_95,fr7_d1).
body(r_fr7_95,fr7_d4).
body(r_fr7_95,fr8_a2).
body(r_fr7_95,fr7_f2).
body(r_fr7_95,fr7_x2).
head(r_fr7_96,fr7_p1).
body(r_fr7_96,fr7_e5).
body(r_fr7_96,fr7_f3).
body(r_fr7_96,fr7_f4).
head(r_fr7_97,fr7_w5).
body(r_fr7_97,fr7_d3).
body(r_fr7_97,fr4_u2).
body(r_fr7_97,fr7_r1).
body(r_fr7_97,fr7_s4).
body(r_fr7_97,fr7_t5).
body(r_fr7_97,fr7_u2).
body(r_fr7_97,fr23_s1).
body(r_fr7_97,fr7_x2).
body(r_fr7_97,fr7_x4).
body(r_fr7_97,fr7_z2).
head(r_fr7_98,fr7_w5).
body(r_fr7_98,fr7_c2).
head(r_fr7_99,fr8_q1).
body(r_fr7_99,fr7_a1).
body(r_fr7_99,fr7_c3).
body(r_fr7_99,fr7_c6).
body(r_fr7_99,fr7_e3).
body(r_fr7_99,fr7_f3).
body(r_fr7_99,fr22_a1).
head(r_fr7_100,fr8_q1).
head(r_fr7_101,fr8_q1).
body(r_fr7_101,fr7_f3).
body(r_fr7_101,fr7_p3).
body(r_fr7_101,fr4_v3).
body(r_fr7_101,fr7_t4).
body(r_fr7_101,fr7_v1).
body(r_fr7_101,fr7_v4).
body(r_fr7_101,fr7_w4).
body(r_fr7_101,fr7_x2).
body(r_fr7_101,fr7_x3).
head(r_fr7_102,fr8_q1).
body(r_fr7_102,fr19_c1).
body(r_fr7_102,fr22_d1).
body(r_fr7_102,fr7_b3).
body(r_fr7_102,fr7_b4).
body(r_fr7_102,fr7_b5).
body(r_fr7_102,fr7_c3).
body(r_fr7_102,fr7_d3).
body(r_fr7_102,fr7_e5).
body(r_fr7_102,fr7_f2).
body(r_fr7_102,fr22_a1).
head(r_fr7_103,fr8_q1).
body(r_fr7_103,fr7_b6).
body(r_fr7_103,fr7_c3).
body(r_fr7_103,fr7_c6).
body(r_fr7_103,fr7_d1).
body(r_fr7_103,fr7_d3).
body(r_fr7_103,fr7_d4).
body(r_fr7_103,fr8_a2).
body(r_fr7_103,fr7_e1).
body(r_fr7_103,fr7_e2).
body(r_fr7_103,fr7_e5).
body(r_fr7_103,fr7_f1).
body(r_fr7_103,fr7_w1).
body(r_fr7_103,fr7_y1).
head(r_fr7_104,fr8_q1).
body(r_fr7_104,fr7_b3).
body(r_fr7_104,fr7_b6).
body(r_fr7_104,fr7_d1).
body(r_fr7_104,fr7_f2).
body(r_fr7_104,fr7_f4).
body(r_fr7_104,fr7_y1).
head(r_fr7_105,fr8_q1).
body(r_fr7_105,fr19_c1).
body(r_fr7_105,fr7_b4).
body(r_fr7_105,fr7_c1).
body(r_fr7_105,fr7_c2).
body(r_fr7_105,fr7_c3).
body(r_fr7_105,fr7_c4).
body(r_fr7_105,fr7_d1).
body(r_fr7_105,fr7_d2).
body(r_fr7_105,fr7_f3).
head(r_fr7_106,fr8_q1).
body(r_fr7_106,fr19_c1).
body(r_fr7_106,fr22_d1).
body(r_fr7_106,fr7_a4).
body(r_fr7_106,fr7_b3).
body(r_fr7_106,fr7_c3).
body(r_fr7_106,fr7_c4).
body(r_fr7_106,fr7_d2).
body(r_fr7_106,fr7_e5).
body(r_fr7_106,fr7_f2).
body(r_fr7_106,fr7_r1).
body(r_fr7_106,fr7_u1).
body(r_fr7_106,fr7_z2).
body(r_fr7_106,fr7_z5).
head(r_fr7_107,fr8_q1).
body(r_fr7_107,fr7_w2).
head(r_fr7_108,fr8_q1).
body(r_fr7_108,fr7_d1).
body(r_fr7_108,fr4_u2).
body(r_fr7_108,fr4_v3).
body(r_fr7_108,fr7_v5).
body(r_fr7_108,fr7_x3).
head(r_fr7_109,fr7_t4).
body(r_fr7_109,fr19_c1).
body(r_fr7_109,fr7_b5).
body(r_fr7_109,fr7_d4).
body(r_fr7_109,fr7_e4).
body(r_fr7_109,fr7_q3).
body(r_fr7_109,fr7_s2).
body(r_fr7_109,fr7_v2).
body(r_fr7_109,fr7_v4).
body(r_fr7_109,fr7_y1).
head(r_fr7_110,fr7_t4).
body(r_fr7_110,fr7_r1).
body(r_fr7_110,fr7_s4).
body(r_fr7_110,fr7_u2).
body(r_fr7_110,fr7_w3).
body(r_fr7_110,fr7_y4).
head(r_fr7_111,fr7_t4).
body(r_fr7_111,fr7_b1).
body(r_fr7_111,fr7_b5).
body(r_fr7_111,fr7_c2).
body(r_fr7_111,fr7_c3).
body(r_fr7_111,fr7_f3).
head(r_fr7_112,fr7_t4).
body(r_fr7_112,fr7_c1).
body(r_fr7_112,fr7_y3).
head(r_fr7_113,fr7_t4).
head(r_fr7_114,fr7_v5).
body(r_fr7_114,fr7_a5).
body(r_fr7_114,fr7_e4).
body(r_fr7_114,fr7_f4).
body(r_fr7_114,fr22_a1).
body(r_fr7_114,fr7_u1).
body(r_fr7_114,fr7_y3).
head(r_fr7_115,fr7_v5).
body(r_fr7_115,fr7_a4).
body(r_fr7_115,fr7_b6).
body(r_fr7_115,fr7_d2).
body(r_fr7_115,fr7_f2).
body(r_fr7_115,fr7_u2).
body(r_fr7_115,fr7_w3).
body(r_fr7_115,fr7_x3).
body(r_fr7_115,fr7_z5).
head(r_fr7_116,fr7_v5).
body(r_fr7_116,fr7_a4).
body(r_fr7_116,fr7_c1).
body(r_fr7_116,fr7_u2).
head(r_fr7_117,fr7_v5).
body(r_fr7_117,fr7_b3).
body(r_fr7_117,fr7_c2).
body(r_fr7_117,fr7_d4).
body(r_fr7_117,fr7_e5).
body(r_fr7_117,fr7_f3).
body(r_fr7_117,fr7_r1).
body(r_fr7_117,fr7_v2).
body(r_fr7_117,fr7_y3).
body(r_fr7_117,fr7_z2).
head(r_fr7_118,fr7_v5).
body(r_fr7_118,fr7_d4).
body(r_fr7_118,fr7_p5).
body(r_fr7_118,fr7_v2).
body(r_fr7_118,fr7_v4).
body(r_fr7_118,fr7_w1).
body(r_fr7_118,fr7_w4).
body(r_fr7_118,fr7_x4).
head(r_fr7_119,fr7_v5).
body(r_fr7_119,fr7_f2).
head(r_fr7_120,fr7_v5).
body(r_fr7_120,fr7_c5).
body(r_fr7_120,fr4_v3).
body(r_fr7_120,fr7_v1).
body(r_fr7_120,fr7_z1).
head(r_fr7_121,fr7_v5).
body(r_fr7_121,fr7_s5).
body(r_fr7_121,fr7_z1).
body(r_fr7_121,fr7_z5).
head(r_fr7_122,fr7_v4).
body(r_fr7_122,fr7_p2).
body(r_fr7_122,fr7_p3).
body(r_fr7_122,fr7_u2).
head(r_fr7_123,fr7_v4).
body(r_fr7_123,fr7_c4).
body(r_fr7_123,fr7_r1).
body(r_fr7_123,fr7_s2).
body(r_fr7_123,fr7_x3).
body(r_fr7_123,fr7_z5).
head(r_fr7_124,fr7_v4).
body(r_fr7_124,fr7_b5).
body(r_fr7_124,fr7_b6).
body(r_fr7_124,fr7_f3).
body(r_fr7_124,fr22_a1).
body(r_fr7_124,fr7_u5).
head(r_fr7_125,fr7_v4).
body(r_fr7_125,fr7_d3).
body(r_fr7_125,fr7_d4).
body(r_fr7_125,fr7_u1).
head(r_fr7_126,fr7_v4).
body(r_fr7_126,fr7_b3).
body(r_fr7_126,fr7_b4).
body(r_fr7_126,fr7_b5).
body(r_fr7_126,fr7_c6).
body(r_fr7_126,fr7_d4).
body(r_fr7_126,fr7_e1).
body(r_fr7_126,fr7_e3).
body(r_fr7_126,fr7_f1).
body(r_fr7_126,fr7_f2).
head(r_fr7_127,fr7_v4).
body(r_fr7_127,fr7_p5).
body(r_fr7_127,fr7_q3).
body(r_fr7_127,fr7_s4).
body(r_fr7_127,fr7_t5).
body(r_fr7_127,fr7_w1).
body(r_fr7_127,fr7_w2).
body(r_fr7_127,fr7_w4).
body(r_fr7_127,fr7_x2).
body(r_fr7_127,fr7_y4).
head(r_fr7_128,fr7_v4).
body(r_fr7_128,fr7_r1).
head(r_fr7_129,fr7_v4).
body(r_fr7_129,fr7_q3).
body(r_fr7_129,fr7_s2).
body(r_fr7_129,fr7_t5).
body(r_fr7_129,fr7_u2).
body(r_fr7_129,fr7_u5).
body(r_fr7_129,fr7_v2).
body(r_fr7_129,fr7_w2).
body(r_fr7_129,fr7_w3).
body(r_fr7_129,fr7_y1).
body(r_fr7_129,fr7_z4).
head(r_fr7_130,fr7_u1).
body(r_fr7_130,fr7_e3).
body(r_fr7_130,fr7_x2).
head(r_fr7_131,fr7_u1).
body(r_fr7_131,fr7_f1).
body(r_fr7_131,fr7_p2).
body(r_fr7_131,fr7_p5).
body(r_fr7_131,fr7_s2).
head(r_fr7_132,fr7_u1).
body(r_fr7_132,fr7_b6).
body(r_fr7_132,fr7_s4).
body(r_fr7_132,fr7_z5).
head(r_fr7_133,fr7_u1).
body(r_fr7_133,fr7_a1).
body(r_fr7_133,fr7_a5).
body(r_fr7_133,fr7_b5).
body(r_fr7_133,fr7_c3).
body(r_fr7_133,fr7_d4).
body(r_fr7_133,fr7_x2).
head(r_fr7_134,fr7_u1).
body(r_fr7_134,fr22_a1).
head(r_fr7_135,fr7_u1).
body(r_fr7_135,fr7_a4).
body(r_fr7_135,fr7_b5).
body(r_fr7_135,fr7_p5).
body(r_fr7_135,fr7_s2).
body(r_fr7_135,fr7_u5).
head(r_fr7_136,fr7_u1).
body(r_fr7_136,fr22_d1).
body(r_fr7_136,fr7_b2).
body(r_fr7_136,fr7_e3).
body(r_fr7_136,fr7_f3).
body(r_fr7_136,fr7_f4).
body(r_fr7_136,fr7_v2).
head(r_fr7_137,fr7_u1).
body(r_fr7_137,fr7_b5).
body(r_fr7_137,fr7_d1).
body(r_fr7_137,fr8_a2).
body(r_fr7_137,fr7_e1).
body(r_fr7_137,fr7_e5).
body(r_fr7_137,fr22_a1).
body(r_fr7_137,fr7_p2).
body(r_fr7_137,fr7_v2).
body(r_fr7_137,fr7_w3).
body(r_fr7_137,fr7_x2).
body(r_fr7_137,fr7_y4).
body(r_fr7_137,fr7_z2).
body(r_fr7_137,fr7_z5).
head(r_fr7_138,fr7_u1).
body(r_fr7_138,fr22_d1).
body(r_fr7_138,fr7_f3).
body(r_fr7_138,fr7_v1).
head(r_fr7_139,fr7_u1).
body(r_fr7_139,fr22_d1).
body(r_fr7_139,fr7_a5).
body(r_fr7_139,fr7_b1).
body(r_fr7_139,fr7_c6).
body(r_fr7_139,fr8_a2).
body(r_fr7_139,fr7_e2).
body(r_fr7_139,fr7_f2).
body(r_fr7_139,fr7_p3).
body(r_fr7_139,fr4_u2).
body(r_fr7_139,fr7_r1).
body(r_fr7_139,fr7_s4).
body(r_fr7_139,fr7_w2).
body(r_fr7_139,fr7_z5).
head(r_fr7_140,fr7_x4).
body(r_fr7_140,fr7_d1).
body(r_fr7_140,fr7_p3).
body(r_fr7_140,fr23_s1).
body(r_fr7_140,fr7_u5).
body(r_fr7_140,fr7_w1).
body(r_fr7_140,fr7_w2).
body(r_fr7_140,fr7_x2).
body(r_fr7_140,fr7_z2).
head(r_fr7_141,fr7_x4).
body(r_fr7_141,fr7_c1).
body(r_fr7_141,fr22_a1).
head(r_fr7_142,fr7_x4).
body(r_fr7_142,fr7_e4).
body(r_fr7_142,fr7_q3).
body(r_fr7_142,fr7_r2).
body(r_fr7_142,fr7_s4).
body(r_fr7_142,fr7_z1).
body(r_fr7_142,fr7_z2).
head(r_fr7_143,fr7_w3).
body(r_fr7_143,fr7_a6).
body(r_fr7_143,fr7_b2).
body(r_fr7_143,fr7_b5).
body(r_fr7_143,fr7_c2).
body(r_fr7_143,fr7_c4).
body(r_fr7_143,fr7_c6).
body(r_fr7_143,fr8_a2).
body(r_fr7_143,fr7_e1).
body(r_fr7_143,fr7_e5).
body(r_fr7_143,fr4_v3).
body(r_fr7_143,fr7_w4).
head(r_fr7_144,fr7_w3).
body(r_fr7_144,fr7_a6).
body(r_fr7_144,fr7_b2).
body(r_fr7_144,fr7_c6).
body(r_fr7_144,fr7_d4).
body(r_fr7_144,fr7_f2).
body(r_fr7_144,fr7_r2).
body(r_fr7_144,fr7_s4).
body(r_fr7_144,fr7_u2).
head(r_fr7_145,fr7_w3).
body(r_fr7_145,fr7_a1).
body(r_fr7_145,fr7_b4).
body(r_fr7_145,fr7_b6).
body(r_fr7_145,fr7_c3).
body(r_fr7_145,fr7_c5).
body(r_fr7_145,fr7_e3).
body(r_fr7_145,fr7_f2).
body(r_fr7_145,fr7_f4).
body(r_fr7_145,fr7_w4).
head(r_fr7_146,fr7_w3).
body(r_fr7_146,fr7_a5).
body(r_fr7_146,fr7_b6).
body(r_fr7_146,fr7_c2).
body(r_fr7_146,fr7_c3).
body(r_fr7_146,fr7_c5).
body(r_fr7_146,fr7_c6).
body(r_fr7_146,fr7_d1).
body(r_fr7_146,fr7_d3).
body(r_fr7_146,fr7_d4).
body(r_fr7_146,fr7_f1).
body(r_fr7_146,fr7_f2).
body(r_fr7_146,fr7_f4).
head(r_fr7_147,fr7_w3).
body(r_fr7_147,fr7_a1).
body(r_fr7_147,fr7_b2).
body(r_fr7_147,fr7_b3).
body(r_fr7_147,fr7_b4).
body(r_fr7_147,fr7_d4).
body(r_fr7_147,fr8_a2).
body(r_fr7_147,fr7_e4).
body(r_fr7_147,fr7_e5).
body(r_fr7_147,fr7_f1).
body(r_fr7_147,fr4_u2).
head(r_fr7_148,fr7_w3).
body(r_fr7_148,fr7_a5).
body(r_fr7_148,fr7_b5).
body(r_fr7_148,fr7_d1).
body(r_fr7_148,fr7_d2).
body(r_fr7_148,fr7_s5).
body(r_fr7_148,fr7_v2).
body(r_fr7_148,fr7_z4).
head(r_fr7_149,fr7_w3).
body(r_fr7_149,fr7_a5).
body(r_fr7_149,fr7_b6).
body(r_fr7_149,fr7_c5).
body(r_fr7_149,fr7_r2).
body(r_fr7_149,fr7_s4).
body(r_fr7_149,fr7_v1).
body(r_fr7_149,fr7_z1).
head(r_fr7_150,fr7_w3).
body(r_fr7_150,fr22_d1).
body(r_fr7_150,fr7_b3).
body(r_fr7_150,fr7_b4).
body(r_fr7_150,fr7_b5).
body(r_fr7_150,fr7_d4).
body(r_fr7_150,fr7_f2).
body(r_fr7_150,fr7_f3).
body(r_fr7_150,fr7_p5).
body(r_fr7_150,fr7_q3).
body(r_fr7_150,fr4_v3).
body(r_fr7_150,fr7_y1).
head(r_fr7_151,fr7_w3).
body(r_fr7_151,fr7_b4).
body(r_fr7_151,fr7_c5).
body(r_fr7_151,fr8_a2).
body(r_fr7_151,fr7_e3).
body(r_fr7_151,fr7_p3).
body(r_fr7_151,fr7_r2).
body(r_fr7_151,fr7_s5).
body(r_fr7_151,fr23_s1).
body(r_fr7_151,fr7_u5).
body(r_fr7_151,fr7_v1).
head(r_fr7_152,fr7_w3).
head(r_fr7_153,fr7_w3).
body(r_fr7_153,fr7_a6).
body(r_fr7_153,fr7_b1).
body(r_fr7_153,fr7_d1).
body(r_fr7_153,fr7_q3).
body(r_fr7_153,fr7_t5).
body(r_fr7_153,fr7_u2).
body(r_fr7_153,fr23_s1).
body(r_fr7_153,fr7_w2).
body(r_fr7_153,fr7_y1).
body(r_fr7_153,fr7_z1).
body(r_fr7_153,fr7_z2).
body(r_fr7_153,fr7_z5).
head(r_fr7_154,fr7_w1).
body(r_fr7_154,fr7_a6).
body(r_fr7_154,fr7_z4).
head(r_fr7_155,fr7_w1).
head(r_fr7_156,fr7_w1).
body(r_fr7_156,fr7_d3).
body(r_fr7_156,fr7_e4).
body(r_fr7_156,fr7_p5).
body(r_fr7_156,fr7_s5).
body(r_fr7_156,fr4_v3).
body(r_fr7_156,fr7_x3).
head(r_fr7_157,fr7_w1).
body(r_fr7_157,fr7_a1).
body(r_fr7_157,fr19_c1).
body(r_fr7_157,fr7_a6).
body(r_fr7_157,fr7_b2).
body(r_fr7_157,fr7_b3).
body(r_fr7_157,fr7_c1).
body(r_fr7_157,fr7_c2).
body(r_fr7_157,fr7_d2).
body(r_fr7_157,fr7_d3).
body(r_fr7_157,fr7_d4).
body(r_fr7_157,fr7_e2).
body(r_fr7_157,fr7_f3).
body(r_fr7_157,fr4_u2).
head(r_fr7_158,fr7_w1).
body(r_fr7_158,fr7_b4).
body(r_fr7_158,fr7_e2).
body(r_fr7_158,fr7_p3).
body(r_fr7_158,fr7_p5).
body(r_fr7_158,fr7_r1).
body(r_fr7_158,fr7_r2).
body(r_fr7_158,fr7_s4).
body(r_fr7_158,fr7_s5).
body(r_fr7_158,fr7_w2).
body(r_fr7_158,fr7_w4).
body(r_fr7_158,fr7_x1).
body(r_fr7_158,fr7_y4).
body(r_fr7_158,fr7_z4).
head(r_fr7_159,fr7_w1).
body(r_fr7_159,fr7_a4).
body(r_fr7_159,fr7_b3).
body(r_fr7_159,fr7_b4).
body(r_fr7_159,fr7_b6).
body(r_fr7_159,fr7_c1).
body(r_fr7_159,fr7_d3).
body(r_fr7_159,fr7_d4).
body(r_fr7_159,fr7_e1).
body(r_fr7_159,fr7_e4).
body(r_fr7_159,fr7_f1).
body(r_fr7_159,fr7_f4).
head(r_fr7_160,fr7_w1).
body(r_fr7_160,fr7_q3).
body(r_fr7_160,fr7_s2).
body(r_fr7_160,fr7_s4).
body(r_fr7_160,fr4_v3).
body(r_fr7_160,fr7_v1).
body(r_fr7_160,fr7_w2).
body(r_fr7_160,fr7_y3).
body(r_fr7_160,fr7_y4).
body(r_fr7_160,fr7_z4).
head(r_fr7_161,fr7_w1).
body(r_fr7_161,fr8_a2).
body(r_fr7_161,fr7_e5).
body(r_fr7_161,fr7_f4).
body(r_fr7_161,fr7_s4).
body(r_fr7_161,fr7_v1).
body(r_fr7_161,fr7_x1).
head(r_fr7_162,fr7_w1).
body(r_fr7_162,fr7_a4).
body(r_fr7_162,fr7_b2).
body(r_fr7_162,fr7_d1).
body(r_fr7_162,fr7_e1).
body(r_fr7_162,fr7_e3).
body(r_fr7_162,fr7_e5).
body(r_fr7_162,fr7_f1).
body(r_fr7_162,fr7_f2).
head(r_fr7_163,fr7_w1).
body(r_fr7_163,fr7_c5).
body(r_fr7_163,fr7_e5).
body(r_fr7_163,fr7_p2).
body(r_fr7_163,fr7_r2).
body(r_fr7_163,fr7_t5).
body(r_fr7_163,fr23_s1).
body(r_fr7_163,fr7_u5).
body(r_fr7_163,fr7_x1).
body(r_fr7_163,fr7_x3).
body(r_fr7_163,fr7_y1).
body(r_fr7_163,fr7_z4).
head(r_fr7_164,fr7_z2).
body(r_fr7_164,fr7_a4).
body(r_fr7_164,fr7_a6).
body(r_fr7_164,fr7_b1).
body(r_fr7_164,fr7_b2).
body(r_fr7_164,fr7_b4).
body(r_fr7_164,fr7_c6).
body(r_fr7_164,fr7_d3).
body(r_fr7_164,fr7_e3).
body(r_fr7_164,fr7_e4).
body(r_fr7_164,fr7_f3).
head(r_fr7_165,fr7_z2).
body(r_fr7_165,fr7_b1).
body(r_fr7_165,fr7_f4).
body(r_fr7_165,fr7_p5).
body(r_fr7_165,fr7_s3).
body(r_fr7_165,fr7_u2).
body(r_fr7_165,fr7_w4).
body(r_fr7_165,fr7_x3).
head(r_fr7_166,fr7_z2).
body(r_fr7_166,fr19_c1).
body(r_fr7_166,fr7_b2).
body(r_fr7_166,fr7_b6).
body(r_fr7_166,fr7_c6).
body(r_fr7_166,fr7_x2).
body(r_fr7_166,fr7_z5).
head(r_fr7_167,fr7_z2).
body(r_fr7_167,fr7_z4).
head(r_fr7_168,fr7_z2).
body(r_fr7_168,fr7_c5).
body(r_fr7_168,fr7_c6).
body(r_fr7_168,fr7_d1).
body(r_fr7_168,fr7_p2).
body(r_fr7_168,fr7_p5).
body(r_fr7_168,fr7_r2).
body(r_fr7_168,fr7_w2).
body(r_fr7_168,fr7_y3).
head(r_fr7_169,fr7_z2).
body(r_fr7_169,fr7_a1).
body(r_fr7_169,fr22_d1).
body(r_fr7_169,fr7_a5).
body(r_fr7_169,fr7_b6).
body(r_fr7_169,fr7_c2).
body(r_fr7_169,fr7_c6).
body(r_fr7_169,fr7_d2).
body(r_fr7_169,fr7_d3).
body(r_fr7_169,fr7_d4).
body(r_fr7_169,fr7_e5).
body(r_fr7_169,fr7_f2).
body(r_fr7_169,fr7_p3).
body(r_fr7_169,fr7_r2).
head(r_fr7_170,fr7_s2).
body(r_fr7_170,fr7_c6).
body(r_fr7_170,fr8_a2).
body(r_fr7_170,fr7_q3).
head(r_fr7_171,fr7_s2).
body(r_fr7_171,fr22_d1).
body(r_fr7_171,fr7_b1).
body(r_fr7_171,fr7_x3).
head(r_fr7_172,fr7_s2).
head(r_fr7_173,fr7_s2).
body(r_fr7_173,fr4_u2).
body(r_fr7_173,fr7_r1).
body(r_fr7_173,fr7_y4).
head(r_fr7_174,fr7_s2).
body(r_fr7_174,fr7_a1).
body(r_fr7_174,fr7_a4).
body(r_fr7_174,fr7_b4).
body(r_fr7_174,fr7_c4).
body(r_fr7_174,fr7_c5).
body(r_fr7_174,fr7_c6).
body(r_fr7_174,fr8_a2).
body(r_fr7_174,fr7_f3).
body(r_fr7_174,fr7_p3).
head(r_fr7_175,fr7_s2).
body(r_fr7_175,fr7_b5).
body(r_fr7_175,fr7_c4).
body(r_fr7_175,fr7_e2).
body(r_fr7_175,fr7_f2).
body(r_fr7_175,fr7_p2).
body(r_fr7_175,fr7_p5).
body(r_fr7_175,fr7_q3).
body(r_fr7_175,fr7_t5).
body(r_fr7_175,fr23_s1).
body(r_fr7_175,fr7_x2).
head(r_fr7_176,fr7_s2).
body(r_fr7_176,fr7_d2).
body(r_fr7_176,fr7_d3).
body(r_fr7_176,fr7_e3).
body(r_fr7_176,fr7_e4).
body(r_fr7_176,fr7_f1).
body(r_fr7_176,fr7_f2).
body(r_fr7_176,fr4_u2).
body(r_fr7_176,fr7_r1).
body(r_fr7_176,fr7_r2).
body(r_fr7_176,fr7_s5).
body(r_fr7_176,fr23_s1).
head(r_fr7_177,fr4_v3).
body(r_fr7_177,fr7_a5).
body(r_fr7_177,fr7_e1).
body(r_fr7_177,fr4_u2).
body(r_fr7_177,fr7_s4).
body(r_fr7_177,fr7_t5).
body(r_fr7_177,fr23_s1).
body(r_fr7_177,fr7_u5).
body(r_fr7_177,fr7_w4).
body(r_fr7_177,fr7_x1).
body(r_fr7_177,fr7_y3).
body(r_fr7_177,fr7_y4).
head(r_fr7_178,fr4_v3).
head(r_fr7_179,fr4_v3).
body(r_fr7_179,fr7_z2).
head(r_fr7_180,fr4_v3).
body(r_fr7_180,fr7_d4).
head(r_fr7_181,fr4_v3).
body(r_fr7_181,fr19_c1).
body(r_fr7_181,fr22_d1).
body(r_fr7_181,fr7_c2).
body(r_fr7_181,fr7_c6).
body(r_fr7_181,fr7_d2).
body(r_fr7_181,fr7_d3).
body(r_fr7_181,fr7_e1).
body(r_fr7_181,fr7_f2).
body(r_fr7_181,fr7_f3).
body(r_fr7_181,fr7_s3).
body(r_fr7_181,fr7_s5).
body(r_fr7_181,fr7_u2).
body(r_fr7_181,fr7_y1).
head(r_fr7_182,fr7_x3).
body(r_fr7_182,fr7_a6).
body(r_fr7_182,fr7_c5).
body(r_fr7_182,fr7_p5).
body(r_fr7_182,fr7_q3).
body(r_fr7_182,fr4_u2).
body(r_fr7_182,fr7_v2).
body(r_fr7_182,fr7_w2).
body(r_fr7_182,fr7_y3).
body(r_fr7_182,fr7_z2).
head(r_fr7_183,fr7_x3).
body(r_fr7_183,fr7_c4).
body(r_fr7_183,fr7_f4).
body(r_fr7_183,fr7_r2).
body(r_fr7_183,fr7_s3).
body(r_fr7_183,fr7_t5).
body(r_fr7_183,fr23_s1).
body(r_fr7_183,fr7_v1).
body(r_fr7_183,fr7_y1).
body(r_fr7_183,fr7_y4).
body(r_fr7_183,fr7_z1).
body(r_fr7_183,fr7_z5).
head(r_fr7_184,fr7_x2).
body(r_fr7_184,fr7_e5).
body(r_fr7_184,fr7_p5).
body(r_fr7_184,fr7_r1).
body(r_fr7_184,fr7_s3).
body(r_fr7_184,fr7_s4).
body(r_fr7_184,fr23_s1).
body(r_fr7_184,fr7_x1).
body(r_fr7_184,fr7_y1).
body(r_fr7_184,fr7_z5).
head(r_fr7_185,fr7_x2).
body(r_fr7_185,fr7_b6).
body(r_fr7_185,fr7_u5).
head(r_fr7_186,fr7_x2).
head(r_fr7_187,fr7_x2).
body(r_fr7_187,fr7_b1).
body(r_fr7_187,fr7_c4).
body(r_fr7_187,fr7_d3).
body(r_fr7_187,fr7_d4).
body(r_fr7_187,fr7_f1).
body(r_fr7_187,fr7_f3).
body(r_fr7_187,fr7_p3).
body(r_fr7_187,fr7_u2).
body(r_fr7_187,fr7_w4).
body(r_fr7_187,fr7_x1).
body(r_fr7_187,fr7_z1).
body(r_fr7_187,fr7_z4).
head(r_fr7_188,fr7_x2).
body(r_fr7_188,fr7_a5).
body(r_fr7_188,fr7_c4).
body(r_fr7_188,fr7_e2).
head(r_fr7_189,fr7_x2).
body(r_fr7_189,fr7_a1).
body(r_fr7_189,fr7_a4).
body(r_fr7_189,fr7_e5).
body(r_fr7_189,fr7_f4).
head(r_fr7_190,fr7_x2).
body(r_fr7_190,fr7_b2).
body(r_fr7_190,fr7_z1).
head(r_fr7_191,fr7_p2).
body(r_fr7_191,fr7_c1).
body(r_fr7_191,fr22_a1).
body(r_fr7_191,fr7_u2).
body(r_fr7_191,fr7_z2).
head(r_fr7_192,fr7_p2).
body(r_fr7_192,fr7_b2).
body(r_fr7_192,fr7_w4).
head(r_fr7_193,fr7_p2).
body(r_fr7_193,fr7_d3).
head(r_fr7_194,fr7_p2).
body(r_fr7_194,fr8_a2).
body(r_fr7_194,fr7_z1).
head(r_fr7_195,fr7_p2).
body(r_fr7_195,fr7_b3).
body(r_fr7_195,fr7_b6).
body(r_fr7_195,fr7_c6).
body(r_fr7_195,fr7_r2).
head(r_fr7_196,fr7_p2).
body(r_fr7_196,fr7_a1).
body(r_fr7_196,fr7_b3).
body(r_fr7_196,fr7_c4).
body(r_fr7_196,fr7_c6).
body(r_fr7_196,fr7_e4).
body(r_fr7_196,fr7_f3).
body(r_fr7_196,fr7_r1).
body(r_fr7_196,fr7_u5).
body(r_fr7_196,fr7_y1).
head(r_fr7_197,fr7_p2).
body(r_fr7_197,fr7_a1).
body(r_fr7_197,fr7_a6).
body(r_fr7_197,fr7_b5).
body(r_fr7_197,fr7_c1).
body(r_fr7_197,fr7_c3).
body(r_fr7_197,fr7_d3).
body(r_fr7_197,fr7_e3).
body(r_fr7_197,fr7_f2).
body(r_fr7_197,fr7_f4).
head(r_fr7_198,fr7_p2).
body(r_fr7_198,fr7_a4).
body(r_fr7_198,fr7_c3).
body(r_fr7_198,fr23_s1).
body(r_fr7_198,fr7_w2).
head(r_fr7_199,fr7_p2).
body(r_fr7_199,fr7_p5).
body(r_fr7_199,fr7_q3).
body(r_fr7_199,fr7_s5).
body(r_fr7_199,fr7_u2).
body(r_fr7_199,fr7_u5).
body(r_fr7_199,fr7_w2).
body(r_fr7_199,fr7_w4).
body(r_fr7_199,fr7_z1).
body(r_fr7_199,fr7_z2).
body(r_fr7_199,fr7_z4).
body(r_fr7_199,fr7_z5).
head(r_fr7_200,fr7_p2).
body(r_fr7_200,fr7_s5).
body(r_fr7_200,fr7_t5).
body(r_fr7_200,fr7_u2).
body(r_fr7_200,fr23_s1).
body(r_fr7_200,fr7_y1).
body(r_fr7_200,fr7_y4).
head(r_fr7_201,fr7_p2).
body(r_fr7_201,fr19_c1).
body(r_fr7_201,fr7_b5).
body(r_fr7_201,fr7_b6).
body(r_fr7_201,fr7_c1).
body(r_fr7_201,fr7_c6).
body(r_fr7_201,fr7_e2).
body(r_fr7_201,fr7_f1).
body(r_fr7_201,fr7_f2).
body(r_fr7_201,fr7_f3).
body(r_fr7_201,fr7_q3).
body(r_fr7_201,fr7_t5).
body(r_fr7_201,fr7_w2).
head(r_fr7_202,fr7_x1).
body(r_fr7_202,fr4_u2).
body(r_fr7_202,fr7_s4).
head(r_fr7_203,fr7_x1).
body(r_fr7_203,fr7_b2).
body(r_fr7_203,fr7_b3).
body(r_fr7_203,fr7_b4).
head(r_fr7_204,fr7_x1).
body(r_fr7_204,fr7_a4).
body(r_fr7_204,fr7_e4).
body(r_fr7_204,fr7_p3).
body(r_fr7_204,fr7_q3).
body(r_fr7_204,fr7_r2).
body(r_fr7_204,fr7_s3).
body(r_fr7_204,fr7_s4).
body(r_fr7_204,fr7_s5).
body(r_fr7_204,fr7_w4).
body(r_fr7_204,fr7_y3).
body(r_fr7_204,fr7_z5).
head(r_fr7_205,fr7_x1).
body(r_fr7_205,fr19_c1).
body(r_fr7_205,fr22_d1).
body(r_fr7_205,fr7_c3).
body(r_fr7_205,fr7_d1).
body(r_fr7_205,fr8_a2).
body(r_fr7_205,fr7_e1).
body(r_fr7_205,fr7_e5).
body(r_fr7_205,fr7_q3).
body(r_fr7_205,fr7_y1).
head(r_fr7_206,fr7_u5).
body(r_fr7_206,fr22_d1).
body(r_fr7_206,fr7_b5).
body(r_fr7_206,fr7_c5).
body(r_fr7_206,fr7_c6).
body(r_fr7_206,fr7_d4).
body(r_fr7_206,fr7_e5).
head(r_fr7_207,fr7_u5).
body(r_fr7_207,fr7_s3).
body(r_fr7_207,fr7_v1).
body(r_fr7_207,fr7_v2).
body(r_fr7_207,fr7_y4).
body(r_fr7_207,fr7_z2).
body(r_fr7_207,fr7_z4).
body(r_fr7_207,fr7_z5).
head(r_fr7_208,fr7_u5).
body(r_fr7_208,fr8_a2).
head(r_fr7_209,fr7_u5).
body(r_fr7_209,fr7_s4).
body(r_fr7_209,fr23_s1).
body(r_fr7_209,fr7_w4).
head(r_fr7_210,fr7_u5).
body(r_fr7_210,fr7_a1).
body(r_fr7_210,fr7_a5).
body(r_fr7_210,fr7_b2).
body(r_fr7_210,fr7_c2).
body(r_fr7_210,fr7_c4).
body(r_fr7_210,fr7_d1).
body(r_fr7_210,fr7_e4).
body(r_fr7_210,fr7_p3).
body(r_fr7_210,fr7_p5).
body(r_fr7_210,fr7_r2).
body(r_fr7_210,fr23_s1).
body(r_fr7_210,fr7_v2).
body(r_fr7_210,fr7_y3).
head(r_fr7_211,fr7_u5).
body(r_fr7_211,fr7_e1).
body(r_fr7_211,fr22_a1).
body(r_fr7_211,fr7_p5).
body(r_fr7_211,fr7_q3).
body(r_fr7_211,fr4_u2).
body(r_fr7_211,fr7_r1).
body(r_fr7_211,fr7_s3).
body(r_fr7_211,fr7_s4).
body(r_fr7_211,fr7_v1).
body(r_fr7_211,fr7_v2).
body(r_fr7_211,fr7_z1).
body(r_fr7_211,fr7_z2).
head(r_fr7_212,fr7_u5).
body(r_fr7_212,fr7_d1).
body(r_fr7_212,fr7_p3).
body(r_fr7_212,fr7_q3).
body(r_fr7_212,fr7_s3).
body(r_fr7_212,fr23_s1).
body(r_fr7_212,fr7_v2).
body(r_fr7_212,fr7_w4).
body(r_fr7_212,fr7_y3).
body(r_fr7_212,fr7_y4).
body(r_fr7_212,fr7_z2).
body(r_fr7_212,fr7_z4).
body(r_fr7_212,fr7_z5).
head(r_fr7_213,fr7_u5).
body(r_fr7_213,fr7_b4).
body(r_fr7_213,fr7_c5).
body(r_fr7_213,fr7_d4).
body(r_fr7_213,fr8_a2).
body(r_fr7_213,fr7_f1).
body(r_fr7_213,fr7_f2).
body(r_fr7_213,fr22_a1).
head(r_fr7_214,fr7_u5).
body(r_fr7_214,fr7_b2).
body(r_fr7_214,fr7_c1).
body(r_fr7_214,fr7_e2).
body(r_fr7_214,fr7_f3).
body(r_fr7_214,fr7_q3).
body(r_fr7_214,fr7_r1).
body(r_fr7_214,fr7_t5).
body(r_fr7_214,fr7_v2).
body(r_fr7_214,fr7_y1).
body(r_fr7_214,fr7_y3).
body(r_fr7_214,fr7_z4).
body(r_fr7_214,fr7_z5).
head(r_fr7_215,fr7_u5).
body(r_fr7_215,fr19_c1).
body(r_fr7_215,fr7_b4).
body(r_fr7_215,fr7_c3).
body(r_fr7_215,fr7_c4).
body(r_fr7_215,fr7_c6).
body(r_fr7_215,fr8_a2).
head(r_fr7_216,fr7_u5).
head(r_fr7_217,fr7_p5).
body(r_fr7_217,fr19_c1).
body(r_fr7_217,fr7_c3).
body(r_fr7_217,fr7_d3).
body(r_fr7_217,fr7_d4).
body(r_fr7_217,fr7_r1).
body(r_fr7_217,fr7_u2).
head(r_fr7_218,fr7_p5).
body(r_fr7_218,fr7_a4).
body(r_fr7_218,fr7_b2).
body(r_fr7_218,fr7_b5).
body(r_fr7_218,fr7_c2).
body(r_fr7_218,fr7_c6).
body(r_fr7_218,fr7_d2).
head(r_fr7_219,fr7_p5).
body(r_fr7_219,fr7_a1).
head(r_fr7_220,fr7_p5).
head(r_fr7_221,fr7_p3).
body(r_fr7_221,fr7_a1).
body(r_fr7_221,fr22_d1).
body(r_fr7_221,fr7_a5).
body(r_fr7_221,fr7_b5).
body(r_fr7_221,fr7_c5).
body(r_fr7_221,fr7_c6).
body(r_fr7_221,fr7_d4).
body(r_fr7_221,fr7_e1).
body(r_fr7_221,fr7_f1).
body(r_fr7_221,fr7_f2).
body(r_fr7_221,fr7_f4).
body(r_fr7_221,fr7_w2).
body(r_fr7_221,fr7_y1).
head(r_fr7_222,fr7_p3).
body(r_fr7_222,fr7_b6).
body(r_fr7_222,fr7_c3).
body(r_fr7_222,fr7_f2).
body(r_fr7_222,fr4_u2).
body(r_fr7_222,fr7_u2).
body(r_fr7_222,fr7_y1).
body(r_fr7_222,fr7_z2).
head(r_fr7_223,fr7_t5).
body(r_fr7_223,fr22_d1).
body(r_fr7_223,fr7_a6).
body(r_fr7_223,fr7_b3).
body(r_fr7_223,fr7_e5).
body(r_fr7_223,fr7_f2).
body(r_fr7_223,fr7_f3).
body(r_fr7_223,fr7_s5).
body(r_fr7_223,fr7_v1).
body(r_fr7_223,fr7_y3).
body(r_fr7_223,fr7_z2).
head(r_fr7_224,fr7_t5).
body(r_fr7_224,fr7_s5).
body(r_fr7_224,fr7_w4).
body(r_fr7_224,fr7_y1).
body(r_fr7_224,fr7_y3).
body(r_fr7_224,fr7_z5).
head(r_fr7_225,fr7_t5).
body(r_fr7_225,fr7_e1).
head(r_fr7_226,fr7_t5).
body(r_fr7_226,fr7_q3).
body(r_fr7_226,fr7_r1).
body(r_fr7_226,fr7_r2).
body(r_fr7_226,fr7_s3).
body(r_fr7_226,fr7_s4).
body(r_fr7_226,fr7_s5).
body(r_fr7_226,fr7_u2).
body(r_fr7_226,fr7_v2).
body(r_fr7_226,fr7_z4).
body(r_fr7_226,fr7_z5).
head(r_fr7_227,fr7_t5).
body(r_fr7_227,fr4_u2).
body(r_fr7_227,fr7_r2).
body(r_fr7_227,fr7_w2).
body(r_fr7_227,fr7_z4).
head(r_fr7_228,fr7_t5).
body(r_fr7_228,fr7_a4).
body(r_fr7_228,fr7_b3).
body(r_fr7_228,fr7_c5).
body(r_fr7_228,fr7_d3).
body(r_fr7_228,fr7_d4).
body(r_fr7_228,fr7_e4).
body(r_fr7_228,fr7_e5).
body(r_fr7_228,fr7_f3).
head(r_fr7_229,fr7_t5).
body(r_fr7_229,fr7_b4).
body(r_fr7_229,fr7_b5).
body(r_fr7_229,fr7_c6).
body(r_fr7_229,fr7_s3).
body(r_fr7_229,fr7_v1).
head(r_fr7_230,fr7_t5).
body(r_fr7_230,fr7_e2).
body(r_fr7_230,fr7_e3).
body(r_fr7_230,fr7_f3).
body(r_fr7_230,fr7_z1).
head(r_fr7_231,fr7_t5).
body(r_fr7_231,fr7_q3).
body(r_fr7_231,fr4_u2).
body(r_fr7_231,fr7_r1).
body(r_fr7_231,fr7_r2).
body(r_fr7_231,fr23_s1).
body(r_fr7_231,fr7_v2).
body(r_fr7_231,fr7_w2).
body(r_fr7_231,fr7_y1).
body(r_fr7_231,fr7_y3).
body(r_fr7_231,fr7_z1).
body(r_fr7_231,fr7_z4).
head(r_fr7_232,fr7_v1).
body(r_fr7_232,fr7_a1).
body(r_fr7_232,fr7_b1).
body(r_fr7_232,fr7_c2).
body(r_fr7_232,fr7_c5).
body(r_fr7_232,fr7_c6).
body(r_fr7_232,fr7_d4).
body(r_fr7_232,fr8_a2).
body(r_fr7_232,fr7_e3).
body(r_fr7_232,fr7_e4).
body(r_fr7_232,fr7_f2).
head(r_fr7_233,fr7_v1).
body(r_fr7_233,fr7_c3).
body(r_fr7_233,fr7_c6).
body(r_fr7_233,fr7_q3).
body(r_fr7_233,fr7_z2).
body(r_fr7_233,fr7_z4).
body(r_fr7_233,fr7_z5).
head(r_fr7_234,fr7_v1).
body(r_fr7_234,fr7_s4).
body(r_fr7_234,fr7_s5).
body(r_fr7_234,fr23_s1).
body(r_fr7_234,fr7_v2).
body(r_fr7_234,fr7_y4).
head(r_fr7_235,fr7_v1).
body(r_fr7_235,fr7_a1).
body(r_fr7_235,fr7_a5).
body(r_fr7_235,fr7_d2).
body(r_fr7_235,fr7_d3).
body(r_fr7_235,fr7_e3).
body(r_fr7_235,fr7_e5).
body(r_fr7_235,fr7_f3).
body(r_fr7_235,fr22_a1).
body(r_fr7_235,fr4_u2).
body(r_fr7_235,fr7_w2).
head(r_fr7_236,fr7_v1).
body(r_fr7_236,fr7_a4).
body(r_fr7_236,fr7_b1).
body(r_fr7_236,fr7_b2).
body(r_fr7_236,fr7_b5).
body(r_fr7_236,fr7_f1).
body(r_fr7_236,fr22_a1).
body(r_fr7_236,fr7_q3).
body(r_fr7_236,fr7_r1).
body(r_fr7_236,fr7_s5).
body(r_fr7_236,fr7_v2).
body(r_fr7_236,fr7_z1).
body(r_fr7_236,fr7_z5).
head(r_fr7_237,fr7_v1).
body(r_fr7_237,fr7_c1).
body(r_fr7_237,fr7_s3).
body(r_fr7_237,fr23_s1).
body(r_fr7_237,fr7_v2).
body(r_fr7_237,fr7_y1).
body(r_fr7_237,fr7_y4).
head(r_fr7_238,fr7_v1).
body(r_fr7_238,fr7_u2).
body(r_fr7_238,fr7_z5).
head(r_fr7_239,fr7_v1).
body(r_fr7_239,fr7_a5).
body(r_fr7_239,fr7_a6).
body(r_fr7_239,fr7_b2).
body(r_fr7_239,fr7_b4).
body(r_fr7_239,fr7_b5).
body(r_fr7_239,fr7_d1).
body(r_fr7_239,fr8_a2).
body(r_fr7_239,fr7_e5).
head(r_fr7_240,fr7_v1).
body(r_fr7_240,fr19_c1).
body(r_fr7_240,fr22_d1).
body(r_fr7_240,fr7_b5).
body(r_fr7_240,fr7_b6).
body(r_fr7_240,fr7_c1).
body(r_fr7_240,fr7_c5).
body(r_fr7_240,fr7_c6).
body(r_fr7_240,fr7_d1).
body(r_fr7_240,fr7_e5).
body(r_fr7_240,fr7_r2).
body(r_fr7_240,fr7_z5).
head(r_fr7_241,fr7_q3).
body(r_fr7_241,fr7_a1).
body(r_fr7_241,fr7_a6).
body(r_fr7_241,fr7_b2).
body(r_fr7_241,fr7_f4).
body(r_fr7_241,fr7_z4).
head(r_fr7_242,fr7_q3).
body(r_fr7_242,fr22_d1).
body(r_fr7_242,fr7_a4).
body(r_fr7_242,fr7_c4).
body(r_fr7_242,fr7_f3).
head(r_fr7_243,fr7_q3).
body(r_fr7_243,fr7_a1).
body(r_fr7_243,fr7_r1).
body(r_fr7_243,fr7_w4).
body(r_fr7_243,fr7_y1).
body(r_fr7_243,fr7_y4).
head(r_fr7_244,fr7_q3).
body(r_fr7_244,fr7_d1).
body(r_fr7_244,fr7_e3).
body(r_fr7_244,fr7_e4).
body(r_fr7_244,fr7_s4).
body(r_fr7_244,fr7_s5).
body(r_fr7_244,fr7_y3).
body(r_fr7_244,fr7_z2).
head(r_fr7_245,fr7_q3).
body(r_fr7_245,fr7_y4).
body(r_fr7_245,fr7_z1).
body(r_fr7_245,fr7_z2).
head(r_fr7_246,fr7_y3).
body(r_fr7_246,fr7_c5).
head(r_fr7_247,fr7_y3).
body(r_fr7_247,fr7_b2).
body(r_fr7_247,fr7_r1).
head(r_fr7_248,fr7_y3).
body(r_fr7_248,fr7_a6).
body(r_fr7_248,fr7_b3).
body(r_fr7_248,fr7_d1).
body(r_fr7_248,fr7_d4).
body(r_fr7_248,fr8_a2).
body(r_fr7_248,fr7_e4).
body(r_fr7_248,fr7_f2).
body(r_fr7_248,fr7_s3).
head(r_fr7_249,fr7_y3).
body(r_fr7_249,fr19_c1).
body(r_fr7_249,fr7_a6).
body(r_fr7_249,fr7_b4).
body(r_fr7_249,fr7_d2).
body(r_fr7_249,fr7_f2).
body(r_fr7_249,fr7_f3).
body(r_fr7_249,fr7_s5).
body(r_fr7_249,fr7_w2).
head(r_fr7_250,fr7_s4).
body(r_fr7_250,fr7_b3).
body(r_fr7_250,fr7_c4).
body(r_fr7_250,fr7_f2).
head(r_fr7_251,fr7_s4).
body(r_fr7_251,fr7_c3).
body(r_fr7_251,fr7_d3).
body(r_fr7_251,fr7_d4).
body(r_fr7_251,fr7_e5).
body(r_fr7_251,fr4_u2).
body(r_fr7_251,fr7_r2).
body(r_fr7_251,fr7_s3).
body(r_fr7_251,fr7_s5).
body(r_fr7_251,fr7_u2).
body(r_fr7_251,fr7_v2).
body(r_fr7_251,fr7_y4).
body(r_fr7_251,fr7_z4).
head(r_fr7_252,fr7_s4).
body(r_fr7_252,fr7_s3).
body(r_fr7_252,fr7_u2).
body(r_fr7_252,fr23_s1).
body(r_fr7_252,fr7_y4).
body(r_fr7_252,fr7_z4).
head(r_fr7_253,fr7_s4).
body(r_fr7_253,fr4_u2).
body(r_fr7_253,fr7_r1).
body(r_fr7_253,fr7_s3).
body(r_fr7_253,fr7_s5).
body(r_fr7_253,fr7_u2).
body(r_fr7_253,fr23_s1).
body(r_fr7_253,fr7_w2).
body(r_fr7_253,fr7_w4).
body(r_fr7_253,fr7_y1).
body(r_fr7_253,fr7_y4).
body(r_fr7_253,fr7_z2).
body(r_fr7_253,fr7_z4).
body(r_fr7_253,fr7_z5).
head(r_fr7_254,fr7_s4).
body(r_fr7_254,fr7_a5).
body(r_fr7_254,fr7_b4).
body(r_fr7_254,fr7_c3).
body(r_fr7_254,fr7_f3).
body(r_fr7_254,fr7_y1).
body(r_fr7_254,fr7_z2).
body(r_fr7_254,fr7_z4).
head(r_fr7_255,fr7_y4).
body(r_fr7_255,fr7_a5).
head(r_fr7_256,fr7_y4).
body(r_fr7_256,fr7_c2).
body(r_fr7_256,fr7_d4).
body(r_fr7_256,fr7_e1).
body(r_fr7_256,fr7_f3).
body(r_fr7_256,fr23_s1).
head(r_fr7_257,fr7_y4).
body(r_fr7_257,fr7_a4).
body(r_fr7_257,fr7_w4).
body(r_fr7_257,fr7_z4).
head(r_fr7_258,fr4_u2).
body(r_fr7_258,fr7_a6).
body(r_fr7_258,fr7_b1).
body(r_fr7_258,fr7_b3).
body(r_fr7_258,fr7_b6).
body(r_fr7_258,fr7_d4).
head(r_fr7_259,fr4_u2).
body(r_fr7_259,fr7_b2).
body(r_fr7_259,fr7_c1).
body(r_fr7_259,fr7_c6).
body(r_fr7_259,fr23_s1).
body(r_fr7_259,fr7_v2).
body(r_fr7_259,fr7_y1).
body(r_fr7_259,fr7_z4).
head(r_fr7_260,fr4_u2).
body(r_fr7_260,fr19_c1).
body(r_fr7_260,fr7_a4).
body(r_fr7_260,fr7_a6).
body(r_fr7_260,fr7_b1).
body(r_fr7_260,fr7_b3).
body(r_fr7_260,fr7_b5).
body(r_fr7_260,fr7_c2).
body(r_fr7_260,fr7_c3).
body(r_fr7_260,fr7_e1).
body(r_fr7_260,fr7_e2).
body(r_fr7_260,fr7_f2).
head(r_fr7_261,fr4_u2).
body(r_fr7_261,fr7_b1).
body(r_fr7_261,fr7_v2).
head(r_fr7_262,fr4_u2).
body(r_fr7_262,fr7_a6).
body(r_fr7_262,fr7_c1).
body(r_fr7_262,fr7_c6).
body(r_fr7_262,fr7_d1).
body(r_fr7_262,fr7_e1).
body(r_fr7_262,fr7_e4).
body(r_fr7_262,fr7_f2).
body(r_fr7_262,fr7_s5).
head(r_fr7_263,fr4_u2).
body(r_fr7_263,fr7_a6).
body(r_fr7_263,fr7_b3).
body(r_fr7_263,fr7_e2).
body(r_fr7_263,fr7_r1).
body(r_fr7_263,fr7_w4).
body(r_fr7_263,fr7_z2).
head(r_fr7_264,fr4_u2).
body(r_fr7_264,fr7_a1).
body(r_fr7_264,fr22_d1).
body(r_fr7_264,fr7_a4).
body(r_fr7_264,fr7_b3).
body(r_fr7_264,fr7_b4).
body(r_fr7_264,fr7_c2).
body(r_fr7_264,fr7_c5).
body(r_fr7_264,fr7_d3).
body(r_fr7_264,fr8_a2).
body(r_fr7_264,fr7_e3).
body(r_fr7_264,fr7_e5).
body(r_fr7_264,fr7_f3).
head(r_fr7_265,fr4_u2).
body(r_fr7_265,fr7_z2).
head(r_fr7_266,fr4_u2).
body(r_fr7_266,fr7_r1).
body(r_fr7_266,fr7_z5).
head(r_fr7_267,fr7_r1).
body(r_fr7_267,fr19_c1).
body(r_fr7_267,fr22_d1).
body(r_fr7_267,fr7_b1).
body(r_fr7_267,fr7_c2).
body(r_fr7_267,fr7_c3).
body(r_fr7_267,fr7_d3).
body(r_fr7_267,fr7_e2).
body(r_fr7_267,fr7_e5).
body(r_fr7_267,fr7_f1).
body(r_fr7_267,fr7_z5).
head(r_fr7_268,fr7_r1).
body(r_fr7_268,fr19_c1).
body(r_fr7_268,fr7_u2).
head(r_fr7_269,fr7_r1).
body(r_fr7_269,fr7_c6).
body(r_fr7_269,fr23_s1).
head(r_fr7_270,fr7_r1).
body(r_fr7_270,fr7_s3).
body(r_fr7_270,fr23_s1).
body(r_fr7_270,fr7_v2).
body(r_fr7_270,fr7_w2).
body(r_fr7_270,fr7_w4).
body(r_fr7_270,fr7_y1).
body(r_fr7_270,fr7_z1).
body(r_fr7_270,fr7_z4).
body(r_fr7_270,fr7_z5).
head(r_fr7_271,fr7_r1).
body(r_fr7_271,fr7_c2).
body(r_fr7_271,fr7_c4).
body(r_fr7_271,fr7_s5).
body(r_fr7_271,fr7_u2).
head(r_fr7_272,fr7_z5).
body(r_fr7_272,fr7_r2).
body(r_fr7_272,fr7_s5).
body(r_fr7_272,fr7_u2).
body(r_fr7_272,fr23_s1).
body(r_fr7_272,fr7_y1).
body(r_fr7_272,fr7_z1).
body(r_fr7_272,fr7_z4).
head(r_fr7_273,fr7_z5).
body(r_fr7_273,fr7_b6).
body(r_fr7_273,fr7_c1).
head(r_fr7_274,fr7_z5).
body(r_fr7_274,fr19_c1).
body(r_fr7_274,fr7_b5).
body(r_fr7_274,fr7_c6).
body(r_fr7_274,fr7_r2).
head(r_fr7_275,fr7_z5).
body(r_fr7_275,fr7_d3).
body(r_fr7_275,fr7_r2).
body(r_fr7_275,fr7_s3).
body(r_fr7_275,fr7_w2).
body(r_fr7_275,fr7_w4).
body(r_fr7_275,fr7_y1).
body(r_fr7_275,fr7_z1).
body(r_fr7_275,fr7_z4).
head(r_fr7_276,fr7_z5).
body(r_fr7_276,fr7_b4).
body(r_fr7_276,fr8_a2).
body(r_fr7_276,fr7_r2).
body(r_fr7_276,fr7_s5).
body(r_fr7_276,fr7_u2).
body(r_fr7_276,fr23_s1).
body(r_fr7_276,fr7_v2).
body(r_fr7_276,fr7_w2).
body(r_fr7_276,fr7_w4).
body(r_fr7_276,fr7_y1).
body(r_fr7_276,fr7_z2).
body(r_fr7_276,fr7_z4).
head(r_fr7_277,fr7_z5).
body(r_fr7_277,fr22_d1).
body(r_fr7_277,fr7_a6).
body(r_fr7_277,fr7_c6).
body(r_fr7_277,fr7_d1).
body(r_fr7_277,fr7_e5).
body(r_fr7_277,fr7_f4).
body(r_fr7_277,fr23_s1).
body(r_fr7_277,fr7_z2).
head(r_fr7_278,fr7_v2).
body(r_fr7_278,fr7_a1).
body(r_fr7_278,fr7_b1).
body(r_fr7_278,fr7_c2).
body(r_fr7_278,fr7_c4).
body(r_fr7_278,fr7_r2).
body(r_fr7_278,fr7_s3).
body(r_fr7_278,fr7_s5).
body(r_fr7_278,fr7_u2).
body(r_fr7_278,fr7_w2).
body(r_fr7_278,fr7_w4).
body(r_fr7_278,fr7_y1).
body(r_fr7_278,fr7_z1).
body(r_fr7_278,fr7_z4).
head(r_fr7_279,fr7_v2).
body(r_fr7_279,fr7_a1).
body(r_fr7_279,fr19_c1).
body(r_fr7_279,fr7_a6).
body(r_fr7_279,fr7_b4).
body(r_fr7_279,fr7_b6).
body(r_fr7_279,fr7_c1).
body(r_fr7_279,fr7_d4).
body(r_fr7_279,fr8_a2).
body(r_fr7_279,fr7_e2).
body(r_fr7_279,fr7_e3).
body(r_fr7_279,fr7_e4).
body(r_fr7_279,fr7_u2).
head(r_fr7_280,fr7_v2).
body(r_fr7_280,fr7_c1).
body(r_fr7_280,fr7_e2).
body(r_fr7_280,fr7_r2).
body(r_fr7_280,fr23_s1).
body(r_fr7_280,fr7_w2).
body(r_fr7_280,fr7_z1).
body(r_fr7_280,fr7_z4).
head(r_fr7_281,fr7_v2).
body(r_fr7_281,fr7_z4).
head(r_fr7_282,fr7_v2).
body(r_fr7_282,fr19_c1).
body(r_fr7_282,fr7_b1).
body(r_fr7_282,fr7_b2).
body(r_fr7_282,fr7_c3).
body(r_fr7_282,fr7_d2).
body(r_fr7_282,fr7_f1).
body(r_fr7_282,fr22_a1).
body(r_fr7_282,fr23_s1).
body(r_fr7_282,fr7_w2).
body(r_fr7_282,fr7_w4).
body(r_fr7_282,fr7_z1).
body(r_fr7_282,fr7_z2).
body(r_fr7_282,fr7_z4).
head(r_fr7_283,fr7_v2).
body(r_fr7_283,fr7_r2).
body(r_fr7_283,fr7_s3).
body(r_fr7_283,fr7_s5).
body(r_fr7_283,fr7_u2).
body(r_fr7_283,fr7_w2).
body(r_fr7_283,fr7_w4).
body(r_fr7_283,fr7_y1).
body(r_fr7_283,fr7_z1).
body(r_fr7_283,fr7_z2).
body(r_fr7_283,fr7_z4).
head(r_fr7_284,fr7_v2).
head(r_fr7_285,fr7_v2).
body(r_fr7_285,fr7_b2).
body(r_fr7_285,fr7_c2).
body(r_fr7_285,fr7_e4).
body(r_fr7_285,fr7_r2).
body(r_fr7_285,fr7_s5).
body(r_fr7_285,fr7_u2).
body(r_fr7_285,fr7_w2).
body(r_fr7_285,fr7_w4).
body(r_fr7_285,fr7_z1).
body(r_fr7_285,fr7_z2).
body(r_fr7_285,fr7_z4).

assumption(fr20_d1).
assumption(fr25_c4).
assumption(fr4_e1).
assumption(fr8_d1).
assumption(fr8_e1).
assumption(fr4_d2).
assumption(fr8_a2).
assumption(fr11_f1).
assumption(fr11_c1).
assumption(fr25_d4).
assumption(fr8_e2).
assumption(fr5_b1).
assumption(fr14_f2).
assumption(fr22_a1).
assumption(fr8_c3).
contrary(fr20_d1,fr8_r2).
contrary(fr8_a2,fr11_f1).
contrary(fr14_f2,fr16_p4).
contrary(fr25_c4,fr8_s3).
contrary(fr11_f1,fr25_c4).
contrary(fr22_a1,fr8_t2).
contrary(fr4_e1,fr5_t3).
contrary(fr11_c1,fr8_p3).
contrary(fr8_c3,fr14_x1).
contrary(fr8_d1,fr22_a1).
contrary(fr25_d4,fr8_t2).
contrary(fr8_e1,fr4_d2).
contrary(fr8_e2,fr8_x3).
contrary(fr4_d2,fr3_x1).
contrary(fr5_b1,fr22_q1).
head(r_fr8_0,fr8_x3).
body(r_fr8_0,fr25_c4).
body(r_fr8_0,fr11_f1).
body(r_fr8_0,fr4_e1).
body(r_fr8_0,fr8_c3).
body(r_fr8_0,fr4_d2).
body(r_fr8_0,fr17_x1).
body(r_fr8_0,fr8_w1).
body(r_fr8_0,fr8_w3).
body(r_fr8_0,fr3_x1).
body(r_fr8_0,fr5_t3).
head(r_fr8_1,fr8_x3).
body(r_fr8_1,fr8_p2).
body(r_fr8_1,fr8_q1).
body(r_fr8_1,fr8_q3).
body(r_fr8_1,fr8_r3).
body(r_fr8_1,fr8_s3).
body(r_fr8_1,fr24_t7).
body(r_fr8_1,fr8_u2).
body(r_fr8_1,fr8_v3).
body(r_fr8_1,fr8_w1).
body(r_fr8_1,fr8_x1).
head(r_fr8_2,fr8_x3).
body(r_fr8_2,fr8_p3).
body(r_fr8_2,fr8_q3).
body(r_fr8_2,fr8_q4).
body(r_fr8_2,fr14_x1).
body(r_fr8_2,fr24_t7).
body(r_fr8_2,fr8_t2).
body(r_fr8_2,fr8_u1).
body(r_fr8_2,fr8_w3).
body(r_fr8_2,fr5_t3).
body(r_fr8_2,fr8_y3).
head(r_fr8_3,fr8_x2).
body(r_fr8_3,fr25_c4).
body(r_fr8_3,fr11_f1).
body(r_fr8_3,fr8_d1).
body(r_fr8_3,fr8_p1).
body(r_fr8_3,fr8_p3).
body(r_fr8_3,fr8_q2).
body(r_fr8_3,fr8_q3).
body(r_fr8_3,fr8_r3).
body(r_fr8_3,fr8_v1).
body(r_fr8_3,fr8_x1).
head(r_fr8_4,fr8_x2).
body(r_fr8_4,fr14_f2).
body(r_fr8_4,fr8_q3).
body(r_fr8_4,fr14_x1).
body(r_fr8_4,fr8_s2).
body(r_fr8_4,fr8_s3).
body(r_fr8_4,fr24_t7).
body(r_fr8_4,fr8_t2).
body(r_fr8_4,fr8_u1).
body(r_fr8_4,fr8_w2).
body(r_fr8_4,fr8_y3).
body(r_fr8_4,fr8_z2).
head(r_fr8_5,fr8_x2).
body(r_fr8_5,fr8_a2).
body(r_fr8_5,fr14_f2).
body(r_fr8_5,fr11_f1).
body(r_fr8_5,fr22_a1).
body(r_fr8_5,fr8_e1).
body(r_fr8_5,fr8_q4).
body(r_fr8_5,fr8_u1).
body(r_fr8_5,fr8_x1).
body(r_fr8_5,fr8_z3).
head(r_fr8_6,fr24_t7).
body(r_fr8_6,fr22_a1).
body(r_fr8_6,fr8_p1).
body(r_fr8_6,fr8_p2).
body(r_fr8_6,fr8_p3).
body(r_fr8_6,fr8_q1).
body(r_fr8_6,fr14_x1).
body(r_fr8_6,fr8_u2).
body(r_fr8_6,fr17_x1).
body(r_fr8_6,fr8_w3).
body(r_fr8_6,fr3_x1).
body(r_fr8_6,fr5_t3).
body(r_fr8_6,fr8_z2).
head(r_fr8_7,fr24_t7).
body(r_fr8_7,fr14_f2).
body(r_fr8_7,fr22_a1).
body(r_fr8_7,fr4_e1).
body(r_fr8_7,fr8_c3).
body(r_fr8_7,fr8_e2).
body(r_fr8_7,fr4_d2).
body(r_fr8_7,fr8_q3).
body(r_fr8_7,fr8_q4).
body(r_fr8_7,fr8_w1).
body(r_fr8_7,fr8_w2).
body(r_fr8_7,fr22_q1).
body(r_fr8_7,fr8_z3).
head(r_fr8_8,fr24_t7).
body(r_fr8_8,fr8_p1).
body(r_fr8_8,fr8_p2).
body(r_fr8_8,fr8_p3).
body(r_fr8_8,fr8_q4).
body(r_fr8_8,fr14_x1).
body(r_fr8_8,fr8_s2).
body(r_fr8_8,fr8_s3).
body(r_fr8_8,fr8_t2).
body(r_fr8_8,fr17_x1).
body(r_fr8_8,fr8_w2).
body(r_fr8_8,fr5_t3).
body(r_fr8_8,fr8_y3).
head(r_fr8_9,fr24_t7).
body(r_fr8_9,fr8_p1).
body(r_fr8_9,fr8_p4).
body(r_fr8_9,fr8_q1).
body(r_fr8_9,fr8_q4).
body(r_fr8_9,fr8_r1).
body(r_fr8_9,fr8_t2).
body(r_fr8_9,fr16_p4).
body(r_fr8_9,fr17_x1).
body(r_fr8_9,fr8_w1).
body(r_fr8_9,fr8_w3).
body(r_fr8_9,fr3_x1).
head(r_fr8_10,fr24_t7).
body(r_fr8_10,fr22_a1).
body(r_fr8_10,fr8_p1).
body(r_fr8_10,fr8_p2).
body(r_fr8_10,fr8_p3).
body(r_fr8_10,fr8_u1).
body(r_fr8_10,fr8_u3).
body(r_fr8_10,fr8_v1).
body(r_fr8_10,fr8_v3).
body(r_fr8_10,fr8_w2).
body(r_fr8_10,fr8_y3).
head(r_fr8_11,fr8_q2).
body(r_fr8_11,fr8_p1).
body(r_fr8_11,fr8_p3).
body(r_fr8_11,fr8_q3).
body(r_fr8_11,fr8_s3).
body(r_fr8_11,fr8_v1).
body(r_fr8_11,fr8_v3).
body(r_fr8_11,fr8_w1).
body(r_fr8_11,fr22_q1).
body(r_fr8_11,fr8_z2).
head(r_fr8_12,fr8_q2).
body(r_fr8_12,fr8_a2).
body(r_fr8_12,fr11_f1).
body(r_fr8_12,fr22_a1).
body(r_fr8_12,fr4_e1).
body(r_fr8_12,fr8_d1).
body(r_fr8_12,fr4_d2).
body(r_fr8_12,fr8_q1).
body(r_fr8_12,fr8_r1).
body(r_fr8_12,fr8_s2).
body(r_fr8_12,fr8_s3).
body(r_fr8_12,fr8_w2).
body(r_fr8_12,fr3_x1).
head(r_fr8_13,fr8_q2).
body(r_fr8_13,fr25_c4).
body(r_fr8_13,fr11_c1).
body(r_fr8_13,fr5_b1).
body(r_fr8_13,fr8_p4).
body(r_fr8_13,fr8_q1).
body(r_fr8_13,fr8_r1).
body(r_fr8_13,fr16_p4).
body(r_fr8_13,fr8_v1).
body(r_fr8_13,fr5_t3).
body(r_fr8_13,fr8_z3).
head(r_fr8_14,fr8_q2).
body(r_fr8_14,fr4_e1).
body(r_fr8_14,fr8_e1).
body(r_fr8_14,fr8_p2).
body(r_fr8_14,fr8_p3).
body(r_fr8_14,fr8_q1).
body(r_fr8_14,fr8_r3).
body(r_fr8_14,fr8_s3).
body(r_fr8_14,fr8_u1).
body(r_fr8_14,fr8_w2).
body(r_fr8_14,fr5_t3).
body(r_fr8_14,fr22_q1).
head(r_fr8_15,fr8_q2).
body(r_fr8_15,fr25_d4).
body(r_fr8_15,fr8_e2).
body(r_fr8_15,fr8_p1).
body(r_fr8_15,fr14_x1).
body(r_fr8_15,fr8_s3).
body(r_fr8_15,fr16_p4).
body(r_fr8_15,fr8_u1).
body(r_fr8_15,fr17_x1).
body(r_fr8_15,fr3_x1).
body(r_fr8_15,fr22_q1).
head(r_fr8_16,fr8_u1).
body(r_fr8_16,fr20_d1).
body(r_fr8_16,fr14_f2).
body(r_fr8_16,fr25_d4).
body(r_fr8_16,fr8_e1).
body(r_fr8_16,fr8_e2).
body(r_fr8_16,fr4_d2).
body(r_fr8_16,fr8_p2).
body(r_fr8_16,fr8_r2).
body(r_fr8_16,fr14_x1).
body(r_fr8_16,fr8_s3).
body(r_fr8_16,fr8_t2).
head(r_fr8_17,fr8_u1).
body(r_fr8_17,fr8_c3).
body(r_fr8_17,fr8_e2).
body(r_fr8_17,fr4_d2).
body(r_fr8_17,fr8_p3).
body(r_fr8_17,fr8_t2).
body(r_fr8_17,fr17_x1).
body(r_fr8_17,fr8_v3).
body(r_fr8_17,fr8_z2).
body(r_fr8_17,fr8_z3).
head(r_fr8_18,fr8_q1).
body(r_fr8_18,fr20_d1).
body(r_fr8_18,fr14_f2).
body(r_fr8_18,fr11_f1).
body(r_fr8_18,fr8_e2).
body(r_fr8_18,fr8_p3).
body(r_fr8_18,fr8_r3).
body(r_fr8_18,fr8_u3).
body(r_fr8_18,fr8_v1).
body(r_fr8_18,fr8_w1).
body(r_fr8_18,fr8_w2).
body(r_fr8_18,fr8_x1).
head(r_fr8_19,fr8_q1).
body(r_fr8_19,fr20_d1).
body(r_fr8_19,fr11_f1).
body(r_fr8_19,fr22_a1).
body(r_fr8_19,fr4_e1).
body(r_fr8_19,fr5_b1).
body(r_fr8_19,fr8_q3).
body(r_fr8_19,fr8_r2).
body(r_fr8_19,fr8_w1).
body(r_fr8_19,fr8_w2).
body(r_fr8_19,fr8_x1).
body(r_fr8_19,fr22_q1).
head(r_fr8_20,fr8_q1).
body(r_fr8_20,fr20_d1).
body(r_fr8_20,fr14_f2).
body(r_fr8_20,fr25_c4).
body(r_fr8_20,fr8_d1).
body(r_fr8_20,fr8_p3).
body(r_fr8_20,fr8_r2).
body(r_fr8_20,fr16_p4).
body(r_fr8_20,fr17_x1).
body(r_fr8_20,fr8_x1).
body(r_fr8_20,fr22_q1).
body(r_fr8_20,fr8_z3).
head(r_fr8_21,fr8_q1).
body(r_fr8_21,fr8_p4).
body(r_fr8_21,fr8_q3).
body(r_fr8_21,fr8_q4).
body(r_fr8_21,fr8_t2).
body(r_fr8_21,fr16_p4).
body(r_fr8_21,fr8_u3).
body(r_fr8_21,fr8_w2).
body(r_fr8_21,fr8_w3).
body(r_fr8_21,fr5_t3).
body(r_fr8_21,fr22_q1).
body(r_fr8_21,fr8_z3).
head(r_fr8_22,fr8_q1).
body(r_fr8_22,fr11_f1).
body(r_fr8_22,fr4_e1).
body(r_fr8_22,fr11_c1).
body(r_fr8_22,fr8_c3).
body(r_fr8_22,fr8_e2).
body(r_fr8_22,fr4_d2).
body(r_fr8_22,fr8_u2).
body(r_fr8_22,fr3_x1).
body(r_fr8_22,fr8_z3).
head(r_fr8_23,fr8_s2).
body(r_fr8_23,fr11_f1).
body(r_fr8_23,fr8_c3).
body(r_fr8_23,fr8_d1).
body(r_fr8_23,fr5_b1).
body(r_fr8_23,fr8_p1).
body(r_fr8_23,fr8_p3).
body(r_fr8_23,fr8_r1).
body(r_fr8_23,fr8_s3).
body(r_fr8_23,fr8_u2).
body(r_fr8_23,fr8_v1).
body(r_fr8_23,fr8_y3).
body(r_fr8_23,fr8_z3).
head(r_fr8_24,fr8_s2).
body(r_fr8_24,fr25_c4).
body(r_fr8_24,fr11_f1).
body(r_fr8_24,fr8_c3).
body(r_fr8_24,fr8_p1).
body(r_fr8_24,fr8_p2).
body(r_fr8_24,fr8_r3).
body(r_fr8_24,fr14_x1).
body(r_fr8_24,fr8_v1).
body(r_fr8_24,fr8_y3).
head(r_fr8_25,fr8_s2).
body(r_fr8_25,fr20_d1).
body(r_fr8_25,fr14_f2).
body(r_fr8_25,fr25_c4).
body(r_fr8_25,fr22_a1).
body(r_fr8_25,fr25_d4).
body(r_fr8_25,fr8_e1).
body(r_fr8_25,fr8_p3).
body(r_fr8_25,fr8_r1).
body(r_fr8_25,fr8_r2).
head(r_fr8_26,fr8_t2).
body(r_fr8_26,fr20_d1).
body(r_fr8_26,fr14_f2).
body(r_fr8_26,fr25_c4).
body(r_fr8_26,fr8_d1).
body(r_fr8_26,fr8_p1).
body(r_fr8_26,fr8_q3).
body(r_fr8_26,fr8_q4).
body(r_fr8_26,fr8_s3).
body(r_fr8_26,fr17_x1).
body(r_fr8_26,fr8_x1).
body(r_fr8_26,fr3_x1).
head(r_fr8_27,fr8_t2).
body(r_fr8_27,fr20_d1).
body(r_fr8_27,fr8_a2).
body(r_fr8_27,fr8_d1).
body(r_fr8_27,fr8_e1).
body(r_fr8_27,fr8_e2).
body(r_fr8_27,fr8_p1).
body(r_fr8_27,fr8_u2).
body(r_fr8_27,fr8_v1).
body(r_fr8_27,fr8_w3).
body(r_fr8_27,fr3_x1).
body(r_fr8_27,fr5_t3).
body(r_fr8_27,fr8_y3).
head(r_fr8_28,fr8_t2).
body(r_fr8_28,fr20_d1).
body(r_fr8_28,fr8_a2).
body(r_fr8_28,fr8_e2).
body(r_fr8_28,fr4_d2).
body(r_fr8_28,fr8_p3).
body(r_fr8_28,fr8_q3).
body(r_fr8_28,fr8_s3).
body(r_fr8_28,fr8_x1).
body(r_fr8_28,fr22_q1).
head(r_fr8_29,fr8_t2).
body(r_fr8_29,fr4_e1).
body(r_fr8_29,fr25_d4).
body(r_fr8_29,fr8_e2).
body(r_fr8_29,fr5_b1).
body(r_fr8_29,fr8_p4).
body(r_fr8_29,fr8_q3).
body(r_fr8_29,fr8_q4).
body(r_fr8_29,fr14_x1).
body(r_fr8_29,fr8_u3).
head(r_fr8_30,fr8_v1).
body(r_fr8_30,fr20_d1).
body(r_fr8_30,fr25_c4).
body(r_fr8_30,fr8_p1).
body(r_fr8_30,fr8_p4).
body(r_fr8_30,fr8_r1).
body(r_fr8_30,fr8_r2).
body(r_fr8_30,fr8_s3).
body(r_fr8_30,fr17_x1).
body(r_fr8_30,fr8_y3).
head(r_fr8_31,fr8_v1).
body(r_fr8_31,fr8_a2).
body(r_fr8_31,fr11_f1).
body(r_fr8_31,fr22_a1).
body(r_fr8_31,fr8_p1).
body(r_fr8_31,fr8_w1).
body(r_fr8_31,fr8_w3).
body(r_fr8_31,fr8_x1).
body(r_fr8_31,fr5_t3).
body(r_fr8_31,fr22_q1).
body(r_fr8_31,fr8_z3).
head(r_fr8_32,fr8_v1).
body(r_fr8_32,fr8_p1).
body(r_fr8_32,fr8_p2).
body(r_fr8_32,fr8_p3).
body(r_fr8_32,fr8_q4).
body(r_fr8_32,fr8_r3).
body(r_fr8_32,fr8_s3).
body(r_fr8_32,fr8_v3).
body(r_fr8_32,fr8_w1).
body(r_fr8_32,fr8_w2).
body(r_fr8_32,fr22_q1).
body(r_fr8_32,fr8_z2).
head(r_fr8_33,fr8_v1).
body(r_fr8_33,fr14_f2).
body(r_fr8_33,fr4_e1).
body(r_fr8_33,fr8_p1).
body(r_fr8_33,fr8_r1).
body(r_fr8_33,fr8_r2).
body(r_fr8_33,fr14_x1).
body(r_fr8_33,fr8_s3).
body(r_fr8_33,fr8_u3).
body(r_fr8_33,fr8_w2).
body(r_fr8_33,fr8_z2).
body(r_fr8_33,fr8_z3).
head(r_fr8_34,fr8_v1).
body(r_fr8_34,fr20_d1).
body(r_fr8_34,fr8_p1).
body(r_fr8_34,fr8_q3).
body(r_fr8_34,fr8_q4).
body(r_fr8_34,fr8_r3).
body(r_fr8_34,fr16_p4).
body(r_fr8_34,fr8_u2).
body(r_fr8_34,fr17_x1).
body(r_fr8_34,fr8_w1).
body(r_fr8_34,fr8_x1).
body(r_fr8_34,fr8_z3).
head(r_fr8_35,fr8_s3).
body(r_fr8_35,fr20_d1).
body(r_fr8_35,fr8_a2).
body(r_fr8_35,fr11_f1).
body(r_fr8_35,fr8_p2).
body(r_fr8_35,fr8_p4).
body(r_fr8_35,fr8_r2).
body(r_fr8_35,fr8_r3).
body(r_fr8_35,fr8_u2).
body(r_fr8_35,fr8_u3).
body(r_fr8_35,fr8_y3).
body(r_fr8_35,fr8_z2).
body(r_fr8_35,fr8_z3).
head(r_fr8_36,fr8_s3).
body(r_fr8_36,fr14_f2).
body(r_fr8_36,fr11_f1).
body(r_fr8_36,fr22_a1).
body(r_fr8_36,fr4_e1).
body(r_fr8_36,fr8_p1).
body(r_fr8_36,fr8_p2).
body(r_fr8_36,fr8_p4).
body(r_fr8_36,fr8_q3).
body(r_fr8_36,fr8_q4).
body(r_fr8_36,fr8_w1).
body(r_fr8_36,fr8_w3).
body(r_fr8_36,fr8_y3).
head(r_fr8_37,fr8_y3).
body(r_fr8_37,fr8_a2).
body(r_fr8_37,fr25_c4).
body(r_fr8_37,fr8_c3).
body(r_fr8_37,fr25_d4).
body(r_fr8_37,fr8_e2).
body(r_fr8_37,fr5_b1).
body(r_fr8_37,fr8_p1).
body(r_fr8_37,fr8_r2).
body(r_fr8_37,fr3_x1).
body(r_fr8_37,fr8_z3).
head(r_fr8_38,fr8_y3).
body(r_fr8_38,fr22_a1).
body(r_fr8_38,fr11_c1).
body(r_fr8_38,fr8_e1).
body(r_fr8_38,fr8_q4).
body(r_fr8_38,fr8_r2).
body(r_fr8_38,fr8_r3).
body(r_fr8_38,fr14_x1).
body(r_fr8_38,fr8_u3).
body(r_fr8_38,fr8_w1).
body(r_fr8_38,fr5_t3).
body(r_fr8_38,fr22_q1).
body(r_fr8_38,fr8_z2).
head(r_fr8_39,fr8_p3).
body(r_fr8_39,fr14_f2).
body(r_fr8_39,fr8_e2).
body(r_fr8_39,fr8_p2).
body(r_fr8_39,fr8_p4).
body(r_fr8_39,fr8_q4).
body(r_fr8_39,fr16_p4).
body(r_fr8_39,fr8_u3).
body(r_fr8_39,fr17_x1).
body(r_fr8_39,fr8_w2).
body(r_fr8_39,fr8_z2).
head(r_fr8_40,fr8_p3).
body(r_fr8_40,fr11_c1).
body(r_fr8_40,fr8_e2).
body(r_fr8_40,fr5_b1).
body(r_fr8_40,fr8_p2).
body(r_fr8_40,fr8_p4).
body(r_fr8_40,fr8_q3).
body(r_fr8_40,fr8_r1).
body(r_fr8_40,fr8_r2).
body(r_fr8_40,fr8_u3).
body(r_fr8_40,fr17_x1).
body(r_fr8_40,fr8_v3).
body(r_fr8_40,fr8_x1).
head(r_fr8_41,fr8_p3).
body(r_fr8_41,fr8_p1).
body(r_fr8_41,fr8_p4).
body(r_fr8_41,fr8_q4).
body(r_fr8_41,fr8_r1).
body(r_fr8_41,fr8_r2).
body(r_fr8_41,fr14_x1).
body(r_fr8_41,fr17_x1).
body(r_fr8_41,fr8_v3).
body(r_fr8_41,fr8_w3).
body(r_fr8_41,fr8_x1).
body(r_fr8_41,fr8_z2).
head(r_fr8_42,fr8_p3).
body(r_fr8_42,fr8_d1).
body(r_fr8_42,fr25_d4).
body(r_fr8_42,fr4_d2).
body(r_fr8_42,fr5_b1).
body(r_fr8_42,fr8_p1).
body(r_fr8_42,fr8_q4).
body(r_fr8_42,fr8_r3).
body(r_fr8_42,fr16_p4).
body(r_fr8_42,fr8_u2).
body(r_fr8_42,fr8_u3).
body(r_fr8_42,fr8_w1).
body(r_fr8_42,fr8_z2).
head(r_fr8_43,fr8_p3).
body(r_fr8_43,fr11_f1).
body(r_fr8_43,fr22_a1).
body(r_fr8_43,fr11_c1).
body(r_fr8_43,fr8_c3).
body(r_fr8_43,fr8_e1).
body(r_fr8_43,fr5_b1).
body(r_fr8_43,fr16_p4).
body(r_fr8_43,fr8_v3).
body(r_fr8_43,fr8_w2).
body(r_fr8_43,fr8_z3).
head(r_fr8_44,fr5_t3).
body(r_fr8_44,fr20_d1).
body(r_fr8_44,fr8_a2).
body(r_fr8_44,fr14_f2).
body(r_fr8_44,fr4_e1).
body(r_fr8_44,fr11_c1).
body(r_fr8_44,fr4_d2).
body(r_fr8_44,fr8_r1).
body(r_fr8_44,fr8_z2).
body(r_fr8_44,fr8_z3).
head(r_fr8_45,fr5_t3).
body(r_fr8_45,fr20_d1).
body(r_fr8_45,fr8_c3).
body(r_fr8_45,fr8_e1).
body(r_fr8_45,fr4_d2).
body(r_fr8_45,fr8_q3).
body(r_fr8_45,fr14_x1).
body(r_fr8_45,fr16_p4).
body(r_fr8_45,fr8_v3).
body(r_fr8_45,fr8_w3).
body(r_fr8_45,fr8_x1).
body(r_fr8_45,fr8_z3).
head(r_fr8_46,fr16_p4).
body(r_fr8_46,fr20_d1).
body(r_fr8_46,fr14_f2).
body(r_fr8_46,fr25_c4).
body(r_fr8_46,fr11_c1).
body(r_fr8_46,fr25_d4).
body(r_fr8_46,fr5_b1).
body(r_fr8_46,fr8_p1).
body(r_fr8_46,fr8_p2).
body(r_fr8_46,fr8_w1).
body(r_fr8_46,fr3_x1).
body(r_fr8_46,fr22_q1).
head(r_fr8_47,fr16_p4).
body(r_fr8_47,fr22_a1).
body(r_fr8_47,fr8_p2).
body(r_fr8_47,fr8_p4).
body(r_fr8_47,fr8_q4).
body(r_fr8_47,fr8_r2).
body(r_fr8_47,fr8_u2).
body(r_fr8_47,fr8_u3).
body(r_fr8_47,fr8_v3).
body(r_fr8_47,fr8_w2).
body(r_fr8_47,fr8_w3).
body(r_fr8_47,fr3_x1).
body(r_fr8_47,fr8_z3).
head(r_fr8_48,fr8_r1).
body(r_fr8_48,fr25_c4).
body(r_fr8_48,fr11_f1).
body(r_fr8_48,fr4_e1).
body(r_fr8_48,fr8_p2).
body(r_fr8_48,fr8_q3).
body(r_fr8_48,fr8_q4).
body(r_fr8_48,fr8_r2).
body(r_fr8_48,fr14_x1).
body(r_fr8_48,fr8_u2).
body(r_fr8_48,fr8_w1).
body(r_fr8_48,fr3_x1).
body(r_fr8_48,fr22_q1).
head(r_fr8_49,fr8_r1).
body(r_fr8_49,fr20_d1).
body(r_fr8_49,fr8_q4).
body(r_fr8_49,fr8_u2).
body(r_fr8_49,fr8_u3).
body(r_fr8_49,fr8_v3).
body(r_fr8_49,fr8_w1).
body(r_fr8_49,fr8_w2).
body(r_fr8_49,fr8_x1).
body(r_fr8_49,fr3_x1).
body(r_fr8_49,fr22_q1).
body(r_fr8_49,fr8_z2).
body(r_fr8_49,fr8_z3).
head(r_fr8_50,fr8_r1).
body(r_fr8_50,fr25_d4).
body(r_fr8_50,fr8_p4).
body(r_fr8_50,fr8_q3).
body(r_fr8_50,fr8_q4).
body(r_fr8_50,fr14_x1).
body(r_fr8_50,fr8_u3).
body(r_fr8_50,fr17_x1).
body(r_fr8_50,fr8_w2).
body(r_fr8_50,fr8_x1).
body(r_fr8_50,fr3_x1).
head(r_fr8_51,fr8_r1).
body(r_fr8_51,fr25_d4).
body(r_fr8_51,fr8_p4).
body(r_fr8_51,fr8_q4).
body(r_fr8_51,fr8_r2).
body(r_fr8_51,fr8_r3).
body(r_fr8_51,fr14_x1).
body(r_fr8_51,fr8_u2).
body(r_fr8_51,fr8_w2).
body(r_fr8_51,fr8_w3).
body(r_fr8_51,fr3_x1).
head(r_fr8_52,fr8_w1).
body(r_fr8_52,fr8_p2).
body(r_fr8_52,fr8_q3).
body(r_fr8_52,fr8_q4).
body(r_fr8_52,fr8_r2).
body(r_fr8_52,fr8_r3).
body(r_fr8_52,fr14_x1).
body(r_fr8_52,fr8_v3).
body(r_fr8_52,fr8_w2).
body(r_fr8_52,fr8_x1).
body(r_fr8_52,fr3_x1).
body(r_fr8_52,fr8_z3).
head(r_fr8_53,fr8_w1).
body(r_fr8_53,fr8_a2).
body(r_fr8_53,fr8_p2).
body(r_fr8_53,fr8_p4).
body(r_fr8_53,fr8_r2).
body(r_fr8_53,fr14_x1).
body(r_fr8_53,fr8_v3).
body(r_fr8_53,fr8_w2).
body(r_fr8_53,fr8_x1).
body(r_fr8_53,fr3_x1).
body(r_fr8_53,fr22_q1).
body(r_fr8_53,fr8_z3).
head(r_fr8_54,fr8_w1).
body(r_fr8_54,fr20_d1).
body(r_fr8_54,fr22_a1).
body(r_fr8_54,fr8_c3).
body(r_fr8_54,fr25_d4).
body(r_fr8_54,fr5_b1).
body(r_fr8_54,fr8_u2).
body(r_fr8_54,fr8_u3).
body(r_fr8_54,fr8_w2).
body(r_fr8_54,fr8_z3).
head(r_fr8_55,fr8_w1).
body(r_fr8_55,fr14_f2).
body(r_fr8_55,fr22_a1).
body(r_fr8_55,fr11_c1).
body(r_fr8_55,fr8_e1).
body(r_fr8_55,fr4_d2).
body(r_fr8_55,fr5_b1).
body(r_fr8_55,fr8_p2).
body(r_fr8_55,fr8_q4).
body(r_fr8_55,fr8_u2).
body(r_fr8_55,fr8_u3).
body(r_fr8_55,fr3_x1).
head(r_fr8_56,fr8_w3).
body(r_fr8_56,fr8_p1).
body(r_fr8_56,fr8_p2).
body(r_fr8_56,fr8_r2).
body(r_fr8_56,fr8_r3).
body(r_fr8_56,fr8_u3).
body(r_fr8_56,fr17_x1).
body(r_fr8_56,fr8_x1).
body(r_fr8_56,fr3_x1).
body(r_fr8_56,fr22_q1).
body(r_fr8_56,fr8_z3).
head(r_fr8_57,fr8_w3).
body(r_fr8_57,fr8_a2).
body(r_fr8_57,fr25_c4).
body(r_fr8_57,fr11_f1).
body(r_fr8_57,fr25_d4).
body(r_fr8_57,fr8_e2).
body(r_fr8_57,fr4_d2).
body(r_fr8_57,fr8_p4).
body(r_fr8_57,fr8_q4).
body(r_fr8_57,fr8_u2).
body(r_fr8_57,fr8_u3).
body(r_fr8_57,fr17_x1).
body(r_fr8_57,fr8_x1).
head(r_fr8_58,fr8_w3).
body(r_fr8_58,fr8_p2).
body(r_fr8_58,fr8_q4).
body(r_fr8_58,fr8_r2).
body(r_fr8_58,fr8_r3).
body(r_fr8_58,fr14_x1).
body(r_fr8_58,fr8_u3).
body(r_fr8_58,fr8_w2).
body(r_fr8_58,fr22_q1).
body(r_fr8_58,fr8_z2).
head(r_fr8_59,fr8_w3).
body(r_fr8_59,fr11_f1).
body(r_fr8_59,fr4_e1).
body(r_fr8_59,fr8_q4).
body(r_fr8_59,fr8_r3).
body(r_fr8_59,fr14_x1).
body(r_fr8_59,fr8_u3).
body(r_fr8_59,fr8_v3).
body(r_fr8_59,fr8_x1).
body(r_fr8_59,fr3_x1).
body(r_fr8_59,fr22_q1).
head(r_fr8_60,fr8_p2).
body(r_fr8_60,fr20_d1).
body(r_fr8_60,fr14_f2).
body(r_fr8_60,fr11_c1).
body(r_fr8_60,fr8_p4).
body(r_fr8_60,fr8_q4).
body(r_fr8_60,fr8_r2).
body(r_fr8_60,fr8_w2).
body(r_fr8_60,fr8_x1).
body(r_fr8_60,fr3_x1).
body(r_fr8_60,fr8_z2).
head(r_fr8_61,fr8_p2).
body(r_fr8_61,fr11_c1).
body(r_fr8_61,fr8_p4).
body(r_fr8_61,fr8_q3).
body(r_fr8_61,fr8_q4).
body(r_fr8_61,fr8_r2).
body(r_fr8_61,fr14_x1).
body(r_fr8_61,fr8_u2).
body(r_fr8_61,fr8_u3).
body(r_fr8_61,fr8_v3).
body(r_fr8_61,fr22_q1).
body(r_fr8_61,fr8_z3).
head(r_fr8_62,fr8_p2).
body(r_fr8_62,fr14_f2).
body(r_fr8_62,fr22_a1).
body(r_fr8_62,fr8_p4).
body(r_fr8_62,fr8_q3).
body(r_fr8_62,fr8_r2).
body(r_fr8_62,fr8_r3).
body(r_fr8_62,fr8_u3).
body(r_fr8_62,fr17_x1).
body(r_fr8_62,fr8_w2).
body(r_fr8_62,fr8_x1).
body(r_fr8_62,fr22_q1).
body(r_fr8_62,fr8_z3).
head(r_fr8_63,fr8_p2).
body(r_fr8_63,fr20_d1).
body(r_fr8_63,fr8_a2).
body(r_fr8_63,fr8_c3).
body(r_fr8_63,fr25_d4).
body(r_fr8_63,fr8_e2).
body(r_fr8_63,fr8_r2).
body(r_fr8_63,fr8_u2).
body(r_fr8_63,fr8_u3).
body(r_fr8_63,fr17_x1).
body(r_fr8_63,fr3_x1).
body(r_fr8_63,fr8_z2).
head(r_fr8_64,fr8_p2).
body(r_fr8_64,fr20_d1).
body(r_fr8_64,fr8_c3).
body(r_fr8_64,fr25_d4).
body(r_fr8_64,fr8_p1).
body(r_fr8_64,fr8_q3).
body(r_fr8_64,fr8_r3).
body(r_fr8_64,fr8_u2).
body(r_fr8_64,fr8_u3).
body(r_fr8_64,fr17_x1).
body(r_fr8_64,fr8_z3).
head(r_fr8_65,fr8_p1).
body(r_fr8_65,fr8_a2).
body(r_fr8_65,fr14_f2).
body(r_fr8_65,fr11_f1).
body(r_fr8_65,fr11_c1).
body(r_fr8_65,fr8_c3).
body(r_fr8_65,fr8_e1).
body(r_fr8_65,fr8_p4).
body(r_fr8_65,fr8_q4).
body(r_fr8_65,fr8_r3).
body(r_fr8_65,fr17_x1).
body(r_fr8_65,fr8_x1).
body(r_fr8_65,fr8_z3).
head(r_fr8_66,fr8_p1).
body(r_fr8_66,fr20_d1).
body(r_fr8_66,fr4_e1).
body(r_fr8_66,fr25_d4).
body(r_fr8_66,fr8_e2).
body(r_fr8_66,fr4_d2).
body(r_fr8_66,fr5_b1).
body(r_fr8_66,fr8_q4).
body(r_fr8_66,fr14_x1).
body(r_fr8_66,fr17_x1).
body(r_fr8_66,fr8_v3).
body(r_fr8_66,fr8_w2).
head(r_fr8_67,fr8_p1).
body(r_fr8_67,fr8_a2).
body(r_fr8_67,fr25_c4).
body(r_fr8_67,fr22_a1).
body(r_fr8_67,fr25_d4).
body(r_fr8_67,fr8_e1).
body(r_fr8_67,fr8_p4).
body(r_fr8_67,fr8_q3).
body(r_fr8_67,fr8_x1).
body(r_fr8_67,fr22_q1).
head(r_fr8_68,fr8_r3).
body(r_fr8_68,fr20_d1).
body(r_fr8_68,fr11_f1).
body(r_fr8_68,fr11_c1).
body(r_fr8_68,fr8_e2).
body(r_fr8_68,fr5_b1).
body(r_fr8_68,fr8_q3).
body(r_fr8_68,fr8_u2).
body(r_fr8_68,fr8_u3).
body(r_fr8_68,fr8_w2).
body(r_fr8_68,fr8_x1).
body(r_fr8_68,fr22_q1).
head(r_fr8_69,fr8_r3).
body(r_fr8_69,fr11_f1).
body(r_fr8_69,fr22_a1).
body(r_fr8_69,fr4_d2).
body(r_fr8_69,fr14_x1).
body(r_fr8_69,fr17_x1).
body(r_fr8_69,fr8_w2).
body(r_fr8_69,fr8_x1).
body(r_fr8_69,fr22_q1).
body(r_fr8_69,fr8_z3).

assumption(fr9_a1).
assumption(fr9_b1).
assumption(fr9_c1).
assumption(fr9_d1).
assumption(fr9_e1).
assumption(fr15_b3).
assumption(fr9_a2).
assumption(fr9_b2).
assumption(fr9_c2).
assumption(fr23_c1).
assumption(fr9_e2).
assumption(fr9_f2).
assumption(fr9_a3).
assumption(fr9_b3).
assumption(fr9_c3).
contrary(fr9_a1,fr9_x1).
contrary(fr9_a2,fr9_q2).
contrary(fr9_a3,fr9_s4).
contrary(fr9_b1,fr3_x1).
contrary(fr9_b2,fr9_y3).
contrary(fr9_b3,fr9_q2).
contrary(fr9_c1,fr9_a3).
contrary(fr9_c2,fr6_p3).
contrary(fr9_c3,fr9_f2).
contrary(fr9_d1,fr2_r3).
contrary(fr23_c1,fr9_d1).
contrary(fr9_e1,fr9_q5).
contrary(fr9_e2,fr9_y5).
contrary(fr15_b3,fr9_r2).
contrary(fr9_f2,fr9_x3).
head(r_fr9_0,fr9_v3).
body(r_fr9_0,fr9_c2).
body(r_fr9_0,fr9_s3).
body(r_fr9_0,fr9_x4).
head(r_fr9_1,fr9_v3).
body(r_fr9_1,fr9_s2).
head(r_fr9_2,fr9_v3).
body(r_fr9_2,fr4_u2).
body(r_fr9_2,fr6_p3).
body(r_fr9_2,fr9_v1).
body(r_fr9_2,fr9_y4).
body(r_fr9_2,fr9_y5).
head(r_fr9_3,fr9_v3).
head(r_fr9_4,fr9_z1).
body(r_fr9_4,fr9_b1).
body(r_fr9_4,fr9_p2).
body(r_fr9_4,fr9_s2).
body(r_fr9_4,fr3_x1).
head(r_fr9_5,fr9_z1).
body(r_fr9_5,fr9_c1).
body(r_fr9_5,fr9_d1).
body(r_fr9_5,fr4_u2).
body(r_fr9_5,fr6_p3).
head(r_fr9_6,fr9_z1).
body(r_fr9_6,fr9_b1).
body(r_fr9_6,fr9_p5).
body(r_fr9_6,fr9_u4).
body(r_fr9_6,fr9_y5).
body(r_fr9_6,fr9_z2).
body(r_fr9_6,fr9_z4).
head(r_fr9_7,fr9_z1).
body(r_fr9_7,fr9_x1).
body(r_fr9_7,fr9_y1).
head(r_fr9_8,fr6_p3).
body(r_fr9_8,fr9_b3).
body(r_fr9_8,fr9_s5).
body(r_fr9_8,fr9_w1).
body(r_fr9_8,fr4_u2).
body(r_fr9_8,fr9_y3).
body(r_fr9_8,fr9_z2).
head(r_fr9_9,fr6_p3).
body(r_fr9_9,fr9_d1).
body(r_fr9_9,fr9_u2).
body(r_fr9_9,fr4_u2).
head(r_fr9_10,fr6_p3).
body(r_fr9_10,fr9_a3).
body(r_fr9_10,fr9_b2).
body(r_fr9_10,fr9_c2).
body(r_fr9_10,fr9_r3).
body(r_fr9_10,fr9_x4).
body(r_fr9_10,fr4_u2).
head(r_fr9_11,fr9_y1).
body(r_fr9_11,fr23_c1).
body(r_fr9_11,fr9_z5).
head(r_fr9_12,fr9_y1).
body(r_fr9_12,fr9_b2).
body(r_fr9_12,fr9_q4).
head(r_fr9_13,fr9_y1).
body(r_fr9_13,fr9_c2).
body(r_fr9_13,fr9_d1).
body(r_fr9_13,fr9_r2).
head(r_fr9_14,fr9_y1).
body(r_fr9_14,fr9_b3).
body(r_fr9_14,fr15_b3).
head(r_fr9_15,fr9_s2).
body(r_fr9_15,fr15_b3).
body(r_fr9_15,fr2_r3).
body(r_fr9_15,fr4_u2).
head(r_fr9_16,fr9_s2).
body(r_fr9_16,fr9_b1).
body(r_fr9_16,fr15_b3).
body(r_fr9_16,fr9_p1).
body(r_fr9_16,fr9_r2).
body(r_fr9_16,fr9_w4).
body(r_fr9_16,fr9_x2).
head(r_fr9_17,fr9_s2).
body(r_fr9_17,fr9_a3).
body(r_fr9_17,fr9_c1).
body(r_fr9_17,fr9_c2).
body(r_fr9_17,fr9_f2).
body(r_fr9_17,fr9_y2).
head(r_fr9_18,fr9_s2).
body(r_fr9_18,fr9_a2).
body(r_fr9_18,fr9_c2).
head(r_fr9_19,fr9_s2).
body(r_fr9_19,fr9_d1).
body(r_fr9_19,fr15_b3).
body(r_fr9_19,fr9_r4).
body(r_fr9_19,fr9_t4).
body(r_fr9_19,fr9_v1).
body(r_fr9_19,fr9_w3).
head(r_fr9_20,fr9_r5).
body(r_fr9_20,fr9_c2).
head(r_fr9_21,fr9_r5).
body(r_fr9_21,fr9_a1).
body(r_fr9_21,fr9_b1).
body(r_fr9_21,fr9_b3).
body(r_fr9_21,fr9_c2).
body(r_fr9_21,fr9_c3).
body(r_fr9_21,fr23_c1).
head(r_fr9_22,fr4_u2).
body(r_fr9_22,fr9_t1).
body(r_fr9_22,fr9_w4).
body(r_fr9_22,fr9_y3).
head(r_fr9_23,fr4_u2).
body(r_fr9_23,fr9_b3).
body(r_fr9_23,fr9_e2).
head(r_fr9_24,fr4_u2).
body(r_fr9_24,fr9_a3).
body(r_fr9_24,fr9_b1).
body(r_fr9_24,fr9_b3).
body(r_fr9_24,fr9_c3).
body(r_fr9_24,fr23_c1).
body(r_fr9_24,fr15_b3).
head(r_fr9_25,fr4_u2).
body(r_fr9_25,fr9_c2).
body(r_fr9_25,fr9_t4).
head(r_fr9_26,fr9_p1).
body(r_fr9_26,fr9_c2).
head(r_fr9_27,fr9_p1).
body(r_fr9_27,fr9_b1).
body(r_fr9_27,fr9_b3).
body(r_fr9_27,fr9_c2).
body(r_fr9_27,fr15_b3).
head(r_fr9_28,fr9_q2).
body(r_fr9_28,fr9_p5).
body(r_fr9_28,fr9_s4).
body(r_fr9_28,fr9_x2).
body(r_fr9_28,fr9_y3).
head(r_fr9_29,fr9_q2).
body(r_fr9_29,fr9_b1).
body(r_fr9_29,fr9_c1).
body(r_fr9_29,fr9_c2).
head(r_fr9_30,fr9_p3).
head(r_fr9_31,fr9_p3).
body(r_fr9_31,fr9_w2).
head(r_fr9_32,fr9_p3).
body(r_fr9_32,fr9_a3).
head(r_fr9_33,fr9_y3).
body(r_fr9_33,fr9_a3).
body(r_fr9_33,fr9_b2).
body(r_fr9_33,fr9_d1).
body(r_fr9_33,fr9_x1).
head(r_fr9_34,fr9_y3).
body(r_fr9_34,fr9_a1).
body(r_fr9_34,fr9_e1).
body(r_fr9_34,fr9_p5).
body(r_fr9_34,fr9_s4).
head(r_fr9_35,fr9_y3).
body(r_fr9_35,fr9_r3).
body(r_fr9_35,fr3_x1).
head(r_fr9_36,fr9_y3).
body(r_fr9_36,fr9_r3).
body(r_fr9_36,fr9_s5).
head(r_fr9_37,fr9_y3).
body(r_fr9_37,fr9_a1).
body(r_fr9_37,fr9_b1).
body(r_fr9_37,fr9_e1).
head(r_fr9_38,fr9_p4).
body(r_fr9_38,fr9_a2).
body(r_fr9_38,fr9_e2).
body(r_fr9_38,fr15_b3).
body(r_fr9_38,fr9_f2).
head(r_fr9_39,fr9_p4).
body(r_fr9_39,fr23_c1).
body(r_fr9_39,fr15_b3).
head(r_fr9_40,fr9_p4).
body(r_fr9_40,fr9_c2).
body(r_fr9_40,fr2_r3).
head(r_fr9_41,fr9_p4).
body(r_fr9_41,fr9_u4).
head(r_fr9_42,fr9_v1).
body(r_fr9_42,fr9_a1).
body(r_fr9_42,fr9_b1).
body(r_fr9_42,fr9_b2).
body(r_fr9_42,fr9_c2).
body(r_fr9_42,fr23_c1).
head(r_fr9_43,fr9_v1).
body(r_fr9_43,fr9_s1).
head(r_fr9_44,fr9_v1).
body(r_fr9_44,fr9_b3).
body(r_fr9_44,fr23_c1).
body(r_fr9_44,fr15_b3).
body(r_fr9_44,fr9_f2).
body(r_fr9_44,fr9_s3).
head(r_fr9_45,fr9_v1).
body(r_fr9_45,fr9_p5).
body(r_fr9_45,fr9_u3).
body(r_fr9_45,fr9_w4).
head(r_fr9_46,fr9_v1).
body(r_fr9_46,fr15_b3).
body(r_fr9_46,fr9_x1).
head(r_fr9_47,fr9_u4).
body(r_fr9_47,fr9_f2).
body(r_fr9_47,fr9_q4).
body(r_fr9_47,fr9_q5).
body(r_fr9_47,fr9_t5).
body(r_fr9_47,fr9_w2).
body(r_fr9_47,fr9_w5).
head(r_fr9_48,fr9_u4).
body(r_fr9_48,fr9_c1).
body(r_fr9_48,fr9_c2).
body(r_fr9_48,fr9_f2).
body(r_fr9_48,fr9_r1).
head(r_fr9_49,fr9_u4).
head(r_fr9_50,fr9_p5).
body(r_fr9_50,fr9_f2).
body(r_fr9_50,fr9_w1).
head(r_fr9_51,fr9_p5).
body(r_fr9_51,fr9_e1).
head(r_fr9_52,fr9_y5).
body(r_fr9_52,fr9_q5).
body(r_fr9_52,fr9_r1).
body(r_fr9_52,fr3_x1).
body(r_fr9_52,fr9_w1).
head(r_fr9_53,fr9_y5).
body(r_fr9_53,fr23_c1).
body(r_fr9_53,fr9_e1).
body(r_fr9_53,fr9_s3).
body(r_fr9_53,fr9_x1).
body(r_fr9_53,fr9_z5).
head(r_fr9_54,fr9_y5).
body(r_fr9_54,fr9_a1).
body(r_fr9_54,fr9_x3).
head(r_fr9_55,fr9_y5).
body(r_fr9_55,fr23_c1).
body(r_fr9_55,fr9_e1).
head(r_fr9_56,fr9_y5).
body(r_fr9_56,fr9_b2).
body(r_fr9_56,fr9_c2).
body(r_fr9_56,fr9_q1).
body(r_fr9_56,fr9_u2).
body(r_fr9_56,fr9_x4).
body(r_fr9_56,fr9_z2).
head(r_fr9_57,fr9_y4).
body(r_fr9_57,fr23_c1).
body(r_fr9_57,fr9_e2).
body(r_fr9_57,fr9_f2).
body(r_fr9_57,fr9_r2).
body(r_fr9_57,fr9_s5).
head(r_fr9_58,fr9_y4).
body(r_fr9_58,fr9_b1).
body(r_fr9_58,fr9_b3).
body(r_fr9_58,fr9_c2).
body(r_fr9_58,fr9_p2).
head(r_fr9_59,fr9_y4).
body(r_fr9_59,fr9_c1).
body(r_fr9_59,fr9_t1).
body(r_fr9_59,fr9_x1).
body(r_fr9_59,fr9_x3).
body(r_fr9_59,fr9_y2).
body(r_fr9_59,fr9_z4).
head(r_fr9_60,fr9_y4).
body(r_fr9_60,fr9_a2).
body(r_fr9_60,fr9_c2).
body(r_fr9_60,fr15_b3).
body(r_fr9_60,fr9_f2).
head(r_fr9_61,fr9_r3).
body(r_fr9_61,fr9_a3).
body(r_fr9_61,fr9_p2).
body(r_fr9_61,fr9_s1).
body(r_fr9_61,fr9_s3).
head(r_fr9_62,fr9_r3).
body(r_fr9_62,fr9_a1).
body(r_fr9_62,fr9_b3).
body(r_fr9_62,fr9_d1).
body(r_fr9_62,fr9_z4).
head(r_fr9_63,fr9_q3).
head(r_fr9_64,fr9_q3).
body(r_fr9_64,fr9_f2).
body(r_fr9_64,fr9_s3).
body(r_fr9_64,fr2_r3).
body(r_fr9_64,fr9_t5).
body(r_fr9_64,fr9_w4).
body(r_fr9_64,fr9_x2).
head(r_fr9_65,fr9_q3).
body(r_fr9_65,fr9_c1).
body(r_fr9_65,fr9_p2).
body(r_fr9_65,fr9_r1).
body(r_fr9_65,fr9_v4).
body(r_fr9_65,fr9_w2).
head(r_fr9_66,fr9_q3).
body(r_fr9_66,fr9_a1).
body(r_fr9_66,fr9_b2).
body(r_fr9_66,fr9_c2).
body(r_fr9_66,fr9_d1).
body(r_fr9_66,fr15_b3).
body(r_fr9_66,fr9_f2).
head(r_fr9_67,fr9_w3).
body(r_fr9_67,fr9_b1).
body(r_fr9_67,fr9_d1).
body(r_fr9_67,fr23_c1).
body(r_fr9_67,fr9_x3).
head(r_fr9_68,fr9_w3).
body(r_fr9_68,fr9_f2).
body(r_fr9_68,fr9_q1).
body(r_fr9_68,fr9_t2).
body(r_fr9_68,fr9_u3).
body(r_fr9_68,fr9_v2).
head(r_fr9_69,fr9_w3).
body(r_fr9_69,fr9_a2).
body(r_fr9_69,fr9_c3).
body(r_fr9_69,fr9_e1).
head(r_fr9_70,fr9_w3).
body(r_fr9_70,fr9_a3).
body(r_fr9_70,fr9_e2).
body(r_fr9_70,fr9_r4).
body(r_fr9_70,fr9_t4).
head(r_fr9_71,fr9_w3).
body(r_fr9_71,fr9_a1).
body(r_fr9_71,fr9_s5).

assumption(fr10_a1).
assumption(fr10_b1).
assumption(fr10_c1).
assumption(fr15_f1).
assumption(fr10_e1).
assumption(fr10_f1).
assumption(fr10_a2).
assumption(fr10_b2).
assumption(fr10_c2).
assumption(fr10_d2).
assumption(fr15_b3).
assumption(fr10_f2).
assumption(fr18_c3).
assumption(fr10_b3).
assumption(fr23_f1).
contrary(fr10_a1,fr10_p3).
contrary(fr10_a2,fr16_t4).
contrary(fr18_c3,fr15_b3).
contrary(fr10_b1,fr10_e1).
contrary(fr10_b2,fr10_f2).
contrary(fr10_b3,fr10_e1).
contrary(fr10_c1,fr10_r3).
contrary(fr10_c2,fr10_w1).
contrary(fr23_f1,fr16_t4).
contrary(fr15_f1,fr10_z1).
contrary(fr10_d2,fr10_f2).
contrary(fr10_e1,fr10_t1).
contrary(fr15_b3,fr10_r3).
contrary(fr10_f1,fr18_c3).
contrary(fr10_f2,fr13_p3).
head(r_fr10_0,fr10_s3).
body(r_fr10_0,fr10_b2).
body(r_fr10_0,fr10_c2).
body(r_fr10_0,fr15_b3).
body(r_fr10_0,fr10_f2).
body(r_fr10_0,fr10_s2).
body(r_fr10_0,fr13_p3).
head(r_fr10_1,fr10_s3).
body(r_fr10_1,fr10_p3).
body(r_fr10_1,fr10_r3).
body(r_fr10_1,fr10_x2).
head(r_fr10_2,fr10_s3).
body(r_fr10_2,fr18_c3).
body(r_fr10_2,fr10_b1).
body(r_fr10_2,fr23_f1).
body(r_fr10_2,fr15_f1).
body(r_fr10_2,fr10_d2).
body(r_fr10_2,fr10_f2).
head(r_fr10_3,fr10_p4).
body(r_fr10_3,fr10_p3).
body(r_fr10_3,fr10_q3).
body(r_fr10_3,fr16_t4).
body(r_fr10_3,fr10_u3).
body(r_fr10_3,fr10_y3).
body(r_fr10_3,fr21_v1).
head(r_fr10_4,fr10_p4).
body(r_fr10_4,fr10_b1).
body(r_fr10_4,fr10_c2).
body(r_fr10_4,fr10_v1).
head(r_fr10_5,fr10_p4).
body(r_fr10_5,fr10_q4).
body(r_fr10_5,fr16_t4).
body(r_fr10_5,fr24_t6).
body(r_fr10_5,fr10_t3).
body(r_fr10_5,fr13_p1).
body(r_fr10_5,fr8_p1).
head(r_fr10_6,fr10_p4).
body(r_fr10_6,fr10_q3).
body(r_fr10_6,fr10_v2).
body(r_fr10_6,fr8_p1).
head(r_fr10_7,fr10_q4).
body(r_fr10_7,fr10_d2).
body(r_fr10_7,fr10_p1).
body(r_fr10_7,fr16_t4).
body(r_fr10_7,fr10_t1).
head(r_fr10_8,fr10_q4).
body(r_fr10_8,fr10_a1).
body(r_fr10_8,fr10_a2).
body(r_fr10_8,fr23_f1).
body(r_fr10_8,fr10_d2).
body(r_fr10_8,fr10_e1).
body(r_fr10_8,fr15_b3).
head(r_fr10_9,fr10_q4).
body(r_fr10_9,fr10_a1).
body(r_fr10_9,fr18_c3).
body(r_fr10_9,fr10_c1).
body(r_fr10_9,fr10_d2).
body(r_fr10_9,fr10_v1).
head(r_fr10_10,fr10_q4).
body(r_fr10_10,fr10_b1).
body(r_fr10_10,fr10_c1).
body(r_fr10_10,fr23_f1).
body(r_fr10_10,fr10_e1).
body(r_fr10_10,fr10_f2).
head(r_fr10_11,fr10_q4).
body(r_fr10_11,fr10_q2).
body(r_fr10_11,fr10_v2).
body(r_fr10_11,fr13_p3).
body(r_fr10_11,fr13_r1).
body(r_fr10_11,fr21_v1).
head(r_fr10_12,fr8_p1).
body(r_fr10_12,fr10_s1).
body(r_fr10_12,fr24_p6).
body(r_fr10_12,fr21_v1).
head(r_fr10_13,fr8_p1).
body(r_fr10_13,fr10_a2).
body(r_fr10_13,fr10_b3).
body(r_fr10_13,fr15_f1).
body(r_fr10_13,fr10_t3).
head(r_fr10_14,fr8_p1).
body(r_fr10_14,fr18_c3).
body(r_fr10_14,fr10_b1).
body(r_fr10_14,fr23_f1).
body(r_fr10_14,fr10_e1).
body(r_fr10_14,fr10_r3).
head(r_fr10_15,fr8_p1).
body(r_fr10_15,fr10_c2).
body(r_fr10_15,fr10_s2).
body(r_fr10_15,fr10_v1).
body(r_fr10_15,fr10_x2).
head(r_fr10_16,fr10_p3).
body(r_fr10_16,fr10_f2).
body(r_fr10_16,fr10_q1).
body(r_fr10_16,fr24_t6).
body(r_fr10_16,fr10_s1).
body(r_fr10_16,fr10_x2).
body(r_fr10_16,fr10_y3).
head(r_fr10_17,fr10_p3).
body(r_fr10_17,fr10_p1).
body(r_fr10_17,fr10_q2).
body(r_fr10_17,fr10_t3).
body(r_fr10_17,fr10_w2).
body(r_fr10_17,fr13_p3).
head(r_fr10_18,fr10_p3).
body(r_fr10_18,fr10_u3).
body(r_fr10_18,fr10_w2).
body(r_fr10_18,fr10_y1).
head(r_fr10_19,fr10_p3).
body(r_fr10_19,fr24_p6).
body(r_fr10_19,fr13_r1).
body(r_fr10_19,fr21_v1).
head(r_fr10_20,fr10_p1).
body(r_fr10_20,fr10_c2).
body(r_fr10_20,fr10_d2).
body(r_fr10_20,fr10_s1).
body(r_fr10_20,fr10_s2).
body(r_fr10_20,fr14_w2).
head(r_fr10_21,fr10_p1).
body(r_fr10_21,fr10_a2).
body(r_fr10_21,fr10_b3).
body(r_fr10_21,fr10_c2).
body(r_fr10_21,fr15_f1).
head(r_fr10_22,fr13_p3).
body(r_fr10_22,fr10_q3).
body(r_fr10_22,fr10_s1).
body(r_fr10_22,fr14_w2).
body(r_fr10_22,fr10_v2).
head(r_fr10_23,fr13_p3).
body(r_fr10_23,fr10_a1).
body(r_fr10_23,fr18_c3).
body(r_fr10_23,fr13_p1).
head(r_fr10_24,fr13_p3).
body(r_fr10_24,fr10_a2).
body(r_fr10_24,fr10_c2).
body(r_fr10_24,fr10_f2).
body(r_fr10_24,fr10_z1).
head(r_fr10_25,fr10_w2).
body(r_fr10_25,fr16_t4).
body(r_fr10_25,fr10_x2).
body(r_fr10_25,fr10_y1).
body(r_fr10_25,fr13_r1).
head(r_fr10_26,fr10_w2).
body(r_fr10_26,fr10_b1).
body(r_fr10_26,fr10_b3).
body(r_fr10_26,fr10_e1).
body(r_fr10_26,fr13_r1).
head(r_fr10_27,fr10_q1).
body(r_fr10_27,fr16_t4).
body(r_fr10_27,fr10_r3).
body(r_fr10_27,fr10_t1).
body(r_fr10_27,fr10_u3).
body(r_fr10_27,fr24_p6).
body(r_fr10_27,fr21_v1).
head(r_fr10_28,fr10_q1).
body(r_fr10_28,fr10_b3).
body(r_fr10_28,fr15_f1).
body(r_fr10_28,fr10_d2).
body(r_fr10_28,fr10_f1).
body(r_fr10_28,fr10_x3).
head(r_fr10_29,fr10_q1).
body(r_fr10_29,fr18_c3).
body(r_fr10_29,fr10_b3).
body(r_fr10_29,fr10_d2).
body(r_fr10_29,fr10_p2).
body(r_fr10_29,fr10_t3).
body(r_fr10_29,fr10_y3).
head(r_fr10_30,fr10_q1).
body(r_fr10_30,fr10_d2).
body(r_fr10_30,fr10_t1).
body(r_fr10_30,fr13_p3).
head(r_fr10_31,fr10_u3).
body(r_fr10_31,fr10_c1).
body(r_fr10_31,fr10_c2).
body(r_fr10_31,fr10_e1).
body(r_fr10_31,fr10_f1).
body(r_fr10_31,fr10_y1).
head(r_fr10_32,fr10_u3).
body(r_fr10_32,fr10_b3).
body(r_fr10_32,fr10_c2).
body(r_fr10_32,fr10_f2).
body(r_fr10_32,fr10_x2).
body(r_fr10_32,fr21_v1).
head(r_fr10_33,fr10_u3).
body(r_fr10_33,fr10_q2).
body(r_fr10_33,fr10_q3).
body(r_fr10_33,fr16_t4).
body(r_fr10_33,fr10_t3).
body(r_fr10_33,fr14_w2).
body(r_fr10_33,fr10_y3).
head(r_fr10_34,fr10_u3).
body(r_fr10_34,fr18_c3).
body(r_fr10_34,fr10_b1).
body(r_fr10_34,fr10_c2).
body(r_fr10_34,fr15_f1).
body(r_fr10_34,fr10_f2).
body(r_fr10_34,fr14_w2).
head(r_fr10_35,fr10_y3).
body(r_fr10_35,fr10_a1).
body(r_fr10_35,fr10_f1).
body(r_fr10_35,fr10_t1).
body(r_fr10_35,fr10_x3).
head(r_fr10_36,fr10_y3).
body(r_fr10_36,fr10_b1).
body(r_fr10_36,fr10_c1).
body(r_fr10_36,fr10_c2).
body(r_fr10_36,fr15_f1).
body(r_fr10_36,fr10_d2).
head(r_fr10_37,fr10_y3).
body(r_fr10_37,fr10_b3).
body(r_fr10_37,fr10_c1).
body(r_fr10_37,fr24_p6).
body(r_fr10_37,fr10_z1).
head(r_fr10_38,fr10_y3).
body(r_fr10_38,fr10_p2).
body(r_fr10_38,fr13_p1).
body(r_fr10_38,fr10_x3).
body(r_fr10_38,fr10_z1).
head(r_fr10_39,fr21_v1).
body(r_fr10_39,fr10_a2).
body(r_fr10_39,fr18_c3).
body(r_fr10_39,fr10_b2).
body(r_fr10_39,fr10_d2).
body(r_fr10_39,fr10_e1).
body(r_fr10_39,fr15_b3).
head(r_fr10_40,fr21_v1).
body(r_fr10_40,fr10_a1).
body(r_fr10_40,fr10_f2).
body(r_fr10_40,fr10_t1).
body(r_fr10_40,fr24_p6).
body(r_fr10_40,fr10_y1).
head(r_fr10_41,fr21_v1).
body(r_fr10_41,fr10_b1).
body(r_fr10_41,fr10_c2).
body(r_fr10_41,fr15_b3).
head(r_fr10_42,fr21_v1).
body(r_fr10_42,fr10_a2).
body(r_fr10_42,fr10_q2).
body(r_fr10_42,fr13_p1).
body(r_fr10_42,fr10_x2).
body(r_fr10_42,fr13_r1).
head(r_fr10_43,fr21_v1).
body(r_fr10_43,fr10_s1).
body(r_fr10_43,fr10_s2).
body(r_fr10_43,fr10_t1).
body(r_fr10_43,fr13_p3).
body(r_fr10_43,fr10_y1).
head(r_fr10_44,fr24_p6).
body(r_fr10_44,fr10_c2).
body(r_fr10_44,fr15_b3).
body(r_fr10_44,fr10_y1).
head(r_fr10_45,fr24_p6).
body(r_fr10_45,fr10_b1).
body(r_fr10_45,fr10_b2).
body(r_fr10_45,fr10_c2).
body(r_fr10_45,fr16_t4).
body(r_fr10_45,fr10_y1).
head(r_fr10_46,fr14_w2).
body(r_fr10_46,fr10_a2).
body(r_fr10_46,fr10_c1).
body(r_fr10_46,fr10_d2).
body(r_fr10_46,fr10_e1).
head(r_fr10_47,fr14_w2).
body(r_fr10_47,fr18_c3).
body(r_fr10_47,fr10_b3).
body(r_fr10_47,fr23_f1).
body(r_fr10_47,fr15_f1).
body(r_fr10_47,fr24_t6).
head(r_fr10_48,fr14_w2).
body(r_fr10_48,fr10_a1).
body(r_fr10_48,fr10_a2).
body(r_fr10_48,fr10_b3).
body(r_fr10_48,fr10_d2).
body(r_fr10_48,fr10_e1).
body(r_fr10_48,fr13_r1).
head(r_fr10_49,fr14_w2).
body(r_fr10_49,fr16_t4).
body(r_fr10_49,fr24_t6).
body(r_fr10_49,fr10_t2).
body(r_fr10_49,fr10_w1).
head(r_fr10_50,fr10_p2).
body(r_fr10_50,fr10_c2).
body(r_fr10_50,fr10_d2).
body(r_fr10_50,fr10_f2).
body(r_fr10_50,fr10_r3).
body(r_fr10_50,fr10_v2).
head(r_fr10_51,fr10_p2).
body(r_fr10_51,fr10_a1).
body(r_fr10_51,fr15_b3).
body(r_fr10_51,fr10_f1).
body(r_fr10_51,fr10_s1).
body(r_fr10_51,fr10_t2).
head(r_fr10_52,fr10_p2).
body(r_fr10_52,fr10_a1).
body(r_fr10_52,fr10_c1).
body(r_fr10_52,fr10_r3).
body(r_fr10_52,fr10_t1).
body(r_fr10_52,fr10_w1).
body(r_fr10_52,fr10_y1).
head(r_fr10_53,fr10_p2).
body(r_fr10_53,fr10_b1).
body(r_fr10_53,fr10_b3).
body(r_fr10_53,fr10_s2).
body(r_fr10_53,fr13_p3).
head(r_fr10_54,fr10_v2).
body(r_fr10_54,fr15_f1).
body(r_fr10_54,fr16_t4).
body(r_fr10_54,fr10_x3).
head(r_fr10_55,fr10_v2).
body(r_fr10_55,fr10_a1).
body(r_fr10_55,fr10_b2).
body(r_fr10_55,fr23_f1).
body(r_fr10_55,fr10_r3).
body(r_fr10_55,fr10_t3).
body(r_fr10_55,fr13_p3).
head(r_fr10_56,fr10_v2).
body(r_fr10_56,fr10_c1).
body(r_fr10_56,fr10_d2).
body(r_fr10_56,fr10_f1).
body(r_fr10_56,fr10_f2).
body(r_fr10_56,fr13_p3).
head(r_fr10_57,fr13_p1).
body(r_fr10_57,fr10_c1).
body(r_fr10_57,fr23_f1).
body(r_fr10_57,fr10_f1).
head(r_fr10_58,fr13_p1).
body(r_fr10_58,fr10_q2).
body(r_fr10_58,fr24_t6).
body(r_fr10_58,fr10_s1).
body(r_fr10_58,fr10_t3).
head(r_fr10_59,fr13_p1).
body(r_fr10_59,fr10_e1).
body(r_fr10_59,fr10_r3).
body(r_fr10_59,fr10_s2).
head(r_fr10_60,fr13_p1).
body(r_fr10_60,fr10_e1).
body(r_fr10_60,fr10_s1).
body(r_fr10_60,fr10_t2).
head(r_fr10_61,fr13_p1).
body(r_fr10_61,fr23_f1).
body(r_fr10_61,fr10_f1).
body(r_fr10_61,fr10_x3).
body(r_fr10_61,fr10_y1).
head(r_fr10_62,fr10_z1).
body(r_fr10_62,fr10_b3).
body(r_fr10_62,fr23_f1).
body(r_fr10_62,fr10_d2).
body(r_fr10_62,fr15_b3).
body(r_fr10_62,fr10_f2).
head(r_fr10_63,fr10_z1).
body(r_fr10_63,fr10_b2).
body(r_fr10_63,fr10_d2).
body(r_fr10_63,fr10_e1).
body(r_fr10_63,fr10_f2).
body(r_fr10_63,fr13_r1).
head(r_fr10_64,fr10_z1).
body(r_fr10_64,fr10_c1).
body(r_fr10_64,fr10_f2).
body(r_fr10_64,fr10_t1).
body(r_fr10_64,fr10_t3).
head(r_fr10_65,fr10_x3).
body(r_fr10_65,fr10_a1).
body(r_fr10_65,fr15_f1).
body(r_fr10_65,fr10_f1).
body(r_fr10_65,fr10_x2).
head(r_fr10_66,fr10_x3).
body(r_fr10_66,fr10_a1).
body(r_fr10_66,fr15_b3).
body(r_fr10_66,fr10_t3).
head(r_fr10_67,fr10_x3).
body(r_fr10_67,fr10_a1).
body(r_fr10_67,fr10_d2).
body(r_fr10_67,fr10_f2).
head(r_fr10_68,fr10_x3).
body(r_fr10_68,fr10_f2).
body(r_fr10_68,fr10_s1).
body(r_fr10_68,fr10_s2).
body(r_fr10_68,fr13_r1).
head(r_fr10_69,fr10_t3).
body(r_fr10_69,fr10_a2).
body(r_fr10_69,fr10_c1).
body(r_fr10_69,fr23_f1).
body(r_fr10_69,fr10_y1).
head(r_fr10_70,fr10_t3).
body(r_fr10_70,fr10_a2).
body(r_fr10_70,fr23_f1).
body(r_fr10_70,fr10_d2).
head(r_fr10_71,fr10_t3).
body(r_fr10_71,fr10_a1).
body(r_fr10_71,fr10_d2).
body(r_fr10_71,fr10_v1).
head(r_fr10_72,fr10_t3).
body(r_fr10_72,fr10_a2).
body(r_fr10_72,fr10_d2).
body(r_fr10_72,fr10_t2).
head(r_fr10_73,fr10_t3).
body(r_fr10_73,fr10_b3).
body(r_fr10_73,fr10_c2).
body(r_fr10_73,fr10_d2).
body(r_fr10_73,fr13_p3).

assumption(fr11_a1).
assumption(fr11_b1).
assumption(fr11_c1).
assumption(fr11_d1).
assumption(fr9_a2).
assumption(fr11_f1).
assumption(fr11_a2).
assumption(fr11_b2).
assumption(fr11_c2).
assumption(fr20_a1).
assumption(fr11_e2).
assumption(fr11_f2).
assumption(fr11_a3).
assumption(fr11_b3).
assumption(fr17_c2).
contrary(fr11_a1,fr12_z2).
contrary(fr11_a2,fr11_p3).
contrary(fr11_a3,fr11_x2).
contrary(fr11_b1,fr11_r3).
contrary(fr11_b2,fr11_b1).
contrary(fr11_b3,fr11_r3).
contrary(fr11_c1,fr11_v1).
contrary(fr11_c2,fr11_r3).
contrary(fr17_c2,fr11_p2).
contrary(fr11_d1,fr11_b1).
contrary(fr20_a1,fr11_p3).
contrary(fr9_a2,fr11_b2).
contrary(fr11_e2,fr11_a3).
contrary(fr11_f1,fr11_y2).
contrary(fr11_f2,fr11_x2).
head(r_fr11_0,fr25_p4).
body(r_fr11_0,fr11_a3).
body(r_fr11_0,fr11_b2).
head(r_fr11_1,fr25_p4).
body(r_fr11_1,fr11_b1).
head(r_fr11_2,fr25_p4).
body(r_fr11_2,fr11_a3).
head(r_fr11_3,fr25_p4).
body(r_fr11_3,fr11_b3).
body(r_fr11_3,fr20_a1).
head(r_fr11_4,fr11_x2).
body(r_fr11_4,fr11_b2).
body(r_fr11_4,fr11_c1).
body(r_fr11_4,fr11_d1).
body(r_fr11_4,fr11_s1).
head(r_fr11_5,fr11_x2).
body(r_fr11_5,fr11_a1).
body(r_fr11_5,fr11_b2).
body(r_fr11_5,fr17_c2).
body(r_fr11_5,fr11_d1).
body(r_fr11_5,fr20_a1).
head(r_fr11_6,fr11_x2).
body(r_fr11_6,fr11_q3).
body(r_fr11_6,fr11_y1).
head(r_fr11_7,fr11_x2).
body(r_fr11_7,fr11_b3).
body(r_fr11_7,fr11_p1).
body(r_fr11_7,fr11_p2).
body(r_fr11_7,fr11_p3).
body(r_fr11_7,fr11_q1).
body(r_fr11_7,fr11_v1).
head(r_fr11_8,fr11_x2).
body(r_fr11_8,fr11_x1).
head(r_fr11_9,fr11_p1).
body(r_fr11_9,fr11_c1).
body(r_fr11_9,fr11_d1).
body(r_fr11_9,fr11_f1).
body(r_fr11_9,fr11_f2).
body(r_fr11_9,fr11_q2).
head(r_fr11_10,fr11_p1).
body(r_fr11_10,fr11_a1).
body(r_fr11_10,fr11_a3).
body(r_fr11_10,fr11_b2).
body(r_fr11_10,fr17_c2).
body(r_fr11_10,fr11_d1).
body(r_fr11_10,fr11_f1).
head(r_fr11_11,fr11_u2).
body(r_fr11_11,fr11_b3).
body(r_fr11_11,fr11_c1).
body(r_fr11_11,fr11_f1).
body(r_fr11_11,fr11_f2).
body(r_fr11_11,fr11_z1).
head(r_fr11_12,fr11_u2).
head(r_fr11_13,fr11_u2).
body(r_fr11_13,fr11_a2).
body(r_fr11_13,fr11_b1).
body(r_fr11_13,fr17_c2).
body(r_fr11_13,fr11_d1).
body(r_fr11_13,fr11_f2).
head(r_fr11_14,fr11_r3).
body(r_fr11_14,fr11_a3).
body(r_fr11_14,fr11_b1).
body(r_fr11_14,fr11_e2).
body(r_fr11_14,fr7_z4).
head(r_fr11_15,fr11_r3).
body(r_fr11_15,fr11_a1).
body(r_fr11_15,fr11_d1).
body(r_fr11_15,fr11_f2).
head(r_fr11_16,fr11_r3).
body(r_fr11_16,fr11_d1).
body(r_fr11_16,fr9_a2).
body(r_fr11_16,fr11_f2).
body(r_fr11_16,fr18_r3).
head(r_fr11_17,fr11_r3).
body(r_fr11_17,fr11_a2).
body(r_fr11_17,fr11_c2).
head(r_fr11_18,fr11_r3).
body(r_fr11_18,fr11_c2).
head(r_fr11_19,fr11_w2).
body(r_fr11_19,fr17_c2).
body(r_fr11_19,fr9_a2).
body(r_fr11_19,fr18_r3).
body(r_fr11_19,fr12_z2).
body(r_fr11_19,fr11_y2).
body(r_fr11_19,fr11_z2).
head(r_fr11_20,fr11_w2).
head(r_fr11_21,fr11_w2).
body(r_fr11_21,fr11_a2).
body(r_fr11_21,fr11_a3).
body(r_fr11_21,fr11_b2).
body(r_fr11_21,fr11_c2).
body(r_fr11_21,fr18_r3).
head(r_fr11_22,fr11_w2).
body(r_fr11_22,fr11_f2).
head(r_fr11_23,fr7_z4).
body(r_fr11_23,fr11_c1).
body(r_fr11_23,fr11_p2).
body(r_fr11_23,fr11_p3).
body(r_fr11_23,fr11_s1).
body(r_fr11_23,fr11_y2).
head(r_fr11_24,fr7_z4).
body(r_fr11_24,fr11_c1).
head(r_fr11_25,fr7_z4).
head(r_fr11_26,fr11_x1).
body(r_fr11_26,fr11_d1).
body(r_fr11_26,fr20_a1).
head(r_fr11_27,fr11_x1).
body(r_fr11_27,fr19_v1).
body(r_fr11_27,fr11_z1).
head(r_fr11_28,fr18_r3).
body(r_fr11_28,fr11_r1).
body(r_fr11_28,fr11_z1).
body(r_fr11_28,fr11_z2).
head(r_fr11_29,fr18_r3).
body(r_fr11_29,fr11_a1).
body(r_fr11_29,fr11_f1).
body(r_fr11_29,fr11_q1).
head(r_fr11_30,fr18_r3).
body(r_fr11_30,fr12_v1).
body(r_fr11_30,fr11_u1).
body(r_fr11_30,fr11_z2).
head(r_fr11_31,fr18_r3).
body(r_fr11_31,fr11_b1).
body(r_fr11_31,fr11_d1).
body(r_fr11_31,fr11_p3).
body(r_fr11_31,fr11_q2).
body(r_fr11_31,fr12_v1).
head(r_fr11_32,fr18_r3).
body(r_fr11_32,fr11_q3).
body(r_fr11_32,fr11_v1).
body(r_fr11_32,fr11_y2).
head(r_fr11_33,fr11_u1).
body(r_fr11_33,fr17_c2).
body(r_fr11_33,fr11_r1).
body(r_fr11_33,fr11_z1).
head(r_fr11_34,fr11_u1).
body(r_fr11_34,fr11_b1).
body(r_fr11_34,fr11_d1).
body(r_fr11_34,fr11_q2).
body(r_fr11_34,fr11_r1).
head(r_fr11_35,fr11_u1).
body(r_fr11_35,fr11_c2).
head(r_fr11_36,fr11_z1).
body(r_fr11_36,fr11_q3).
head(r_fr11_37,fr11_z1).
body(r_fr11_37,fr11_a2).
body(r_fr11_37,fr20_a1).
body(r_fr11_37,fr11_q2).
body(r_fr11_37,fr11_q3).
head(r_fr11_38,fr11_z1).
head(r_fr11_39,fr11_q3).
body(r_fr11_39,fr11_p3).
body(r_fr11_39,fr12_z2).
head(r_fr11_40,fr11_q3).
body(r_fr11_40,fr11_b1).
body(r_fr11_40,fr12_z2).
head(r_fr11_41,fr11_q3).
body(r_fr11_41,fr11_a3).
body(r_fr11_41,fr11_q1).
body(r_fr11_41,fr12_z2).
body(r_fr11_41,fr11_y2).
head(r_fr11_42,fr11_q3).
body(r_fr11_42,fr11_a1).
head(r_fr11_43,fr11_q3).
body(r_fr11_43,fr11_a2).
body(r_fr11_43,fr11_b2).
body(r_fr11_43,fr11_b3).
body(r_fr11_43,fr11_f1).
body(r_fr11_43,fr12_v1).
body(r_fr11_43,fr11_y2).
head(r_fr11_44,fr11_y1).
body(r_fr11_44,fr11_b1).
body(r_fr11_44,fr11_b3).
body(r_fr11_44,fr17_c2).
body(r_fr11_44,fr20_a1).
body(r_fr11_44,fr11_f1).
head(r_fr11_45,fr11_y1).
body(r_fr11_45,fr11_a1).
body(r_fr11_45,fr11_e2).
body(r_fr11_45,fr11_z2).
head(r_fr11_46,fr11_y1).
body(r_fr11_46,fr11_b2).
body(r_fr11_46,fr11_b3).
body(r_fr11_46,fr9_a2).
body(r_fr11_46,fr11_e2).
head(r_fr11_47,fr11_y1).
body(r_fr11_47,fr9_a2).
body(r_fr11_47,fr11_f1).
body(r_fr11_47,fr11_s1).
body(r_fr11_47,fr11_v1).
head(r_fr11_48,fr11_p2).
body(r_fr11_48,fr11_a1).
head(r_fr11_49,fr11_p2).
body(r_fr11_49,fr11_a2).
body(r_fr11_49,fr11_a3).
body(r_fr11_49,fr11_b2).
body(r_fr11_49,fr11_q1).
body(r_fr11_49,fr11_r1).
head(r_fr11_50,fr11_p3).
body(r_fr11_50,fr11_q2).
head(r_fr11_51,fr11_p3).
body(r_fr11_51,fr11_q2).
body(r_fr11_51,fr11_z2).
head(r_fr11_52,fr19_v1).
head(r_fr11_53,fr19_v1).
body(r_fr11_53,fr11_a3).
body(r_fr11_53,fr11_b1).
body(r_fr11_53,fr11_b3).
body(r_fr11_53,fr11_e2).
body(r_fr11_53,fr11_r1).
body(r_fr11_53,fr12_z2).
head(r_fr11_54,fr19_v1).
body(r_fr11_54,fr11_f1).
body(r_fr11_54,fr11_q1).
body(r_fr11_54,fr11_q2).
body(r_fr11_54,fr11_v1).
head(r_fr11_55,fr11_r1).
body(r_fr11_55,fr11_a2).
head(r_fr11_56,fr11_r1).
body(r_fr11_56,fr11_b3).
body(r_fr11_56,fr11_c2).
body(r_fr11_56,fr17_c2).
body(r_fr11_56,fr11_d1).
body(r_fr11_56,fr11_f2).
head(r_fr11_57,fr11_r1).
body(r_fr11_57,fr17_c2).
body(r_fr11_57,fr9_a2).
body(r_fr11_57,fr11_v1).
body(r_fr11_57,fr12_z2).
body(r_fr11_57,fr11_z2).
head(r_fr11_58,fr11_z2).
head(r_fr11_59,fr11_z2).
body(r_fr11_59,fr11_d1).
body(r_fr11_59,fr11_s1).
body(r_fr11_59,fr12_z2).
head(r_fr11_60,fr11_z2).
body(r_fr11_60,fr11_q1).
body(r_fr11_60,fr11_q2).
body(r_fr11_60,fr11_s1).
body(r_fr11_60,fr12_v1).
body(r_fr11_60,fr12_z2).
body(r_fr11_60,fr11_y2).
head(r_fr11_61,fr11_q2).
body(r_fr11_61,fr12_v1).
body(r_fr11_61,fr11_y2).
head(r_fr11_62,fr11_q2).
body(r_fr11_62,fr11_s1).
body(r_fr11_62,fr12_v1).
body(r_fr11_62,fr11_v1).
head(r_fr11_63,fr11_q1).
body(r_fr11_63,fr11_a3).
body(r_fr11_63,fr11_f2).
body(r_fr11_63,fr12_z2).
head(r_fr11_64,fr11_q1).
body(r_fr11_64,fr11_s1).
body(r_fr11_64,fr11_v1).
body(r_fr11_64,fr12_z2).
head(r_fr11_65,fr11_q1).
body(r_fr11_65,fr20_a1).

assumption(fr12_a1).
assumption(fr12_b1).
assumption(fr12_c1).
assumption(fr23_a1).
assumption(fr8_a2).
assumption(fr12_f1).
assumption(fr16_e4).
assumption(fr12_b2).
assumption(fr2_f1).
assumption(fr12_d2).
assumption(fr12_e2).
assumption(fr12_f2).
assumption(fr12_a3).
assumption(fr12_b3).
assumption(fr12_c3).
contrary(fr12_a1,fr12_b3).
contrary(fr16_e4,fr16_p4).
contrary(fr12_a3,fr22_q1).
contrary(fr12_b1,fr23_v1).
contrary(fr12_b2,fr16_e4).
contrary(fr12_b3,fr14_y1).
contrary(fr12_c1,fr9_t5).
contrary(fr2_f1,fr10_r3).
contrary(fr12_c3,fr20_q2).
contrary(fr23_a1,fr12_a3).
contrary(fr12_d2,fr22_q1).
contrary(fr8_a2,fr12_a1).
contrary(fr12_e2,fr12_s1).
contrary(fr12_f1,fr12_f2).
contrary(fr12_f2,fr14_w3).
head(r_fr12_0,fr9_y2).
body(r_fr12_0,fr12_b3).
body(r_fr12_0,fr2_f1).
body(r_fr12_0,fr16_p4).
body(r_fr12_0,fr14_r3).
body(r_fr12_0,fr12_w1).
body(r_fr12_0,fr12_x1).
head(r_fr12_1,fr9_y2).
body(r_fr12_1,fr12_v2).
head(r_fr12_2,fr9_y2).
body(r_fr12_2,fr23_v1).
body(r_fr12_2,fr10_r3).
head(r_fr12_3,fr9_y2).
body(r_fr12_3,fr12_a3).
body(r_fr12_3,fr12_b2).
body(r_fr12_3,fr2_f1).
body(r_fr12_3,fr23_a1).
body(r_fr12_3,fr14_y1).
head(r_fr12_4,fr9_y2).
body(r_fr12_4,fr12_b3).
head(r_fr12_5,fr9_y2).
body(r_fr12_5,fr12_b1).
body(r_fr12_5,fr14_w3).
body(r_fr12_5,fr12_s1).
body(r_fr12_5,fr12_t2).
head(r_fr12_6,fr9_y2).
body(r_fr12_6,fr12_c1).
body(r_fr12_6,fr12_d2).
body(r_fr12_6,fr14_y1).
body(r_fr12_6,fr12_z2).
head(r_fr12_7,fr9_y2).
body(r_fr12_7,fr23_v1).
body(r_fr12_7,fr14_y1).
head(r_fr12_8,fr9_y2).
body(r_fr12_8,fr16_e4).
body(r_fr12_8,fr12_s1).
head(r_fr12_9,fr9_y2).
body(r_fr12_9,fr12_c1).
body(r_fr12_9,fr12_f2).
body(r_fr12_9,fr12_s1).
body(r_fr12_9,fr12_v1).
body(r_fr12_9,fr9_p4).
body(r_fr12_9,fr20_q2).
head(r_fr12_10,fr9_y2).
body(r_fr12_10,fr2_f1).
body(r_fr12_10,fr12_c3).
body(r_fr12_10,fr12_s1).
body(r_fr12_10,fr9_p4).
head(r_fr12_11,fr9_y2).
body(r_fr12_11,fr12_a1).
body(r_fr12_11,fr12_c1).
body(r_fr12_11,fr2_f1).
body(r_fr12_11,fr12_c3).
body(r_fr12_11,fr12_f1).
body(r_fr12_11,fr14_r3).
head(r_fr12_12,fr9_y2).
body(r_fr12_12,fr12_a1).
body(r_fr12_12,fr12_c1).
body(r_fr12_12,fr12_c3).
body(r_fr12_12,fr12_w1).
head(r_fr12_13,fr9_y2).
body(r_fr12_13,fr12_f2).
body(r_fr12_13,fr10_r3).
body(r_fr12_13,fr14_w3).
body(r_fr12_13,fr12_v1).
body(r_fr12_13,fr12_w1).
body(r_fr12_13,fr12_x1).
head(r_fr12_14,fr9_y2).
body(r_fr12_14,fr12_b2).
body(r_fr12_14,fr10_r3).
body(r_fr12_14,fr16_p4).
body(r_fr12_14,fr12_t2).
body(r_fr12_14,fr12_w1).
body(r_fr12_14,fr9_p4).
head(r_fr12_15,fr9_y2).
body(r_fr12_15,fr12_a3).
body(r_fr12_15,fr2_f1).
body(r_fr12_15,fr8_a2).
head(r_fr12_16,fr9_y2).
body(r_fr12_16,fr12_a1).
body(r_fr12_16,fr14_w3).
body(r_fr12_16,fr12_v1).
body(r_fr12_16,fr12_v2).
head(r_fr12_17,fr9_y2).
body(r_fr12_17,fr2_f1).
body(r_fr12_17,fr12_d2).
body(r_fr12_17,fr4_u2).
body(r_fr12_17,fr12_v2).
body(r_fr12_17,fr12_w1).
head(r_fr12_18,fr9_y2).
body(r_fr12_18,fr12_y1).
head(r_fr12_19,fr9_y2).
body(r_fr12_19,fr12_a1).
body(r_fr12_19,fr12_d2).
body(r_fr12_19,fr12_f2).
head(r_fr12_20,fr12_w2).
body(r_fr12_20,fr12_q3).
body(r_fr12_20,fr14_r3).
body(r_fr12_20,fr12_t2).
body(r_fr12_20,fr12_u1).
head(r_fr12_21,fr12_w2).
body(r_fr12_21,fr12_s1).
head(r_fr12_22,fr12_w2).
body(r_fr12_22,fr8_a2).
body(r_fr12_22,fr16_p4).
body(r_fr12_22,fr12_z2).
head(r_fr12_23,fr12_w2).
body(r_fr12_23,fr10_r3).
body(r_fr12_23,fr14_y1).
body(r_fr12_23,fr12_v1).
head(r_fr12_24,fr12_w2).
body(r_fr12_24,fr12_b2).
body(r_fr12_24,fr2_f1).
body(r_fr12_24,fr23_a1).
body(r_fr12_24,fr12_f1).
head(r_fr12_25,fr12_w2).
body(r_fr12_25,fr23_a1).
head(r_fr12_26,fr12_w2).
body(r_fr12_26,fr8_a2).
body(r_fr12_26,fr16_p4).
body(r_fr12_26,fr12_q3).
body(r_fr12_26,fr12_v1).
head(r_fr12_27,fr12_w2).
body(r_fr12_27,fr4_u2).
body(r_fr12_27,fr12_v1).
body(r_fr12_27,fr12_y1).
head(r_fr12_28,fr12_w2).
body(r_fr12_28,fr12_x1).
head(r_fr12_29,fr12_w2).
body(r_fr12_29,fr12_a3).
body(r_fr12_29,fr12_s1).
body(r_fr12_29,fr12_t2).
head(r_fr12_30,fr12_w2).
body(r_fr12_30,fr12_a1).
body(r_fr12_30,fr12_b2).
body(r_fr12_30,fr2_f1).
body(r_fr12_30,fr12_f2).
body(r_fr12_30,fr23_v1).
body(r_fr12_30,fr14_y1).
head(r_fr12_31,fr12_w2).
body(r_fr12_31,fr12_f2).
body(r_fr12_31,fr12_y1).
head(r_fr12_32,fr12_w2).
body(r_fr12_32,fr12_b1).
body(r_fr12_32,fr2_f1).
body(r_fr12_32,fr12_d2).
body(r_fr12_32,fr9_t5).
head(r_fr12_33,fr12_w2).
body(r_fr12_33,fr16_e4).
body(r_fr12_33,fr12_a3).
body(r_fr12_33,fr12_d2).
body(r_fr12_33,fr12_f1).
body(r_fr12_33,fr23_v1).
head(r_fr12_34,fr12_w2).
body(r_fr12_34,fr12_c3).
body(r_fr12_34,fr23_a1).
body(r_fr12_34,fr12_e2).
body(r_fr12_34,fr4_u2).
body(r_fr12_34,fr12_x1).
body(r_fr12_34,fr12_z2).
head(r_fr12_35,fr12_w2).
body(r_fr12_35,fr16_e4).
body(r_fr12_35,fr12_e2).
body(r_fr12_35,fr12_f1).
body(r_fr12_35,fr12_s1).
body(r_fr12_35,fr22_q1).
head(r_fr12_36,fr12_w2).
body(r_fr12_36,fr8_a2).
body(r_fr12_36,fr12_f1).
body(r_fr12_36,fr14_y1).
body(r_fr12_36,fr12_t2).
head(r_fr12_37,fr12_w2).
head(r_fr12_38,fr12_w2).
body(r_fr12_38,fr12_a3).
body(r_fr12_38,fr12_b2).
body(r_fr12_38,fr23_a1).
head(r_fr12_39,fr12_w2).
body(r_fr12_39,fr22_q1).
body(r_fr12_39,fr9_p4).
body(r_fr12_39,fr12_z2).
head(r_fr12_40,fr12_w2).
body(r_fr12_40,fr14_y1).
body(r_fr12_40,fr22_q1).
head(r_fr12_41,fr12_s1).
body(r_fr12_41,fr12_a1).
body(r_fr12_41,fr12_a3).
body(r_fr12_41,fr12_c1).
body(r_fr12_41,fr12_d2).
body(r_fr12_41,fr8_a2).
head(r_fr12_42,fr12_s1).
body(r_fr12_42,fr12_b1).
body(r_fr12_42,fr12_c3).
body(r_fr12_42,fr14_r3).
head(r_fr12_43,fr12_s1).
body(r_fr12_43,fr16_e4).
body(r_fr12_43,fr12_b2).
body(r_fr12_43,fr12_c1).
body(r_fr12_43,fr2_f1).
body(r_fr12_43,fr8_a2).
body(r_fr12_43,fr12_f1).
head(r_fr12_44,fr12_s1).
body(r_fr12_44,fr12_a3).
body(r_fr12_44,fr12_t2).
body(r_fr12_44,fr9_t5).
body(r_fr12_44,fr20_q2).
body(r_fr12_44,fr12_z2).
head(r_fr12_45,fr12_s1).
body(r_fr12_45,fr12_a3).
body(r_fr12_45,fr12_b3).
body(r_fr12_45,fr8_a2).
body(r_fr12_45,fr12_v1).
head(r_fr12_46,fr12_s1).
body(r_fr12_46,fr16_e4).
body(r_fr12_46,fr12_b2).
body(r_fr12_46,fr12_e2).
body(r_fr12_46,fr10_r3).
body(r_fr12_46,fr20_q2).
head(r_fr12_47,fr12_s1).
body(r_fr12_47,fr12_c3).
body(r_fr12_47,fr23_a1).
body(r_fr12_47,fr12_q3).
head(r_fr12_48,fr12_s1).
body(r_fr12_48,fr10_r3).
body(r_fr12_48,fr14_w3).
body(r_fr12_48,fr16_p4).
body(r_fr12_48,fr14_r3).
body(r_fr12_48,fr12_u1).
head(r_fr12_49,fr12_s1).
body(r_fr12_49,fr14_w3).
head(r_fr12_50,fr12_s1).
body(r_fr12_50,fr12_c3).
body(r_fr12_50,fr8_a2).
body(r_fr12_50,fr22_q1).
body(r_fr12_50,fr9_p4).
head(r_fr12_51,fr12_s1).
body(r_fr12_51,fr12_f1).
body(r_fr12_51,fr16_p4).
body(r_fr12_51,fr12_t2).
head(r_fr12_52,fr12_s1).
body(r_fr12_52,fr2_f1).
body(r_fr12_52,fr23_a1).
head(r_fr12_53,fr12_s1).
body(r_fr12_53,fr12_r2).
body(r_fr12_53,fr14_y1).
body(r_fr12_53,fr4_u2).
body(r_fr12_53,fr9_t5).
head(r_fr12_54,fr12_s1).
body(r_fr12_54,fr12_a1).
body(r_fr12_54,fr8_a2).
body(r_fr12_54,fr12_r2).
body(r_fr12_54,fr12_v2).
body(r_fr12_54,fr12_w1).
body(r_fr12_54,fr20_q2).
head(r_fr12_55,fr12_s1).
body(r_fr12_55,fr12_c1).
body(r_fr12_55,fr2_f1).
body(r_fr12_55,fr12_d2).
body(r_fr12_55,fr12_e2).
head(r_fr12_56,fr12_s1).
body(r_fr12_56,fr8_a2).
head(r_fr12_57,fr12_s1).
body(r_fr12_57,fr12_a1).
body(r_fr12_57,fr12_b1).
body(r_fr12_57,fr23_a1).
body(r_fr12_57,fr8_a2).
body(r_fr12_57,fr22_q1).
head(r_fr12_58,fr12_s1).
body(r_fr12_58,fr12_r2).
body(r_fr12_58,fr14_y1).
body(r_fr12_58,fr12_x1).
body(r_fr12_58,fr12_y1).
head(r_fr12_59,fr12_s1).
head(r_fr12_60,fr12_s1).
body(r_fr12_60,fr12_b2).
body(r_fr12_60,fr12_f1).
body(r_fr12_60,fr12_f2).
body(r_fr12_60,fr12_w1).
head(r_fr12_61,fr14_r3).
body(r_fr12_61,fr16_p4).
body(r_fr12_61,fr4_u2).
body(r_fr12_61,fr12_x1).
body(r_fr12_61,fr9_t5).
head(r_fr12_62,fr14_r3).
body(r_fr12_62,fr2_f1).
body(r_fr12_62,fr12_d2).
body(r_fr12_62,fr12_f1).
body(r_fr12_62,fr12_z2).
head(r_fr12_63,fr14_r3).
body(r_fr12_63,fr12_c1).
body(r_fr12_63,fr2_f1).
body(r_fr12_63,fr12_e2).
head(r_fr12_64,fr14_r3).
body(r_fr12_64,fr10_r3).
body(r_fr12_64,fr14_y1).
body(r_fr12_64,fr12_v2).
head(r_fr12_65,fr14_r3).
body(r_fr12_65,fr23_v1).
body(r_fr12_65,fr12_r1).
body(r_fr12_65,fr12_r2).
body(r_fr12_65,fr12_u1).
head(r_fr12_66,fr14_r3).
body(r_fr12_66,fr16_e4).
body(r_fr12_66,fr2_f1).
body(r_fr12_66,fr16_p4).
body(r_fr12_66,fr12_y1).
body(r_fr12_66,fr20_q2).
head(r_fr12_67,fr14_r3).
body(r_fr12_67,fr12_r2).
head(r_fr12_68,fr14_r3).
body(r_fr12_68,fr10_r3).
body(r_fr12_68,fr14_y1).
head(r_fr12_69,fr14_r3).
body(r_fr12_69,fr16_e4).
body(r_fr12_69,fr12_a3).
body(r_fr12_69,fr12_d2).
body(r_fr12_69,fr8_a2).
body(r_fr12_69,fr12_f1).
body(r_fr12_69,fr12_r1).
head(r_fr12_70,fr14_r3).
body(r_fr12_70,fr8_a2).
body(r_fr12_70,fr12_f1).
body(r_fr12_70,fr12_r1).
body(r_fr12_70,fr12_v1).
body(r_fr12_70,fr9_p4).
head(r_fr12_71,fr14_r3).
body(r_fr12_71,fr12_z2).
head(r_fr12_72,fr14_r3).
head(r_fr12_73,fr14_r3).
body(r_fr12_73,fr12_c1).
body(r_fr12_73,fr2_f1).
body(r_fr12_73,fr12_d2).
body(r_fr12_73,fr12_f1).
head(r_fr12_74,fr14_r3).
body(r_fr12_74,fr14_w3).
body(r_fr12_74,fr12_w1).
body(r_fr12_74,fr12_y1).
head(r_fr12_75,fr14_r3).
body(r_fr12_75,fr12_b3).
body(r_fr12_75,fr12_c3).
body(r_fr12_75,fr8_a2).
body(r_fr12_75,fr12_f1).
head(r_fr12_76,fr14_r3).
body(r_fr12_76,fr16_e4).
body(r_fr12_76,fr12_b3).
body(r_fr12_76,fr12_t2).
body(r_fr12_76,fr4_u2).
body(r_fr12_76,fr12_v1).
body(r_fr12_76,fr12_v2).
head(r_fr12_77,fr14_r3).
body(r_fr12_77,fr12_a3).
body(r_fr12_77,fr12_b1).
body(r_fr12_77,fr12_c3).
body(r_fr12_77,fr12_e2).
body(r_fr12_77,fr12_f1).
body(r_fr12_77,fr12_f2).
head(r_fr12_78,fr14_r3).
body(r_fr12_78,fr14_w3).
body(r_fr12_78,fr16_p4).
body(r_fr12_78,fr12_r1).
body(r_fr12_78,fr22_q1).
body(r_fr12_78,fr12_t2).
body(r_fr12_78,fr9_p4).
head(r_fr12_79,fr14_r3).
body(r_fr12_79,fr12_b1).
body(r_fr12_79,fr12_r2).
head(r_fr12_80,fr14_r3).
body(r_fr12_80,fr12_b3).
body(r_fr12_80,fr12_d2).
body(r_fr12_80,fr12_r2).
body(r_fr12_80,fr9_p4).
head(r_fr12_81,fr12_x1).
body(r_fr12_81,fr22_q1).
body(r_fr12_81,fr12_v1).
head(r_fr12_82,fr12_x1).
body(r_fr12_82,fr12_a1).
body(r_fr12_82,fr12_b2).
body(r_fr12_82,fr12_e2).
body(r_fr12_82,fr16_p4).
head(r_fr12_83,fr12_x1).
body(r_fr12_83,fr12_b1).
body(r_fr12_83,fr12_b2).
body(r_fr12_83,fr12_c1).
body(r_fr12_83,fr12_v1).
head(r_fr12_84,fr12_x1).
body(r_fr12_84,fr2_f1).
body(r_fr12_84,fr12_d2).
body(r_fr12_84,fr8_a2).
body(r_fr12_84,fr12_f2).
body(r_fr12_84,fr12_r1).
body(r_fr12_84,fr20_q2).
head(r_fr12_85,fr12_x1).
body(r_fr12_85,fr16_e4).
body(r_fr12_85,fr12_c1).
body(r_fr12_85,fr12_d2).
body(r_fr12_85,fr12_e2).
body(r_fr12_85,fr12_f1).
head(r_fr12_86,fr12_x1).
body(r_fr12_86,fr12_a3).
body(r_fr12_86,fr12_c1).
body(r_fr12_86,fr2_f1).
body(r_fr12_86,fr12_f1).
body(r_fr12_86,fr12_f2).
head(r_fr12_87,fr12_x1).
body(r_fr12_87,fr23_a1).
body(r_fr12_87,fr12_u1).
body(r_fr12_87,fr4_u2).
body(r_fr12_87,fr12_y1).
body(r_fr12_87,fr12_z2).
head(r_fr12_88,fr12_x1).
body(r_fr12_88,fr12_a1).
body(r_fr12_88,fr14_w3).
body(r_fr12_88,fr12_y1).
head(r_fr12_89,fr12_x1).
body(r_fr12_89,fr12_d2).
body(r_fr12_89,fr14_w3).
body(r_fr12_89,fr14_y1).
body(r_fr12_89,fr12_v2).
body(r_fr12_89,fr9_p4).
body(r_fr12_89,fr12_z2).
head(r_fr12_90,fr12_x1).
body(r_fr12_90,fr12_a1).
body(r_fr12_90,fr12_c1).
body(r_fr12_90,fr2_f1).
body(r_fr12_90,fr8_a2).
body(r_fr12_90,fr12_e2).
head(r_fr12_91,fr12_x1).
body(r_fr12_91,fr12_a1).
body(r_fr12_91,fr16_e4).
body(r_fr12_91,fr2_f1).
body(r_fr12_91,fr12_d2).
body(r_fr12_91,fr12_e2).
body(r_fr12_91,fr12_f2).
head(r_fr12_92,fr12_x1).
body(r_fr12_92,fr10_r3).
body(r_fr12_92,fr12_t2).
body(r_fr12_92,fr12_v1).
body(r_fr12_92,fr12_w1).
body(r_fr12_92,fr20_q2).
head(r_fr12_93,fr12_x1).
body(r_fr12_93,fr12_f1).
body(r_fr12_93,fr12_f2).
body(r_fr12_93,fr12_q3).
body(r_fr12_93,fr14_y1).
body(r_fr12_93,fr12_w1).
body(r_fr12_93,fr9_p4).
head(r_fr12_94,fr12_x1).
body(r_fr12_94,fr12_b3).
body(r_fr12_94,fr22_q1).
body(r_fr12_94,fr9_t5).
body(r_fr12_94,fr12_y1).
head(r_fr12_95,fr12_x1).
body(r_fr12_95,fr12_c1).
body(r_fr12_95,fr8_a2).
head(r_fr12_96,fr12_x1).
body(r_fr12_96,fr8_a2).
body(r_fr12_96,fr4_u2).
body(r_fr12_96,fr12_v2).
body(r_fr12_96,fr9_p4).
body(r_fr12_96,fr12_z2).
head(r_fr12_97,fr12_x1).
body(r_fr12_97,fr12_b3).
body(r_fr12_97,fr12_f1).
head(r_fr12_98,fr12_x1).
body(r_fr12_98,fr12_d2).
head(r_fr12_99,fr12_x1).
body(r_fr12_99,fr12_b2).
body(r_fr12_99,fr12_u1).
head(r_fr12_100,fr12_x1).
head(r_fr12_101,fr12_x1).
body(r_fr12_101,fr12_a3).
body(r_fr12_101,fr12_c1).
body(r_fr12_101,fr12_c3).
body(r_fr12_101,fr12_d2).
body(r_fr12_101,fr12_e2).
body(r_fr12_101,fr12_z2).
head(r_fr12_102,fr9_t5).
body(r_fr12_102,fr14_y1).
head(r_fr12_103,fr9_t5).
body(r_fr12_103,fr12_z2).
head(r_fr12_104,fr9_t5).
body(r_fr12_104,fr2_f1).
body(r_fr12_104,fr12_d2).
body(r_fr12_104,fr23_v1).
body(r_fr12_104,fr14_w3).
head(r_fr12_105,fr9_t5).
body(r_fr12_105,fr16_e4).
body(r_fr12_105,fr12_c1).
body(r_fr12_105,fr2_f1).
body(r_fr12_105,fr12_d2).
body(r_fr12_105,fr12_f1).
body(r_fr12_105,fr12_t2).
head(r_fr12_106,fr9_t5).
body(r_fr12_106,fr10_r3).
body(r_fr12_106,fr4_u2).
body(r_fr12_106,fr12_v1).
body(r_fr12_106,fr12_z2).
head(r_fr12_107,fr9_t5).
body(r_fr12_107,fr12_f1).
body(r_fr12_107,fr23_v1).
body(r_fr12_107,fr12_r2).
body(r_fr12_107,fr12_w1).
body(r_fr12_107,fr12_y1).
body(r_fr12_107,fr9_p4).
head(r_fr12_108,fr9_t5).
body(r_fr12_108,fr12_c3).
body(r_fr12_108,fr12_d2).
body(r_fr12_108,fr12_f2).
head(r_fr12_109,fr9_t5).
body(r_fr12_109,fr8_a2).
body(r_fr12_109,fr12_u1).
head(r_fr12_110,fr9_t5).
body(r_fr12_110,fr23_a1).
body(r_fr12_110,fr12_f2).
head(r_fr12_111,fr9_t5).
body(r_fr12_111,fr12_b1).
body(r_fr12_111,fr12_d2).
body(r_fr12_111,fr12_f2).
head(r_fr12_112,fr9_t5).
body(r_fr12_112,fr12_a1).
head(r_fr12_113,fr9_t5).
body(r_fr12_113,fr12_b3).
body(r_fr12_113,fr23_a1).
body(r_fr12_113,fr14_w3).
head(r_fr12_114,fr9_t5).
body(r_fr12_114,fr12_a1).
body(r_fr12_114,fr12_b1).
head(r_fr12_115,fr9_t5).
body(r_fr12_115,fr12_f1).
body(r_fr12_115,fr12_v1).
head(r_fr12_116,fr9_t5).
body(r_fr12_116,fr12_a3).
body(r_fr12_116,fr12_b3).
body(r_fr12_116,fr12_e2).
body(r_fr12_116,fr10_r3).
body(r_fr12_116,fr14_w3).
body(r_fr12_116,fr16_p4).
head(r_fr12_117,fr9_t5).
body(r_fr12_117,fr12_a1).
body(r_fr12_117,fr12_b1).
body(r_fr12_117,fr12_e2).
body(r_fr12_117,fr12_f1).
head(r_fr12_118,fr9_t5).
body(r_fr12_118,fr12_a1).
body(r_fr12_118,fr12_c1).
body(r_fr12_118,fr23_v1).
body(r_fr12_118,fr12_q3).
body(r_fr12_118,fr12_u1).
body(r_fr12_118,fr12_v2).
head(r_fr12_119,fr9_t5).
body(r_fr12_119,fr12_a1).
body(r_fr12_119,fr16_e4).
body(r_fr12_119,fr12_b3).
body(r_fr12_119,fr12_c1).
body(r_fr12_119,fr12_f1).
head(r_fr12_120,fr9_t5).
head(r_fr12_121,fr9_t5).
body(r_fr12_121,fr12_v2).
head(r_fr12_122,fr16_p4).
body(r_fr12_122,fr10_r3).
body(r_fr12_122,fr22_q1).
body(r_fr12_122,fr12_t2).
body(r_fr12_122,fr12_v1).
body(r_fr12_122,fr12_v2).
body(r_fr12_122,fr9_p4).
head(r_fr12_123,fr16_p4).
body(r_fr12_123,fr10_r3).
body(r_fr12_123,fr14_w3).
body(r_fr12_123,fr4_u2).
body(r_fr12_123,fr12_w1).
body(r_fr12_123,fr9_p4).
head(r_fr12_124,fr16_p4).
body(r_fr12_124,fr22_q1).
head(r_fr12_125,fr16_p4).
body(r_fr12_125,fr2_f1).
body(r_fr12_125,fr8_a2).
body(r_fr12_125,fr12_f2).
head(r_fr12_126,fr16_p4).
body(r_fr12_126,fr12_a1).
body(r_fr12_126,fr16_e4).
body(r_fr12_126,fr12_b3).
body(r_fr12_126,fr2_f1).
body(r_fr12_126,fr14_y1).
body(r_fr12_126,fr12_t2).
head(r_fr12_127,fr16_p4).
body(r_fr12_127,fr12_f2).
body(r_fr12_127,fr12_q3).
body(r_fr12_127,fr12_z2).
head(r_fr12_128,fr16_p4).
body(r_fr12_128,fr23_a1).
body(r_fr12_128,fr12_q3).
body(r_fr12_128,fr14_y1).
body(r_fr12_128,fr12_t2).
body(r_fr12_128,fr12_v1).
head(r_fr12_129,fr16_p4).
body(r_fr12_129,fr12_t2).
head(r_fr12_130,fr16_p4).
body(r_fr12_130,fr12_b2).
body(r_fr12_130,fr12_d2).
body(r_fr12_130,fr12_v2).
body(r_fr12_130,fr9_p4).
head(r_fr12_131,fr16_p4).
body(r_fr12_131,fr12_c1).
body(r_fr12_131,fr23_v1).
body(r_fr12_131,fr12_r1).
head(r_fr12_132,fr16_p4).
body(r_fr12_132,fr14_w3).
head(r_fr12_133,fr16_p4).
body(r_fr12_133,fr16_e4).
body(r_fr12_133,fr12_b3).
body(r_fr12_133,fr12_d2).
body(r_fr12_133,fr8_a2).
body(r_fr12_133,fr12_e2).
body(r_fr12_133,fr12_f1).
head(r_fr12_134,fr16_p4).
body(r_fr12_134,fr10_r3).
head(r_fr12_135,fr16_p4).
body(r_fr12_135,fr12_v1).
head(r_fr12_136,fr16_p4).
body(r_fr12_136,fr16_e4).
body(r_fr12_136,fr12_b1).
body(r_fr12_136,fr12_b2).
body(r_fr12_136,fr2_f1).
body(r_fr12_136,fr12_d2).
body(r_fr12_136,fr8_a2).
head(r_fr12_137,fr16_p4).
body(r_fr12_137,fr10_r3).
body(r_fr12_137,fr14_y1).
body(r_fr12_137,fr12_u1).
body(r_fr12_137,fr4_u2).
body(r_fr12_137,fr12_y1).
head(r_fr12_138,fr16_p4).
body(r_fr12_138,fr14_w3).
body(r_fr12_138,fr14_y1).
body(r_fr12_138,fr12_t2).
body(r_fr12_138,fr12_u1).
body(r_fr12_138,fr12_y1).
body(r_fr12_138,fr12_z2).
head(r_fr12_139,fr16_p4).
body(r_fr12_139,fr10_r3).
body(r_fr12_139,fr12_r1).
body(r_fr12_139,fr22_q1).
body(r_fr12_139,fr4_u2).
body(r_fr12_139,fr12_v1).
head(r_fr12_140,fr16_p4).
body(r_fr12_140,fr16_e4).
body(r_fr12_140,fr2_f1).
body(r_fr12_140,fr23_a1).
body(r_fr12_140,fr12_f1).
head(r_fr12_141,fr16_p4).
head(r_fr12_142,fr12_u1).
body(r_fr12_142,fr12_b1).
body(r_fr12_142,fr12_b2).
body(r_fr12_142,fr12_b3).
body(r_fr12_142,fr2_f1).
body(r_fr12_142,fr12_d2).
body(r_fr12_142,fr12_r1).
head(r_fr12_143,fr12_u1).
body(r_fr12_143,fr16_e4).
body(r_fr12_143,fr12_v2).
body(r_fr12_143,fr12_y1).
body(r_fr12_143,fr20_q2).
head(r_fr12_144,fr12_u1).
body(r_fr12_144,fr23_v1).
body(r_fr12_144,fr9_p4).
head(r_fr12_145,fr12_u1).
body(r_fr12_145,fr12_b2).
body(r_fr12_145,fr8_a2).
body(r_fr12_145,fr12_v1).
body(r_fr12_145,fr12_y1).
head(r_fr12_146,fr12_u1).
body(r_fr12_146,fr16_e4).
body(r_fr12_146,fr23_a1).
body(r_fr12_146,fr12_e2).
body(r_fr12_146,fr12_f1).
body(r_fr12_146,fr12_v2).
body(r_fr12_146,fr12_y1).
head(r_fr12_147,fr12_u1).
body(r_fr12_147,fr12_a3).
body(r_fr12_147,fr12_b1).
body(r_fr12_147,fr2_f1).
head(r_fr12_148,fr12_u1).
body(r_fr12_148,fr12_b1).
body(r_fr12_148,fr12_b3).
body(r_fr12_148,fr2_f1).
body(r_fr12_148,fr12_c3).
body(r_fr12_148,fr12_f1).
body(r_fr12_148,fr12_v1).
head(r_fr12_149,fr12_u1).
body(r_fr12_149,fr14_w3).
body(r_fr12_149,fr12_r1).
body(r_fr12_149,fr22_q1).
body(r_fr12_149,fr12_v1).
body(r_fr12_149,fr12_w1).
body(r_fr12_149,fr12_y1).
head(r_fr12_150,fr12_u1).
body(r_fr12_150,fr12_b2).
body(r_fr12_150,fr23_a1).
head(r_fr12_151,fr12_u1).
body(r_fr12_151,fr12_c3).
body(r_fr12_151,fr12_f1).
body(r_fr12_151,fr12_v1).
body(r_fr12_151,fr12_z2).
head(r_fr12_152,fr12_u1).
body(r_fr12_152,fr12_e2).
body(r_fr12_152,fr23_v1).
body(r_fr12_152,fr12_r2).
body(r_fr12_152,fr14_y1).
body(r_fr12_152,fr9_p4).
body(r_fr12_152,fr12_z2).
head(r_fr12_153,fr12_u1).
body(r_fr12_153,fr12_a1).
body(r_fr12_153,fr2_f1).
body(r_fr12_153,fr22_q1).
body(r_fr12_153,fr12_v1).
body(r_fr12_153,fr12_z2).
head(r_fr12_154,fr12_u1).
body(r_fr12_154,fr12_a3).
body(r_fr12_154,fr12_b1).
body(r_fr12_154,fr12_c1).
body(r_fr12_154,fr2_f1).
body(r_fr12_154,fr12_r1).
body(r_fr12_154,fr12_r2).
head(r_fr12_155,fr12_u1).
body(r_fr12_155,fr12_b1).
body(r_fr12_155,fr12_b3).
body(r_fr12_155,fr2_f1).
body(r_fr12_155,fr12_c3).
body(r_fr12_155,fr23_a1).
body(r_fr12_155,fr12_e2).
head(r_fr12_156,fr12_u1).
head(r_fr12_157,fr12_u1).
body(r_fr12_157,fr12_a1).
body(r_fr12_157,fr12_c3).
body(r_fr12_157,fr12_f1).
body(r_fr12_157,fr14_w3).
body(r_fr12_157,fr12_w1).
head(r_fr12_158,fr12_u1).
body(r_fr12_158,fr12_a3).
body(r_fr12_158,fr12_b2).
body(r_fr12_158,fr12_d2).
body(r_fr12_158,fr12_f2).
body(r_fr12_158,fr12_t2).
head(r_fr12_159,fr12_u1).
body(r_fr12_159,fr12_f1).
body(r_fr12_159,fr12_f2).
body(r_fr12_159,fr12_r2).
body(r_fr12_159,fr4_u2).
body(r_fr12_159,fr12_y1).
head(r_fr12_160,fr12_u1).
body(r_fr12_160,fr12_b2).
body(r_fr12_160,fr2_f1).
body(r_fr12_160,fr12_f1).
head(r_fr12_161,fr12_u1).
body(r_fr12_161,fr12_t2).
body(r_fr12_161,fr12_y1).
head(r_fr12_162,fr12_r2).
body(r_fr12_162,fr12_a1).
body(r_fr12_162,fr12_c3).
body(r_fr12_162,fr23_a1).
body(r_fr12_162,fr10_r3).
head(r_fr12_163,fr12_r2).
body(r_fr12_163,fr16_e4).
body(r_fr12_163,fr12_b1).
body(r_fr12_163,fr23_a1).
head(r_fr12_164,fr12_r2).
body(r_fr12_164,fr12_v2).
head(r_fr12_165,fr12_r2).
body(r_fr12_165,fr2_f1).
body(r_fr12_165,fr12_w1).
body(r_fr12_165,fr20_q2).
head(r_fr12_166,fr12_r2).
body(r_fr12_166,fr16_e4).
body(r_fr12_166,fr12_b1).
body(r_fr12_166,fr23_v1).
head(r_fr12_167,fr12_r2).
body(r_fr12_167,fr12_b2).
body(r_fr12_167,fr12_f1).
body(r_fr12_167,fr10_r3).
body(r_fr12_167,fr14_y1).
body(r_fr12_167,fr12_v1).
head(r_fr12_168,fr12_r2).
body(r_fr12_168,fr12_b2).
body(r_fr12_168,fr8_a2).
body(r_fr12_168,fr12_f1).
body(r_fr12_168,fr12_v1).
head(r_fr12_169,fr12_r2).
body(r_fr12_169,fr23_v1).
body(r_fr12_169,fr14_w3).
body(r_fr12_169,fr4_u2).
body(r_fr12_169,fr12_v1).
body(r_fr12_169,fr12_y1).
body(r_fr12_169,fr20_q2).
head(r_fr12_170,fr12_r2).
body(r_fr12_170,fr12_c1).
body(r_fr12_170,fr12_d2).
body(r_fr12_170,fr10_r3).
body(r_fr12_170,fr14_y1).
body(r_fr12_170,fr22_q1).
head(r_fr12_171,fr12_r2).
body(r_fr12_171,fr12_c1).
body(r_fr12_171,fr14_w3).
body(r_fr12_171,fr12_r1).
body(r_fr12_171,fr22_q1).
body(r_fr12_171,fr12_w1).
head(r_fr12_172,fr12_r2).
body(r_fr12_172,fr12_t2).
body(r_fr12_172,fr12_y1).
head(r_fr12_173,fr12_r2).
body(r_fr12_173,fr12_b1).
body(r_fr12_173,fr12_b3).
body(r_fr12_173,fr10_r3).
body(r_fr12_173,fr12_r1).
head(r_fr12_174,fr12_r2).
body(r_fr12_174,fr12_b3).
body(r_fr12_174,fr12_c1).
body(r_fr12_174,fr12_d2).
body(r_fr12_174,fr12_e2).
head(r_fr12_175,fr12_r2).
body(r_fr12_175,fr12_v2).
body(r_fr12_175,fr12_w1).
head(r_fr12_176,fr12_r2).
body(r_fr12_176,fr12_b1).
body(r_fr12_176,fr12_t2).
body(r_fr12_176,fr20_q2).
head(r_fr12_177,fr12_r2).
body(r_fr12_177,fr2_f1).
body(r_fr12_177,fr12_q3).
body(r_fr12_177,fr4_u2).
body(r_fr12_177,fr12_v1).
body(r_fr12_177,fr12_v2).
body(r_fr12_177,fr12_y1).
head(r_fr12_178,fr12_r2).
body(r_fr12_178,fr12_b2).
body(r_fr12_178,fr12_q3).
body(r_fr12_178,fr12_v2).
body(r_fr12_178,fr12_w1).
body(r_fr12_178,fr12_y1).
body(r_fr12_178,fr20_q2).
head(r_fr12_179,fr12_r2).
body(r_fr12_179,fr12_f1).
body(r_fr12_179,fr12_f2).
body(r_fr12_179,fr10_r3).
body(r_fr12_179,fr12_r1).
body(r_fr12_179,fr12_t2).
body(r_fr12_179,fr12_v1).
head(r_fr12_180,fr12_r2).
body(r_fr12_180,fr12_r1).
body(r_fr12_180,fr22_q1).
body(r_fr12_180,fr12_v2).
body(r_fr12_180,fr12_y1).
head(r_fr12_181,fr12_r2).
head(r_fr12_182,fr9_p4).
body(r_fr12_182,fr12_b1).
body(r_fr12_182,fr12_d2).
body(r_fr12_182,fr12_e2).
body(r_fr12_182,fr12_f1).
body(r_fr12_182,fr14_w3).
head(r_fr12_183,fr9_p4).
body(r_fr12_183,fr12_d2).
head(r_fr12_184,fr9_p4).
body(r_fr12_184,fr12_a1).
body(r_fr12_184,fr12_c1).
body(r_fr12_184,fr4_u2).
head(r_fr12_185,fr9_p4).
body(r_fr12_185,fr8_a2).
body(r_fr12_185,fr12_f1).
body(r_fr12_185,fr12_f2).
head(r_fr12_186,fr9_p4).
body(r_fr12_186,fr22_q1).
head(r_fr12_187,fr9_p4).
body(r_fr12_187,fr16_e4).
body(r_fr12_187,fr12_f2).
head(r_fr12_188,fr9_p4).
body(r_fr12_188,fr12_b2).
body(r_fr12_188,fr23_a1).
body(r_fr12_188,fr10_r3).
body(r_fr12_188,fr14_w3).
body(r_fr12_188,fr12_q3).
body(r_fr12_188,fr12_v2).
head(r_fr12_189,fr9_p4).
body(r_fr12_189,fr8_a2).
head(r_fr12_190,fr9_p4).
body(r_fr12_190,fr12_a1).
body(r_fr12_190,fr12_a3).
body(r_fr12_190,fr12_b2).
body(r_fr12_190,fr12_d2).
body(r_fr12_190,fr8_a2).
head(r_fr12_191,fr9_p4).
body(r_fr12_191,fr12_q3).
body(r_fr12_191,fr12_y1).
head(r_fr12_192,fr9_p4).
body(r_fr12_192,fr12_d2).
body(r_fr12_192,fr12_e2).
head(r_fr12_193,fr9_p4).
body(r_fr12_193,fr8_a2).
body(r_fr12_193,fr12_r1).
body(r_fr12_193,fr12_t2).
body(r_fr12_193,fr20_q2).
head(r_fr12_194,fr9_p4).
body(r_fr12_194,fr12_r1).
body(r_fr12_194,fr20_q2).
head(r_fr12_195,fr9_p4).
body(r_fr12_195,fr12_a3).
head(r_fr12_196,fr9_p4).
body(r_fr12_196,fr12_f2).
body(r_fr12_196,fr23_v1).
body(r_fr12_196,fr10_r3).
head(r_fr12_197,fr9_p4).
body(r_fr12_197,fr23_a1).
body(r_fr12_197,fr8_a2).
body(r_fr12_197,fr14_w3).
body(r_fr12_197,fr22_q1).
head(r_fr12_198,fr9_p4).
body(r_fr12_198,fr12_r1).
body(r_fr12_198,fr14_y1).
body(r_fr12_198,fr12_v1).
body(r_fr12_198,fr12_v2).
body(r_fr12_198,fr12_w1).
body(r_fr12_198,fr12_y1).
head(r_fr12_199,fr9_p4).
body(r_fr12_199,fr23_a1).
body(r_fr12_199,fr12_d2).
head(r_fr12_200,fr9_p4).
body(r_fr12_200,fr12_b2).
body(r_fr12_200,fr12_c3).
body(r_fr12_200,fr23_a1).
body(r_fr12_200,fr12_f2).
body(r_fr12_200,fr10_r3).
body(r_fr12_200,fr12_z2).
head(r_fr12_201,fr9_p4).
body(r_fr12_201,fr14_y1).
body(r_fr12_201,fr22_q1).
body(r_fr12_201,fr4_u2).
body(r_fr12_201,fr12_z2).
head(r_fr12_202,fr9_p4).
body(r_fr12_202,fr12_r1).
body(r_fr12_202,fr22_q1).
head(r_fr12_203,fr9_p4).
head(r_fr12_204,fr9_p4).
body(r_fr12_204,fr12_a3).
body(r_fr12_204,fr12_b2).
body(r_fr12_204,fr10_r3).
body(r_fr12_204,fr12_t2).
body(r_fr12_204,fr12_v1).
head(r_fr12_205,fr12_v1).
head(r_fr12_206,fr12_v1).
body(r_fr12_206,fr12_e2).
body(r_fr12_206,fr22_q1).
head(r_fr12_207,fr12_v1).
body(r_fr12_207,fr16_e4).
body(r_fr12_207,fr12_a3).
body(r_fr12_207,fr2_f1).
body(r_fr12_207,fr12_d2).
body(r_fr12_207,fr12_e2).
head(r_fr12_208,fr12_v1).
body(r_fr12_208,fr23_v1).
body(r_fr12_208,fr22_q1).
head(r_fr12_209,fr12_v1).
body(r_fr12_209,fr12_a1).
body(r_fr12_209,fr12_c3).
head(r_fr12_210,fr12_v1).
body(r_fr12_210,fr12_c3).
body(r_fr12_210,fr12_f2).
body(r_fr12_210,fr12_w1).
body(r_fr12_210,fr12_y1).
head(r_fr12_211,fr12_v1).
body(r_fr12_211,fr12_a1).
body(r_fr12_211,fr12_d2).
body(r_fr12_211,fr12_w1).
head(r_fr12_212,fr12_v1).
body(r_fr12_212,fr12_b2).
body(r_fr12_212,fr12_e2).
head(r_fr12_213,fr12_v1).
body(r_fr12_213,fr12_f1).
body(r_fr12_213,fr14_y1).
body(r_fr12_213,fr12_z2).
head(r_fr12_214,fr12_v1).
body(r_fr12_214,fr12_t2).
body(r_fr12_214,fr12_w1).
head(r_fr12_215,fr12_v1).
body(r_fr12_215,fr23_v1).
body(r_fr12_215,fr14_w3).
body(r_fr12_215,fr22_q1).
body(r_fr12_215,fr4_u2).
body(r_fr12_215,fr12_w1).
body(r_fr12_215,fr12_z2).
head(r_fr12_216,fr12_v1).
body(r_fr12_216,fr12_a1).
body(r_fr12_216,fr12_c3).
body(r_fr12_216,fr12_f2).
body(r_fr12_216,fr12_v2).
head(r_fr12_217,fr12_v1).
body(r_fr12_217,fr12_b3).
head(r_fr12_218,fr12_v1).
body(r_fr12_218,fr12_v2).
head(r_fr12_219,fr12_v1).
body(r_fr12_219,fr23_a1).
body(r_fr12_219,fr12_f2).
body(r_fr12_219,fr14_w3).
body(r_fr12_219,fr22_q1).
body(r_fr12_219,fr12_w1).
body(r_fr12_219,fr12_z2).
head(r_fr12_220,fr12_v1).
body(r_fr12_220,fr12_a1).
body(r_fr12_220,fr23_a1).
body(r_fr12_220,fr23_v1).
body(r_fr12_220,fr14_y1).
body(r_fr12_220,fr20_q2).
body(r_fr12_220,fr12_z2).
head(r_fr12_221,fr12_v1).
body(r_fr12_221,fr20_q2).
head(r_fr12_222,fr12_v1).
body(r_fr12_222,fr23_v1).
body(r_fr12_222,fr22_q1).
body(r_fr12_222,fr12_t2).
body(r_fr12_222,fr4_u2).
head(r_fr12_223,fr12_v1).
body(r_fr12_223,fr12_b3).
body(r_fr12_223,fr12_c3).
body(r_fr12_223,fr12_f1).
body(r_fr12_223,fr12_f2).
body(r_fr12_223,fr12_y1).
head(r_fr12_224,fr12_v1).
body(r_fr12_224,fr12_w1).
head(r_fr12_225,fr12_v2).
body(r_fr12_225,fr8_a2).
body(r_fr12_225,fr12_f1).
body(r_fr12_225,fr10_r3).
body(r_fr12_225,fr12_t2).
head(r_fr12_226,fr12_v2).
body(r_fr12_226,fr12_d2).
body(r_fr12_226,fr12_e2).
body(r_fr12_226,fr14_w3).
body(r_fr12_226,fr22_q1).
body(r_fr12_226,fr12_w1).
body(r_fr12_226,fr12_z2).
head(r_fr12_227,fr12_v2).
body(r_fr12_227,fr12_f2).
body(r_fr12_227,fr22_q1).
head(r_fr12_228,fr12_v2).
body(r_fr12_228,fr12_q3).
body(r_fr12_228,fr12_t2).
body(r_fr12_228,fr4_u2).
head(r_fr12_229,fr12_v2).
body(r_fr12_229,fr12_t2).
body(r_fr12_229,fr12_y1).
head(r_fr12_230,fr12_v2).
body(r_fr12_230,fr12_r1).
body(r_fr12_230,fr14_y1).
body(r_fr12_230,fr12_t2).
body(r_fr12_230,fr4_u2).
head(r_fr12_231,fr12_v2).
body(r_fr12_231,fr12_a3).
body(r_fr12_231,fr12_b3).
body(r_fr12_231,fr12_y1).
head(r_fr12_232,fr12_v2).
body(r_fr12_232,fr12_q3).
body(r_fr12_232,fr12_t2).
body(r_fr12_232,fr12_w1).
head(r_fr12_233,fr12_v2).
body(r_fr12_233,fr23_a1).
body(r_fr12_233,fr23_v1).
head(r_fr12_234,fr12_v2).
body(r_fr12_234,fr12_a1).
body(r_fr12_234,fr16_e4).
body(r_fr12_234,fr12_b3).
body(r_fr12_234,fr23_a1).
head(r_fr12_235,fr12_v2).
body(r_fr12_235,fr12_a1).
body(r_fr12_235,fr12_a3).
head(r_fr12_236,fr12_v2).
head(r_fr12_237,fr12_v2).
body(r_fr12_237,fr16_e4).
body(r_fr12_237,fr12_b1).
body(r_fr12_237,fr23_a1).
body(r_fr12_237,fr12_d2).
head(r_fr12_238,fr12_v2).
body(r_fr12_238,fr10_r3).
head(r_fr12_239,fr12_v2).
body(r_fr12_239,fr12_b2).
body(r_fr12_239,fr20_q2).
head(r_fr12_240,fr12_v2).
body(r_fr12_240,fr23_v1).
head(r_fr12_241,fr12_v2).
body(r_fr12_241,fr12_f2).
body(r_fr12_241,fr14_w3).
head(r_fr12_242,fr12_v2).
body(r_fr12_242,fr12_a3).
body(r_fr12_242,fr12_b2).
body(r_fr12_242,fr12_b3).
body(r_fr12_242,fr23_a1).
body(r_fr12_242,fr12_t2).
body(r_fr12_242,fr12_z2).
head(r_fr12_243,fr12_v2).
body(r_fr12_243,fr2_f1).
body(r_fr12_243,fr23_a1).
body(r_fr12_243,fr23_v1).
body(r_fr12_243,fr12_t2).
head(r_fr12_244,fr12_v2).
body(r_fr12_244,fr8_a2).
body(r_fr12_244,fr14_y1).
body(r_fr12_244,fr12_y1).
body(r_fr12_244,fr20_q2).
head(r_fr12_245,fr12_v2).
body(r_fr12_245,fr12_b1).
body(r_fr12_245,fr2_f1).
body(r_fr12_245,fr12_c3).
body(r_fr12_245,fr12_f1).
head(r_fr12_246,fr12_v2).
body(r_fr12_246,fr12_a3).
body(r_fr12_246,fr12_b1).
body(r_fr12_246,fr12_b2).
body(r_fr12_246,fr12_c3).
body(r_fr12_246,fr23_a1).
body(r_fr12_246,fr12_f2).
head(r_fr12_247,fr20_q2).
body(r_fr12_247,fr8_a2).
body(r_fr12_247,fr12_f1).
body(r_fr12_247,fr10_r3).
body(r_fr12_247,fr12_w1).
body(r_fr12_247,fr12_y1).
body(r_fr12_247,fr12_z2).
head(r_fr12_248,fr20_q2).
body(r_fr12_248,fr12_b1).
body(r_fr12_248,fr2_f1).
body(r_fr12_248,fr23_a1).
body(r_fr12_248,fr12_d2).
body(r_fr12_248,fr12_f1).
head(r_fr12_249,fr20_q2).
body(r_fr12_249,fr12_b3).
body(r_fr12_249,fr23_a1).
body(r_fr12_249,fr12_e2).
body(r_fr12_249,fr12_f2).
head(r_fr12_250,fr20_q2).
body(r_fr12_250,fr10_r3).
head(r_fr12_251,fr20_q2).
body(r_fr12_251,fr12_a1).
body(r_fr12_251,fr23_a1).
body(r_fr12_251,fr12_t2).
head(r_fr12_252,fr20_q2).
body(r_fr12_252,fr12_b1).
body(r_fr12_252,fr12_e2).
head(r_fr12_253,fr20_q2).
body(r_fr12_253,fr16_e4).
body(r_fr12_253,fr2_f1).
body(r_fr12_253,fr12_e2).
body(r_fr12_253,fr12_w1).
head(r_fr12_254,fr20_q2).
body(r_fr12_254,fr12_a1).
body(r_fr12_254,fr16_e4).
body(r_fr12_254,fr12_b2).
body(r_fr12_254,fr12_f2).
body(r_fr12_254,fr23_v1).
body(r_fr12_254,fr12_z2).
head(r_fr12_255,fr20_q2).
body(r_fr12_255,fr16_e4).
body(r_fr12_255,fr12_b1).
body(r_fr12_255,fr12_e2).
head(r_fr12_256,fr20_q2).
body(r_fr12_256,fr14_w3).
body(r_fr12_256,fr14_y1).
body(r_fr12_256,fr4_u2).
head(r_fr12_257,fr20_q2).
body(r_fr12_257,fr2_f1).
body(r_fr12_257,fr14_w3).
body(r_fr12_257,fr12_t2).
head(r_fr12_258,fr20_q2).
body(r_fr12_258,fr16_e4).
body(r_fr12_258,fr4_u2).
head(r_fr12_259,fr20_q2).
body(r_fr12_259,fr12_c1).
body(r_fr12_259,fr12_e2).
body(r_fr12_259,fr12_q3).
head(r_fr12_260,fr20_q2).
body(r_fr12_260,fr12_a1).
body(r_fr12_260,fr23_a1).
body(r_fr12_260,fr12_f2).
body(r_fr12_260,fr12_r1).
head(r_fr12_261,fr20_q2).
body(r_fr12_261,fr12_b1).
body(r_fr12_261,fr12_c1).
body(r_fr12_261,fr2_f1).
head(r_fr12_262,fr20_q2).
body(r_fr12_262,fr12_b1).
body(r_fr12_262,fr12_e2).
body(r_fr12_262,fr14_w3).
body(r_fr12_262,fr12_r1).
body(r_fr12_262,fr12_t2).
head(r_fr12_263,fr20_q2).
body(r_fr12_263,fr16_e4).
body(r_fr12_263,fr12_a3).
body(r_fr12_263,fr12_b2).
body(r_fr12_263,fr12_d2).
body(r_fr12_263,fr12_q3).
body(r_fr12_263,fr12_z2).
head(r_fr12_264,fr20_q2).
body(r_fr12_264,fr12_a1).
body(r_fr12_264,fr12_a3).
body(r_fr12_264,fr12_c1).
body(r_fr12_264,fr2_f1).
body(r_fr12_264,fr12_f2).
body(r_fr12_264,fr23_v1).
head(r_fr12_265,fr20_q2).
head(r_fr12_266,fr20_q2).
body(r_fr12_266,fr12_a1).
body(r_fr12_266,fr23_v1).
head(r_fr12_267,fr23_v1).
body(r_fr12_267,fr16_e4).
body(r_fr12_267,fr12_a3).
body(r_fr12_267,fr12_c3).
body(r_fr12_267,fr23_a1).
body(r_fr12_267,fr12_e2).
body(r_fr12_267,fr22_q1).
head(r_fr12_268,fr23_v1).
body(r_fr12_268,fr12_b3).
body(r_fr12_268,fr22_q1).
body(r_fr12_268,fr12_t2).
head(r_fr12_269,fr23_v1).
body(r_fr12_269,fr12_d2).
head(r_fr12_270,fr23_v1).
body(r_fr12_270,fr10_r3).
body(r_fr12_270,fr12_q3).
body(r_fr12_270,fr12_r1).
head(r_fr12_271,fr23_v1).
body(r_fr12_271,fr12_a3).
body(r_fr12_271,fr12_b3).
body(r_fr12_271,fr12_f1).
body(r_fr12_271,fr12_r1).
head(r_fr12_272,fr23_v1).
body(r_fr12_272,fr12_a1).
body(r_fr12_272,fr14_w3).
body(r_fr12_272,fr12_q3).
body(r_fr12_272,fr12_r1).
body(r_fr12_272,fr12_t2).
body(r_fr12_272,fr12_z2).
head(r_fr12_273,fr23_v1).
body(r_fr12_273,fr22_q1).
head(r_fr12_274,fr23_v1).
body(r_fr12_274,fr12_z2).
head(r_fr12_275,fr23_v1).
body(r_fr12_275,fr12_b1).
body(r_fr12_275,fr12_c1).
body(r_fr12_275,fr12_e2).
body(r_fr12_275,fr12_f2).
body(r_fr12_275,fr12_y1).
head(r_fr12_276,fr23_v1).
body(r_fr12_276,fr12_r1).
body(r_fr12_276,fr14_y1).
body(r_fr12_276,fr22_q1).
head(r_fr12_277,fr23_v1).
body(r_fr12_277,fr12_b2).
head(r_fr12_278,fr23_v1).
body(r_fr12_278,fr2_f1).
body(r_fr12_278,fr10_r3).
body(r_fr12_278,fr12_q3).
body(r_fr12_278,fr22_q1).
body(r_fr12_278,fr4_u2).
body(r_fr12_278,fr12_y1).
head(r_fr12_279,fr23_v1).
body(r_fr12_279,fr12_c3).
body(r_fr12_279,fr12_w1).
head(r_fr12_280,fr23_v1).
body(r_fr12_280,fr12_a3).
body(r_fr12_280,fr12_b3).
body(r_fr12_280,fr12_c1).
body(r_fr12_280,fr12_c3).
head(r_fr12_281,fr23_v1).
body(r_fr12_281,fr14_y1).
body(r_fr12_281,fr22_q1).
body(r_fr12_281,fr4_u2).
body(r_fr12_281,fr12_y1).
head(r_fr12_282,fr23_v1).
body(r_fr12_282,fr16_e4).
body(r_fr12_282,fr12_c3).
body(r_fr12_282,fr10_r3).
body(r_fr12_282,fr14_y1).
head(r_fr12_283,fr23_v1).
body(r_fr12_283,fr16_e4).
body(r_fr12_283,fr12_b1).
body(r_fr12_283,fr12_f2).
head(r_fr12_284,fr23_v1).
body(r_fr12_284,fr16_e4).
body(r_fr12_284,fr22_q1).
head(r_fr12_285,fr23_v1).
body(r_fr12_285,fr14_w3).
body(r_fr12_285,fr12_t2).
head(r_fr12_286,fr23_v1).
body(r_fr12_286,fr23_a1).
head(r_fr12_287,fr23_v1).
body(r_fr12_287,fr12_c3).
head(r_fr12_288,fr23_v1).
head(r_fr12_289,fr4_u2).
body(r_fr12_289,fr12_f1).
body(r_fr12_289,fr10_r3).
body(r_fr12_289,fr12_w1).
body(r_fr12_289,fr12_y1).
head(r_fr12_290,fr4_u2).
body(r_fr12_290,fr16_e4).
body(r_fr12_290,fr12_b1).
body(r_fr12_290,fr12_c3).
body(r_fr12_290,fr12_f1).
body(r_fr12_290,fr22_q1).
head(r_fr12_291,fr4_u2).
body(r_fr12_291,fr12_a3).
body(r_fr12_291,fr12_b3).
body(r_fr12_291,fr12_c1).
body(r_fr12_291,fr23_a1).
body(r_fr12_291,fr12_r1).
head(r_fr12_292,fr4_u2).
body(r_fr12_292,fr12_a1).
body(r_fr12_292,fr12_b3).
body(r_fr12_292,fr8_a2).
body(r_fr12_292,fr12_e2).
body(r_fr12_292,fr12_w1).
head(r_fr12_293,fr4_u2).
head(r_fr12_294,fr4_u2).
body(r_fr12_294,fr2_f1).
body(r_fr12_294,fr8_a2).
body(r_fr12_294,fr12_r1).
body(r_fr12_294,fr22_q1).
body(r_fr12_294,fr12_t2).
head(r_fr12_295,fr4_u2).
body(r_fr12_295,fr12_c3).
body(r_fr12_295,fr14_y1).
body(r_fr12_295,fr12_y1).
head(r_fr12_296,fr4_u2).
body(r_fr12_296,fr12_c3).
body(r_fr12_296,fr22_q1).
head(r_fr12_297,fr4_u2).
body(r_fr12_297,fr12_a1).
body(r_fr12_297,fr12_a3).
body(r_fr12_297,fr12_w1).
body(r_fr12_297,fr12_y1).
head(r_fr12_298,fr4_u2).
body(r_fr12_298,fr14_w3).
body(r_fr12_298,fr12_t2).
body(r_fr12_298,fr12_w1).
head(r_fr12_299,fr4_u2).
body(r_fr12_299,fr12_c1).
body(r_fr12_299,fr12_c3).
body(r_fr12_299,fr10_r3).
body(r_fr12_299,fr12_w1).
body(r_fr12_299,fr12_z2).
head(r_fr12_300,fr4_u2).
body(r_fr12_300,fr14_y1).
head(r_fr12_301,fr4_u2).
body(r_fr12_301,fr12_r1).
body(r_fr12_301,fr12_t2).
body(r_fr12_301,fr12_w1).
body(r_fr12_301,fr12_y1).
body(r_fr12_301,fr12_z2).
head(r_fr12_302,fr4_u2).
body(r_fr12_302,fr12_b2).
body(r_fr12_302,fr12_f1).
body(r_fr12_302,fr12_r1).
body(r_fr12_302,fr22_q1).
head(r_fr12_303,fr4_u2).
body(r_fr12_303,fr12_a3).
body(r_fr12_303,fr12_c3).
body(r_fr12_303,fr10_r3).
body(r_fr12_303,fr12_q3).
head(r_fr12_304,fr4_u2).
body(r_fr12_304,fr12_f1).
body(r_fr12_304,fr14_w3).
head(r_fr12_305,fr4_u2).
body(r_fr12_305,fr10_r3).
body(r_fr12_305,fr12_q3).
body(r_fr12_305,fr12_y1).
body(r_fr12_305,fr12_z2).
head(r_fr12_306,fr4_u2).
body(r_fr12_306,fr12_b3).
body(r_fr12_306,fr23_a1).
body(r_fr12_306,fr12_d2).
body(r_fr12_306,fr12_e2).
body(r_fr12_306,fr12_f1).
head(r_fr12_307,fr4_u2).
body(r_fr12_307,fr14_w3).
body(r_fr12_307,fr12_r1).
body(r_fr12_307,fr12_w1).
body(r_fr12_307,fr12_z2).
head(r_fr12_308,fr4_u2).
body(r_fr12_308,fr12_y1).
head(r_fr12_309,fr4_u2).
body(r_fr12_309,fr2_f1).
body(r_fr12_309,fr12_w1).
head(r_fr12_310,fr12_y1).
body(r_fr12_310,fr12_b1).
body(r_fr12_310,fr12_c3).
body(r_fr12_310,fr12_d2).
body(r_fr12_310,fr10_r3).
body(r_fr12_310,fr14_y1).
head(r_fr12_311,fr12_y1).
body(r_fr12_311,fr12_a1).
body(r_fr12_311,fr12_b2).
body(r_fr12_311,fr12_e2).
head(r_fr12_312,fr12_y1).
body(r_fr12_312,fr12_b2).
body(r_fr12_312,fr12_f2).
head(r_fr12_313,fr12_y1).
body(r_fr12_313,fr2_f1).
body(r_fr12_313,fr23_a1).
body(r_fr12_313,fr8_a2).
body(r_fr12_313,fr12_f1).
body(r_fr12_313,fr12_q3).
head(r_fr12_314,fr12_y1).
body(r_fr12_314,fr12_r1).
body(r_fr12_314,fr14_y1).
body(r_fr12_314,fr12_w1).
head(r_fr12_315,fr12_y1).
body(r_fr12_315,fr12_c1).
body(r_fr12_315,fr10_r3).
head(r_fr12_316,fr12_y1).
body(r_fr12_316,fr14_w3).
body(r_fr12_316,fr12_t2).
body(r_fr12_316,fr12_w1).
head(r_fr12_317,fr12_y1).
body(r_fr12_317,fr12_r1).
head(r_fr12_318,fr12_y1).
body(r_fr12_318,fr12_t2).
head(r_fr12_319,fr12_y1).
body(r_fr12_319,fr12_b2).
body(r_fr12_319,fr23_a1).
body(r_fr12_319,fr10_r3).
body(r_fr12_319,fr22_q1).
head(r_fr12_320,fr12_y1).
body(r_fr12_320,fr12_a1).
body(r_fr12_320,fr16_e4).
body(r_fr12_320,fr23_a1).
body(r_fr12_320,fr14_y1).
head(r_fr12_321,fr12_y1).
body(r_fr12_321,fr10_r3).
body(r_fr12_321,fr12_q3).
body(r_fr12_321,fr22_q1).
body(r_fr12_321,fr12_t2).
body(r_fr12_321,fr12_w1).
body(r_fr12_321,fr12_z2).
head(r_fr12_322,fr12_y1).
body(r_fr12_322,fr12_a1).
body(r_fr12_322,fr12_b3).
body(r_fr12_322,fr12_d2).
body(r_fr12_322,fr12_e2).
body(r_fr12_322,fr12_f2).
head(r_fr12_323,fr12_y1).
body(r_fr12_323,fr14_y1).
head(r_fr12_324,fr12_y1).
body(r_fr12_324,fr23_a1).
body(r_fr12_324,fr12_r1).
body(r_fr12_324,fr12_z2).
head(r_fr12_325,fr12_y1).
body(r_fr12_325,fr12_a3).
body(r_fr12_325,fr22_q1).
body(r_fr12_325,fr12_t2).
body(r_fr12_325,fr12_z2).
head(r_fr12_326,fr12_y1).
body(r_fr12_326,fr12_c1).
body(r_fr12_326,fr12_d2).
body(r_fr12_326,fr12_e2).
body(r_fr12_326,fr10_r3).
body(r_fr12_326,fr12_q3).
head(r_fr12_327,fr12_y1).
body(r_fr12_327,fr14_y1).
body(r_fr12_327,fr12_w1).
head(r_fr12_328,fr12_y1).
body(r_fr12_328,fr12_c1).
body(r_fr12_328,fr12_c3).
body(r_fr12_328,fr12_t2).
body(r_fr12_328,fr12_w1).
body(r_fr12_328,fr12_z2).
head(r_fr12_329,fr12_y1).
head(r_fr12_330,fr12_q3).
body(r_fr12_330,fr12_a1).
head(r_fr12_331,fr12_q3).
body(r_fr12_331,fr12_b1).
body(r_fr12_331,fr10_r3).
body(r_fr12_331,fr14_y1).
body(r_fr12_331,fr22_q1).
body(r_fr12_331,fr12_t2).
body(r_fr12_331,fr12_w1).
head(r_fr12_332,fr12_q3).
body(r_fr12_332,fr12_b1).
body(r_fr12_332,fr12_b3).
body(r_fr12_332,fr12_e2).
body(r_fr12_332,fr12_t2).
body(r_fr12_332,fr12_w1).
body(r_fr12_332,fr12_z2).
head(r_fr12_333,fr12_q3).
body(r_fr12_333,fr12_b3).
body(r_fr12_333,fr23_a1).
head(r_fr12_334,fr12_q3).
body(r_fr12_334,fr14_w3).
body(r_fr12_334,fr14_y1).
body(r_fr12_334,fr12_t2).
body(r_fr12_334,fr12_z2).
head(r_fr12_335,fr12_q3).
body(r_fr12_335,fr16_e4).
body(r_fr12_335,fr12_b2).
body(r_fr12_335,fr2_f1).
body(r_fr12_335,fr12_d2).
head(r_fr12_336,fr12_q3).
body(r_fr12_336,fr12_a1).
body(r_fr12_336,fr12_b1).
body(r_fr12_336,fr12_b2).
body(r_fr12_336,fr2_f1).
body(r_fr12_336,fr12_t2).
head(r_fr12_337,fr12_q3).
body(r_fr12_337,fr12_f1).
body(r_fr12_337,fr10_r3).
body(r_fr12_337,fr14_y1).
body(r_fr12_337,fr22_q1).
body(r_fr12_337,fr12_t2).
body(r_fr12_337,fr12_w1).
head(r_fr12_338,fr12_q3).
head(r_fr12_339,fr12_q3).
body(r_fr12_339,fr10_r3).
body(r_fr12_339,fr14_w3).
body(r_fr12_339,fr22_q1).
body(r_fr12_339,fr12_t2).
head(r_fr12_340,fr12_q3).
body(r_fr12_340,fr2_f1).
head(r_fr12_341,fr12_q3).
body(r_fr12_341,fr12_a1).
body(r_fr12_341,fr12_c1).
body(r_fr12_341,fr2_f1).
body(r_fr12_341,fr23_a1).
body(r_fr12_341,fr12_e2).
head(r_fr12_342,fr12_q3).
body(r_fr12_342,fr12_e2).
head(r_fr12_343,fr12_q3).
body(r_fr12_343,fr12_d2).
body(r_fr12_343,fr22_q1).
head(r_fr12_344,fr12_q3).
body(r_fr12_344,fr12_c1).
body(r_fr12_344,fr23_a1).
head(r_fr12_345,fr12_q3).
body(r_fr12_345,fr12_r1).
head(r_fr12_346,fr12_q3).
body(r_fr12_346,fr12_c1).
body(r_fr12_346,fr14_w3).
body(r_fr12_346,fr12_t2).
head(r_fr12_347,fr12_q3).
body(r_fr12_347,fr12_d2).
body(r_fr12_347,fr10_r3).
body(r_fr12_347,fr12_t2).
body(r_fr12_347,fr12_z2).
head(r_fr12_348,fr12_q3).
body(r_fr12_348,fr12_e2).
body(r_fr12_348,fr14_y1).
body(r_fr12_348,fr22_q1).
body(r_fr12_348,fr12_t2).
head(r_fr12_349,fr12_q3).
body(r_fr12_349,fr12_b1).
body(r_fr12_349,fr12_c1).
body(r_fr12_349,fr2_f1).
body(r_fr12_349,fr12_c3).
body(r_fr12_349,fr12_f2).
body(r_fr12_349,fr12_r1).
head(r_fr12_350,fr12_q3).
body(r_fr12_350,fr16_e4).
body(r_fr12_350,fr12_b3).
body(r_fr12_350,fr8_a2).
body(r_fr12_350,fr10_r3).
body(r_fr12_350,fr12_r1).
body(r_fr12_350,fr12_t2).
head(r_fr12_351,fr12_q3).
body(r_fr12_351,fr16_e4).
body(r_fr12_351,fr12_b2).
body(r_fr12_351,fr12_d2).
body(r_fr12_351,fr8_a2).
body(r_fr12_351,fr12_f2).
body(r_fr12_351,fr22_q1).
head(r_fr12_352,fr14_w3).
body(r_fr12_352,fr12_a1).
body(r_fr12_352,fr12_z2).
head(r_fr12_353,fr14_w3).
body(r_fr12_353,fr22_q1).
head(r_fr12_354,fr14_w3).
body(r_fr12_354,fr12_a1).
body(r_fr12_354,fr12_b2).
head(r_fr12_355,fr14_w3).
body(r_fr12_355,fr12_b2).
body(r_fr12_355,fr12_c3).
body(r_fr12_355,fr10_r3).
body(r_fr12_355,fr14_y1).
body(r_fr12_355,fr22_q1).
head(r_fr12_356,fr14_w3).
body(r_fr12_356,fr12_r1).
body(r_fr12_356,fr12_z2).
head(r_fr12_357,fr14_w3).
body(r_fr12_357,fr12_a3).
body(r_fr12_357,fr12_c3).
body(r_fr12_357,fr12_e2).
body(r_fr12_357,fr12_t2).
head(r_fr12_358,fr14_w3).
body(r_fr12_358,fr12_c3).
body(r_fr12_358,fr12_d2).
body(r_fr12_358,fr12_f1).
body(r_fr12_358,fr14_y1).
head(r_fr12_359,fr14_w3).
body(r_fr12_359,fr12_a1).
body(r_fr12_359,fr12_b3).
body(r_fr12_359,fr8_a2).
body(r_fr12_359,fr12_r1).
head(r_fr12_360,fr14_w3).
head(r_fr12_361,fr14_w3).
body(r_fr12_361,fr12_d2).
body(r_fr12_361,fr12_e2).
body(r_fr12_361,fr12_w1).
head(r_fr12_362,fr14_w3).
body(r_fr12_362,fr23_a1).
body(r_fr12_362,fr12_f2).
head(r_fr12_363,fr14_w3).
body(r_fr12_363,fr12_b3).
body(r_fr12_363,fr2_f1).
body(r_fr12_363,fr12_f1).
body(r_fr12_363,fr10_r3).
body(r_fr12_363,fr14_y1).
body(r_fr12_363,fr12_z2).
head(r_fr12_364,fr14_w3).
body(r_fr12_364,fr16_e4).
body(r_fr12_364,fr12_b3).
body(r_fr12_364,fr12_c1).
body(r_fr12_364,fr12_c3).
body(r_fr12_364,fr12_t2).
head(r_fr12_365,fr14_w3).
body(r_fr12_365,fr12_t2).
head(r_fr12_366,fr14_w3).
body(r_fr12_366,fr8_a2).
body(r_fr12_366,fr12_e2).
head(r_fr12_367,fr14_w3).
body(r_fr12_367,fr12_b2).
body(r_fr12_367,fr10_r3).
body(r_fr12_367,fr14_y1).
head(r_fr12_368,fr14_w3).
body(r_fr12_368,fr12_a1).
head(r_fr12_369,fr14_w3).
body(r_fr12_369,fr12_a1).
body(r_fr12_369,fr12_b3).
body(r_fr12_369,fr12_c3).
body(r_fr12_369,fr12_d2).
body(r_fr12_369,fr12_w1).
head(r_fr12_370,fr14_w3).
body(r_fr12_370,fr10_r3).
body(r_fr12_370,fr22_q1).
head(r_fr12_371,fr14_w3).
body(r_fr12_371,fr12_b2).
body(r_fr12_371,fr12_f2).
body(r_fr12_371,fr14_y1).
body(r_fr12_371,fr12_w1).
head(r_fr12_372,fr14_w3).
body(r_fr12_372,fr16_e4).
body(r_fr12_372,fr12_b2).
body(r_fr12_372,fr12_w1).
head(r_fr12_373,fr14_w3).
body(r_fr12_373,fr10_r3).
body(r_fr12_373,fr12_r1).
body(r_fr12_373,fr14_y1).
body(r_fr12_373,fr22_q1).
body(r_fr12_373,fr12_t2).
head(r_fr12_374,fr14_y1).
body(r_fr12_374,fr12_c3).
body(r_fr12_374,fr12_f2).
head(r_fr12_375,fr14_y1).
body(r_fr12_375,fr12_a3).
body(r_fr12_375,fr12_b3).
body(r_fr12_375,fr10_r3).
head(r_fr12_376,fr14_y1).
body(r_fr12_376,fr12_w1).
body(r_fr12_376,fr12_z2).
head(r_fr12_377,fr14_y1).
body(r_fr12_377,fr12_b2).
body(r_fr12_377,fr12_b3).
body(r_fr12_377,fr12_c3).
body(r_fr12_377,fr10_r3).
body(r_fr12_377,fr12_r1).
body(r_fr12_377,fr22_q1).
head(r_fr12_378,fr14_y1).
body(r_fr12_378,fr12_a3).
body(r_fr12_378,fr8_a2).
body(r_fr12_378,fr10_r3).
head(r_fr12_379,fr14_y1).
body(r_fr12_379,fr12_b1).
body(r_fr12_379,fr12_c3).
body(r_fr12_379,fr12_t2).
head(r_fr12_380,fr14_y1).
body(r_fr12_380,fr12_t2).
body(r_fr12_380,fr12_w1).
body(r_fr12_380,fr12_z2).
head(r_fr12_381,fr14_y1).
body(r_fr12_381,fr12_c3).
head(r_fr12_382,fr14_y1).
body(r_fr12_382,fr12_r1).
body(r_fr12_382,fr22_q1).
body(r_fr12_382,fr12_t2).
body(r_fr12_382,fr12_w1).
body(r_fr12_382,fr12_z2).
head(r_fr12_383,fr14_y1).
body(r_fr12_383,fr16_e4).
body(r_fr12_383,fr22_q1).
head(r_fr12_384,fr14_y1).
body(r_fr12_384,fr12_e2).
body(r_fr12_384,fr10_r3).
body(r_fr12_384,fr12_r1).
body(r_fr12_384,fr22_q1).
body(r_fr12_384,fr12_w1).
body(r_fr12_384,fr12_z2).
head(r_fr12_385,fr14_y1).
body(r_fr12_385,fr22_q1).
body(r_fr12_385,fr12_t2).
body(r_fr12_385,fr12_w1).
body(r_fr12_385,fr12_z2).
head(r_fr12_386,fr14_y1).
body(r_fr12_386,fr16_e4).
body(r_fr12_386,fr2_f1).
body(r_fr12_386,fr12_d2).
body(r_fr12_386,fr8_a2).
body(r_fr12_386,fr12_f1).
head(r_fr12_387,fr14_y1).
body(r_fr12_387,fr12_t2).
body(r_fr12_387,fr12_w1).
head(r_fr12_388,fr14_y1).
body(r_fr12_388,fr12_b2).
body(r_fr12_388,fr12_b3).
body(r_fr12_388,fr8_a2).
body(r_fr12_388,fr12_z2).
head(r_fr12_389,fr14_y1).
body(r_fr12_389,fr8_a2).
body(r_fr12_389,fr12_f2).
head(r_fr12_390,fr14_y1).
head(r_fr12_391,fr14_y1).
body(r_fr12_391,fr12_b2).
body(r_fr12_391,fr23_a1).
body(r_fr12_391,fr12_d2).
body(r_fr12_391,fr8_a2).
body(r_fr12_391,fr12_f2).
head(r_fr12_392,fr14_y1).
body(r_fr12_392,fr12_a3).
body(r_fr12_392,fr12_b2).
body(r_fr12_392,fr12_c3).
body(r_fr12_392,fr23_a1).
head(r_fr12_393,fr14_y1).
body(r_fr12_393,fr10_r3).
body(r_fr12_393,fr22_q1).
head(r_fr12_394,fr14_y1).
body(r_fr12_394,fr23_a1).
body(r_fr12_394,fr12_r1).
body(r_fr12_394,fr12_t2).
body(r_fr12_394,fr12_w1).
head(r_fr12_395,fr14_y1).
body(r_fr12_395,fr10_r3).
head(r_fr12_396,fr14_y1).
body(r_fr12_396,fr12_b1).
body(r_fr12_396,fr12_c3).
body(r_fr12_396,fr8_a2).
body(r_fr12_396,fr12_e2).
body(r_fr12_396,fr12_f1).
body(r_fr12_396,fr12_t2).
head(r_fr12_397,fr12_w1).
body(r_fr12_397,fr12_a1).
body(r_fr12_397,fr16_e4).
body(r_fr12_397,fr12_b1).
body(r_fr12_397,fr2_f1).
body(r_fr12_397,fr8_a2).
body(r_fr12_397,fr12_e2).
head(r_fr12_398,fr12_w1).
body(r_fr12_398,fr22_q1).
body(r_fr12_398,fr12_z2).
head(r_fr12_399,fr12_w1).
body(r_fr12_399,fr12_f1).
body(r_fr12_399,fr22_q1).
body(r_fr12_399,fr12_t2).
body(r_fr12_399,fr12_z2).
head(r_fr12_400,fr12_w1).
body(r_fr12_400,fr8_a2).
head(r_fr12_401,fr12_w1).
body(r_fr12_401,fr16_e4).
body(r_fr12_401,fr12_b2).
body(r_fr12_401,fr12_b3).
body(r_fr12_401,fr12_c1).
body(r_fr12_401,fr23_a1).
body(r_fr12_401,fr8_a2).
head(r_fr12_402,fr12_w1).
body(r_fr12_402,fr16_e4).
body(r_fr12_402,fr12_b3).
body(r_fr12_402,fr12_c1).
body(r_fr12_402,fr12_c3).
head(r_fr12_403,fr12_w1).
body(r_fr12_403,fr22_q1).
head(r_fr12_404,fr12_w1).
body(r_fr12_404,fr12_b1).
body(r_fr12_404,fr12_c3).
body(r_fr12_404,fr12_f2).
head(r_fr12_405,fr12_w1).
body(r_fr12_405,fr16_e4).
body(r_fr12_405,fr12_a3).
body(r_fr12_405,fr12_z2).
head(r_fr12_406,fr12_w1).
body(r_fr12_406,fr16_e4).
body(r_fr12_406,fr10_r3).
body(r_fr12_406,fr12_r1).
body(r_fr12_406,fr22_q1).
body(r_fr12_406,fr12_t2).
body(r_fr12_406,fr12_z2).
head(r_fr12_407,fr12_w1).
body(r_fr12_407,fr16_e4).
body(r_fr12_407,fr12_b3).
body(r_fr12_407,fr23_a1).
body(r_fr12_407,fr12_f2).
body(r_fr12_407,fr12_r1).
head(r_fr12_408,fr12_w1).
body(r_fr12_408,fr12_e2).
body(r_fr12_408,fr10_r3).
body(r_fr12_408,fr12_r1).
head(r_fr12_409,fr12_w1).
body(r_fr12_409,fr12_e2).
body(r_fr12_409,fr10_r3).
body(r_fr12_409,fr12_r1).
body(r_fr12_409,fr22_q1).
body(r_fr12_409,fr12_z2).
head(r_fr12_410,fr12_w1).
body(r_fr12_410,fr12_b1).
body(r_fr12_410,fr12_e2).
body(r_fr12_410,fr22_q1).
body(r_fr12_410,fr12_t2).
body(r_fr12_410,fr12_z2).
head(r_fr12_411,fr12_w1).
body(r_fr12_411,fr12_r1).
body(r_fr12_411,fr22_q1).
body(r_fr12_411,fr12_t2).
head(r_fr12_412,fr12_w1).
head(r_fr12_413,fr12_w1).
body(r_fr12_413,fr12_t2).
body(r_fr12_413,fr12_z2).
head(r_fr12_414,fr12_w1).
body(r_fr12_414,fr10_r3).
body(r_fr12_414,fr12_r1).
body(r_fr12_414,fr22_q1).
body(r_fr12_414,fr12_t2).
body(r_fr12_414,fr12_z2).
head(r_fr12_415,fr12_w1).
body(r_fr12_415,fr12_c1).
head(r_fr12_416,fr12_w1).
body(r_fr12_416,fr12_a1).
body(r_fr12_416,fr10_r3).
body(r_fr12_416,fr22_q1).
body(r_fr12_416,fr12_t2).
body(r_fr12_416,fr12_z2).
head(r_fr12_417,fr12_w1).
body(r_fr12_417,fr12_a1).
body(r_fr12_417,fr12_b1).
body(r_fr12_417,fr12_c3).
body(r_fr12_417,fr12_e2).
body(r_fr12_417,fr12_f2).
head(r_fr12_418,fr12_w1).
body(r_fr12_418,fr12_a1).
body(r_fr12_418,fr12_c3).
body(r_fr12_418,fr8_a2).
body(r_fr12_418,fr12_r1).
body(r_fr12_418,fr22_q1).

assumption(fr13_a1).
assumption(fr13_b1).
assumption(fr13_c1).
assumption(fr13_d1).
assumption(fr20_e1).
assumption(fr13_f1).
assumption(fr13_a2).
assumption(fr13_b2).
assumption(fr13_c2).
assumption(fr13_d2).
assumption(fr13_e2).
assumption(fr16_b2).
assumption(fr13_a3).
assumption(fr15_c1).
assumption(fr13_c3).
contrary(fr13_a1,fr13_b2).
contrary(fr13_a2,fr13_b1).
contrary(fr13_a3,fr13_b2).
contrary(fr13_b1,fr13_s2).
contrary(fr13_b2,fr20_e1).
contrary(fr15_c1,fr13_s1).
contrary(fr13_c1,fr20_e1).
contrary(fr13_c2,fr13_w2).
contrary(fr13_c3,fr13_e2).
contrary(fr13_d1,fr13_p2).
contrary(fr13_d2,fr13_s2).
contrary(fr20_e1,fr15_c1).
contrary(fr13_e2,fr13_p3).
contrary(fr13_f1,fr13_t1).
contrary(fr16_b2,fr20_e1).
head(r_fr13_0,fr13_t1).
body(r_fr13_0,fr20_p3).
head(r_fr13_1,fr13_t1).
body(r_fr13_1,fr13_a3).
body(r_fr13_1,fr13_b1).
body(r_fr13_1,fr13_b2).
body(r_fr13_1,fr13_c2).
head(r_fr13_2,fr13_t1).
body(r_fr13_2,fr13_a3).
body(r_fr13_2,fr13_b1).
body(r_fr13_2,fr13_c1).
body(r_fr13_2,fr13_d1).
body(r_fr13_2,fr13_f1).
body(r_fr13_2,fr16_b2).
head(r_fr13_3,fr13_u1).
body(r_fr13_3,fr16_b2).
body(r_fr13_3,fr13_q2).
body(r_fr13_3,fr13_r3).
head(r_fr13_4,fr13_u1).
head(r_fr13_5,fr13_u1).
body(r_fr13_5,fr13_p2).
body(r_fr13_5,fr13_q1).
body(r_fr13_5,fr13_q3).
body(r_fr13_5,fr13_s2).
body(r_fr13_5,fr13_z1).
head(r_fr13_6,fr13_u1).
body(r_fr13_6,fr13_p3).
body(r_fr13_6,fr13_s1).
head(r_fr13_7,fr13_p3).
body(r_fr13_7,fr22_u1).
body(r_fr13_7,fr13_t2).
body(r_fr13_7,fr13_x1).
head(r_fr13_8,fr13_p3).
body(r_fr13_8,fr13_a3).
body(r_fr13_8,fr13_b2).
body(r_fr13_8,fr13_d1).
body(r_fr13_8,fr13_f1).
head(r_fr13_9,fr13_p3).
head(r_fr13_10,fr13_v1).
body(r_fr13_10,fr13_a1).
body(r_fr13_10,fr13_b2).
body(r_fr13_10,fr15_c1).
body(r_fr13_10,fr13_c1).
body(r_fr13_10,fr13_e2).
body(r_fr13_10,fr13_w2).
head(r_fr13_11,fr13_v1).
body(r_fr13_11,fr13_b1).
body(r_fr13_11,fr13_c1).
body(r_fr13_11,fr13_c2).
body(r_fr13_11,fr13_r3).
body(r_fr13_11,fr13_s1).
head(r_fr13_12,fr13_v1).
body(r_fr13_12,fr13_c2).
body(r_fr13_12,fr16_b2).
body(r_fr13_12,fr13_z1).
head(r_fr13_13,fr3_x1).
body(r_fr13_13,fr23_t2).
head(r_fr13_14,fr3_x1).
body(r_fr13_14,fr13_r1).
body(r_fr13_14,fr13_v2).
head(r_fr13_15,fr3_x1).
head(r_fr13_16,fr3_x1).
body(r_fr13_16,fr13_a3).
body(r_fr13_16,fr13_c3).
body(r_fr13_16,fr13_d1).
body(r_fr13_16,fr16_b2).
body(r_fr13_16,fr20_p3).
head(r_fr13_17,fr13_t2).
body(r_fr13_17,fr13_a3).
body(r_fr13_17,fr13_p1).
body(r_fr13_17,fr13_s1).
body(r_fr13_17,fr13_w1).
body(r_fr13_17,fr13_z1).
head(r_fr13_18,fr13_t2).
body(r_fr13_18,fr13_a1).
body(r_fr13_18,fr15_c1).
body(r_fr13_18,fr13_c2).
body(r_fr13_18,fr13_e2).
body(r_fr13_18,fr13_q3).
body(r_fr13_18,fr13_w1).
head(r_fr13_19,fr13_s1).
head(r_fr13_20,fr13_s1).
body(r_fr13_20,fr13_a2).
body(r_fr13_20,fr13_e2).
body(r_fr13_20,fr22_u1).
body(r_fr13_20,fr13_x1).
body(r_fr13_20,fr20_p3).
head(r_fr13_21,fr13_w2).
body(r_fr13_21,fr13_s2).
body(r_fr13_21,fr13_v2).
body(r_fr13_21,fr13_x2).
head(r_fr13_22,fr13_w2).
head(r_fr13_23,fr13_w2).
body(r_fr13_23,fr13_d1).
body(r_fr13_23,fr13_p2).
body(r_fr13_23,fr13_r1).
body(r_fr13_23,fr13_r3).
body(r_fr13_23,fr23_t2).
head(r_fr13_24,fr13_w2).
body(r_fr13_24,fr13_b1).
body(r_fr13_24,fr13_d1).
body(r_fr13_24,fr13_p2).
body(r_fr13_24,fr22_u1).
body(r_fr13_24,fr13_u2).
body(r_fr13_24,fr13_x1).
head(r_fr13_25,fr13_p1).
body(r_fr13_25,fr13_a2).
body(r_fr13_25,fr13_b1).
body(r_fr13_25,fr15_c1).
head(r_fr13_26,fr13_p1).
body(r_fr13_26,fr13_a3).
head(r_fr13_27,fr13_p1).
head(r_fr13_28,fr13_p1).
body(r_fr13_28,fr13_e2).
head(r_fr13_29,fr13_p1).
body(r_fr13_29,fr13_q2).
body(r_fr13_29,fr13_r1).
body(r_fr13_29,fr13_r3).
body(r_fr13_29,fr13_v2).
body(r_fr13_29,fr23_t2).
head(r_fr13_30,fr23_t2).
body(r_fr13_30,fr13_a2).
body(r_fr13_30,fr13_b2).
body(r_fr13_30,fr22_u1).
body(r_fr13_30,fr13_s2).
body(r_fr13_30,fr13_v2).
body(r_fr13_30,fr13_x2).
head(r_fr13_31,fr23_t2).
body(r_fr13_31,fr13_a3).
body(r_fr13_31,fr13_f1).
head(r_fr13_32,fr23_t2).
body(r_fr13_32,fr13_a3).
head(r_fr13_33,fr13_x1).
body(r_fr13_33,fr13_b1).
body(r_fr13_33,fr15_c1).
body(r_fr13_33,fr13_c3).
body(r_fr13_33,fr13_d2).
body(r_fr13_33,fr13_f1).
head(r_fr13_34,fr13_x1).
body(r_fr13_34,fr13_c2).
head(r_fr13_35,fr13_x1).
body(r_fr13_35,fr13_b1).
body(r_fr13_35,fr13_q3).
head(r_fr13_36,fr13_x1).
body(r_fr13_36,fr13_q3).
body(r_fr13_36,fr13_x2).
head(r_fr13_37,fr13_z1).
body(r_fr13_37,fr13_a1).
body(r_fr13_37,fr13_c1).
body(r_fr13_37,fr13_e2).
body(r_fr13_37,fr13_p2).
body(r_fr13_37,fr13_u2).
head(r_fr13_38,fr13_z1).
body(r_fr13_38,fr13_a2).
body(r_fr13_38,fr15_c1).
body(r_fr13_38,fr13_c1).
body(r_fr13_38,fr13_d1).
body(r_fr13_38,fr13_d2).
head(r_fr13_39,fr13_v2).
body(r_fr13_39,fr13_c2).
body(r_fr13_39,fr13_d1).
body(r_fr13_39,fr13_q1).
body(r_fr13_39,fr13_q2).
body(r_fr13_39,fr13_r3).
head(r_fr13_40,fr13_v2).
body(r_fr13_40,fr13_a2).
body(r_fr13_40,fr13_d2).
body(r_fr13_40,fr13_r3).
body(r_fr13_40,fr13_u2).
body(r_fr13_40,fr13_w1).
head(r_fr13_41,fr13_v2).
body(r_fr13_41,fr13_p2).
body(r_fr13_41,fr13_q1).
body(r_fr13_41,fr13_q3).
body(r_fr13_41,fr22_u1).
body(r_fr13_41,fr13_u2).
head(r_fr13_42,fr13_v2).
body(r_fr13_42,fr15_c1).
head(r_fr13_43,fr13_p2).
body(r_fr13_43,fr13_a3).
body(r_fr13_43,fr13_c3).
body(r_fr13_43,fr20_e1).
body(r_fr13_43,fr22_u1).
body(r_fr13_43,fr13_r3).
body(r_fr13_43,fr13_x2).
head(r_fr13_44,fr13_p2).
body(r_fr13_44,fr13_c3).
body(r_fr13_44,fr13_d2).
body(r_fr13_44,fr13_u2).
head(r_fr13_45,fr13_r3).
head(r_fr13_46,fr13_r3).
body(r_fr13_46,fr13_b2).
body(r_fr13_46,fr13_c1).
body(r_fr13_46,fr13_d1).
body(r_fr13_46,fr13_d2).
body(r_fr13_46,fr13_q3).
body(r_fr13_46,fr13_u2).
head(r_fr13_47,fr13_r3).
body(r_fr13_47,fr13_q1).
body(r_fr13_47,fr13_q2).
body(r_fr13_47,fr13_q3).
body(r_fr13_47,fr13_r1).
body(r_fr13_47,fr13_u2).
body(r_fr13_47,fr13_x2).
head(r_fr13_48,fr13_r3).
body(r_fr13_48,fr13_a2).
body(r_fr13_48,fr13_c1).
body(r_fr13_48,fr13_q3).
head(r_fr13_49,fr13_s2).
body(r_fr13_49,fr13_a2).
body(r_fr13_49,fr13_c2).
body(r_fr13_49,fr13_d2).
body(r_fr13_49,fr13_e2).
head(r_fr13_50,fr13_s2).
body(r_fr13_50,fr13_d2).
body(r_fr13_50,fr13_q2).
body(r_fr13_50,fr13_w1).
head(r_fr13_51,fr13_s2).
body(r_fr13_51,fr13_q3).
body(r_fr13_51,fr13_r1).
body(r_fr13_51,fr22_u1).
body(r_fr13_51,fr13_x2).
head(r_fr13_52,fr13_s2).
body(r_fr13_52,fr13_a1).
body(r_fr13_52,fr13_a2).
body(r_fr13_52,fr13_a3).
body(r_fr13_52,fr13_b1).
body(r_fr13_52,fr13_c1).
body(r_fr13_52,fr13_c2).
head(r_fr13_53,fr13_q3).
body(r_fr13_53,fr20_e1).
body(r_fr13_53,fr13_q1).
head(r_fr13_54,fr13_q3).
body(r_fr13_54,fr13_b1).
body(r_fr13_54,fr13_f1).
body(r_fr13_54,fr13_q1).
body(r_fr13_54,fr13_r1).
body(r_fr13_54,fr22_u1).
head(r_fr13_55,fr13_q3).
body(r_fr13_55,fr13_c2).
body(r_fr13_55,fr22_u1).
body(r_fr13_55,fr13_w1).
head(r_fr13_56,fr13_q3).
body(r_fr13_56,fr13_q1).
body(r_fr13_56,fr13_r1).
body(r_fr13_56,fr13_w1).
body(r_fr13_56,fr13_x2).
head(r_fr13_57,fr13_r1).
body(r_fr13_57,fr13_b2).
head(r_fr13_58,fr13_r1).
body(r_fr13_58,fr13_b2).
body(r_fr13_58,fr13_c3).
head(r_fr13_59,fr13_r1).
body(r_fr13_59,fr13_a2).
body(r_fr13_59,fr13_c1).
body(r_fr13_59,fr13_c3).
body(r_fr13_59,fr13_d2).
body(r_fr13_59,fr16_b2).
body(r_fr13_59,fr13_x2).
head(r_fr13_60,fr13_r1).
body(r_fr13_60,fr13_q1).
head(r_fr13_61,fr13_r1).
body(r_fr13_61,fr13_w1).
body(r_fr13_61,fr20_p3).
head(r_fr13_62,fr22_u1).
body(r_fr13_62,fr13_a3).
body(r_fr13_62,fr13_q2).
body(r_fr13_62,fr13_w1).
body(r_fr13_62,fr13_x2).
body(r_fr13_62,fr20_p3).
head(r_fr13_63,fr22_u1).
body(r_fr13_63,fr13_b1).
body(r_fr13_63,fr13_x2).
body(r_fr13_63,fr20_p3).
head(r_fr13_64,fr13_x2).
body(r_fr13_64,fr13_a1).
body(r_fr13_64,fr15_c1).
body(r_fr13_64,fr13_c1).
body(r_fr13_64,fr13_f1).
head(r_fr13_65,fr13_x2).
body(r_fr13_65,fr13_a2).
body(r_fr13_65,fr15_c1).
body(r_fr13_65,fr13_c2).
body(r_fr13_65,fr13_d2).
body(r_fr13_65,fr13_w1).
body(r_fr13_65,fr20_p3).
head(r_fr13_66,fr13_x2).
body(r_fr13_66,fr13_a1).
body(r_fr13_66,fr20_p3).
head(r_fr13_67,fr13_x2).

assumption(fr20_a1).
assumption(fr14_b1).
assumption(fr14_c1).
assumption(fr14_d1).
assumption(fr14_e1).
assumption(fr14_f1).
assumption(fr4_b1).
assumption(fr14_b2).
assumption(fr14_c2).
assumption(fr14_d2).
assumption(fr14_e2).
assumption(fr14_f2).
assumption(fr14_a3).
assumption(fr14_b3).
assumption(fr14_c3).
contrary(fr20_a1,fr14_t1).
contrary(fr4_b1,fr14_x2).
contrary(fr14_a3,fr14_b1).
contrary(fr14_b1,fr22_u1).
contrary(fr14_b2,fr14_u2).
contrary(fr14_b3,fr14_z2).
contrary(fr14_c1,fr14_a3).
contrary(fr14_c2,fr14_d2).
contrary(fr14_c3,fr14_c2).
contrary(fr14_d1,fr14_d2).
contrary(fr14_d2,fr14_q4).
contrary(fr14_e1,fr20_a1).
contrary(fr14_e2,fr14_z3).
contrary(fr14_f1,fr14_r1).
contrary(fr14_f2,fr14_t3).
head(r_fr14_0,fr14_u3).
body(r_fr14_0,fr14_c3).
body(r_fr14_0,fr14_d1).
body(r_fr14_0,fr14_e2).
body(r_fr14_0,fr14_p4).
body(r_fr14_0,fr14_q1).
body(r_fr14_0,fr14_q2).
body(r_fr14_0,fr14_q4).
body(r_fr14_0,fr25_w4).
body(r_fr14_0,fr13_p3).
body(r_fr14_0,fr14_u2).
body(r_fr14_0,fr14_v2).
body(r_fr14_0,fr14_y2).
body(r_fr14_0,fr14_z3).
head(r_fr14_1,fr14_u3).
body(r_fr14_1,fr20_a1).
body(r_fr14_1,fr14_b1).
body(r_fr14_1,fr14_c1).
body(r_fr14_1,fr14_d2).
body(r_fr14_1,fr14_e2).
body(r_fr14_1,fr14_p4).
body(r_fr14_1,fr14_q1).
body(r_fr14_1,fr14_q2).
body(r_fr14_1,fr14_r1).
body(r_fr14_1,fr14_r3).
body(r_fr14_1,fr14_r3).
body(r_fr14_1,fr14_t1).
body(r_fr14_1,fr13_p3).
body(r_fr14_1,fr14_y2).
body(r_fr14_1,fr14_y3).
head(r_fr14_2,fr14_u3).
body(r_fr14_2,fr20_a1).
body(r_fr14_2,fr14_a3).
body(r_fr14_2,fr14_c1).
body(r_fr14_2,fr14_d2).
body(r_fr14_2,fr25_u5).
body(r_fr14_2,fr14_q2).
body(r_fr14_2,fr14_q4).
body(r_fr14_2,fr14_r3).
body(r_fr14_2,fr25_w4).
body(r_fr14_2,fr14_s3).
body(r_fr14_2,fr14_t1).
body(r_fr14_2,fr14_v1).
body(r_fr14_2,fr14_v2).
body(r_fr14_2,fr14_x2).
body(r_fr14_2,fr14_z2).
head(r_fr14_3,fr14_u3).
body(r_fr14_3,fr14_b1).
body(r_fr14_3,fr14_b2).
body(r_fr14_3,fr14_c1).
body(r_fr14_3,fr14_c2).
body(r_fr14_3,fr14_e2).
body(r_fr14_3,fr14_f2).
body(r_fr14_3,fr14_p3).
body(r_fr14_3,fr14_r1).
body(r_fr14_3,fr14_t1).
body(r_fr14_3,fr14_w2).
body(r_fr14_3,fr14_x2).
body(r_fr14_3,fr14_y1).
body(r_fr14_3,fr14_y3).
body(r_fr14_3,fr25_r2).
head(r_fr14_4,fr13_p3).
body(r_fr14_4,fr4_b1).
body(r_fr14_4,fr14_c2).
body(r_fr14_4,fr14_d2).
body(r_fr14_4,fr14_e1).
body(r_fr14_4,fr14_f1).
body(r_fr14_4,fr14_s1).
body(r_fr14_4,fr14_t3).
body(r_fr14_4,fr14_u2).
body(r_fr14_4,fr14_v1).
body(r_fr14_4,fr14_w1).
body(r_fr14_4,fr25_r2).
body(r_fr14_4,fr14_z2).
body(r_fr14_4,fr14_z3).
head(r_fr14_5,fr13_p3).
body(r_fr14_5,fr14_b1).
body(r_fr14_5,fr14_b3).
body(r_fr14_5,fr14_d1).
body(r_fr14_5,fr14_p2).
body(r_fr14_5,fr14_p3).
body(r_fr14_5,fr14_q1).
body(r_fr14_5,fr14_r3).
body(r_fr14_5,fr14_s1).
body(r_fr14_5,fr25_w4).
body(r_fr14_5,fr14_v3).
body(r_fr14_5,fr14_x1).
body(r_fr14_5,fr25_t5).
body(r_fr14_5,fr14_y2).
body(r_fr14_5,fr14_y3).
head(r_fr14_6,fr14_q1).
body(r_fr14_6,fr20_a1).
body(r_fr14_6,fr4_b1).
body(r_fr14_6,fr14_c2).
body(r_fr14_6,fr14_c3).
body(r_fr14_6,fr14_d1).
body(r_fr14_6,fr14_p4).
body(r_fr14_6,fr14_r1).
body(r_fr14_6,fr24_u6).
body(r_fr14_6,fr14_u2).
body(r_fr14_6,fr14_v3).
body(r_fr14_6,fr25_r2).
body(r_fr14_6,fr14_z3).
head(r_fr14_7,fr14_q1).
body(r_fr14_7,fr14_c3).
body(r_fr14_7,fr14_p2).
body(r_fr14_7,fr14_q4).
body(r_fr14_7,fr14_r3).
body(r_fr14_7,fr14_r3).
body(r_fr14_7,fr14_s1).
body(r_fr14_7,fr25_w4).
body(r_fr14_7,fr14_t3).
body(r_fr14_7,fr14_v2).
body(r_fr14_7,fr14_w1).
body(r_fr14_7,fr14_w2).
body(r_fr14_7,fr14_x2).
body(r_fr14_7,fr14_y1).
body(r_fr14_7,fr25_r2).
body(r_fr14_7,fr14_z2).
head(r_fr14_8,fr14_q1).
body(r_fr14_8,fr20_a1).
body(r_fr14_8,fr14_a3).
body(r_fr14_8,fr14_b3).
body(r_fr14_8,fr14_e1).
body(r_fr14_8,fr14_f1).
body(r_fr14_8,fr14_f2).
body(r_fr14_8,fr25_u5).
body(r_fr14_8,fr14_p2).
body(r_fr14_8,fr22_u1).
body(r_fr14_8,fr14_t1).
body(r_fr14_8,fr14_v1).
body(r_fr14_8,fr14_y1).
head(r_fr14_9,fr14_q1).
body(r_fr14_9,fr14_c1).
body(r_fr14_9,fr14_e2).
body(r_fr14_9,fr14_f1).
body(r_fr14_9,fr14_f2).
body(r_fr14_9,fr14_p2).
body(r_fr14_9,fr14_p3).
body(r_fr14_9,fr14_q2).
body(r_fr14_9,fr14_q4).
body(r_fr14_9,fr24_u6).
body(r_fr14_9,fr14_u2).
body(r_fr14_9,fr14_x2).
body(r_fr14_9,fr14_y1).
body(r_fr14_9,fr14_y3).
body(r_fr14_9,fr14_z2).
body(r_fr14_9,fr14_z3).
head(r_fr14_10,fr14_q1).
body(r_fr14_10,fr14_e1).
body(r_fr14_10,fr25_u5).
body(r_fr14_10,fr14_p2).
body(r_fr14_10,fr14_q4).
body(r_fr14_10,fr14_r3).
body(r_fr14_10,fr14_r3).
body(r_fr14_10,fr14_s1).
body(r_fr14_10,fr14_t1).
body(r_fr14_10,fr14_v2).
body(r_fr14_10,fr14_w3).
body(r_fr14_10,fr14_x1).
body(r_fr14_10,fr14_y2).
body(r_fr14_10,fr14_z2).
body(r_fr14_10,fr14_z3).
head(r_fr14_11,fr14_y2).
body(r_fr14_11,fr25_u5).
body(r_fr14_11,fr14_p3).
body(r_fr14_11,fr14_p4).
body(r_fr14_11,fr22_u1).
body(r_fr14_11,fr14_s1).
body(r_fr14_11,fr14_s3).
body(r_fr14_11,fr24_u6).
body(r_fr14_11,fr14_v2).
body(r_fr14_11,fr14_v3).
body(r_fr14_11,fr14_w1).
body(r_fr14_11,fr14_x1).
body(r_fr14_11,fr25_t5).
body(r_fr14_11,fr14_y3).
head(r_fr14_12,fr14_y2).
body(r_fr14_12,fr25_u5).
body(r_fr14_12,fr14_p2).
body(r_fr14_12,fr14_q2).
body(r_fr14_12,fr14_q4).
body(r_fr14_12,fr14_r3).
body(r_fr14_12,fr14_r3).
body(r_fr14_12,fr14_s1).
body(r_fr14_12,fr14_s3).
body(r_fr14_12,fr14_t3).
body(r_fr14_12,fr14_v2).
body(r_fr14_12,fr14_v3).
body(r_fr14_12,fr14_w2).
body(r_fr14_12,fr14_y3).
body(r_fr14_12,fr25_r2).
body(r_fr14_12,fr14_z3).
head(r_fr14_13,fr14_y2).
body(r_fr14_13,fr4_b1).
body(r_fr14_13,fr14_a3).
body(r_fr14_13,fr14_b2).
body(r_fr14_13,fr14_c1).
body(r_fr14_13,fr14_d1).
body(r_fr14_13,fr14_p4).
body(r_fr14_13,fr14_r3).
body(r_fr14_13,fr14_s1).
body(r_fr14_13,fr14_t3).
body(r_fr14_13,fr24_u6).
body(r_fr14_13,fr14_v1).
body(r_fr14_13,fr14_v2).
body(r_fr14_13,fr25_t5).
head(r_fr14_14,fr14_r3).
body(r_fr14_14,fr14_p2).
body(r_fr14_14,fr14_p3).
body(r_fr14_14,fr14_p4).
body(r_fr14_14,fr14_r1).
body(r_fr14_14,fr14_r3).
body(r_fr14_14,fr14_s1).
body(r_fr14_14,fr14_s3).
body(r_fr14_14,fr14_t1).
body(r_fr14_14,fr14_t3).
body(r_fr14_14,fr14_w2).
body(r_fr14_14,fr14_y1).
body(r_fr14_14,fr14_y3).
head(r_fr14_15,fr14_r3).
body(r_fr14_15,fr20_a1).
body(r_fr14_15,fr14_c2).
body(r_fr14_15,fr14_p3).
body(r_fr14_15,fr14_r1).
body(r_fr14_15,fr14_t1).
body(r_fr14_15,fr24_u6).
body(r_fr14_15,fr14_u2).
body(r_fr14_15,fr14_v1).
body(r_fr14_15,fr14_w1).
body(r_fr14_15,fr14_y1).
body(r_fr14_15,fr14_y3).
body(r_fr14_15,fr14_z3).
head(r_fr14_16,fr14_r3).
body(r_fr14_16,fr25_u5).
body(r_fr14_16,fr14_p3).
body(r_fr14_16,fr14_q2).
body(r_fr14_16,fr22_u1).
body(r_fr14_16,fr14_r1).
body(r_fr14_16,fr14_r3).
body(r_fr14_16,fr14_s1).
body(r_fr14_16,fr14_t3).
body(r_fr14_16,fr14_v2).
body(r_fr14_16,fr14_w2).
body(r_fr14_16,fr14_x1).
body(r_fr14_16,fr14_y3).
body(r_fr14_16,fr25_r2).
body(r_fr14_16,fr14_z2).
head(r_fr14_17,fr14_q2).
body(r_fr14_17,fr14_a3).
body(r_fr14_17,fr14_e1).
body(r_fr14_17,fr25_u5).
body(r_fr14_17,fr14_p4).
body(r_fr14_17,fr14_q4).
body(r_fr14_17,fr14_r1).
body(r_fr14_17,fr14_r3).
body(r_fr14_17,fr25_w4).
body(r_fr14_17,fr14_t1).
body(r_fr14_17,fr14_t3).
body(r_fr14_17,fr14_w1).
body(r_fr14_17,fr14_y1).
body(r_fr14_17,fr25_r2).
body(r_fr14_17,fr14_z2).
head(r_fr14_18,fr14_q2).
body(r_fr14_18,fr14_a3).
body(r_fr14_18,fr14_c3).
body(r_fr14_18,fr14_e1).
body(r_fr14_18,fr14_f1).
body(r_fr14_18,fr14_p3).
body(r_fr14_18,fr14_p4).
body(r_fr14_18,fr22_u1).
body(r_fr14_18,fr14_r1).
body(r_fr14_18,fr14_r3).
body(r_fr14_18,fr14_v1).
body(r_fr14_18,fr14_w2).
body(r_fr14_18,fr25_t5).
body(r_fr14_18,fr14_y1).
body(r_fr14_18,fr14_y3).
head(r_fr14_19,fr14_q2).
body(r_fr14_19,fr20_a1).
body(r_fr14_19,fr4_b1).
body(r_fr14_19,fr14_d2).
body(r_fr14_19,fr14_e1).
body(r_fr14_19,fr14_f2).
body(r_fr14_19,fr14_p2).
body(r_fr14_19,fr14_p4).
body(r_fr14_19,fr14_r1).
body(r_fr14_19,fr14_s1).
body(r_fr14_19,fr14_v1).
body(r_fr14_19,fr14_w3).
body(r_fr14_19,fr14_x1).
body(r_fr14_19,fr25_r2).
body(r_fr14_19,fr14_z2).
head(r_fr14_20,fr14_q2).
body(r_fr14_20,fr14_e2).
body(r_fr14_20,fr25_u5).
body(r_fr14_20,fr14_p2).
body(r_fr14_20,fr14_p3).
body(r_fr14_20,fr14_r1).
body(r_fr14_20,fr14_s3).
body(r_fr14_20,fr14_t1).
body(r_fr14_20,fr14_v1).
body(r_fr14_20,fr14_v3).
body(r_fr14_20,fr14_w3).
body(r_fr14_20,fr14_x2).
body(r_fr14_20,fr25_t5).
body(r_fr14_20,fr14_y1).
body(r_fr14_20,fr14_y3).
head(r_fr14_21,fr14_q2).
body(r_fr14_21,fr14_d1).
body(r_fr14_21,fr14_f1).
body(r_fr14_21,fr14_p2).
body(r_fr14_21,fr14_p3).
body(r_fr14_21,fr25_w4).
body(r_fr14_21,fr14_t1).
body(r_fr14_21,fr14_t3).
body(r_fr14_21,fr14_u2).
body(r_fr14_21,fr14_v3).
body(r_fr14_21,fr14_y3).
body(r_fr14_21,fr25_r2).
body(r_fr14_21,fr14_z3).
head(r_fr14_22,fr14_u2).
body(r_fr14_22,fr14_b3).
body(r_fr14_22,fr14_c1).
body(r_fr14_22,fr14_d1).
body(r_fr14_22,fr14_d2).
body(r_fr14_22,fr14_e2).
body(r_fr14_22,fr14_f1).
body(r_fr14_22,fr14_p3).
body(r_fr14_22,fr22_u1).
body(r_fr14_22,fr14_q4).
body(r_fr14_22,fr14_r1).
body(r_fr14_22,fr14_t1).
body(r_fr14_22,fr14_w3).
head(r_fr14_23,fr14_u2).
body(r_fr14_23,fr14_a3).
body(r_fr14_23,fr14_b1).
body(r_fr14_23,fr14_d2).
body(r_fr14_23,fr14_e2).
body(r_fr14_23,fr14_p4).
body(r_fr14_23,fr22_u1).
body(r_fr14_23,fr14_r1).
body(r_fr14_23,fr14_r3).
body(r_fr14_23,fr14_s3).
body(r_fr14_23,fr24_u6).
body(r_fr14_23,fr14_w2).
body(r_fr14_23,fr14_w3).
body(r_fr14_23,fr14_x1).
body(r_fr14_23,fr14_x2).
head(r_fr14_24,fr14_u2).
body(r_fr14_24,fr25_u5).
body(r_fr14_24,fr14_q4).
body(r_fr14_24,fr25_w4).
body(r_fr14_24,fr14_t1).
body(r_fr14_24,fr24_u6).
body(r_fr14_24,fr14_v1).
body(r_fr14_24,fr14_v2).
body(r_fr14_24,fr14_w1).
body(r_fr14_24,fr14_w3).
body(r_fr14_24,fr14_x2).
body(r_fr14_24,fr25_t5).
body(r_fr14_24,fr25_r2).
body(r_fr14_24,fr14_z2).
body(r_fr14_24,fr14_z3).
head(r_fr14_25,fr14_u2).
body(r_fr14_25,fr14_b2).
body(r_fr14_25,fr14_c3).
body(r_fr14_25,fr14_e1).
body(r_fr14_25,fr14_e2).
body(r_fr14_25,fr14_f2).
body(r_fr14_25,fr25_u5).
body(r_fr14_25,fr14_p2).
body(r_fr14_25,fr25_w4).
body(r_fr14_25,fr14_s3).
body(r_fr14_25,fr14_v1).
body(r_fr14_25,fr14_v3).
body(r_fr14_25,fr25_t5).
body(r_fr14_25,fr14_z2).
body(r_fr14_25,fr14_z3).
head(r_fr14_26,fr14_p3).
body(r_fr14_26,fr4_b1).
body(r_fr14_26,fr14_b1).
body(r_fr14_26,fr14_e2).
body(r_fr14_26,fr14_f2).
body(r_fr14_26,fr25_u5).
body(r_fr14_26,fr14_q4).
body(r_fr14_26,fr14_r3).
body(r_fr14_26,fr14_s3).
body(r_fr14_26,fr14_t1).
body(r_fr14_26,fr14_t3).
body(r_fr14_26,fr14_v1).
body(r_fr14_26,fr14_w3).
body(r_fr14_26,fr14_x1).
body(r_fr14_26,fr14_x2).
body(r_fr14_26,fr14_y1).
head(r_fr14_27,fr14_p3).
body(r_fr14_27,fr25_u5).
body(r_fr14_27,fr14_p2).
body(r_fr14_27,fr14_p4).
body(r_fr14_27,fr22_u1).
body(r_fr14_27,fr14_q4).
body(r_fr14_27,fr14_r1).
body(r_fr14_27,fr14_t1).
body(r_fr14_27,fr14_v1).
body(r_fr14_27,fr14_v3).
body(r_fr14_27,fr14_w1).
body(r_fr14_27,fr14_x1).
body(r_fr14_27,fr14_x2).
body(r_fr14_27,fr14_z2).
body(r_fr14_27,fr14_z3).
head(r_fr14_28,fr22_u1).
body(r_fr14_28,fr14_c3).
body(r_fr14_28,fr25_u5).
body(r_fr14_28,fr14_p4).
body(r_fr14_28,fr14_q4).
body(r_fr14_28,fr14_s1).
body(r_fr14_28,fr25_w4).
body(r_fr14_28,fr14_t1).
body(r_fr14_28,fr14_t3).
body(r_fr14_28,fr14_v2).
body(r_fr14_28,fr14_w2).
body(r_fr14_28,fr14_w3).
body(r_fr14_28,fr14_x2).
body(r_fr14_28,fr14_y1).
body(r_fr14_28,fr25_r2).
head(r_fr14_29,fr22_u1).
body(r_fr14_29,fr14_b2).
body(r_fr14_29,fr14_p2).
body(r_fr14_29,fr14_p4).
body(r_fr14_29,fr14_r3).
body(r_fr14_29,fr25_w4).
body(r_fr14_29,fr14_t1).
body(r_fr14_29,fr14_v1).
body(r_fr14_29,fr14_v3).
body(r_fr14_29,fr14_w3).
body(r_fr14_29,fr14_x1).
body(r_fr14_29,fr25_t5).
body(r_fr14_29,fr14_z2).
head(r_fr14_30,fr22_u1).
body(r_fr14_30,fr4_b1).
body(r_fr14_30,fr14_b1).
body(r_fr14_30,fr14_b3).
body(r_fr14_30,fr14_d2).
body(r_fr14_30,fr25_u5).
body(r_fr14_30,fr14_p4).
body(r_fr14_30,fr14_s1).
body(r_fr14_30,fr25_w4).
body(r_fr14_30,fr14_t3).
body(r_fr14_30,fr14_v2).
body(r_fr14_30,fr14_w2).
body(r_fr14_30,fr14_y1).
body(r_fr14_30,fr14_z2).
body(r_fr14_30,fr14_z3).
head(r_fr14_31,fr22_u1).
body(r_fr14_31,fr14_c3).
body(r_fr14_31,fr14_f2).
body(r_fr14_31,fr25_u5).
body(r_fr14_31,fr14_p2).
body(r_fr14_31,fr14_r1).
body(r_fr14_31,fr25_w4).
body(r_fr14_31,fr14_s3).
body(r_fr14_31,fr14_t1).
body(r_fr14_31,fr24_u6).
body(r_fr14_31,fr14_v1).
body(r_fr14_31,fr14_w3).
body(r_fr14_31,fr14_x2).
body(r_fr14_31,fr14_y3).
head(r_fr14_32,fr14_q4).
body(r_fr14_32,fr14_b1).
body(r_fr14_32,fr14_b2).
body(r_fr14_32,fr14_c3).
body(r_fr14_32,fr14_d1).
body(r_fr14_32,fr14_e1).
body(r_fr14_32,fr14_e2).
body(r_fr14_32,fr14_p4).
body(r_fr14_32,fr14_r1).
body(r_fr14_32,fr14_s1).
body(r_fr14_32,fr14_v2).
body(r_fr14_32,fr14_w2).
body(r_fr14_32,fr14_x1).
body(r_fr14_32,fr14_y1).
head(r_fr14_33,fr14_q4).
body(r_fr14_33,fr14_b2).
body(r_fr14_33,fr14_p4).
body(r_fr14_33,fr14_r1).
body(r_fr14_33,fr14_s1).
body(r_fr14_33,fr14_s3).
body(r_fr14_33,fr14_t1).
body(r_fr14_33,fr24_u6).
body(r_fr14_33,fr14_v1).
body(r_fr14_33,fr14_v2).
body(r_fr14_33,fr14_v3).
body(r_fr14_33,fr14_w1).
body(r_fr14_33,fr14_x2).
body(r_fr14_33,fr25_r2).
body(r_fr14_33,fr14_z3).
head(r_fr14_34,fr14_q4).
body(r_fr14_34,fr14_a3).
body(r_fr14_34,fr14_b1).
body(r_fr14_34,fr14_b2).
body(r_fr14_34,fr14_c1).
body(r_fr14_34,fr14_f1).
body(r_fr14_34,fr25_u5).
body(r_fr14_34,fr14_p2).
body(r_fr14_34,fr14_r3).
body(r_fr14_34,fr14_s1).
body(r_fr14_34,fr14_v2).
body(r_fr14_34,fr14_w1).
body(r_fr14_34,fr14_w3).
body(r_fr14_34,fr14_x1).
head(r_fr14_35,fr14_q4).
body(r_fr14_35,fr14_b1).
body(r_fr14_35,fr14_f1).
body(r_fr14_35,fr25_u5).
body(r_fr14_35,fr14_r3).
body(r_fr14_35,fr25_w4).
body(r_fr14_35,fr14_s3).
body(r_fr14_35,fr14_t3).
body(r_fr14_35,fr24_u6).
body(r_fr14_35,fr14_w1).
body(r_fr14_35,fr14_w2).
body(r_fr14_35,fr14_w3).
body(r_fr14_35,fr14_x1).
body(r_fr14_35,fr25_t5).
body(r_fr14_35,fr14_y3).
body(r_fr14_35,fr25_r2).
head(r_fr14_36,fr14_q4).
body(r_fr14_36,fr20_a1).
body(r_fr14_36,fr4_b1).
body(r_fr14_36,fr14_a3).
body(r_fr14_36,fr14_d2).
body(r_fr14_36,fr14_t3).
body(r_fr14_36,fr24_u6).
body(r_fr14_36,fr14_v1).
body(r_fr14_36,fr14_v2).
body(r_fr14_36,fr14_v3).
body(r_fr14_36,fr14_w1).
body(r_fr14_36,fr14_x1).
body(r_fr14_36,fr14_z2).
body(r_fr14_36,fr14_z3).
head(r_fr14_37,fr14_s3).
body(r_fr14_37,fr14_c1).
body(r_fr14_37,fr14_p2).
body(r_fr14_37,fr14_r1).
body(r_fr14_37,fr14_s1).
body(r_fr14_37,fr14_t1).
body(r_fr14_37,fr24_u6).
body(r_fr14_37,fr14_v1).
body(r_fr14_37,fr14_v3).
body(r_fr14_37,fr14_w1).
body(r_fr14_37,fr14_w2).
body(r_fr14_37,fr14_x1).
body(r_fr14_37,fr25_t5).
body(r_fr14_37,fr14_y1).
head(r_fr14_38,fr14_s3).
body(r_fr14_38,fr14_p2).
body(r_fr14_38,fr14_s1).
body(r_fr14_38,fr25_w4).
body(r_fr14_38,fr24_u6).
body(r_fr14_38,fr14_v1).
body(r_fr14_38,fr14_v2).
body(r_fr14_38,fr14_v3).
body(r_fr14_38,fr14_w2).
body(r_fr14_38,fr14_x2).
body(r_fr14_38,fr14_y1).
body(r_fr14_38,fr14_y3).
body(r_fr14_38,fr25_r2).
body(r_fr14_38,fr14_z2).
body(r_fr14_38,fr14_z3).
head(r_fr14_39,fr14_s1).
body(r_fr14_39,fr20_a1).
body(r_fr14_39,fr14_p4).
body(r_fr14_39,fr14_r1).
body(r_fr14_39,fr14_t1).
body(r_fr14_39,fr14_t3).
body(r_fr14_39,fr24_u6).
body(r_fr14_39,fr14_v1).
body(r_fr14_39,fr14_v2).
body(r_fr14_39,fr14_w1).
body(r_fr14_39,fr14_w2).
body(r_fr14_39,fr14_w3).
body(r_fr14_39,fr14_x2).
body(r_fr14_39,fr14_y3).
body(r_fr14_39,fr25_r2).
body(r_fr14_39,fr14_z3).
head(r_fr14_40,fr14_s1).
body(r_fr14_40,fr14_b1).
body(r_fr14_40,fr14_d2).
body(r_fr14_40,fr25_u5).
body(r_fr14_40,fr14_p4).
body(r_fr14_40,fr25_w4).
body(r_fr14_40,fr14_t1).
body(r_fr14_40,fr14_v2).
body(r_fr14_40,fr14_v3).
body(r_fr14_40,fr14_w1).
body(r_fr14_40,fr25_t5).
body(r_fr14_40,fr25_r2).
body(r_fr14_40,fr14_z3).
head(r_fr14_41,fr14_s1).
body(r_fr14_41,fr25_u5).
body(r_fr14_41,fr14_p2).
body(r_fr14_41,fr14_p4).
body(r_fr14_41,fr25_w4).
body(r_fr14_41,fr14_t1).
body(r_fr14_41,fr24_u6).
body(r_fr14_41,fr14_v1).
body(r_fr14_41,fr14_v2).
body(r_fr14_41,fr14_w3).
body(r_fr14_41,fr25_t5).
body(r_fr14_41,fr14_y1).
body(r_fr14_41,fr25_r2).
body(r_fr14_41,fr14_z2).
head(r_fr14_42,fr14_s1).
body(r_fr14_42,fr25_u5).
body(r_fr14_42,fr14_p2).
body(r_fr14_42,fr14_p4).
body(r_fr14_42,fr14_r1).
body(r_fr14_42,fr14_r3).
body(r_fr14_42,fr25_w4).
body(r_fr14_42,fr14_v1).
body(r_fr14_42,fr14_v3).
body(r_fr14_42,fr14_w1).
body(r_fr14_42,fr14_w3).
body(r_fr14_42,fr14_x1).
body(r_fr14_42,fr14_x2).
body(r_fr14_42,fr14_y3).
body(r_fr14_42,fr14_z2).
body(r_fr14_42,fr14_z3).
head(r_fr14_43,fr25_u5).
body(r_fr14_43,fr14_a3).
body(r_fr14_43,fr14_b3).
body(r_fr14_43,fr14_c2).
body(r_fr14_43,fr14_r1).
body(r_fr14_43,fr14_t1).
body(r_fr14_43,fr14_t3).
body(r_fr14_43,fr24_u6).
body(r_fr14_43,fr14_v1).
body(r_fr14_43,fr14_v3).
body(r_fr14_43,fr14_x1).
body(r_fr14_43,fr14_x2).
body(r_fr14_43,fr14_y3).
body(r_fr14_43,fr14_z2).
head(r_fr14_44,fr25_u5).
body(r_fr14_44,fr20_a1).
body(r_fr14_44,fr14_a3).
body(r_fr14_44,fr14_p4).
body(r_fr14_44,fr14_r3).
body(r_fr14_44,fr25_w4).
body(r_fr14_44,fr14_v1).
body(r_fr14_44,fr14_w2).
body(r_fr14_44,fr14_x1).
body(r_fr14_44,fr14_y1).
body(r_fr14_44,fr14_y3).
body(r_fr14_44,fr25_r2).
body(r_fr14_44,fr14_z2).
head(r_fr14_45,fr14_z2).
body(r_fr14_45,fr14_f1).
body(r_fr14_45,fr14_p4).
body(r_fr14_45,fr25_w4).
body(r_fr14_45,fr14_t1).
body(r_fr14_45,fr14_v2).
body(r_fr14_45,fr14_v3).
body(r_fr14_45,fr14_w1).
body(r_fr14_45,fr14_w2).
body(r_fr14_45,fr14_w3).
body(r_fr14_45,fr14_x1).
body(r_fr14_45,fr14_x2).
body(r_fr14_45,fr14_y1).
body(r_fr14_45,fr14_y3).
body(r_fr14_45,fr25_r2).
head(r_fr14_46,fr14_z2).
body(r_fr14_46,fr20_a1).
body(r_fr14_46,fr4_b1).
body(r_fr14_46,fr14_b2).
body(r_fr14_46,fr14_e1).
body(r_fr14_46,fr14_f1).
body(r_fr14_46,fr14_p4).
body(r_fr14_46,fr14_r3).
body(r_fr14_46,fr14_t3).
body(r_fr14_46,fr24_u6).
body(r_fr14_46,fr14_v1).
body(r_fr14_46,fr14_v2).
body(r_fr14_46,fr14_v3).
body(r_fr14_46,fr14_w1).
body(r_fr14_46,fr14_w3).
body(r_fr14_46,fr14_y3).
head(r_fr14_47,fr14_z2).
body(r_fr14_47,fr14_c2).
body(r_fr14_47,fr14_d1).
body(r_fr14_47,fr14_p4).
body(r_fr14_47,fr14_r3).
body(r_fr14_47,fr25_w4).
body(r_fr14_47,fr14_t1).
body(r_fr14_47,fr24_u6).
body(r_fr14_47,fr14_v1).
body(r_fr14_47,fr14_v3).
body(r_fr14_47,fr14_w1).
body(r_fr14_47,fr14_w2).
body(r_fr14_47,fr14_w3).
body(r_fr14_47,fr14_x1).
body(r_fr14_47,fr14_x2).
body(r_fr14_47,fr14_z3).
head(r_fr14_48,fr14_z2).
body(r_fr14_48,fr14_p2).
body(r_fr14_48,fr25_w4).
body(r_fr14_48,fr14_v2).
body(r_fr14_48,fr14_v3).
body(r_fr14_48,fr14_w1).
body(r_fr14_48,fr14_w2).
body(r_fr14_48,fr14_x1).
body(r_fr14_48,fr14_x2).
body(r_fr14_48,fr25_t5).
body(r_fr14_48,fr14_y1).
body(r_fr14_48,fr25_r2).
body(r_fr14_48,fr14_z3).
head(r_fr14_49,fr14_z2).
body(r_fr14_49,fr14_a3).
body(r_fr14_49,fr14_b1).
body(r_fr14_49,fr14_b2).
body(r_fr14_49,fr14_e2).
body(r_fr14_49,fr14_p4).
body(r_fr14_49,fr14_r3).
body(r_fr14_49,fr25_w4).
body(r_fr14_49,fr14_t1).
body(r_fr14_49,fr24_u6).
body(r_fr14_49,fr14_v1).
body(r_fr14_49,fr14_v2).
body(r_fr14_49,fr25_t5).
body(r_fr14_49,fr14_y1).
body(r_fr14_49,fr25_r2).
body(r_fr14_49,fr14_z3).
head(r_fr14_50,fr14_r3).
body(r_fr14_50,fr14_b1).
body(r_fr14_50,fr14_b3).
body(r_fr14_50,fr14_c3).
body(r_fr14_50,fr14_f2).
body(r_fr14_50,fr14_p2).
body(r_fr14_50,fr14_t1).
body(r_fr14_50,fr14_v1).
body(r_fr14_50,fr14_w2).
body(r_fr14_50,fr14_w3).
body(r_fr14_50,fr14_x1).
body(r_fr14_50,fr14_x2).
body(r_fr14_50,fr25_t5).
head(r_fr14_51,fr14_r3).
body(r_fr14_51,fr20_a1).
body(r_fr14_51,fr14_c3).
body(r_fr14_51,fr14_d1).
body(r_fr14_51,fr14_e1).
body(r_fr14_51,fr14_p4).
body(r_fr14_51,fr14_r1).
body(r_fr14_51,fr14_t1).
body(r_fr14_51,fr24_u6).
body(r_fr14_51,fr14_v1).
body(r_fr14_51,fr14_v2).
body(r_fr14_51,fr14_v3).
body(r_fr14_51,fr14_x2).
body(r_fr14_51,fr25_t5).
body(r_fr14_51,fr14_y3).
body(r_fr14_51,fr25_r2).
head(r_fr14_52,fr14_v1).
body(r_fr14_52,fr14_b2).
body(r_fr14_52,fr14_c3).
body(r_fr14_52,fr14_p2).
body(r_fr14_52,fr14_p4).
body(r_fr14_52,fr14_r1).
body(r_fr14_52,fr25_w4).
body(r_fr14_52,fr14_t3).
body(r_fr14_52,fr24_u6).
body(r_fr14_52,fr14_w2).
body(r_fr14_52,fr14_w3).
body(r_fr14_52,fr14_x2).
body(r_fr14_52,fr25_r2).
body(r_fr14_52,fr14_z3).
head(r_fr14_53,fr14_v1).
body(r_fr14_53,fr20_a1).
body(r_fr14_53,fr14_b1).
body(r_fr14_53,fr14_c2).
body(r_fr14_53,fr14_d1).
body(r_fr14_53,fr14_f2).
body(r_fr14_53,fr14_p2).
body(r_fr14_53,fr24_u6).
body(r_fr14_53,fr14_v3).
body(r_fr14_53,fr14_w1).
body(r_fr14_53,fr14_w2).
body(r_fr14_53,fr25_t5).
body(r_fr14_53,fr14_y1).
body(r_fr14_53,fr25_r2).
head(r_fr14_54,fr14_t1).
body(r_fr14_54,fr14_c2).
body(r_fr14_54,fr14_d1).
body(r_fr14_54,fr14_f2).
body(r_fr14_54,fr14_r1).
body(r_fr14_54,fr25_w4).
body(r_fr14_54,fr14_t3).
body(r_fr14_54,fr24_u6).
body(r_fr14_54,fr14_v2).
body(r_fr14_54,fr14_v3).
body(r_fr14_54,fr14_w1).
body(r_fr14_54,fr14_w3).
body(r_fr14_54,fr25_t5).
body(r_fr14_54,fr14_z3).
head(r_fr14_55,fr14_t1).
body(r_fr14_55,fr14_b1).
body(r_fr14_55,fr14_c2).
body(r_fr14_55,fr14_d2).
body(r_fr14_55,fr14_e2).
body(r_fr14_55,fr14_f2).
body(r_fr14_55,fr14_p2).
body(r_fr14_55,fr14_r1).
body(r_fr14_55,fr14_t3).
body(r_fr14_55,fr24_u6).
body(r_fr14_55,fr14_v2).
body(r_fr14_55,fr14_w2).
body(r_fr14_55,fr14_w3).
body(r_fr14_55,fr14_x1).
body(r_fr14_55,fr14_y1).
head(r_fr14_56,fr14_t1).
body(r_fr14_56,fr14_a3).
body(r_fr14_56,fr14_b2).
body(r_fr14_56,fr14_b3).
body(r_fr14_56,fr14_c1).
body(r_fr14_56,fr14_c2).
body(r_fr14_56,fr14_f2).
body(r_fr14_56,fr14_p4).
body(r_fr14_56,fr14_r1).
body(r_fr14_56,fr24_u6).
body(r_fr14_56,fr14_v2).
body(r_fr14_56,fr14_x2).
body(r_fr14_56,fr14_y1).
body(r_fr14_56,fr14_y3).
head(r_fr14_57,fr14_t1).
body(r_fr14_57,fr14_p4).
body(r_fr14_57,fr14_r1).
body(r_fr14_57,fr14_t3).
body(r_fr14_57,fr14_v2).
body(r_fr14_57,fr14_v3).
body(r_fr14_57,fr14_w1).
body(r_fr14_57,fr14_w2).
body(r_fr14_57,fr14_w3).
body(r_fr14_57,fr14_x2).
body(r_fr14_57,fr25_t5).
body(r_fr14_57,fr14_y1).
body(r_fr14_57,fr14_y3).
body(r_fr14_57,fr25_r2).
body(r_fr14_57,fr14_z3).
head(r_fr14_58,fr14_t1).
body(r_fr14_58,fr20_a1).
body(r_fr14_58,fr4_b1).
body(r_fr14_58,fr14_a3).
body(r_fr14_58,fr14_c3).
body(r_fr14_58,fr14_p4).
body(r_fr14_58,fr14_r1).
body(r_fr14_58,fr25_w4).
body(r_fr14_58,fr14_t3).
body(r_fr14_58,fr14_v3).
body(r_fr14_58,fr14_w2).
body(r_fr14_58,fr14_w3).
body(r_fr14_58,fr14_x1).
body(r_fr14_58,fr25_t5).
body(r_fr14_58,fr14_z3).
head(r_fr14_59,fr14_v2).
body(r_fr14_59,fr4_b1).
body(r_fr14_59,fr14_a3).
body(r_fr14_59,fr14_c3).
body(r_fr14_59,fr14_d1).
body(r_fr14_59,fr14_d2).
body(r_fr14_59,fr14_e2).
body(r_fr14_59,fr14_p2).
body(r_fr14_59,fr14_p4).
body(r_fr14_59,fr14_r1).
body(r_fr14_59,fr25_w4).
body(r_fr14_59,fr24_u6).
body(r_fr14_59,fr14_v3).
body(r_fr14_59,fr14_w2).
body(r_fr14_59,fr14_y1).
body(r_fr14_59,fr25_r2).
head(r_fr14_60,fr14_v2).
body(r_fr14_60,fr20_a1).
body(r_fr14_60,fr14_b1).
body(r_fr14_60,fr14_f1).
body(r_fr14_60,fr14_p2).
body(r_fr14_60,fr14_t3).
body(r_fr14_60,fr24_u6).
body(r_fr14_60,fr14_v3).
body(r_fr14_60,fr14_w2).
body(r_fr14_60,fr14_w3).
body(r_fr14_60,fr14_x1).
body(r_fr14_60,fr25_r2).
body(r_fr14_60,fr14_z3).
head(r_fr14_61,fr14_v2).
body(r_fr14_61,fr14_b1).
body(r_fr14_61,fr14_c2).
body(r_fr14_61,fr14_d2).
body(r_fr14_61,fr14_f1).
body(r_fr14_61,fr14_p2).
body(r_fr14_61,fr14_r1).
body(r_fr14_61,fr25_w4).
body(r_fr14_61,fr14_t3).
body(r_fr14_61,fr14_w2).
body(r_fr14_61,fr14_w3).
body(r_fr14_61,fr14_y1).
body(r_fr14_61,fr14_y3).
body(r_fr14_61,fr25_r2).
body(r_fr14_61,fr14_z3).
head(r_fr14_62,fr14_v2).
body(r_fr14_62,fr14_b2).
body(r_fr14_62,fr14_c2).
body(r_fr14_62,fr14_c3).
body(r_fr14_62,fr14_p2).
body(r_fr14_62,fr14_r1).
body(r_fr14_62,fr25_w4).
body(r_fr14_62,fr14_t3).
body(r_fr14_62,fr14_w3).
body(r_fr14_62,fr14_y1).
body(r_fr14_62,fr14_y3).
body(r_fr14_62,fr25_r2).
body(r_fr14_62,fr14_z3).
head(r_fr14_63,fr14_v2).
body(r_fr14_63,fr14_b3).
body(r_fr14_63,fr14_p2).
body(r_fr14_63,fr14_r1).
body(r_fr14_63,fr25_w4).
body(r_fr14_63,fr14_t3).
body(r_fr14_63,fr24_u6).
body(r_fr14_63,fr14_v3).
body(r_fr14_63,fr14_w1).
body(r_fr14_63,fr14_w2).
body(r_fr14_63,fr14_w3).
body(r_fr14_63,fr14_x2).
body(r_fr14_63,fr14_y1).
body(r_fr14_63,fr14_z3).
head(r_fr14_64,fr24_u6).
body(r_fr14_64,fr14_p2).
body(r_fr14_64,fr14_p4).
body(r_fr14_64,fr14_r1).
body(r_fr14_64,fr14_t3).
body(r_fr14_64,fr14_v3).
body(r_fr14_64,fr14_w1).
body(r_fr14_64,fr14_w3).
body(r_fr14_64,fr14_x1).
body(r_fr14_64,fr14_y1).
body(r_fr14_64,fr14_y3).
body(r_fr14_64,fr25_r2).
body(r_fr14_64,fr14_z3).
head(r_fr14_65,fr24_u6).
body(r_fr14_65,fr14_b3).
body(r_fr14_65,fr14_e1).
body(r_fr14_65,fr14_p2).
body(r_fr14_65,fr14_p4).
body(r_fr14_65,fr14_r1).
body(r_fr14_65,fr25_w4).
body(r_fr14_65,fr14_v3).
body(r_fr14_65,fr14_w1).
body(r_fr14_65,fr14_w2).
body(r_fr14_65,fr14_x1).
body(r_fr14_65,fr14_x2).
body(r_fr14_65,fr14_y3).
body(r_fr14_65,fr25_r2).
body(r_fr14_65,fr14_z3).
head(r_fr14_66,fr24_u6).
body(r_fr14_66,fr14_b1).
body(r_fr14_66,fr14_b2).
body(r_fr14_66,fr14_e1).
body(r_fr14_66,fr14_p4).
body(r_fr14_66,fr25_w4).
body(r_fr14_66,fr14_v3).
body(r_fr14_66,fr14_w1).
body(r_fr14_66,fr14_w2).
body(r_fr14_66,fr14_x1).
body(r_fr14_66,fr25_t5).
body(r_fr14_66,fr14_y1).
body(r_fr14_66,fr14_y3).
body(r_fr14_66,fr14_z3).
head(r_fr14_67,fr24_u6).
body(r_fr14_67,fr20_a1).
body(r_fr14_67,fr14_c1).
body(r_fr14_67,fr14_c3).
body(r_fr14_67,fr14_p4).
body(r_fr14_67,fr14_r1).
body(r_fr14_67,fr14_t3).
body(r_fr14_67,fr14_v3).
body(r_fr14_67,fr14_w2).
body(r_fr14_67,fr14_w3).
body(r_fr14_67,fr14_x2).
body(r_fr14_67,fr25_t5).
body(r_fr14_67,fr14_y1).
body(r_fr14_67,fr25_r2).
head(r_fr14_68,fr14_w1).
body(r_fr14_68,fr20_a1).
body(r_fr14_68,fr14_c1).
body(r_fr14_68,fr14_e1).
body(r_fr14_68,fr14_p2).
body(r_fr14_68,fr14_p4).
body(r_fr14_68,fr14_r1).
body(r_fr14_68,fr25_w4).
body(r_fr14_68,fr14_w2).
body(r_fr14_68,fr14_w3).
body(r_fr14_68,fr14_x2).
body(r_fr14_68,fr25_t5).
body(r_fr14_68,fr25_r2).
body(r_fr14_68,fr14_z3).
head(r_fr14_69,fr14_w1).
body(r_fr14_69,fr20_a1).
body(r_fr14_69,fr4_b1).
body(r_fr14_69,fr14_b1).
body(r_fr14_69,fr14_b3).
body(r_fr14_69,fr14_p4).
body(r_fr14_69,fr25_w4).
body(r_fr14_69,fr14_x1).
body(r_fr14_69,fr14_x2).
body(r_fr14_69,fr25_t5).
body(r_fr14_69,fr14_y3).
body(r_fr14_69,fr25_r2).
body(r_fr14_69,fr14_z3).
head(r_fr14_70,fr14_w1).
body(r_fr14_70,fr14_c3).
body(r_fr14_70,fr14_d1).
body(r_fr14_70,fr14_d2).
body(r_fr14_70,fr14_p4).
body(r_fr14_70,fr14_r1).
body(r_fr14_70,fr14_t3).
body(r_fr14_70,fr14_v3).
body(r_fr14_70,fr14_w2).
body(r_fr14_70,fr14_w3).
body(r_fr14_70,fr14_x2).
body(r_fr14_70,fr25_t5).
body(r_fr14_70,fr14_y1).
body(r_fr14_70,fr25_r2).
body(r_fr14_70,fr14_z3).

assumption(fr15_a1).
assumption(fr11_c2).
assumption(fr15_c1).
assumption(fr6_a1).
assumption(fr15_e1).
assumption(fr15_f1).
assumption(fr15_a2).
assumption(fr22_d1).
assumption(fr15_c2).
assumption(fr25_a2).
assumption(fr15_e2).
assumption(fr15_f2).
assumption(fr15_a3).
assumption(fr15_b3).
assumption(fr15_c3).
contrary(fr15_a1,fr15_e1).
contrary(fr15_a2,fr15_a1).
contrary(fr15_a3,fr6_x1).
contrary(fr11_c2,fr15_s1).
contrary(fr22_d1,fr11_c2).
contrary(fr15_b3,fr6_x1).
contrary(fr15_c1,fr15_f2).
contrary(fr15_c2,fr15_e1).
contrary(fr15_c3,fr22_d1).
contrary(fr6_a1,fr4_u2).
contrary(fr25_a2,fr15_a3).
contrary(fr15_e1,fr22_d1).
contrary(fr15_e2,fr16_p4).
contrary(fr15_f1,fr15_a1).
contrary(fr15_f2,fr15_e1).
head(r_fr15_0,fr13_p3).
body(r_fr15_0,fr15_c1).
head(r_fr15_1,fr13_p3).
body(r_fr15_1,fr15_s1).
body(r_fr15_1,fr4_u2).
head(r_fr15_2,fr13_p3).
body(r_fr15_2,fr15_a1).
body(r_fr15_2,fr15_c1).
body(r_fr15_2,fr25_a2).
head(r_fr15_3,fr13_p3).
body(r_fr15_3,fr15_s1).
head(r_fr15_4,fr13_p3).
body(r_fr15_4,fr16_p4).
body(r_fr15_4,fr15_s1).
body(r_fr15_4,fr4_u2).
head(r_fr15_5,fr4_u2).
body(r_fr15_5,fr16_p4).
body(r_fr15_5,fr15_s1).
head(r_fr15_6,fr4_u2).
body(r_fr15_6,fr22_d1).
body(r_fr15_6,fr15_c1).
body(r_fr15_6,fr15_e1).
body(r_fr15_6,fr6_x1).
body(r_fr15_6,fr15_s1).
head(r_fr15_7,fr4_u2).
head(r_fr15_8,fr4_u2).
body(r_fr15_8,fr6_a1).
body(r_fr15_8,fr15_e2).
body(r_fr15_8,fr15_f1).
body(r_fr15_8,fr15_f2).
head(r_fr15_9,fr4_u2).
body(r_fr15_9,fr16_p4).
head(r_fr15_10,fr15_s1).
body(r_fr15_10,fr22_d1).
body(r_fr15_10,fr15_c1).
body(r_fr15_10,fr6_a1).
body(r_fr15_10,fr25_a2).
body(r_fr15_10,fr15_e1).
body(r_fr15_10,fr15_f2).
head(r_fr15_11,fr15_s1).
body(r_fr15_11,fr22_d1).
body(r_fr15_11,fr15_e2).
body(r_fr15_11,fr16_p4).
body(r_fr15_11,fr6_x1).
head(r_fr15_12,fr15_s1).
body(r_fr15_12,fr15_a2).
body(r_fr15_12,fr11_c2).
body(r_fr15_12,fr16_p4).
head(r_fr15_13,fr15_s1).
body(r_fr15_13,fr15_a1).
body(r_fr15_13,fr15_f1).
head(r_fr15_14,fr15_s1).
body(r_fr15_14,fr22_d1).
body(r_fr15_14,fr6_a1).
body(r_fr15_14,fr15_e2).
body(r_fr15_14,fr15_f2).
head(r_fr15_15,fr6_x1).
body(r_fr15_15,fr15_a3).
body(r_fr15_15,fr15_f2).
body(r_fr15_15,fr16_p4).
head(r_fr15_16,fr6_x1).
body(r_fr15_16,fr15_a2).
body(r_fr15_16,fr15_b3).
head(r_fr15_17,fr6_x1).
body(r_fr15_17,fr15_a1).
body(r_fr15_17,fr11_c2).
head(r_fr15_18,fr6_x1).
body(r_fr15_18,fr15_a3).
body(r_fr15_18,fr11_c2).
body(r_fr15_18,fr15_c2).
body(r_fr15_18,fr16_p4).
head(r_fr15_19,fr6_x1).
body(r_fr15_19,fr15_c1).
body(r_fr15_19,fr6_a1).
body(r_fr15_19,fr15_e2).
body(r_fr15_19,fr15_f2).
head(r_fr15_20,fr16_p4).
body(r_fr15_20,fr11_c2).
body(r_fr15_20,fr6_a1).
body(r_fr15_20,fr15_e2).
head(r_fr15_21,fr16_p4).
body(r_fr15_21,fr11_c2).
body(r_fr15_21,fr15_c2).
body(r_fr15_21,fr6_a1).
body(r_fr15_21,fr25_a2).
body(r_fr15_21,fr15_e2).
body(r_fr15_21,fr15_f1).
head(r_fr15_22,fr16_p4).
body(r_fr15_22,fr15_a3).
body(r_fr15_22,fr15_c2).
body(r_fr15_22,fr6_a1).
body(r_fr15_22,fr15_e1).
body(r_fr15_22,fr15_e2).
body(r_fr15_22,fr15_f1).

assumption(fr16_a1).
assumption(fr2_f1).
assumption(fr16_c1).
assumption(fr16_d1).
assumption(fr16_e1).
assumption(fr16_f1).
assumption(fr16_a2).
assumption(fr16_b2).
assumption(fr16_c2).
assumption(fr16_d2).
assumption(fr16_e2).
assumption(fr16_f2).
assumption(fr16_a3).
assumption(fr16_b3).
assumption(fr16_c3).
assumption(fr16_d3).
assumption(fr16_e3).
assumption(fr16_f3).
assumption(fr16_a4).
assumption(fr16_b4).
assumption(fr12_e2).
assumption(fr15_f2).
assumption(fr16_e4).
assumption(fr16_f4).
assumption(fr16_a5).
assumption(fr9_c3).
assumption(fr16_c5).
contrary(fr16_a1,fr16_c5).
contrary(fr16_a2,fr16_b3).
contrary(fr16_a3,fr16_w2).
contrary(fr16_a4,fr16_u1).
contrary(fr16_a5,fr5_t3).
contrary(fr2_f1,fr16_q3).
contrary(fr16_b2,fr16_w2).
contrary(fr16_b3,fr16_s3).
contrary(fr16_b4,fr16_t2).
contrary(fr9_c3,fr16_e4).
contrary(fr16_c1,fr16_a3).
contrary(fr16_c2,fr16_d3).
contrary(fr16_c3,fr16_x3).
contrary(fr12_e2,fr19_y3).
contrary(fr16_c5,fr16_u1).
contrary(fr16_d1,fr4_s3).
contrary(fr16_d2,fr16_y3).
contrary(fr16_d3,fr16_f1).
contrary(fr15_f2,fr16_r1).
contrary(fr16_e1,fr16_e4).
contrary(fr16_e2,fr16_d3).
contrary(fr16_e3,fr16_z4).
contrary(fr16_e4,fr16_q3).
contrary(fr16_f1,fr16_b4).
contrary(fr16_f2,fr16_q3).
contrary(fr16_f3,fr16_z4).
contrary(fr16_f4,fr16_b3).
head(r_fr16_0,fr16_z2).
head(r_fr16_1,fr16_z2).
body(r_fr16_1,fr5_t3).
head(r_fr16_2,fr16_z2).
body(r_fr16_2,fr16_s3).
body(r_fr16_2,fr5_t3).
body(r_fr16_2,fr16_w2).
head(r_fr16_3,fr16_z2).
body(r_fr16_3,fr16_a1).
body(r_fr16_3,fr16_a4).
body(r_fr16_3,fr16_b3).
body(r_fr16_3,fr16_e3).
body(r_fr16_3,fr17_t4).
head(r_fr16_4,fr16_z2).
body(r_fr16_4,fr14_w1).
body(r_fr16_4,fr16_v1).
body(r_fr16_4,fr16_v2).
body(r_fr16_4,fr16_w2).
body(r_fr16_4,fr16_y4).
head(r_fr16_5,fr16_z2).
body(r_fr16_5,fr16_b2).
head(r_fr16_6,fr16_z2).
body(r_fr16_6,fr16_s2).
head(r_fr16_7,fr16_p5).
body(r_fr16_7,fr16_a4).
body(r_fr16_7,fr16_c1).
body(r_fr16_7,fr16_c3).
body(r_fr16_7,fr16_d2).
body(r_fr16_7,fr15_f2).
body(r_fr16_7,fr16_e2).
body(r_fr16_7,fr16_f4).
body(r_fr16_7,fr16_x4).
body(r_fr16_7,fr16_y1).
head(r_fr16_8,fr16_p5).
body(r_fr16_8,fr16_c2).
body(r_fr16_8,fr16_f2).
body(r_fr16_8,fr16_x4).
head(r_fr16_9,fr16_p5).
head(r_fr16_10,fr9_s5).
body(r_fr16_10,fr16_s2).
body(r_fr16_10,fr16_s3).
body(r_fr16_10,fr16_u4).
body(r_fr16_10,fr16_w2).
body(r_fr16_10,fr4_s3).
head(r_fr16_11,fr9_s5).
body(r_fr16_11,fr16_f3).
head(r_fr16_12,fr9_s5).
body(r_fr16_12,fr16_a3).
body(r_fr16_12,fr9_c3).
body(r_fr16_12,fr16_e4).
body(r_fr16_12,fr16_f2).
body(r_fr16_12,fr16_r2).
body(r_fr16_12,fr16_y1).
head(r_fr16_13,fr9_s5).
body(r_fr16_13,fr16_a3).
body(r_fr16_13,fr12_e2).
body(r_fr16_13,fr16_d1).
body(r_fr16_13,fr16_f2).
head(r_fr16_14,fr9_s5).
body(r_fr16_14,fr16_r3).
body(r_fr16_14,fr14_w1).
body(r_fr16_14,fr16_u2).
body(r_fr16_14,fr5_t3).
body(r_fr16_14,fr16_v1).
body(r_fr16_14,fr16_y2).
body(r_fr16_14,fr16_y3).
head(r_fr16_15,fr9_s5).
body(r_fr16_15,fr16_a2).
body(r_fr16_15,fr16_a5).
body(r_fr16_15,fr16_c1).
body(r_fr16_15,fr16_d1).
body(r_fr16_15,fr16_e2).
body(r_fr16_15,fr16_e4).
body(r_fr16_15,fr16_r3).
body(r_fr16_15,fr16_t3).
body(r_fr16_15,fr5_t3).
body(r_fr16_15,fr16_v2).
head(r_fr16_16,fr9_s5).
body(r_fr16_16,fr16_f4).
head(r_fr16_17,fr9_s5).
body(r_fr16_17,fr16_a4).
body(r_fr16_17,fr16_c1).
body(r_fr16_17,fr12_e2).
body(r_fr16_17,fr16_d3).
body(r_fr16_17,fr15_f2).
body(r_fr16_17,fr16_t2).
body(r_fr16_17,fr5_t3).
head(r_fr16_18,fr9_s5).
body(r_fr16_18,fr16_c1).
head(r_fr16_19,fr16_r2).
body(r_fr16_19,fr16_p2).
body(r_fr16_19,fr16_p4).
body(r_fr16_19,fr16_q3).
body(r_fr16_19,fr16_r3).
body(r_fr16_19,fr17_t4).
body(r_fr16_19,fr16_t3).
body(r_fr16_19,fr16_u2).
body(r_fr16_19,fr5_t3).
body(r_fr16_19,fr20_t1).
body(r_fr16_19,fr16_y3).
head(r_fr16_20,fr16_r2).
body(r_fr16_20,fr12_e2).
body(r_fr16_20,fr16_q4).
body(r_fr16_20,fr16_s1).
head(r_fr16_21,fr16_r2).
body(r_fr16_21,fr16_a2).
body(r_fr16_21,fr16_a4).
body(r_fr16_21,fr9_c3).
body(r_fr16_21,fr12_e2).
body(r_fr16_21,fr16_d1).
body(r_fr16_21,fr16_d3).
body(r_fr16_21,fr16_e1).
body(r_fr16_21,fr16_e4).
body(r_fr16_21,fr16_f1).
head(r_fr16_22,fr16_r2).
head(r_fr16_23,fr16_r2).
body(r_fr16_23,fr16_a2).
head(r_fr16_24,fr16_r2).
body(r_fr16_24,fr16_d3).
body(r_fr16_24,fr16_e1).
body(r_fr16_24,fr16_e2).
body(r_fr16_24,fr16_f4).
head(r_fr16_25,fr16_w2).
body(r_fr16_25,fr16_c3).
body(r_fr16_25,fr16_p2).
body(r_fr16_25,fr16_p4).
body(r_fr16_25,fr16_q3).
body(r_fr16_25,fr16_t1).
body(r_fr16_25,fr5_t3).
body(r_fr16_25,fr16_v1).
body(r_fr16_25,fr16_x4).
body(r_fr16_25,fr16_y3).
head(r_fr16_26,fr16_w2).
body(r_fr16_26,fr16_a5).
body(r_fr16_26,fr2_f1).
body(r_fr16_26,fr16_b4).
body(r_fr16_26,fr9_c3).
body(r_fr16_26,fr16_c1).
body(r_fr16_26,fr16_d1).
body(r_fr16_26,fr15_f2).
body(r_fr16_26,fr16_e4).
body(r_fr16_26,fr16_f1).
head(r_fr16_27,fr16_w2).
body(r_fr16_27,fr16_a5).
body(r_fr16_27,fr16_p5).
body(r_fr16_27,fr5_t3).
body(r_fr16_27,fr16_z4).
head(r_fr16_28,fr16_w2).
body(r_fr16_28,fr16_a2).
body(r_fr16_28,fr16_a4).
body(r_fr16_28,fr16_a5).
body(r_fr16_28,fr2_f1).
body(r_fr16_28,fr16_c5).
body(r_fr16_28,fr15_f2).
body(r_fr16_28,fr16_e1).
body(r_fr16_28,fr16_e4).
body(r_fr16_28,fr9_s5).
body(r_fr16_28,fr16_x3).
head(r_fr16_29,fr16_w2).
body(r_fr16_29,fr16_a2).
body(r_fr16_29,fr16_a4).
body(r_fr16_29,fr16_c1).
body(r_fr16_29,fr16_c5).
body(r_fr16_29,fr16_d2).
body(r_fr16_29,fr16_f4).
head(r_fr16_30,fr16_w2).
head(r_fr16_31,fr16_w2).
body(r_fr16_31,fr16_a4).
body(r_fr16_31,fr9_c3).
body(r_fr16_31,fr16_d1).
body(r_fr16_31,fr16_d2).
body(r_fr16_31,fr16_e1).
body(r_fr16_31,fr16_f3).
head(r_fr16_32,fr4_s3).
body(r_fr16_32,fr16_p1).
body(r_fr16_32,fr19_y3).
body(r_fr16_32,fr16_u2).
head(r_fr16_33,fr4_s3).
body(r_fr16_33,fr16_a1).
body(r_fr16_33,fr16_a3).
body(r_fr16_33,fr16_a5).
body(r_fr16_33,fr16_b2).
body(r_fr16_33,fr16_c5).
body(r_fr16_33,fr16_f1).
body(r_fr16_33,fr16_f2).
body(r_fr16_33,fr16_r1).
body(r_fr16_33,fr16_y4).
head(r_fr16_34,fr4_s3).
body(r_fr16_34,fr17_t4).
head(r_fr16_35,fr4_s3).
head(r_fr16_36,fr4_s3).
body(r_fr16_36,fr16_a1).
body(r_fr16_36,fr16_e1).
body(r_fr16_36,fr14_w1).
body(r_fr16_36,fr16_v3).
body(r_fr16_36,fr16_v4).
body(r_fr16_36,fr16_x4).
body(r_fr16_36,fr16_z4).
head(r_fr16_37,fr4_s3).
body(r_fr16_37,fr16_b4).
body(r_fr16_37,fr15_f2).
body(r_fr16_37,fr16_e2).
body(r_fr16_37,fr16_e4).
body(r_fr16_37,fr16_f1).
body(r_fr16_37,fr16_f2).
body(r_fr16_37,fr16_t4).
body(r_fr16_37,fr16_u1).
body(r_fr16_37,fr16_v3).
body(r_fr16_37,fr20_t1).
head(r_fr16_38,fr4_s3).
body(r_fr16_38,fr14_w1).
body(r_fr16_38,fr16_u4).
head(r_fr16_39,fr4_s3).
body(r_fr16_39,fr16_c3).
body(r_fr16_39,fr16_d1).
body(r_fr16_39,fr16_d2).
body(r_fr16_39,fr16_q1).
body(r_fr16_39,fr16_s1).
head(r_fr16_40,fr16_v4).
body(r_fr16_40,fr16_q1).
head(r_fr16_41,fr16_v4).
body(r_fr16_41,fr16_c2).
body(r_fr16_41,fr16_c5).
body(r_fr16_41,fr16_d3).
body(r_fr16_41,fr16_s2).
body(r_fr16_41,fr14_w1).
body(r_fr16_41,fr16_t2).
body(r_fr16_41,fr16_x3).
body(r_fr16_41,fr4_s3).
head(r_fr16_42,fr16_v4).
body(r_fr16_42,fr16_a4).
body(r_fr16_42,fr16_b4).
body(r_fr16_42,fr16_c5).
body(r_fr16_42,fr16_r1).
body(r_fr16_42,fr16_v3).
body(r_fr16_42,fr20_t1).
head(r_fr16_43,fr16_q4).
body(r_fr16_43,fr16_a1).
body(r_fr16_43,fr12_e2).
body(r_fr16_43,fr16_d3).
body(r_fr16_43,fr16_e4).
body(r_fr16_43,fr16_f4).
body(r_fr16_43,fr16_s1).
body(r_fr16_43,fr16_v1).
body(r_fr16_43,fr16_y1).
body(r_fr16_43,fr16_y3).
head(r_fr16_44,fr16_q4).
body(r_fr16_44,fr16_b2).
body(r_fr16_44,fr15_f2).
body(r_fr16_44,fr16_f1).
head(r_fr16_45,fr16_q4).
head(r_fr16_46,fr16_q4).
body(r_fr16_46,fr16_a1).
body(r_fr16_46,fr16_e4).
body(r_fr16_46,fr16_p2).
body(r_fr16_46,fr16_p5).
body(r_fr16_46,fr16_u2).
body(r_fr16_46,fr16_v2).
body(r_fr16_46,fr16_x1).
body(r_fr16_46,fr16_y4).
head(r_fr16_47,fr16_q4).
body(r_fr16_47,fr16_p1).
body(r_fr16_47,fr16_p2).
body(r_fr16_47,fr17_t4).
body(r_fr16_47,fr16_v3).
body(r_fr16_47,fr16_y1).
body(r_fr16_47,fr4_s3).
head(r_fr16_48,fr16_q4).
body(r_fr16_48,fr16_b3).
body(r_fr16_48,fr9_c3).
body(r_fr16_48,fr16_c1).
body(r_fr16_48,fr16_c3).
body(r_fr16_48,fr16_d2).
body(r_fr16_48,fr16_f3).
body(r_fr16_48,fr19_y3).
head(r_fr16_49,fr16_q4).
body(r_fr16_49,fr16_a1).
body(r_fr16_49,fr16_c1).
body(r_fr16_49,fr16_f3).
body(r_fr16_49,fr16_y3).
head(r_fr16_50,fr16_q4).
body(r_fr16_50,fr16_d2).
body(r_fr16_50,fr15_f2).
head(r_fr16_51,fr16_x4).
body(r_fr16_51,fr16_a4).
body(r_fr16_51,fr16_f1).
body(r_fr16_51,fr16_r2).
body(r_fr16_51,fr16_u1).
body(r_fr16_51,fr16_u4).
body(r_fr16_51,fr5_t3).
head(r_fr16_52,fr16_x4).
body(r_fr16_52,fr16_a2).
body(r_fr16_52,fr16_a5).
body(r_fr16_52,fr16_c1).
body(r_fr16_52,fr16_c2).
body(r_fr16_52,fr15_f2).
body(r_fr16_52,fr16_e3).
body(r_fr16_52,fr16_e4).
body(r_fr16_52,fr16_f3).
body(r_fr16_52,fr16_v1).
body(r_fr16_52,fr16_y2).
head(r_fr16_53,fr16_x4).
body(r_fr16_53,fr12_e2).
body(r_fr16_53,fr16_e2).
body(r_fr16_53,fr16_q4).
body(r_fr16_53,fr16_t2).
body(r_fr16_53,fr16_t3).
head(r_fr16_54,fr16_x4).
body(r_fr16_54,fr16_t4).
body(r_fr16_54,fr20_t1).
head(r_fr16_55,fr16_x4).
body(r_fr16_55,fr16_a1).
body(r_fr16_55,fr16_a5).
body(r_fr16_55,fr2_f1).
body(r_fr16_55,fr16_c1).
body(r_fr16_55,fr16_d1).
body(r_fr16_55,fr16_e2).
body(r_fr16_55,fr16_f2).
body(r_fr16_55,fr16_f4).
head(r_fr16_56,fr16_x4).
body(r_fr16_56,fr16_a5).
body(r_fr16_56,fr16_b3).
body(r_fr16_56,fr16_c2).
body(r_fr16_56,fr16_c3).
body(r_fr16_56,fr16_d2).
body(r_fr16_56,fr16_e4).
body(r_fr16_56,fr16_f3).
body(r_fr16_56,fr16_s3).
body(r_fr16_56,fr16_x1).
head(r_fr16_57,fr16_v2).
body(r_fr16_57,fr9_c3).
body(r_fr16_57,fr16_c3).
body(r_fr16_57,fr16_d2).
body(r_fr16_57,fr16_e3).
body(r_fr16_57,fr16_e4).
body(r_fr16_57,fr16_f3).
body(r_fr16_57,fr16_f4).
body(r_fr16_57,fr16_u2).
body(r_fr16_57,fr16_u4).
body(r_fr16_57,fr20_t1).
head(r_fr16_58,fr16_v2).
body(r_fr16_58,fr16_t1).
head(r_fr16_59,fr16_v2).
body(r_fr16_59,fr16_a2).
body(r_fr16_59,fr16_a3).
body(r_fr16_59,fr16_b2).
body(r_fr16_59,fr9_c3).
body(r_fr16_59,fr16_c1).
body(r_fr16_59,fr16_c2).
body(r_fr16_59,fr16_d2).
body(r_fr16_59,fr16_d3).
body(r_fr16_59,fr16_e2).
body(r_fr16_59,fr16_e3).
head(r_fr16_60,fr16_v2).
body(r_fr16_60,fr16_b2).
body(r_fr16_60,fr16_b3).
body(r_fr16_60,fr16_c1).
body(r_fr16_60,fr12_e2).
body(r_fr16_60,fr16_d2).
body(r_fr16_60,fr16_e2).
body(r_fr16_60,fr16_f1).
body(r_fr16_60,fr16_s1).
body(r_fr16_60,fr16_s3).
body(r_fr16_60,fr16_x3).
head(r_fr16_61,fr16_v2).
body(r_fr16_61,fr16_b3).
body(r_fr16_61,fr16_u2).
head(r_fr16_62,fr16_u4).
body(r_fr16_62,fr2_f1).
body(r_fr16_62,fr16_c2).
body(r_fr16_62,fr12_e2).
body(r_fr16_62,fr16_d2).
body(r_fr16_62,fr16_d3).
body(r_fr16_62,fr16_r2).
body(r_fr16_62,fr20_t1).
head(r_fr16_63,fr16_u4).
body(r_fr16_63,fr16_d2).
body(r_fr16_63,fr16_f1).
body(r_fr16_63,fr16_r2).
body(r_fr16_63,fr14_w1).
body(r_fr16_63,fr16_t1).
body(r_fr16_63,fr16_t2).
body(r_fr16_63,fr16_v1).
body(r_fr16_63,fr16_y1).
head(r_fr16_64,fr16_u4).
body(r_fr16_64,fr16_a5).
body(r_fr16_64,fr16_b3).
body(r_fr16_64,fr16_c3).
body(r_fr16_64,fr16_d3).
body(r_fr16_64,fr16_e1).
body(r_fr16_64,fr16_e4).
body(r_fr16_64,fr16_f3).
body(r_fr16_64,fr16_p5).
body(r_fr16_64,fr14_w1).
head(r_fr16_65,fr16_u4).
head(r_fr16_66,fr16_u4).
body(r_fr16_66,fr16_a1).
body(r_fr16_66,fr17_t4).
body(r_fr16_66,fr16_p5).
body(r_fr16_66,fr16_q4).
body(r_fr16_66,fr16_r2).
body(r_fr16_66,fr16_s3).
body(r_fr16_66,fr14_w1).
body(r_fr16_66,fr16_t4).
head(r_fr16_67,fr16_u4).
body(r_fr16_67,fr16_b4).
body(r_fr16_67,fr16_e2).
body(r_fr16_67,fr16_q3).
body(r_fr16_67,fr16_v1).
head(r_fr16_68,fr16_u4).
body(r_fr16_68,fr16_a4).
body(r_fr16_68,fr16_b4).
body(r_fr16_68,fr16_c3).
body(r_fr16_68,fr16_e2).
body(r_fr16_68,fr16_f2).
body(r_fr16_68,fr16_f4).
head(r_fr16_69,fr16_w4).
body(r_fr16_69,fr16_f2).
body(r_fr16_69,fr9_v3).
body(r_fr16_69,fr4_s3).
head(r_fr16_70,fr16_w4).
head(r_fr16_71,fr16_w4).
body(r_fr16_71,fr16_c2).
body(r_fr16_71,fr16_c3).
body(r_fr16_71,fr16_d1).
body(r_fr16_71,fr16_e3).
body(r_fr16_71,fr16_f3).
body(r_fr16_71,fr17_t4).
body(r_fr16_71,fr19_y3).
body(r_fr16_71,fr16_r1).
body(r_fr16_71,fr5_t3).
body(r_fr16_71,fr16_y3).
head(r_fr16_72,fr16_w4).
body(r_fr16_72,fr16_r2).
head(r_fr16_73,fr16_w4).
body(r_fr16_73,fr16_s1).
body(r_fr16_73,fr16_u4).
body(r_fr16_73,fr16_z2).
head(r_fr16_74,fr16_w4).
body(r_fr16_74,fr16_a4).
body(r_fr16_74,fr12_e2).
body(r_fr16_74,fr16_e1).
body(r_fr16_74,fr16_e2).
body(r_fr16_74,fr16_e3).
body(r_fr16_74,fr16_f1).
body(r_fr16_74,fr14_w1).
body(r_fr16_74,fr16_w2).
head(r_fr16_75,fr5_t3).
body(r_fr16_75,fr16_e3).
body(r_fr16_75,fr16_s3).
body(r_fr16_75,fr16_t1).
body(r_fr16_75,fr16_u4).
body(r_fr16_75,fr16_v1).
body(r_fr16_75,fr16_v4).
body(r_fr16_75,fr9_s5).
body(r_fr16_75,fr16_y1).
head(r_fr16_76,fr5_t3).
body(r_fr16_76,fr2_f1).
body(r_fr16_76,fr16_b2).
body(r_fr16_76,fr16_c1).
body(r_fr16_76,fr16_d1).
body(r_fr16_76,fr16_d2).
body(r_fr16_76,fr16_d3).
body(r_fr16_76,fr16_e1).
body(r_fr16_76,fr16_f2).
body(r_fr16_76,fr16_f3).
body(r_fr16_76,fr16_y1).
head(r_fr16_77,fr5_t3).
body(r_fr16_77,fr16_c1).
body(r_fr16_77,fr16_d2).
body(r_fr16_77,fr16_p1).
body(r_fr16_77,fr16_p5).
body(r_fr16_77,fr17_t4).
body(r_fr16_77,fr16_t3).
body(r_fr16_77,fr16_u1).
body(r_fr16_77,fr16_w2).
body(r_fr16_77,fr9_s5).
body(r_fr16_77,fr16_x4).
head(r_fr16_78,fr5_t3).
body(r_fr16_78,fr16_a3).
body(r_fr16_78,fr16_a5).
body(r_fr16_78,fr16_c2).
body(r_fr16_78,fr16_c5).
body(r_fr16_78,fr16_d2).
body(r_fr16_78,fr16_e1).
body(r_fr16_78,fr16_e3).
body(r_fr16_78,fr16_f3).
body(r_fr16_78,fr16_s1).
body(r_fr16_78,fr16_x1).
head(r_fr16_79,fr5_t3).
body(r_fr16_79,fr16_c2).
body(r_fr16_79,fr16_t1).
body(r_fr16_79,fr16_u2).
body(r_fr16_79,fr16_x4).
body(r_fr16_79,fr16_y1).
body(r_fr16_79,fr16_y4).
body(r_fr16_79,fr4_s3).
head(r_fr16_80,fr5_t3).
head(r_fr16_81,fr5_t3).
body(r_fr16_81,fr16_r3).
head(r_fr16_82,fr5_t3).
body(r_fr16_82,fr16_b2).
body(r_fr16_82,fr12_e2).
body(r_fr16_82,fr16_p1).
body(r_fr16_82,fr19_y3).
body(r_fr16_82,fr16_s1).
body(r_fr16_82,fr16_u1).
body(r_fr16_82,fr16_v4).
body(r_fr16_82,fr9_v3).
body(r_fr16_82,fr16_z2).
head(r_fr16_83,fr5_t3).
body(r_fr16_83,fr16_d3).
body(r_fr16_83,fr16_f1).
body(r_fr16_83,fr16_f4).
head(r_fr16_84,fr16_p2).
body(r_fr16_84,fr16_b3).
body(r_fr16_84,fr17_t4).
body(r_fr16_84,fr16_q3).
body(r_fr16_84,fr16_s3).
body(r_fr16_84,fr16_t3).
body(r_fr16_84,fr5_t3).
body(r_fr16_84,fr16_u4).
body(r_fr16_84,fr5_t3).
body(r_fr16_84,fr16_x3).
body(r_fr16_84,fr16_y2).
head(r_fr16_85,fr16_p2).
body(r_fr16_85,fr16_a2).
body(r_fr16_85,fr16_d2).
head(r_fr16_86,fr16_p2).
head(r_fr16_87,fr16_p2).
body(r_fr16_87,fr16_d2).
head(r_fr16_88,fr16_p2).
body(r_fr16_88,fr16_p5).
body(r_fr16_88,fr16_t1).
body(r_fr16_88,fr16_v3).
head(r_fr16_89,fr16_p2).
body(r_fr16_89,fr16_r3).
head(r_fr16_90,fr16_p2).
body(r_fr16_90,fr9_c3).
body(r_fr16_90,fr16_c2).
body(r_fr16_90,fr12_e2).
body(r_fr16_90,fr16_e2).
body(r_fr16_90,fr16_f4).
body(r_fr16_90,fr5_t3).
body(r_fr16_90,fr16_y2).
head(r_fr16_91,fr16_p2).
body(r_fr16_91,fr16_s1).
head(r_fr16_92,fr20_t1).
body(r_fr16_92,fr16_a2).
body(r_fr16_92,fr2_f1).
body(r_fr16_92,fr9_c3).
body(r_fr16_92,fr16_s2).
body(r_fr16_92,fr16_z2).
head(r_fr16_93,fr20_t1).
body(r_fr16_93,fr16_b2).
body(r_fr16_93,fr16_b4).
body(r_fr16_93,fr16_c3).
body(r_fr16_93,fr12_e2).
body(r_fr16_93,fr16_e1).
body(r_fr16_93,fr16_f3).
body(r_fr16_93,fr16_p4).
body(r_fr16_93,fr17_t4).
head(r_fr16_94,fr20_t1).
body(r_fr16_94,fr16_a2).
body(r_fr16_94,fr16_a3).
body(r_fr16_94,fr2_f1).
body(r_fr16_94,fr16_b4).
body(r_fr16_94,fr16_c2).
body(r_fr16_94,fr12_e2).
body(r_fr16_94,fr16_d2).
body(r_fr16_94,fr16_e2).
body(r_fr16_94,fr16_t3).
body(r_fr16_94,fr16_v4).
head(r_fr16_95,fr20_t1).
body(r_fr16_95,fr16_c1).
body(r_fr16_95,fr15_f2).
body(r_fr16_95,fr16_e3).
body(r_fr16_95,fr16_f2).
body(r_fr16_95,fr16_f4).
body(r_fr16_95,fr16_p1).
body(r_fr16_95,fr16_v1).
body(r_fr16_95,fr16_x1).
body(r_fr16_95,fr16_y4).
head(r_fr16_96,fr20_t1).
body(r_fr16_96,fr2_f1).
head(r_fr16_97,fr20_t1).
body(r_fr16_97,fr16_a1).
body(r_fr16_97,fr16_c2).
body(r_fr16_97,fr16_d3).
body(r_fr16_97,fr16_r2).
body(r_fr16_97,fr16_x1).
body(r_fr16_97,fr16_y3).
head(r_fr16_98,fr16_r3).
body(r_fr16_98,fr16_x1).
head(r_fr16_99,fr16_r3).
body(r_fr16_99,fr16_c3).
body(r_fr16_99,fr16_v2).
body(r_fr16_99,fr16_w2).
body(r_fr16_99,fr16_x3).
body(r_fr16_99,fr16_y4).
head(r_fr16_100,fr16_r3).
body(r_fr16_100,fr16_b3).
body(r_fr16_100,fr16_c5).
body(r_fr16_100,fr15_f2).
body(r_fr16_100,fr16_s2).
body(r_fr16_100,fr16_y3).
head(r_fr16_101,fr16_r3).
body(r_fr16_101,fr16_w2).
body(r_fr16_101,fr9_v3).
head(r_fr16_102,fr16_r3).
head(r_fr16_103,fr16_r3).
body(r_fr16_103,fr16_d1).
body(r_fr16_103,fr15_f2).
body(r_fr16_103,fr16_e3).
body(r_fr16_103,fr16_f4).
body(r_fr16_103,fr17_t4).
body(r_fr16_103,fr16_r1).
body(r_fr16_103,fr16_s3).
body(r_fr16_103,fr16_u1).
body(r_fr16_103,fr16_y3).
body(r_fr16_103,fr9_v3).
head(r_fr16_104,fr16_r3).
body(r_fr16_104,fr16_a3).
body(r_fr16_104,fr9_c3).
body(r_fr16_104,fr16_f2).
body(r_fr16_104,fr16_v1).
head(r_fr16_105,fr16_r3).
body(r_fr16_105,fr16_y3).
head(r_fr16_106,fr16_u1).
body(r_fr16_106,fr16_b3).
body(r_fr16_106,fr19_y3).
body(r_fr16_106,fr16_q4).
body(r_fr16_106,fr16_s3).
body(r_fr16_106,fr5_t3).
body(r_fr16_106,fr16_w4).
body(r_fr16_106,fr16_x1).
body(r_fr16_106,fr16_z4).
head(r_fr16_107,fr16_u1).
body(r_fr16_107,fr16_p1).
body(r_fr16_107,fr16_q4).
body(r_fr16_107,fr5_t3).
body(r_fr16_107,fr16_w4).
body(r_fr16_107,fr16_x1).
body(r_fr16_107,fr20_t1).
body(r_fr16_107,fr16_y2).
body(r_fr16_107,fr16_y4).
body(r_fr16_107,fr9_v3).
head(r_fr16_108,fr16_u1).
body(r_fr16_108,fr16_a4).
body(r_fr16_108,fr16_c1).
body(r_fr16_108,fr16_f2).
body(r_fr16_108,fr16_q1).
body(r_fr16_108,fr16_s2).
body(r_fr16_108,fr16_y4).
head(r_fr16_109,fr16_u1).
body(r_fr16_109,fr16_a4).
body(r_fr16_109,fr12_e2).
body(r_fr16_109,fr16_d1).
body(r_fr16_109,fr16_d3).
body(r_fr16_109,fr16_f2).
body(r_fr16_109,fr16_f3).
body(r_fr16_109,fr16_w2).
body(r_fr16_109,fr16_y4).
head(r_fr16_110,fr16_u1).
body(r_fr16_110,fr16_a5).
body(r_fr16_110,fr2_f1).
body(r_fr16_110,fr16_b2).
body(r_fr16_110,fr16_b3).
body(r_fr16_110,fr16_c3).
body(r_fr16_110,fr15_f2).
body(r_fr16_110,fr16_f1).
body(r_fr16_110,fr16_f3).
head(r_fr16_111,fr16_y1).
body(r_fr16_111,fr16_b2).
body(r_fr16_111,fr16_b3).
body(r_fr16_111,fr16_c2).
body(r_fr16_111,fr16_d3).
body(r_fr16_111,fr16_e2).
body(r_fr16_111,fr16_e4).
body(r_fr16_111,fr16_f4).
body(r_fr16_111,fr16_r1).
body(r_fr16_111,fr16_v2).
head(r_fr16_112,fr16_y1).
body(r_fr16_112,fr16_c3).
body(r_fr16_112,fr16_d3).
body(r_fr16_112,fr16_f3).
body(r_fr16_112,fr17_t4).
body(r_fr16_112,fr14_w1).
body(r_fr16_112,fr16_t3).
body(r_fr16_112,fr16_v3).
body(r_fr16_112,fr5_t3).
head(r_fr16_113,fr16_y1).
body(r_fr16_113,fr16_a2).
body(r_fr16_113,fr16_a5).
body(r_fr16_113,fr12_e2).
body(r_fr16_113,fr15_f2).
body(r_fr16_113,fr16_f1).
head(r_fr16_114,fr16_y1).
body(r_fr16_114,fr16_b2).
body(r_fr16_114,fr16_b4).
body(r_fr16_114,fr16_c1).
body(r_fr16_114,fr16_e2).
body(r_fr16_114,fr16_p2).
body(r_fr16_114,fr19_y3).
body(r_fr16_114,fr16_s1).
body(r_fr16_114,fr4_s3).
head(r_fr16_115,fr16_y1).
body(r_fr16_115,fr16_f1).
body(r_fr16_115,fr16_t2).
head(r_fr16_116,fr16_y1).
body(r_fr16_116,fr16_e1).
body(r_fr16_116,fr16_e3).
body(r_fr16_116,fr16_f1).
body(r_fr16_116,fr16_f4).
body(r_fr16_116,fr17_t4).
body(r_fr16_116,fr16_p4).
body(r_fr16_116,fr19_y3).
body(r_fr16_116,fr5_t3).
head(r_fr16_117,fr19_y3).
body(r_fr16_117,fr2_f1).
body(r_fr16_117,fr16_q1).
body(r_fr16_117,fr16_s1).
body(r_fr16_117,fr14_w1).
body(r_fr16_117,fr16_y1).
head(r_fr16_118,fr19_y3).
head(r_fr16_119,fr19_y3).
body(r_fr16_119,fr17_t4).
body(r_fr16_119,fr16_q1).
body(r_fr16_119,fr9_s5).
body(r_fr16_119,fr16_z2).
head(r_fr16_120,fr19_y3).
body(r_fr16_120,fr16_b3).
body(r_fr16_120,fr16_e2).
body(r_fr16_120,fr16_e3).
body(r_fr16_120,fr16_f2).
body(r_fr16_120,fr16_q1).
body(r_fr16_120,fr16_r3).
body(r_fr16_120,fr16_w4).
head(r_fr16_121,fr16_z4).
body(r_fr16_121,fr9_c3).
body(r_fr16_121,fr16_f1).
head(r_fr16_122,fr16_z4).
body(r_fr16_122,fr16_p2).
body(r_fr16_122,fr16_p4).
body(r_fr16_122,fr19_y3).
body(r_fr16_122,fr16_r2).
body(r_fr16_122,fr16_t1).
body(r_fr16_122,fr5_t3).
body(r_fr16_122,fr16_v1).
body(r_fr16_122,fr9_s5).
head(r_fr16_123,fr16_z4).
body(r_fr16_123,fr16_f3).
body(r_fr16_123,fr16_u1).
head(r_fr16_124,fr16_z4).
body(r_fr16_124,fr16_b3).
body(r_fr16_124,fr9_c3).
body(r_fr16_124,fr16_d1).
body(r_fr16_124,fr16_p2).
body(r_fr16_124,fr16_u4).
head(r_fr16_125,fr16_z4).
body(r_fr16_125,fr16_a3).
body(r_fr16_125,fr16_b3).
body(r_fr16_125,fr16_e2).
body(r_fr16_125,fr16_t4).
head(r_fr16_126,fr16_p1).
body(r_fr16_126,fr16_a3).
body(r_fr16_126,fr16_a5).
body(r_fr16_126,fr16_b2).
body(r_fr16_126,fr16_b3).
body(r_fr16_126,fr16_b4).
body(r_fr16_126,fr16_c5).
body(r_fr16_126,fr16_d3).
body(r_fr16_126,fr16_f1).
body(r_fr16_126,fr16_f4).
head(r_fr16_127,fr16_p1).
body(r_fr16_127,fr16_q3).
body(r_fr16_127,fr16_t4).
body(r_fr16_127,fr16_v4).
body(r_fr16_127,fr20_t1).
body(r_fr16_127,fr16_z4).
head(r_fr16_128,fr16_p1).
body(r_fr16_128,fr2_f1).
body(r_fr16_128,fr16_b2).
body(r_fr16_128,fr16_r2).
body(r_fr16_128,fr14_w1).
body(r_fr16_128,fr16_w2).
head(r_fr16_129,fr16_p1).
body(r_fr16_129,fr16_r2).
body(r_fr16_129,fr16_s1).
body(r_fr16_129,fr16_s2).
body(r_fr16_129,fr16_t2).
body(r_fr16_129,fr16_u1).
body(r_fr16_129,fr5_t3).
body(r_fr16_129,fr16_w4).
body(r_fr16_129,fr16_x1).
body(r_fr16_129,fr16_y3).
body(r_fr16_129,fr9_v3).
head(r_fr16_130,fr16_p1).
body(r_fr16_130,fr16_b2).
body(r_fr16_130,fr9_c3).
body(r_fr16_130,fr5_t3).
body(r_fr16_130,fr16_w2).
body(r_fr16_130,fr9_s5).
body(r_fr16_130,fr16_w4).
body(r_fr16_130,fr16_x3).
body(r_fr16_130,fr16_y3).
head(r_fr16_131,fr16_p1).
body(r_fr16_131,fr16_c2).
body(r_fr16_131,fr16_d3).
body(r_fr16_131,fr16_e3).
body(r_fr16_131,fr16_p4).
body(r_fr16_131,fr16_q4).
body(r_fr16_131,fr16_r3).
body(r_fr16_131,fr17_t4).
body(r_fr16_131,fr16_t3).
body(r_fr16_131,fr16_x3).
body(r_fr16_131,fr16_y1).
head(r_fr16_132,fr16_p1).
body(r_fr16_132,fr16_p2).
body(r_fr16_132,fr17_t4).
body(r_fr16_132,fr16_p4).
body(r_fr16_132,fr16_s3).
body(r_fr16_132,fr14_w1).
body(r_fr16_132,fr16_u2).
body(r_fr16_132,fr16_v2).
body(r_fr16_132,fr16_w2).
head(r_fr16_133,fr16_p1).
body(r_fr16_133,fr9_c3).
body(r_fr16_133,fr16_c1).
body(r_fr16_133,fr16_f1).
head(r_fr16_134,fr16_p1).
body(r_fr16_134,fr16_d3).
body(r_fr16_134,fr16_e4).
body(r_fr16_134,fr16_f2).
body(r_fr16_134,fr16_p5).
body(r_fr16_134,fr16_x4).
body(r_fr16_134,fr16_z4).
head(r_fr16_135,fr16_q1).
body(r_fr16_135,fr16_r1).
body(r_fr16_135,fr16_s1).
body(r_fr16_135,fr16_t4).
body(r_fr16_135,fr5_t3).
body(r_fr16_135,fr16_v2).
body(r_fr16_135,fr16_w4).
body(r_fr16_135,fr20_t1).
head(r_fr16_136,fr16_q1).
body(r_fr16_136,fr16_a2).
body(r_fr16_136,fr16_d1).
body(r_fr16_136,fr16_e1).
body(r_fr16_136,fr4_s3).
head(r_fr16_137,fr16_q1).
body(r_fr16_137,fr16_t1).
head(r_fr16_138,fr16_q1).
body(r_fr16_138,fr15_f2).
body(r_fr16_138,fr16_e4).
body(r_fr16_138,fr16_f3).
body(r_fr16_138,fr16_q3).
body(r_fr16_138,fr16_z2).
head(r_fr16_139,fr16_q1).
body(r_fr16_139,fr16_a5).
body(r_fr16_139,fr2_f1).
body(r_fr16_139,fr16_c3).
body(r_fr16_139,fr16_f2).
body(r_fr16_139,fr16_s3).
body(r_fr16_139,fr16_u1).
body(r_fr16_139,fr16_w2).
body(r_fr16_139,fr16_x4).
head(r_fr16_140,fr16_q1).
body(r_fr16_140,fr16_a4).
body(r_fr16_140,fr16_a5).
body(r_fr16_140,fr16_u4).
head(r_fr16_141,fr16_q1).
body(r_fr16_141,fr16_c1).
body(r_fr16_141,fr16_c5).
body(r_fr16_141,fr16_f4).
body(r_fr16_141,fr16_r2).
head(r_fr16_142,fr16_q1).
body(r_fr16_142,fr16_c1).
body(r_fr16_142,fr16_d2).
body(r_fr16_142,fr16_e4).
body(r_fr16_142,fr16_p1).
head(r_fr16_143,fr16_x1).
body(r_fr16_143,fr16_b3).
body(r_fr16_143,fr9_c3).
body(r_fr16_143,fr16_p5).
body(r_fr16_143,fr16_t2).
body(r_fr16_143,fr20_t1).
head(r_fr16_144,fr16_x1).
body(r_fr16_144,fr16_a1).
body(r_fr16_144,fr16_b3).
body(r_fr16_144,fr16_c5).
body(r_fr16_144,fr16_e1).
body(r_fr16_144,fr16_f3).
body(r_fr16_144,fr16_p1).
head(r_fr16_145,fr16_x1).
body(r_fr16_145,fr16_a1).
body(r_fr16_145,fr16_b2).
body(r_fr16_145,fr16_b3).
body(r_fr16_145,fr12_e2).
body(r_fr16_145,fr16_d1).
body(r_fr16_145,fr16_e1).
body(r_fr16_145,fr16_e4).
body(r_fr16_145,fr16_f4).
body(r_fr16_145,fr16_r2).
head(r_fr16_146,fr16_x1).
body(r_fr16_146,fr16_a5).
body(r_fr16_146,fr2_f1).
body(r_fr16_146,fr16_b3).
body(r_fr16_146,fr16_c2).
body(r_fr16_146,fr12_e2).
body(r_fr16_146,fr16_d3).
body(r_fr16_146,fr16_e3).
body(r_fr16_146,fr16_t3).
body(r_fr16_146,fr16_w2).
head(r_fr16_147,fr16_x1).
head(r_fr16_148,fr16_x1).
body(r_fr16_148,fr16_a4).
body(r_fr16_148,fr16_b3).
body(r_fr16_148,fr16_b4).
body(r_fr16_148,fr16_c2).
body(r_fr16_148,fr12_e2).
body(r_fr16_148,fr16_d3).
body(r_fr16_148,fr16_f1).
body(r_fr16_148,fr16_v2).
head(r_fr16_149,fr16_v3).
body(r_fr16_149,fr16_a1).
body(r_fr16_149,fr16_a2).
body(r_fr16_149,fr16_b2).
body(r_fr16_149,fr16_c5).
body(r_fr16_149,fr16_e3).
body(r_fr16_149,fr16_f1).
body(r_fr16_149,fr16_q1).
body(r_fr16_149,fr16_y3).
head(r_fr16_150,fr16_v3).
body(r_fr16_150,fr16_a2).
body(r_fr16_150,fr16_a3).
body(r_fr16_150,fr16_a5).
body(r_fr16_150,fr16_b3).
body(r_fr16_150,fr12_e2).
head(r_fr16_151,fr16_t1).
body(r_fr16_151,fr14_w1).
head(r_fr16_152,fr16_t1).
body(r_fr16_152,fr16_b2).
body(r_fr16_152,fr16_c3).
body(r_fr16_152,fr16_q1).
body(r_fr16_152,fr16_u1).
body(r_fr16_152,fr16_u2).
body(r_fr16_152,fr5_t3).
body(r_fr16_152,fr16_y2).
body(r_fr16_152,fr16_z4).
head(r_fr16_153,fr16_t1).
body(r_fr16_153,fr16_a5).
body(r_fr16_153,fr15_f2).
body(r_fr16_153,fr16_y3).
head(r_fr16_154,fr16_t1).
body(r_fr16_154,fr16_t3).
body(r_fr16_154,fr16_x1).
head(r_fr16_155,fr16_t1).
body(r_fr16_155,fr16_v1).
head(r_fr16_156,fr16_t1).
body(r_fr16_156,fr16_b3).
body(r_fr16_156,fr16_c2).
body(r_fr16_156,fr16_e1).
body(r_fr16_156,fr16_e3).
body(r_fr16_156,fr16_p1).
body(r_fr16_156,fr16_p2).
body(r_fr16_156,fr16_q4).
body(r_fr16_156,fr16_w2).
body(r_fr16_156,fr20_t1).
body(r_fr16_156,fr16_y3).
head(r_fr16_157,fr5_t3).
body(r_fr16_157,fr16_a3).
body(r_fr16_157,fr16_a5).
body(r_fr16_157,fr16_b3).
body(r_fr16_157,fr16_d1).
body(r_fr16_157,fr16_d2).
body(r_fr16_157,fr15_f2).
head(r_fr16_158,fr5_t3).
body(r_fr16_158,fr17_t4).
body(r_fr16_158,fr16_p5).
body(r_fr16_158,fr16_q3).
body(r_fr16_158,fr16_t4).
body(r_fr16_158,fr9_s5).
body(r_fr16_158,fr16_y1).
body(r_fr16_158,fr16_y4).
body(r_fr16_158,fr4_s3).
body(r_fr16_158,fr16_z4).
head(r_fr16_159,fr5_t3).
body(r_fr16_159,fr16_t2).
head(r_fr16_160,fr5_t3).
body(r_fr16_160,fr16_b3).
body(r_fr16_160,fr16_e4).
body(r_fr16_160,fr16_f2).
head(r_fr16_161,fr5_t3).
body(r_fr16_161,fr2_f1).
body(r_fr16_161,fr9_c3).
body(r_fr16_161,fr16_c2).
body(r_fr16_161,fr16_e1).
body(r_fr16_161,fr16_v4).
head(r_fr16_162,fr5_t3).
body(r_fr16_162,fr16_e2).
body(r_fr16_162,fr16_e4).
head(r_fr16_163,fr5_t3).
body(r_fr16_163,fr12_e2).
body(r_fr16_163,fr16_e2).
body(r_fr16_163,fr16_p2).
body(r_fr16_163,fr16_p4).
body(r_fr16_163,fr16_t2).
body(r_fr16_163,fr16_y3).
body(r_fr16_163,fr16_z4).
head(r_fr16_164,fr5_t3).
body(r_fr16_164,fr16_a1).
body(r_fr16_164,fr2_f1).
body(r_fr16_164,fr12_e2).
body(r_fr16_164,fr16_r3).
body(r_fr16_164,fr16_s2).
body(r_fr16_164,fr16_v3).
body(r_fr16_164,fr16_w4).
body(r_fr16_164,fr16_y2).
body(r_fr16_164,fr16_z4).
head(r_fr16_165,fr9_v3).
body(r_fr16_165,fr16_r2).
body(r_fr16_165,fr16_t1).
body(r_fr16_165,fr16_t4).
body(r_fr16_165,fr5_t3).
body(r_fr16_165,fr16_v3).
body(r_fr16_165,fr16_w4).
head(r_fr16_166,fr9_v3).
body(r_fr16_166,fr16_p1).
body(r_fr16_166,fr17_t4).
body(r_fr16_166,fr16_r2).
body(r_fr16_166,fr16_s1).
body(r_fr16_166,fr16_v4).
body(r_fr16_166,fr16_x4).
body(r_fr16_166,fr16_y2).
body(r_fr16_166,fr16_y3).
body(r_fr16_166,fr4_s3).
head(r_fr16_167,fr9_v3).
head(r_fr16_168,fr9_v3).
body(r_fr16_168,fr16_a2).
body(r_fr16_168,fr16_b3).
body(r_fr16_168,fr12_e2).
body(r_fr16_168,fr16_d3).
body(r_fr16_168,fr16_e1).
body(r_fr16_168,fr16_q4).
body(r_fr16_168,fr16_s1).
body(r_fr16_168,fr16_w2).
body(r_fr16_168,fr16_y1).
body(r_fr16_168,fr16_y2).
head(r_fr16_169,fr9_v3).
body(r_fr16_169,fr16_q4).
body(r_fr16_169,fr16_t3).
body(r_fr16_169,fr16_v1).
body(r_fr16_169,fr16_v2).
body(r_fr16_169,fr16_v3).
body(r_fr16_169,fr16_w4).
body(r_fr16_169,fr4_s3).
head(r_fr16_170,fr17_t4).
body(r_fr16_170,fr16_e3).
body(r_fr16_170,fr16_x3).
head(r_fr16_171,fr17_t4).
body(r_fr16_171,fr19_y3).
body(r_fr16_171,fr16_s1).
body(r_fr16_171,fr16_t2).
body(r_fr16_171,fr5_t3).
body(r_fr16_171,fr16_v2).
body(r_fr16_171,fr16_v3).
body(r_fr16_171,fr5_t3).
body(r_fr16_171,fr16_x3).
body(r_fr16_171,fr16_y3).
body(r_fr16_171,fr16_z4).
head(r_fr16_172,fr17_t4).
body(r_fr16_172,fr16_b3).
body(r_fr16_172,fr16_b4).
body(r_fr16_172,fr16_c2).
body(r_fr16_172,fr16_c3).
body(r_fr16_172,fr12_e2).
body(r_fr16_172,fr16_c5).
body(r_fr16_172,fr16_e1).
body(r_fr16_172,fr16_e3).
head(r_fr16_173,fr17_t4).
body(r_fr16_173,fr16_p1).
body(r_fr16_173,fr16_q3).
body(r_fr16_173,fr16_t3).
body(r_fr16_173,fr5_t3).
body(r_fr16_173,fr9_s5).
body(r_fr16_173,fr16_x1).
body(r_fr16_173,fr20_t1).
body(r_fr16_173,fr16_y2).
body(r_fr16_173,fr16_y4).
body(r_fr16_173,fr16_z4).
head(r_fr16_174,fr16_v1).
body(r_fr16_174,fr16_e4).
head(r_fr16_175,fr16_v1).
body(r_fr16_175,fr16_b4).
body(r_fr16_175,fr9_c3).
body(r_fr16_175,fr16_f1).
body(r_fr16_175,fr16_p1).
body(r_fr16_175,fr16_p5).
body(r_fr16_175,fr19_y3).
body(r_fr16_175,fr16_s3).
body(r_fr16_175,fr16_t3).
body(r_fr16_175,fr16_x3).
head(r_fr16_176,fr16_v1).
body(r_fr16_176,fr16_e3).
body(r_fr16_176,fr16_z4).
head(r_fr16_177,fr16_v1).
body(r_fr16_177,fr16_a2).
body(r_fr16_177,fr16_b3).
body(r_fr16_177,fr16_b4).
body(r_fr16_177,fr12_e2).
body(r_fr16_177,fr16_e3).
body(r_fr16_177,fr17_t4).
head(r_fr16_178,fr16_y3).
body(r_fr16_178,fr16_b3).
body(r_fr16_178,fr14_w1).
body(r_fr16_178,fr16_t1).
body(r_fr16_178,fr16_u1).
body(r_fr16_178,fr16_x1).
head(r_fr16_179,fr16_y3).
body(r_fr16_179,fr16_a3).
body(r_fr16_179,fr16_a5).
body(r_fr16_179,fr16_c2).
body(r_fr16_179,fr12_e2).
body(r_fr16_179,fr16_d2).
body(r_fr16_179,fr15_f2).
body(r_fr16_179,fr16_e1).
body(r_fr16_179,fr16_e2).
body(r_fr16_179,fr16_e4).
body(r_fr16_179,fr16_f4).
head(r_fr16_180,fr16_y3).
body(r_fr16_180,fr16_a2).
body(r_fr16_180,fr16_a5).
body(r_fr16_180,fr9_c3).
body(r_fr16_180,fr16_c1).
body(r_fr16_180,fr16_f4).
body(r_fr16_180,fr17_t4).
body(r_fr16_180,fr14_w1).
body(r_fr16_180,fr16_w2).
body(r_fr16_180,fr16_y1).
body(r_fr16_180,fr16_z2).
head(r_fr16_181,fr16_y3).
body(r_fr16_181,fr17_t4).
body(r_fr16_181,fr16_p4).
body(r_fr16_181,fr16_q1).
body(r_fr16_181,fr16_t2).
body(r_fr16_181,fr16_v2).
body(r_fr16_181,fr16_v4).
body(r_fr16_181,fr16_w2).
body(r_fr16_181,fr9_s5).
head(r_fr16_182,fr16_y3).
body(r_fr16_182,fr16_p1).
body(r_fr16_182,fr16_x1).
head(r_fr16_183,fr16_y3).
body(r_fr16_183,fr16_b2).
body(r_fr16_183,fr9_c3).
body(r_fr16_183,fr16_c2).
body(r_fr16_183,fr12_e2).
body(r_fr16_183,fr16_d2).
body(r_fr16_183,fr16_f3).
head(r_fr16_184,fr16_y3).
body(r_fr16_184,fr9_v3).
head(r_fr16_185,fr16_y3).
body(r_fr16_185,fr2_f1).
body(r_fr16_185,fr12_e2).
head(r_fr16_186,fr16_t4).
body(r_fr16_186,fr16_c5).
body(r_fr16_186,fr16_p1).
body(r_fr16_186,fr16_q4).
body(r_fr16_186,fr16_r1).
body(r_fr16_186,fr5_t3).
body(r_fr16_186,fr16_v3).
body(r_fr16_186,fr5_t3).
body(r_fr16_186,fr16_w2).
body(r_fr16_186,fr20_t1).
body(r_fr16_186,fr9_v3).
head(r_fr16_187,fr16_t4).
body(r_fr16_187,fr9_c3).
body(r_fr16_187,fr16_u2).
body(r_fr16_187,fr16_v3).
body(r_fr16_187,fr16_x1).
head(r_fr16_188,fr16_y4).
body(r_fr16_188,fr16_q1).
body(r_fr16_188,fr16_r2).
body(r_fr16_188,fr16_u4).
body(r_fr16_188,fr16_v2).
body(r_fr16_188,fr16_x4).
head(r_fr16_189,fr16_y4).
body(r_fr16_189,fr16_a5).
body(r_fr16_189,fr2_f1).
body(r_fr16_189,fr16_b3).
body(r_fr16_189,fr9_c3).
body(r_fr16_189,fr16_c3).
body(r_fr16_189,fr16_d1).
body(r_fr16_189,fr16_r1).
body(r_fr16_189,fr5_t3).
body(r_fr16_189,fr16_w4).
body(r_fr16_189,fr16_z4).
head(r_fr16_190,fr16_y4).
body(r_fr16_190,fr16_c1).
body(r_fr16_190,fr16_c5).
body(r_fr16_190,fr16_e1).
body(r_fr16_190,fr16_f2).
head(r_fr16_191,fr16_s2).
body(r_fr16_191,fr9_c3).
body(r_fr16_191,fr16_c5).
body(r_fr16_191,fr16_p5).
body(r_fr16_191,fr16_q3).
body(r_fr16_191,fr16_q4).
body(r_fr16_191,fr20_t1).
body(r_fr16_191,fr16_z2).
head(r_fr16_192,fr16_s2).
body(r_fr16_192,fr16_b3).
body(r_fr16_192,fr16_f3).
head(r_fr16_193,fr16_s2).
body(r_fr16_193,fr16_c3).
body(r_fr16_193,fr16_d3).
body(r_fr16_193,fr16_f1).
body(r_fr16_193,fr16_f4).
body(r_fr16_193,fr19_y3).
body(r_fr16_193,fr16_t1).
body(r_fr16_193,fr16_t4).
body(r_fr16_193,fr16_u1).
body(r_fr16_193,fr9_v3).
body(r_fr16_193,fr4_s3).
head(r_fr16_194,fr16_s2).
head(r_fr16_195,fr16_s2).
body(r_fr16_195,fr16_b3).
body(r_fr16_195,fr16_b4).
body(r_fr16_195,fr16_c2).
body(r_fr16_195,fr16_c3).
body(r_fr16_195,fr16_d1).
body(r_fr16_195,fr16_q1).
body(r_fr16_195,fr14_w1).
body(r_fr16_195,fr5_t3).
body(r_fr16_195,fr16_v1).
head(r_fr16_196,fr16_s1).
head(r_fr16_197,fr16_s1).
body(r_fr16_197,fr16_a3).
body(r_fr16_197,fr16_e2).
body(r_fr16_197,fr16_f3).
head(r_fr16_198,fr16_s1).
body(r_fr16_198,fr16_a1).
body(r_fr16_198,fr16_c5).
body(r_fr16_198,fr16_d2).
body(r_fr16_198,fr16_d3).
body(r_fr16_198,fr16_r3).
head(r_fr16_199,fr16_s1).
body(r_fr16_199,fr17_t4).
body(r_fr16_199,fr16_t1).
body(r_fr16_199,fr16_x1).
head(r_fr16_200,fr16_s1).
body(r_fr16_200,fr16_a3).
body(r_fr16_200,fr16_a4).
body(r_fr16_200,fr16_a5).
body(r_fr16_200,fr16_f1).
head(r_fr16_201,fr16_s1).
body(r_fr16_201,fr16_e3).
body(r_fr16_201,fr16_t2).
body(r_fr16_201,fr16_y2).
head(r_fr16_202,fr16_q3).
body(r_fr16_202,fr16_a1).
body(r_fr16_202,fr16_a2).
body(r_fr16_202,fr2_f1).
body(r_fr16_202,fr16_b4).
body(r_fr16_202,fr16_c1).
body(r_fr16_202,fr16_f2).
body(r_fr16_202,fr16_p2).
body(r_fr16_202,fr16_q4).
body(r_fr16_202,fr16_s1).
body(r_fr16_202,fr16_z2).
head(r_fr16_203,fr16_q3).
body(r_fr16_203,fr16_a3).
body(r_fr16_203,fr9_c3).
body(r_fr16_203,fr16_c5).
body(r_fr16_203,fr16_w4).
head(r_fr16_204,fr16_q3).
body(r_fr16_204,fr16_q1).
body(r_fr16_204,fr16_q4).
body(r_fr16_204,fr16_t1).
body(r_fr16_204,fr16_t3).
body(r_fr16_204,fr16_t4).
body(r_fr16_204,fr16_u1).
body(r_fr16_204,fr16_v3).
body(r_fr16_204,fr5_t3).
body(r_fr16_204,fr20_t1).
body(r_fr16_204,fr9_v3).
head(r_fr16_205,fr16_q3).
body(r_fr16_205,fr12_e2).
body(r_fr16_205,fr16_f3).
body(r_fr16_205,fr16_f4).
body(r_fr16_205,fr16_p1).
body(r_fr16_205,fr16_y1).
body(r_fr16_205,fr16_z2).
body(r_fr16_205,fr16_z4).
head(r_fr16_206,fr16_q3).
body(r_fr16_206,fr16_a4).
body(r_fr16_206,fr12_e2).
body(r_fr16_206,fr16_c5).
body(r_fr16_206,fr16_f4).
body(r_fr16_206,fr16_u4).
head(r_fr16_207,fr16_q3).
body(r_fr16_207,fr16_q4).
body(r_fr16_207,fr16_t1).
body(r_fr16_207,fr16_y1).
head(r_fr16_208,fr17_t4).
body(r_fr16_208,fr16_e2).
body(r_fr16_208,fr16_r1).
head(r_fr16_209,fr17_t4).
body(r_fr16_209,fr16_a1).
body(r_fr16_209,fr16_c2).
body(r_fr16_209,fr16_d2).
body(r_fr16_209,fr16_p4).
body(r_fr16_209,fr16_t1).
head(r_fr16_210,fr17_t4).
body(r_fr16_210,fr16_a1).
body(r_fr16_210,fr15_f2).
body(r_fr16_210,fr16_p4).
body(r_fr16_210,fr16_t2).
body(r_fr16_210,fr20_t1).
body(r_fr16_210,fr16_x4).
head(r_fr16_211,fr17_t4).
body(r_fr16_211,fr16_b4).
body(r_fr16_211,fr9_c3).
body(r_fr16_211,fr16_e3).
body(r_fr16_211,fr16_f2).
body(r_fr16_211,fr16_p1).
body(r_fr16_211,fr16_p2).
head(r_fr16_212,fr17_t4).
body(r_fr16_212,fr19_y3).
body(r_fr16_212,fr16_r1).
body(r_fr16_212,fr16_r3).
body(r_fr16_212,fr16_v3).
body(r_fr16_212,fr5_t3).
body(r_fr16_212,fr16_w2).
body(r_fr16_212,fr4_s3).
head(r_fr16_213,fr17_t4).
body(r_fr16_213,fr16_f3).
body(r_fr16_213,fr16_s2).
body(r_fr16_213,fr16_s3).
body(r_fr16_213,fr14_w1).
body(r_fr16_213,fr16_t4).
body(r_fr16_213,fr9_s5).
body(r_fr16_213,fr16_w4).
body(r_fr16_213,fr16_x3).
body(r_fr16_213,fr16_y4).
head(r_fr16_214,fr17_t4).
body(r_fr16_214,fr2_f1).
body(r_fr16_214,fr16_b4).
body(r_fr16_214,fr16_u1).
body(r_fr16_214,fr5_t3).
body(r_fr16_214,fr16_v1).
body(r_fr16_214,fr9_s5).
body(r_fr16_214,fr16_y2).
head(r_fr16_215,fr17_t4).
body(r_fr16_215,fr16_c3).
body(r_fr16_215,fr16_u1).
body(r_fr16_215,fr16_x1).

assumption(fr17_a1).
assumption(fr17_b1).
assumption(fr17_c1).
assumption(fr17_d1).
assumption(fr17_e1).
assumption(fr17_f1).
assumption(fr16_b2).
assumption(fr17_b2).
assumption(fr17_c2).
assumption(fr17_d2).
assumption(fr17_e2).
assumption(fr20_e1).
assumption(fr17_a3).
assumption(fr17_b3).
assumption(fr17_c3).
contrary(fr17_a1,fr17_c3).
contrary(fr16_b2,fr17_b1).
contrary(fr17_a3,fr17_v4).
contrary(fr17_b1,fr17_s1).
contrary(fr17_b2,fr17_r3).
contrary(fr17_b3,fr17_p5).
contrary(fr17_c1,fr17_s1).
contrary(fr17_c2,fr17_r1).
contrary(fr17_c3,fr17_b2).
contrary(fr17_d1,fr17_t2).
contrary(fr17_d2,fr17_x1).
contrary(fr17_e1,fr17_w2).
contrary(fr17_e2,fr17_c3).
contrary(fr17_f1,fr17_z3).
contrary(fr20_e1,fr17_a3).
head(r_fr17_0,fr17_u1).
body(r_fr17_0,fr17_f1).
head(r_fr17_1,fr17_u1).
body(r_fr17_1,fr17_a3).
body(r_fr17_1,fr17_u2).
body(r_fr17_1,fr17_x1).
head(r_fr17_2,fr17_u1).
body(r_fr17_2,fr17_c3).
head(r_fr17_3,fr17_u1).
body(r_fr17_3,fr17_a1).
body(r_fr17_3,fr17_b1).
body(r_fr17_3,fr17_c1).
body(r_fr17_3,fr17_d1).
body(r_fr17_3,fr17_p3).
body(r_fr17_3,fr17_r3).
head(r_fr17_4,fr17_q3).
head(r_fr17_5,fr17_q3).
body(r_fr17_5,fr17_c3).
head(r_fr17_6,fr17_v4).
body(r_fr17_6,fr16_b2).
body(r_fr17_6,fr17_b2).
body(r_fr17_6,fr17_c2).
body(r_fr17_6,fr17_p4).
body(r_fr17_6,fr17_q1).
body(r_fr17_6,fr17_y1).
head(r_fr17_7,fr17_v4).
body(r_fr17_7,fr17_b1).
body(r_fr17_7,fr17_b2).
body(r_fr17_7,fr17_c1).
body(r_fr17_7,fr17_c3).
body(r_fr17_7,fr17_w2).
head(r_fr17_8,fr17_y1).
body(r_fr17_8,fr17_b1).
body(r_fr17_8,fr17_b2).
head(r_fr17_9,fr17_y1).
body(r_fr17_9,fr17_q1).
body(r_fr17_9,fr17_s1).
body(r_fr17_9,fr17_v3).
head(r_fr17_10,fr17_y1).
body(r_fr17_10,fr20_e1).
head(r_fr17_11,fr17_y1).
body(r_fr17_11,fr17_v2).
body(r_fr17_11,fr16_w4).
head(r_fr17_12,fr17_p4).
body(r_fr17_12,fr17_a1).
head(r_fr17_13,fr17_p4).
body(r_fr17_13,fr17_a1).
body(r_fr17_13,fr17_e2).
head(r_fr17_14,fr17_p4).
body(r_fr17_14,fr20_e1).
head(r_fr17_15,fr17_u3).
head(r_fr17_16,fr17_u3).
body(r_fr17_16,fr17_a3).
body(r_fr17_16,fr17_y2).
head(r_fr17_17,fr17_u3).
body(r_fr17_17,fr17_s4).
body(r_fr17_17,fr16_t3).
body(r_fr17_17,fr17_z1).
body(r_fr17_17,fr16_w4).
head(r_fr17_18,fr17_u3).
body(r_fr17_18,fr17_a1).
body(r_fr17_18,fr17_b2).
body(r_fr17_18,fr17_e1).
body(r_fr17_18,fr17_f1).
head(r_fr17_19,fr17_p2).
body(r_fr17_19,fr17_u4).
head(r_fr17_20,fr17_p2).
body(r_fr17_20,fr17_p5).
body(r_fr17_20,fr17_s2).
body(r_fr17_20,fr17_s4).
body(r_fr17_20,fr17_x3).
head(r_fr17_21,fr17_y3).
body(r_fr17_21,fr17_a1).
head(r_fr17_22,fr17_y3).
body(r_fr17_22,fr17_b1).
body(r_fr17_22,fr17_c1).
body(r_fr17_22,fr17_r2).
body(r_fr17_22,fr16_r1).
body(r_fr17_22,fr17_u4).
head(r_fr17_23,fr17_y3).
body(r_fr17_23,fr17_c3).
body(r_fr17_23,fr17_d2).
body(r_fr17_23,fr17_e2).
head(r_fr17_24,fr16_r1).
body(r_fr17_24,fr16_b2).
body(r_fr17_24,fr17_w2).
body(r_fr17_24,fr17_x1).
body(r_fr17_24,fr17_x3).
body(r_fr17_24,fr17_x4).
head(r_fr17_25,fr16_r1).
body(r_fr17_25,fr17_b1).
body(r_fr17_25,fr17_b3).
body(r_fr17_25,fr17_s1).
body(r_fr17_25,fr5_t3).
body(r_fr17_25,fr17_u4).
head(r_fr17_26,fr16_r1).
body(r_fr17_26,fr16_b2).
body(r_fr17_26,fr17_c2).
body(r_fr17_26,fr17_d1).
body(r_fr17_26,fr22_u1).
body(r_fr17_26,fr17_w2).
body(r_fr17_26,fr17_y4).
head(r_fr17_27,fr16_r1).
body(r_fr17_27,fr17_a3).
body(r_fr17_27,fr17_c2).
body(r_fr17_27,fr17_d1).
body(r_fr17_27,fr17_e1).
body(r_fr17_27,fr20_e1).
body(r_fr17_27,fr17_r1).
head(r_fr17_28,fr17_s3).
body(r_fr17_28,fr20_q2).
body(r_fr17_28,fr17_x4).
head(r_fr17_29,fr17_s3).
body(r_fr17_29,fr20_e1).
head(r_fr17_30,fr17_s3).
head(r_fr17_31,fr17_s3).
body(r_fr17_31,fr17_a1).
body(r_fr17_31,fr17_c2).
body(r_fr17_31,fr17_e1).
body(r_fr17_31,fr17_q1).
body(r_fr17_31,fr17_x3).
head(r_fr17_32,fr17_x2).
body(r_fr17_32,fr17_d1).
body(r_fr17_32,fr17_q1).
body(r_fr17_32,fr17_u4).
head(r_fr17_33,fr17_x2).
body(r_fr17_33,fr22_u1).
body(r_fr17_33,fr5_t3).
body(r_fr17_33,fr17_y4).
head(r_fr17_34,fr17_q1).
body(r_fr17_34,fr17_r3).
head(r_fr17_35,fr17_q1).
head(r_fr17_36,fr17_q1).
body(r_fr17_36,fr17_a1).
body(r_fr17_36,fr17_c1).
body(r_fr17_36,fr17_c2).
body(r_fr17_36,fr17_d2).
body(r_fr17_36,fr17_f1).
head(r_fr17_37,fr17_q1).
body(r_fr17_37,fr17_d2).
body(r_fr17_37,fr22_u1).
head(r_fr17_38,fr17_q1).
body(r_fr17_38,fr17_x3).
head(r_fr17_39,fr16_t3).
body(r_fr17_39,fr17_e1).
body(r_fr17_39,fr17_r3).
body(r_fr17_39,fr17_x1).
body(r_fr17_39,fr17_y2).
body(r_fr17_39,fr16_w4).
head(r_fr17_40,fr16_t3).
body(r_fr17_40,fr17_b2).
body(r_fr17_40,fr17_d1).
body(r_fr17_40,fr17_e2).
body(r_fr17_40,fr20_e1).
body(r_fr17_40,fr17_q4).
head(r_fr17_41,fr16_t3).
body(r_fr17_41,fr17_e1).
head(r_fr17_42,fr16_t3).
head(r_fr17_43,fr16_t3).
body(r_fr17_43,fr17_x1).
head(r_fr17_44,fr17_q2).
body(r_fr17_44,fr17_p3).
head(r_fr17_45,fr17_q2).
body(r_fr17_45,fr17_a1).
body(r_fr17_45,fr17_c3).
head(r_fr17_46,fr17_q2).
body(r_fr17_46,fr17_b3).
body(r_fr17_46,fr17_r1).
head(r_fr17_47,fr17_q2).
head(r_fr17_48,fr17_q2).
body(r_fr17_48,fr22_u1).
body(r_fr17_48,fr17_q4).
body(r_fr17_48,fr17_s4).
body(r_fr17_48,fr17_z1).
body(r_fr17_48,fr16_w4).
head(r_fr17_49,fr17_x4).
body(r_fr17_49,fr17_e2).
body(r_fr17_49,fr17_r2).
body(r_fr17_49,fr17_t2).
body(r_fr17_49,fr20_q2).
body(r_fr17_49,fr17_w1).
body(r_fr17_49,fr17_x1).
head(r_fr17_50,fr17_x4).
body(r_fr17_50,fr17_a3).
body(r_fr17_50,fr17_b2).
body(r_fr17_50,fr17_c3).
body(r_fr17_50,fr17_f1).
body(r_fr17_50,fr17_v2).
body(r_fr17_50,fr17_z1).
head(r_fr17_51,fr17_x4).
head(r_fr17_52,fr17_u4).
body(r_fr17_52,fr17_c3).
body(r_fr17_52,fr17_s2).
body(r_fr17_52,fr17_u2).
head(r_fr17_53,fr17_u4).
body(r_fr17_53,fr17_s2).
body(r_fr17_53,fr17_u2).
head(r_fr17_54,fr17_u4).
body(r_fr17_54,fr17_b3).
body(r_fr17_54,fr20_p3).
body(r_fr17_54,fr17_x3).
body(r_fr17_54,fr17_z4).
head(r_fr17_55,fr17_u4).
body(r_fr17_55,fr17_a1).
body(r_fr17_55,fr17_a3).
head(r_fr17_56,fr17_w2).
body(r_fr17_56,fr17_a1).
body(r_fr17_56,fr17_e2).
body(r_fr17_56,fr17_r2).
body(r_fr17_56,fr17_s2).
body(r_fr17_56,fr17_x3).
body(r_fr17_56,fr16_w4).
head(r_fr17_57,fr17_w2).
body(r_fr17_57,fr17_e1).
body(r_fr17_57,fr20_e1).
body(r_fr17_57,fr17_z1).
head(r_fr17_58,fr17_w2).
body(r_fr17_58,fr17_p3).
head(r_fr17_59,fr17_u2).
body(r_fr17_59,fr17_c1).
body(r_fr17_59,fr17_c3).
head(r_fr17_60,fr17_u2).
body(r_fr17_60,fr17_e1).
body(r_fr17_60,fr17_r2).
head(r_fr17_61,fr17_u2).
body(r_fr17_61,fr17_w1).
head(r_fr17_62,fr17_u2).
body(r_fr17_62,fr17_b2).
body(r_fr17_62,fr17_d1).
body(r_fr17_62,fr17_v3).
head(r_fr17_63,fr17_v1).
body(r_fr17_63,fr17_z3).
head(r_fr17_64,fr17_v1).
head(r_fr17_65,fr17_v1).
body(r_fr17_65,fr20_e1).
body(r_fr17_65,fr5_t3).
body(r_fr17_65,fr17_v3).
body(r_fr17_65,fr17_x1).
body(r_fr17_65,fr17_z3).
head(r_fr17_66,fr17_v1).
body(r_fr17_66,fr22_u1).
body(r_fr17_66,fr17_r2).
body(r_fr17_66,fr17_s2).
body(r_fr17_66,fr17_t4).
body(r_fr17_66,fr17_v2).
body(r_fr17_66,fr17_z4).
head(r_fr17_67,fr17_v1).
body(r_fr17_67,fr17_c1).
body(r_fr17_67,fr17_f1).
body(r_fr17_67,fr22_u1).
head(r_fr17_68,fr17_t4).
head(r_fr17_69,fr17_t4).
body(r_fr17_69,fr17_r2).
body(r_fr17_69,fr17_w1).
body(r_fr17_69,fr17_z4).
head(r_fr17_70,fr17_t4).
body(r_fr17_70,fr17_d1).
body(r_fr17_70,fr17_e2).

assumption(fr18_a1).
assumption(fr18_b1).
assumption(fr18_c1).
assumption(fr17_f1).
assumption(fr18_e1).
assumption(fr18_f1).
assumption(fr18_a2).
assumption(fr18_b2).
assumption(fr18_c2).
assumption(fr20_b2).
assumption(fr18_e2).
assumption(fr22_a1).
assumption(fr7_c6).
assumption(fr18_b3).
assumption(fr18_c3).
contrary(fr18_a1,fr17_f1).
contrary(fr18_a2,fr18_w3).
contrary(fr7_c6,fr18_r2).
contrary(fr18_b1,fr18_c3).
contrary(fr18_b2,fr18_f1).
contrary(fr18_b3,fr18_t1).
contrary(fr18_c1,fr18_b2).
contrary(fr18_c2,fr18_x2).
contrary(fr18_c3,fr18_w2).
contrary(fr17_f1,fr18_s1).
contrary(fr20_b2,fr17_f1).
contrary(fr18_e1,fr18_z3).
contrary(fr18_e2,fr18_t1).
contrary(fr18_f1,fr18_x2).
contrary(fr22_a1,fr18_b2).
head(r_fr18_0,fr20_q2).
body(r_fr18_0,fr17_f1).
body(r_fr18_0,fr18_q4).
head(r_fr18_1,fr20_q2).
body(r_fr18_1,fr18_f1).
body(r_fr18_1,fr22_a1).
body(r_fr18_1,fr18_q4).
head(r_fr18_2,fr20_q2).
body(r_fr18_2,fr18_b2).
body(r_fr18_2,fr17_f1).
head(r_fr18_3,fr18_t2).
head(r_fr18_4,fr18_t2).
body(r_fr18_4,fr18_c2).
body(r_fr18_4,fr18_e1).
head(r_fr18_5,fr18_t2).
body(r_fr18_5,fr18_f1).
head(r_fr18_6,fr18_t2).
body(r_fr18_6,fr18_b3).
body(r_fr18_6,fr17_f1).
head(r_fr18_7,fr18_t2).
body(r_fr18_7,fr18_b1).
head(r_fr18_8,fr18_p4).
body(r_fr18_8,fr17_f1).
head(r_fr18_9,fr18_p4).
body(r_fr18_9,fr7_c6).
body(r_fr18_9,fr18_e1).
head(r_fr18_10,fr18_p4).
body(r_fr18_10,fr18_b2).
head(r_fr18_11,fr18_p4).
body(r_fr18_11,fr7_c6).
body(r_fr18_11,fr18_u2).
head(r_fr18_12,fr18_w2).
head(r_fr18_13,fr18_w2).
body(r_fr18_13,fr18_b2).
body(r_fr18_13,fr18_p2).
body(r_fr18_13,fr18_v1).
head(r_fr18_14,fr18_w2).
body(r_fr18_14,fr18_p2).
body(r_fr18_14,fr18_s3).
body(r_fr18_14,fr5_t3).
head(r_fr18_15,fr7_u5).
body(r_fr18_15,fr18_e2).
head(r_fr18_16,fr7_u5).
body(r_fr18_16,fr7_c6).
body(r_fr18_16,fr18_t1).
body(r_fr18_16,fr18_y2).
head(r_fr18_17,fr7_u5).
body(r_fr18_17,fr18_a1).
body(r_fr18_17,fr18_c3).
body(r_fr18_17,fr22_a1).
head(r_fr18_18,fr7_u5).
body(r_fr18_18,fr18_y2).
head(r_fr18_19,fr18_v1).
body(r_fr18_19,fr18_e2).
head(r_fr18_20,fr18_v1).
body(r_fr18_20,fr18_b1).
body(r_fr18_20,fr8_w2).
body(r_fr18_20,fr5_t3).
head(r_fr18_21,fr18_v1).
body(r_fr18_21,fr18_c1).
head(r_fr18_22,fr18_v1).
body(r_fr18_22,fr20_b2).
body(r_fr18_22,fr9_x2).
body(r_fr18_22,fr18_t1).
head(r_fr18_23,fr18_p2).
body(r_fr18_23,fr22_a1).
head(r_fr18_24,fr18_p2).
body(r_fr18_24,fr18_a2).
head(r_fr18_25,fr18_p2).
head(r_fr18_26,fr18_p2).
body(r_fr18_26,fr5_t3).
head(r_fr18_27,fr18_p2).
body(r_fr18_27,fr18_b2).
body(r_fr18_27,fr20_b2).
head(r_fr18_28,fr18_s3).
body(r_fr18_28,fr18_c3).
body(r_fr18_28,fr9_x2).
head(r_fr18_29,fr18_s3).
body(r_fr18_29,fr18_r3).
body(r_fr18_29,fr18_v3).
head(r_fr18_30,fr18_s3).
body(r_fr18_30,fr18_t1).
head(r_fr18_31,fr18_s3).
head(r_fr18_32,fr17_x1).
head(r_fr18_33,fr17_x1).
body(r_fr18_33,fr20_b2).
body(r_fr18_33,fr18_q3).
head(r_fr18_34,fr17_x1).
body(r_fr18_34,fr20_b2).
body(r_fr18_34,fr18_q4).
body(r_fr18_34,fr5_t3).
head(r_fr18_35,fr17_x1).
body(r_fr18_35,fr17_f1).
head(r_fr18_36,fr18_w3).
head(r_fr18_37,fr18_w3).
body(r_fr18_37,fr18_a1).
head(r_fr18_38,fr18_s1).
body(r_fr18_38,fr19_v1).
head(r_fr18_39,fr18_s1).
head(r_fr18_40,fr18_s1).
body(r_fr18_40,fr18_b1).
body(r_fr18_40,fr9_x2).
head(r_fr18_41,fr18_t3).
body(r_fr18_41,fr18_c2).
body(r_fr18_41,fr18_r3).
head(r_fr18_42,fr18_t3).
body(r_fr18_42,fr18_v3).
head(r_fr18_43,fr18_t3).
head(r_fr18_44,fr18_x2).
body(r_fr18_44,fr18_t1).
body(r_fr18_44,fr18_v3).
head(r_fr18_45,fr18_x2).
body(r_fr18_45,fr18_a1).
body(r_fr18_45,fr18_e1).
body(r_fr18_45,fr18_v3).
head(r_fr18_46,fr18_x2).
head(r_fr18_47,fr18_q3).
body(r_fr18_47,fr18_r3).
head(r_fr18_48,fr18_q3).
body(r_fr18_48,fr18_u2).
body(r_fr18_48,fr18_v2).
head(r_fr18_49,fr18_q3).
body(r_fr18_49,fr8_w2).
head(r_fr18_50,fr18_q3).
head(r_fr18_51,fr18_q3).
body(r_fr18_51,fr18_a1).
body(r_fr18_51,fr18_b1).
body(r_fr18_51,fr20_b2).
head(r_fr18_52,fr18_q4).
body(r_fr18_52,fr18_b1).
body(r_fr18_52,fr18_q1).
body(r_fr18_52,fr4_q2).
head(r_fr18_53,fr18_q4).
head(r_fr18_54,fr4_q2).
body(r_fr18_54,fr8_w2).
head(r_fr18_55,fr4_q2).
body(r_fr18_55,fr18_c1).
body(r_fr18_55,fr17_f1).
body(r_fr18_55,fr18_r2).
head(r_fr18_56,fr18_y2).
body(r_fr18_56,fr18_r1).
body(r_fr18_56,fr18_u2).
body(r_fr18_56,fr18_x3).
head(r_fr18_57,fr18_y2).
body(r_fr18_57,fr18_r3).
head(r_fr18_58,fr18_p3).
body(r_fr18_58,fr18_c2).
head(r_fr18_59,fr18_p3).
body(r_fr18_59,fr17_f1).
body(r_fr18_59,fr18_u2).
head(r_fr18_60,fr18_p3).
body(r_fr18_60,fr18_z2).
head(r_fr18_61,fr18_p3).
body(r_fr18_61,fr18_a2).
body(r_fr18_61,fr18_e1).
head(r_fr18_62,fr18_p3).
head(r_fr18_63,fr7_z2).
body(r_fr18_63,fr18_u2).
body(r_fr18_63,fr18_z3).
head(r_fr18_64,fr7_z2).
head(r_fr18_65,fr18_q1).
body(r_fr18_65,fr20_b2).
body(r_fr18_65,fr18_v2).
body(r_fr18_65,fr19_v1).
head(r_fr18_66,fr18_q1).
head(r_fr18_67,fr18_q1).
body(r_fr18_67,fr22_a1).
head(r_fr18_68,fr18_q1).
body(r_fr18_68,fr20_b2).

assumption(fr19_a1).
assumption(fr19_b1).
assumption(fr19_c1).
assumption(fr19_d1).
assumption(fr9_a3).
assumption(fr19_f1).
assumption(fr19_a2).
assumption(fr19_b2).
assumption(fr19_c2).
assumption(fr22_b1).
assumption(fr19_e2).
assumption(fr19_f2).
assumption(fr19_a3).
assumption(fr19_b3).
assumption(fr23_f1).
contrary(fr19_a1,fr19_e2).
contrary(fr19_a2,fr19_y1).
contrary(fr19_a3,fr19_r2).
contrary(fr19_b1,fr19_v3).
contrary(fr19_b2,fr19_f2).
contrary(fr19_b3,fr19_f2).
contrary(fr19_c1,fr19_r2).
contrary(fr19_c2,fr19_b2).
contrary(fr23_f1,fr19_u1).
contrary(fr19_d1,fr9_a3).
contrary(fr22_b1,fr9_a3).
contrary(fr9_a3,fr19_t1).
contrary(fr19_e2,fr20_w2).
contrary(fr19_f1,fr17_s4).
contrary(fr19_f2,fr19_p3).
head(r_fr19_0,fr19_x2).
body(r_fr19_0,fr19_z1).
head(r_fr19_1,fr19_x2).
body(r_fr19_1,fr19_p4).
body(r_fr19_1,fr19_r2).
body(r_fr19_1,fr17_v4).
body(r_fr19_1,fr19_u2).
body(r_fr19_1,fr19_u3).
head(r_fr19_2,fr19_x2).
body(r_fr19_2,fr19_a1).
body(r_fr19_2,fr21_x3).
head(r_fr19_3,fr19_x2).
body(r_fr19_3,fr19_a1).
body(r_fr19_3,fr19_b2).
body(r_fr19_3,fr19_e2).
body(r_fr19_3,fr19_f2).
head(r_fr19_4,fr19_x2).
body(r_fr19_4,fr23_f1).
head(r_fr19_5,fr17_s4).
head(r_fr19_6,fr17_s4).
body(r_fr19_6,fr19_b1).
body(r_fr19_6,fr19_b2).
body(r_fr19_6,fr19_d1).
body(r_fr19_6,fr19_u3).
body(r_fr19_6,fr19_v2).
head(r_fr19_7,fr22_s1).
body(r_fr19_7,fr19_a1).
body(r_fr19_7,fr19_b1).
body(r_fr19_7,fr19_b2).
body(r_fr19_7,fr9_a3).
body(r_fr19_7,fr19_f1).
body(r_fr19_7,fr19_u2).
head(r_fr19_8,fr22_s1).
body(r_fr19_8,fr19_a3).
body(r_fr19_8,fr19_b1).
head(r_fr19_9,fr19_w1).
body(r_fr19_9,fr19_t1).
head(r_fr19_10,fr19_w1).
body(r_fr19_10,fr19_a3).
body(r_fr19_10,fr19_c2).
body(r_fr19_10,fr19_f1).
head(r_fr19_11,fr19_w1).
body(r_fr19_11,fr19_b2).
body(r_fr19_11,fr19_e2).
head(r_fr19_12,fr19_w1).
body(r_fr19_12,fr19_b2).
body(r_fr19_12,fr19_c1).
body(r_fr19_12,fr9_a3).
body(r_fr19_12,fr19_f2).
head(r_fr19_13,fr19_w1).
body(r_fr19_13,fr19_b3).
body(r_fr19_13,fr22_b1).
body(r_fr19_13,fr11_v1).
head(r_fr19_14,fr14_w1).
body(r_fr19_14,fr19_a2).
body(r_fr19_14,fr19_c1).
body(r_fr19_14,fr9_a3).
body(r_fr19_14,fr19_e2).
head(r_fr19_15,fr14_w1).
body(r_fr19_15,fr19_c1).
body(r_fr19_15,fr9_a3).
body(r_fr19_15,fr19_f1).
body(r_fr19_15,fr9_s2).
body(r_fr19_15,fr22_u1).
head(r_fr19_16,fr14_w1).
head(r_fr19_17,fr14_w1).
body(r_fr19_17,fr19_e2).
head(r_fr19_18,fr19_s1).
body(r_fr19_18,fr19_a2).
body(r_fr19_18,fr19_c1).
body(r_fr19_18,fr19_c2).
body(r_fr19_18,fr19_d1).
body(r_fr19_18,fr19_v1).
body(r_fr19_18,fr19_z2).
head(r_fr19_19,fr19_s1).
head(r_fr19_20,fr19_s1).
body(r_fr19_20,fr19_a2).
body(r_fr19_20,fr9_a3).
body(r_fr19_20,fr19_e2).
body(r_fr19_20,fr19_f2).
body(r_fr19_20,fr19_x2).
head(r_fr19_21,fr19_s1).
body(r_fr19_21,fr19_a1).
body(r_fr19_21,fr9_s2).
body(r_fr19_21,fr22_u1).
body(r_fr19_21,fr19_x2).
head(r_fr19_22,fr17_v2).
head(r_fr19_23,fr17_v2).
body(r_fr19_23,fr19_q1).
body(r_fr19_23,fr19_s1).
body(r_fr19_23,fr21_x3).
body(r_fr19_23,fr19_t1).
body(r_fr19_23,fr2_w1).
body(r_fr19_23,fr19_y3).
head(r_fr19_24,fr17_v2).
body(r_fr19_24,fr19_a2).
body(r_fr19_24,fr19_b1).
body(r_fr19_24,fr19_b3).
body(r_fr19_24,fr19_c2).
body(r_fr19_24,fr19_f1).
head(r_fr19_25,fr17_v2).
body(r_fr19_25,fr22_b1).
body(r_fr19_25,fr19_e2).
body(r_fr19_25,fr19_f2).
body(r_fr19_25,fr21_x3).
body(r_fr19_25,fr19_y1).
body(r_fr19_25,fr19_z2).
head(r_fr19_26,fr19_z1).
body(r_fr19_26,fr19_b1).
body(r_fr19_26,fr19_q2).
body(r_fr19_26,fr19_r1).
body(r_fr19_26,fr19_t1).
head(r_fr19_27,fr19_z1).
body(r_fr19_27,fr19_a1).
body(r_fr19_27,fr19_a2).
body(r_fr19_27,fr19_a3).
body(r_fr19_27,fr19_b2).
body(r_fr19_27,fr19_b3).
head(r_fr19_28,fr21_x3).
body(r_fr19_28,fr23_f1).
body(r_fr19_28,fr17_v2).
body(r_fr19_28,fr19_p3).
body(r_fr19_28,fr19_v3).
body(r_fr19_28,fr2_w1).
body(r_fr19_28,fr11_v1).
head(r_fr19_29,fr21_x3).
head(r_fr19_30,fr19_r1).
body(r_fr19_30,fr19_b3).
body(r_fr19_30,fr9_a3).
body(r_fr19_30,fr19_q3).
head(r_fr19_31,fr19_r1).
body(r_fr19_31,fr19_b2).
body(r_fr19_31,fr19_c1).
body(r_fr19_31,fr9_a3).
body(r_fr19_31,fr11_v1).
head(r_fr19_32,fr19_u2).
body(r_fr19_32,fr19_a3).
body(r_fr19_32,fr19_b2).
body(r_fr19_32,fr19_b3).
body(r_fr19_32,fr19_u3).
body(r_fr19_32,fr19_z2).
head(r_fr19_33,fr19_u2).
head(r_fr19_34,fr19_u2).
body(r_fr19_34,fr19_d1).
head(r_fr19_35,fr19_r2).
head(r_fr19_36,fr19_r2).
body(r_fr19_36,fr19_a2).
body(r_fr19_36,fr19_b1).
body(r_fr19_36,fr19_b2).
body(r_fr19_36,fr19_c2).
body(r_fr19_36,fr22_b1).
body(r_fr19_36,fr9_a3).
head(r_fr19_37,fr19_r2).
body(r_fr19_37,fr19_a2).
body(r_fr19_37,fr19_b3).
body(r_fr19_37,fr19_c1).
body(r_fr19_37,fr9_a3).
head(r_fr19_38,fr19_r2).
body(r_fr19_38,fr19_t1).
head(r_fr19_39,fr9_s2).
body(r_fr19_39,fr19_a1).
body(r_fr19_39,fr19_b1).
body(r_fr19_39,fr19_b2).
body(r_fr19_39,fr22_b1).
body(r_fr19_39,fr19_f1).
body(r_fr19_39,fr19_f2).
head(r_fr19_40,fr9_s2).
head(r_fr19_41,fr9_s2).
body(r_fr19_41,fr19_t1).
body(r_fr19_41,fr17_v1).
head(r_fr19_42,fr19_p3).
body(r_fr19_42,fr19_a2).
body(r_fr19_42,fr19_e2).
body(r_fr19_42,fr19_s1).
head(r_fr19_43,fr19_p3).
body(r_fr19_43,fr9_s2).
head(r_fr19_44,fr19_p3).
body(r_fr19_44,fr19_a3).
body(r_fr19_44,fr19_b1).
body(r_fr19_44,fr23_f1).
body(r_fr19_44,fr19_d1).
body(r_fr19_44,fr19_f2).
body(r_fr19_44,fr19_u2).
head(r_fr19_45,fr19_p3).
body(r_fr19_45,fr19_c1).
body(r_fr19_45,fr19_p4).
body(r_fr19_45,fr19_s1).
body(r_fr19_45,fr19_t1).
body(r_fr19_45,fr17_s4).
body(r_fr19_45,fr19_u3).
head(r_fr19_46,fr19_p3).
body(r_fr19_46,fr19_a3).
body(r_fr19_46,fr19_b1).
body(r_fr19_46,fr19_c1).
body(r_fr19_46,fr19_z2).
head(r_fr19_47,fr19_u1).
body(r_fr19_47,fr23_f1).
body(r_fr19_47,fr9_s2).
body(r_fr19_47,fr19_p4).
body(r_fr19_47,fr21_x3).
body(r_fr19_47,fr17_s4).
body(r_fr19_47,fr20_w2).
head(r_fr19_48,fr19_u1).
body(r_fr19_48,fr19_a1).
body(r_fr19_48,fr19_x2).
head(r_fr19_49,fr19_v3).
body(r_fr19_49,fr21_v1).
head(r_fr19_50,fr19_v3).
head(r_fr19_51,fr19_y3).
body(r_fr19_51,fr19_a1).
body(r_fr19_51,fr19_t1).
head(r_fr19_52,fr19_y3).
body(r_fr19_52,fr2_w1).
head(r_fr19_53,fr19_y3).
body(r_fr19_53,fr19_a2).
head(r_fr19_54,fr19_y3).
body(r_fr19_54,fr19_a2).
body(r_fr19_54,fr19_u1).
head(r_fr19_55,fr19_y3).
body(r_fr19_55,fr19_f2).
body(r_fr19_55,fr19_t1).
head(r_fr19_56,fr19_q1).
body(r_fr19_56,fr19_d1).
body(r_fr19_56,fr9_s2).
body(r_fr19_56,fr19_v1).
head(r_fr19_57,fr19_q1).
head(r_fr19_58,fr19_q1).
body(r_fr19_58,fr19_a3).
body(r_fr19_58,fr22_b1).
head(r_fr19_59,fr19_q1).
body(r_fr19_59,fr19_a3).
body(r_fr19_59,fr19_b1).
body(r_fr19_59,fr19_d1).
body(r_fr19_59,fr9_a3).
body(r_fr19_59,fr19_f2).
body(r_fr19_59,fr9_s2).
head(r_fr19_60,fr19_q1).
body(r_fr19_60,fr22_b1).
body(r_fr19_60,fr19_f2).
body(r_fr19_60,fr19_p3).
body(r_fr19_60,fr17_v4).
body(r_fr19_60,fr19_x2).
head(r_fr19_61,fr22_u1).
head(r_fr19_62,fr22_u1).
body(r_fr19_62,fr22_s1).
head(r_fr19_63,fr22_u1).
body(r_fr19_63,fr19_a3).
body(r_fr19_63,fr19_c2).
body(r_fr19_63,fr19_r1).
body(r_fr19_63,fr17_s4).
body(r_fr19_63,fr19_w1).
body(r_fr19_63,fr19_z1).
head(r_fr19_64,fr19_t1).
body(r_fr19_64,fr19_e2).
body(r_fr19_64,fr17_s4).
head(r_fr19_65,fr19_t1).
body(r_fr19_65,fr23_f1).
body(r_fr19_65,fr22_b1).
head(r_fr19_66,fr19_t1).
body(r_fr19_66,fr19_b1).
head(r_fr19_67,fr19_t1).
head(r_fr19_68,fr19_t1).
body(r_fr19_68,fr22_b1).

assumption(fr20_a1).
assumption(fr20_b1).
assumption(fr20_c1).
assumption(fr20_d1).
assumption(fr20_e1).
assumption(fr20_f1).
assumption(fr20_a2).
assumption(fr20_b2).
assumption(fr20_c2).
assumption(fr20_d2).
assumption(fr20_e2).
assumption(fr1_e1).
assumption(fr6_a1).
assumption(fr20_b3).
assumption(fr20_c3).
contrary(fr20_a1,fr20_q4).
contrary(fr20_a2,fr20_b3).
contrary(fr6_a1,fr20_c3).
contrary(fr20_b1,fr20_a1).
contrary(fr20_b2,fr20_p2).
contrary(fr20_b3,fr1_e1).
contrary(fr20_c1,fr20_s3).
contrary(fr20_c2,fr20_y1).
contrary(fr20_c3,fr20_e1).
contrary(fr20_d1,fr20_z2).
contrary(fr20_d2,fr20_p4).
contrary(fr20_e1,fr20_q2).
contrary(fr20_e2,fr20_w1).
contrary(fr20_f1,fr20_z3).
contrary(fr1_e1,fr20_x3).
head(r_fr20_0,fr20_r3).
body(r_fr20_0,fr6_a1).
body(r_fr20_0,fr20_c2).
body(r_fr20_0,fr1_e1).
body(r_fr20_0,fr20_p3).
body(r_fr20_0,fr20_q3).
body(r_fr20_0,fr20_s3).
body(r_fr20_0,fr20_t1).
body(r_fr20_0,fr20_v2).
body(r_fr20_0,fr20_w3).
body(r_fr20_0,fr20_z2).
head(r_fr20_1,fr20_r3).
body(r_fr20_1,fr20_p4).
body(r_fr20_1,fr20_s3).
body(r_fr20_1,fr20_t2).
body(r_fr20_1,fr20_t3).
body(r_fr20_1,fr23_s2).
body(r_fr20_1,fr20_v1).
body(r_fr20_1,fr14_v1).
body(r_fr20_1,fr20_w2).
body(r_fr20_1,fr20_w3).
body(r_fr20_1,fr20_x2).
head(r_fr20_2,fr20_r3).
body(r_fr20_2,fr20_b1).
body(r_fr20_2,fr20_c1).
body(r_fr20_2,fr20_e2).
body(r_fr20_2,fr20_p2).
body(r_fr20_2,fr20_q4).
body(r_fr20_2,fr4_w1).
body(r_fr20_2,fr20_r2).
body(r_fr20_2,fr20_t1).
body(r_fr20_2,fr20_t3).
body(r_fr20_2,fr20_v2).
body(r_fr20_2,fr20_x3).
body(r_fr20_2,fr20_y2).
head(r_fr20_3,fr20_r2).
body(r_fr20_3,fr20_a1).
body(r_fr20_3,fr20_b2).
body(r_fr20_3,fr20_e1).
body(r_fr20_3,fr20_e2).
body(r_fr20_3,fr1_e1).
body(r_fr20_3,fr20_q2).
body(r_fr20_3,fr20_q4).
body(r_fr20_3,fr4_w1).
body(r_fr20_3,fr20_u1).
body(r_fr20_3,fr20_u3).
body(r_fr20_3,fr20_x3).
body(r_fr20_3,fr20_y3).
head(r_fr20_4,fr20_r2).
body(r_fr20_4,fr20_a1).
body(r_fr20_4,fr20_c2).
body(r_fr20_4,fr4_w1).
body(r_fr20_4,fr20_s3).
body(r_fr20_4,fr20_t2).
body(r_fr20_4,fr20_t3).
body(r_fr20_4,fr20_v1).
body(r_fr20_4,fr14_v1).
body(r_fr20_4,fr20_w1).
body(r_fr20_4,fr16_w4).
head(r_fr20_5,fr20_r2).
body(r_fr20_5,fr20_d1).
body(r_fr20_5,fr14_y1).
body(r_fr20_5,fr20_p2).
body(r_fr20_5,fr20_p3).
body(r_fr20_5,fr20_p4).
body(r_fr20_5,fr20_q2).
body(r_fr20_5,fr20_t1).
body(r_fr20_5,fr20_w1).
body(r_fr20_5,fr20_x2).
head(r_fr20_6,fr20_y2).
body(r_fr20_6,fr20_c1).
body(r_fr20_6,fr20_d2).
body(r_fr20_6,fr20_e2).
body(r_fr20_6,fr20_f1).
body(r_fr20_6,fr20_p2).
body(r_fr20_6,fr4_w1).
body(r_fr20_6,fr20_x1).
body(r_fr20_6,fr20_x3).
body(r_fr20_6,fr20_y1).
body(r_fr20_6,fr16_w4).
body(r_fr20_6,fr20_z2).
body(r_fr20_6,fr20_z3).
head(r_fr20_7,fr20_y2).
body(r_fr20_7,fr6_a1).
body(r_fr20_7,fr20_b1).
body(r_fr20_7,fr20_c2).
body(r_fr20_7,fr20_q2).
body(r_fr20_7,fr20_t1).
body(r_fr20_7,fr20_t2).
body(r_fr20_7,fr23_s2).
body(r_fr20_7,fr20_u3).
body(r_fr20_7,fr20_v2).
body(r_fr20_7,fr20_w2).
body(r_fr20_7,fr20_w3).
head(r_fr20_8,fr20_y2).
body(r_fr20_8,fr20_p2).
body(r_fr20_8,fr20_p3).
body(r_fr20_8,fr20_p4).
body(r_fr20_8,fr20_q4).
body(r_fr20_8,fr20_s2).
body(r_fr20_8,fr20_u3).
body(r_fr20_8,fr14_v1).
body(r_fr20_8,fr20_w3).
body(r_fr20_8,fr20_x1).
body(r_fr20_8,fr20_z2).
head(r_fr20_9,fr20_y2).
body(r_fr20_9,fr20_e1).
body(r_fr20_9,fr14_y1).
body(r_fr20_9,fr20_q1).
body(r_fr20_9,fr20_q3).
body(r_fr20_9,fr20_t1).
body(r_fr20_9,fr20_t3).
body(r_fr20_9,fr20_v1).
body(r_fr20_9,fr20_w3).
body(r_fr20_9,fr20_z2).
head(r_fr20_10,fr20_y2).
body(r_fr20_10,fr20_a1).
body(r_fr20_10,fr20_a2).
body(r_fr20_10,fr20_b1).
body(r_fr20_10,fr20_d2).
body(r_fr20_10,fr20_e1).
body(r_fr20_10,fr20_e2).
body(r_fr20_10,fr20_t3).
body(r_fr20_10,fr14_v1).
body(r_fr20_10,fr20_w2).
body(r_fr20_10,fr20_x2).
body(r_fr20_10,fr16_w4).
head(r_fr20_11,fr23_s2).
body(r_fr20_11,fr20_b3).
body(r_fr20_11,fr20_q1).
body(r_fr20_11,fr20_q4).
body(r_fr20_11,fr4_w1).
body(r_fr20_11,fr20_s1).
body(r_fr20_11,fr20_u1).
body(r_fr20_11,fr20_v2).
body(r_fr20_11,fr20_w1).
body(r_fr20_11,fr20_x3).
body(r_fr20_11,fr16_w4).
body(r_fr20_11,fr20_z3).
head(r_fr20_12,fr23_s2).
body(r_fr20_12,fr20_a1).
body(r_fr20_12,fr20_b3).
body(r_fr20_12,fr20_p3).
body(r_fr20_12,fr20_p4).
body(r_fr20_12,fr20_q2).
body(r_fr20_12,fr20_q4).
body(r_fr20_12,fr20_s2).
body(r_fr20_12,fr14_v1).
body(r_fr20_12,fr20_w3).
body(r_fr20_12,fr20_x1).
body(r_fr20_12,fr20_x2).
head(r_fr20_13,fr23_s2).
body(r_fr20_13,fr20_b2).
body(r_fr20_13,fr20_c2).
body(r_fr20_13,fr20_e2).
body(r_fr20_13,fr20_p2).
body(r_fr20_13,fr20_q2).
body(r_fr20_13,fr20_s2).
body(r_fr20_13,fr20_t1).
body(r_fr20_13,fr20_t2).
body(r_fr20_13,fr20_u3).
body(r_fr20_13,fr14_v1).
body(r_fr20_13,fr20_w1).
body(r_fr20_13,fr20_w3).
head(r_fr20_14,fr23_s2).
body(r_fr20_14,fr20_b1).
body(r_fr20_14,fr20_b2).
body(r_fr20_14,fr20_d1).
body(r_fr20_14,fr20_d2).
body(r_fr20_14,fr20_f1).
body(r_fr20_14,fr20_p4).
body(r_fr20_14,fr20_q2).
body(r_fr20_14,fr20_q4).
body(r_fr20_14,fr20_t1).
body(r_fr20_14,fr20_u3).
body(r_fr20_14,fr16_w4).
body(r_fr20_14,fr20_z3).
head(r_fr20_15,fr23_s2).
body(r_fr20_15,fr20_c1).
body(r_fr20_15,fr20_e1).
body(r_fr20_15,fr14_y1).
body(r_fr20_15,fr20_q4).
body(r_fr20_15,fr20_u3).
body(r_fr20_15,fr20_w2).
body(r_fr20_15,fr20_x1).
body(r_fr20_15,fr16_w4).
body(r_fr20_15,fr20_z2).
head(r_fr20_16,fr20_u1).
body(r_fr20_16,fr20_a2).
body(r_fr20_16,fr20_c1).
body(r_fr20_16,fr20_e2).
body(r_fr20_16,fr20_f1).
body(r_fr20_16,fr1_e1).
body(r_fr20_16,fr20_s2).
body(r_fr20_16,fr20_s3).
body(r_fr20_16,fr20_t3).
body(r_fr20_16,fr20_v2).
body(r_fr20_16,fr20_y1).
head(r_fr20_17,fr20_u1).
body(r_fr20_17,fr20_e1).
body(r_fr20_17,fr14_y1).
body(r_fr20_17,fr20_p2).
body(r_fr20_17,fr20_p3).
body(r_fr20_17,fr20_q4).
body(r_fr20_17,fr4_w1).
body(r_fr20_17,fr20_t2).
body(r_fr20_17,fr20_v2).
body(r_fr20_17,fr20_w1).
body(r_fr20_17,fr20_w2).
body(r_fr20_17,fr20_w3).
body(r_fr20_17,fr20_z2).
head(r_fr20_18,fr20_u1).
body(r_fr20_18,fr20_a1).
body(r_fr20_18,fr20_e1).
body(r_fr20_18,fr20_p2).
body(r_fr20_18,fr20_t3).
body(r_fr20_18,fr20_v1).
body(r_fr20_18,fr20_v2).
body(r_fr20_18,fr20_x2).
body(r_fr20_18,fr20_y1).
body(r_fr20_18,fr20_z3).
head(r_fr20_19,fr20_u1).
body(r_fr20_19,fr6_a1).
body(r_fr20_19,fr20_b1).
body(r_fr20_19,fr20_d2).
body(r_fr20_19,fr20_e1).
body(r_fr20_19,fr20_f1).
body(r_fr20_19,fr20_s1).
body(r_fr20_19,fr20_s2).
body(r_fr20_19,fr20_t3).
body(r_fr20_19,fr20_v2).
body(r_fr20_19,fr14_v1).
body(r_fr20_19,fr20_z3).
head(r_fr20_20,fr14_v1).
body(r_fr20_20,fr20_p3).
body(r_fr20_20,fr20_p4).
body(r_fr20_20,fr20_q1).
body(r_fr20_20,fr20_q3).
body(r_fr20_20,fr20_s3).
body(r_fr20_20,fr20_t1).
body(r_fr20_20,fr20_v1).
body(r_fr20_20,fr20_y3).
body(r_fr20_20,fr20_z3).
head(r_fr20_21,fr14_v1).
body(r_fr20_21,fr20_a1).
body(r_fr20_21,fr6_a1).
body(r_fr20_21,fr1_e1).
body(r_fr20_21,fr14_y1).
body(r_fr20_21,fr20_p4).
body(r_fr20_21,fr20_q4).
body(r_fr20_21,fr20_s1).
body(r_fr20_21,fr20_v2).
body(r_fr20_21,fr20_x1).
head(r_fr20_22,fr14_v1).
body(r_fr20_22,fr20_c3).
body(r_fr20_22,fr14_y1).
body(r_fr20_22,fr20_p2).
body(r_fr20_22,fr20_p3).
body(r_fr20_22,fr20_p4).
body(r_fr20_22,fr20_q4).
body(r_fr20_22,fr20_s2).
body(r_fr20_22,fr20_v1).
body(r_fr20_22,fr20_w2).
body(r_fr20_22,fr16_w4).
head(r_fr20_23,fr14_v1).
body(r_fr20_23,fr20_d1).
body(r_fr20_23,fr20_e2).
body(r_fr20_23,fr20_p3).
body(r_fr20_23,fr20_p4).
body(r_fr20_23,fr20_q4).
body(r_fr20_23,fr4_w1).
body(r_fr20_23,fr20_t1).
body(r_fr20_23,fr20_v1).
body(r_fr20_23,fr20_v2).
body(r_fr20_23,fr20_w1).
body(r_fr20_23,fr20_x1).
body(r_fr20_23,fr20_x3).
head(r_fr20_24,fr20_u3).
body(r_fr20_24,fr20_p2).
body(r_fr20_24,fr20_q2).
body(r_fr20_24,fr4_w1).
body(r_fr20_24,fr20_s1).
body(r_fr20_24,fr20_t2).
body(r_fr20_24,fr20_t3).
body(r_fr20_24,fr20_v1).
body(r_fr20_24,fr20_w1).
body(r_fr20_24,fr20_w2).
body(r_fr20_24,fr20_z3).
head(r_fr20_25,fr20_u3).
body(r_fr20_25,fr20_b3).
body(r_fr20_25,fr20_d1).
body(r_fr20_25,fr20_e1).
body(r_fr20_25,fr20_q4).
body(r_fr20_25,fr20_s3).
body(r_fr20_25,fr20_t2).
body(r_fr20_25,fr20_v1).
body(r_fr20_25,fr20_w2).
body(r_fr20_25,fr20_w3).
body(r_fr20_25,fr20_x1).
body(r_fr20_25,fr20_x3).
body(r_fr20_25,fr20_z2).
head(r_fr20_26,fr20_u3).
body(r_fr20_26,fr20_b2).
body(r_fr20_26,fr20_d2).
body(r_fr20_26,fr20_p3).
body(r_fr20_26,fr20_q4).
body(r_fr20_26,fr20_t3).
body(r_fr20_26,fr20_v1).
body(r_fr20_26,fr20_v2).
body(r_fr20_26,fr20_x3).
body(r_fr20_26,fr20_y3).
body(r_fr20_26,fr20_z2).
head(r_fr20_27,fr20_u3).
body(r_fr20_27,fr20_a2).
body(r_fr20_27,fr6_a1).
body(r_fr20_27,fr20_b3).
body(r_fr20_27,fr20_d2).
body(r_fr20_27,fr20_e2).
body(r_fr20_27,fr20_p3).
body(r_fr20_27,fr20_q4).
body(r_fr20_27,fr20_v2).
body(r_fr20_27,fr20_w3).
body(r_fr20_27,fr16_w4).
head(r_fr20_28,fr20_u3).
body(r_fr20_28,fr20_b2).
body(r_fr20_28,fr20_c1).
body(r_fr20_28,fr20_c3).
body(r_fr20_28,fr20_d1).
body(r_fr20_28,fr20_e2).
body(r_fr20_28,fr20_v1).
body(r_fr20_28,fr20_w2).
body(r_fr20_28,fr20_x3).
body(r_fr20_28,fr20_z2).
head(r_fr20_29,fr20_s3).
body(r_fr20_29,fr20_a2).
body(r_fr20_29,fr20_c1).
body(r_fr20_29,fr20_f1).
body(r_fr20_29,fr20_v1).
body(r_fr20_29,fr20_w1).
body(r_fr20_29,fr20_x2).
body(r_fr20_29,fr20_x3).
body(r_fr20_29,fr20_y3).
body(r_fr20_29,fr16_w4).
head(r_fr20_30,fr20_s3).
body(r_fr20_30,fr20_d2).
body(r_fr20_30,fr20_p3).
body(r_fr20_30,fr20_p4).
body(r_fr20_30,fr20_q2).
body(r_fr20_30,fr20_s2).
body(r_fr20_30,fr20_t3).
body(r_fr20_30,fr20_v2).
body(r_fr20_30,fr20_w2).
body(r_fr20_30,fr20_w3).
body(r_fr20_30,fr20_x3).
body(r_fr20_30,fr20_y1).
body(r_fr20_30,fr20_y3).
head(r_fr20_31,fr20_s3).
body(r_fr20_31,fr20_a2).
body(r_fr20_31,fr14_y1).
body(r_fr20_31,fr20_p2).
body(r_fr20_31,fr20_q3).
body(r_fr20_31,fr4_w1).
body(r_fr20_31,fr20_s2).
body(r_fr20_31,fr20_v1).
body(r_fr20_31,fr20_x1).
body(r_fr20_31,fr20_x3).
head(r_fr20_32,fr20_z2).
body(r_fr20_32,fr20_c3).
body(r_fr20_32,fr20_d2).
body(r_fr20_32,fr20_f1).
body(r_fr20_32,fr20_p3).
body(r_fr20_32,fr20_q3).
body(r_fr20_32,fr20_q4).
body(r_fr20_32,fr20_s1).
body(r_fr20_32,fr20_t2).
body(r_fr20_32,fr20_x1).
body(r_fr20_32,fr20_x3).
body(r_fr20_32,fr20_y1).
head(r_fr20_33,fr20_z2).
body(r_fr20_33,fr1_e1).
body(r_fr20_33,fr20_p2).
body(r_fr20_33,fr20_p3).
body(r_fr20_33,fr20_p4).
body(r_fr20_33,fr20_q3).
body(r_fr20_33,fr20_q4).
body(r_fr20_33,fr4_w1).
body(r_fr20_33,fr20_s1).
body(r_fr20_33,fr20_s2).
body(r_fr20_33,fr20_v1).
body(r_fr20_33,fr20_w2).
body(r_fr20_33,fr20_z3).
head(r_fr20_34,fr20_z2).
body(r_fr20_34,fr20_c1).
body(r_fr20_34,fr20_c3).
body(r_fr20_34,fr4_w1).
body(r_fr20_34,fr20_s2).
body(r_fr20_34,fr20_t2).
body(r_fr20_34,fr20_x1).
body(r_fr20_34,fr20_x2).
body(r_fr20_34,fr20_x3).
body(r_fr20_34,fr20_y3).
body(r_fr20_34,fr20_z3).
head(r_fr20_35,fr20_z2).
body(r_fr20_35,fr6_a1).
body(r_fr20_35,fr20_c3).
body(r_fr20_35,fr20_p3).
body(r_fr20_35,fr20_p4).
body(r_fr20_35,fr20_q1).
body(r_fr20_35,fr20_q2).
body(r_fr20_35,fr20_q3).
body(r_fr20_35,fr20_t2).
body(r_fr20_35,fr20_t3).
body(r_fr20_35,fr20_v1).
body(r_fr20_35,fr20_v2).
head(r_fr20_36,fr20_z2).
body(r_fr20_36,fr20_a2).
body(r_fr20_36,fr20_e1).
body(r_fr20_36,fr14_y1).
body(r_fr20_36,fr20_p4).
body(r_fr20_36,fr20_q4).
body(r_fr20_36,fr20_t2).
body(r_fr20_36,fr20_v1).
body(r_fr20_36,fr20_w3).
body(r_fr20_36,fr20_x3).
body(r_fr20_36,fr16_w4).
body(r_fr20_36,fr20_z3).
head(r_fr20_37,fr20_y1).
body(r_fr20_37,fr20_a2).
body(r_fr20_37,fr20_b2).
body(r_fr20_37,fr20_c1).
body(r_fr20_37,fr20_e2).
body(r_fr20_37,fr14_y1).
body(r_fr20_37,fr20_p2).
body(r_fr20_37,fr20_p4).
body(r_fr20_37,fr20_q1).
body(r_fr20_37,fr20_q3).
body(r_fr20_37,fr20_v2).
body(r_fr20_37,fr20_x2).
body(r_fr20_37,fr20_z3).
head(r_fr20_38,fr20_y1).
body(r_fr20_38,fr20_a2).
body(r_fr20_38,fr6_a1).
body(r_fr20_38,fr20_e1).
body(r_fr20_38,fr20_e2).
body(r_fr20_38,fr20_f1).
body(r_fr20_38,fr20_p3).
body(r_fr20_38,fr20_q2).
body(r_fr20_38,fr20_t3).
body(r_fr20_38,fr20_v1).
body(r_fr20_38,fr20_x1).
head(r_fr20_39,fr20_y1).
body(r_fr20_39,fr20_e2).
body(r_fr20_39,fr20_p3).
body(r_fr20_39,fr20_s1).
body(r_fr20_39,fr20_t1).
body(r_fr20_39,fr20_t2).
body(r_fr20_39,fr20_v1).
body(r_fr20_39,fr20_w1).
body(r_fr20_39,fr20_w3).
body(r_fr20_39,fr20_y3).
body(r_fr20_39,fr16_w4).
head(r_fr20_40,fr20_y1).
body(r_fr20_40,fr6_a1).
body(r_fr20_40,fr20_b1).
body(r_fr20_40,fr20_b3).
body(r_fr20_40,fr20_c2).
body(r_fr20_40,fr14_y1).
body(r_fr20_40,fr20_p4).
body(r_fr20_40,fr20_t3).
body(r_fr20_40,fr20_x2).
body(r_fr20_40,fr20_x3).
body(r_fr20_40,fr20_y3).
body(r_fr20_40,fr16_w4).
body(r_fr20_40,fr20_z3).
head(r_fr20_41,fr20_q3).
body(r_fr20_41,fr14_y1).
body(r_fr20_41,fr20_p2).
body(r_fr20_41,fr20_p3).
body(r_fr20_41,fr20_p4).
body(r_fr20_41,fr20_q1).
body(r_fr20_41,fr4_w1).
body(r_fr20_41,fr20_t3).
body(r_fr20_41,fr20_v1).
body(r_fr20_41,fr20_x3).
body(r_fr20_41,fr20_z3).
head(r_fr20_42,fr20_q3).
body(r_fr20_42,fr20_a1).
body(r_fr20_42,fr14_y1).
body(r_fr20_42,fr20_p2).
body(r_fr20_42,fr20_q2).
body(r_fr20_42,fr20_q4).
body(r_fr20_42,fr20_s2).
body(r_fr20_42,fr20_t3).
body(r_fr20_42,fr20_v2).
body(r_fr20_42,fr20_x1).
body(r_fr20_42,fr20_x2).
body(r_fr20_42,fr20_x3).
body(r_fr20_42,fr16_w4).
head(r_fr20_43,fr20_q3).
body(r_fr20_43,fr20_a2).
body(r_fr20_43,fr6_a1).
body(r_fr20_43,fr20_b1).
body(r_fr20_43,fr20_b3).
body(r_fr20_43,fr20_c2).
body(r_fr20_43,fr20_f1).
body(r_fr20_43,fr20_s1).
body(r_fr20_43,fr20_x1).
body(r_fr20_43,fr20_x3).
head(r_fr20_44,fr20_q3).
body(r_fr20_44,fr20_a1).
body(r_fr20_44,fr20_b3).
body(r_fr20_44,fr20_e1).
body(r_fr20_44,fr14_y1).
body(r_fr20_44,fr20_q1).
body(r_fr20_44,fr4_w1).
body(r_fr20_44,fr20_t1).
body(r_fr20_44,fr20_v2).
body(r_fr20_44,fr20_w3).
head(r_fr20_45,fr20_q3).
body(r_fr20_45,fr20_b2).
body(r_fr20_45,fr20_b3).
body(r_fr20_45,fr20_c3).
body(r_fr20_45,fr20_d2).
body(r_fr20_45,fr20_f1).
body(r_fr20_45,fr1_e1).
body(r_fr20_45,fr20_p3).
body(r_fr20_45,fr20_p4).
body(r_fr20_45,fr20_q2).
body(r_fr20_45,fr20_w1).
body(r_fr20_45,fr20_x2).
body(r_fr20_45,fr20_x3).
head(r_fr20_46,fr20_p3).
body(r_fr20_46,fr20_a1).
body(r_fr20_46,fr20_b2).
body(r_fr20_46,fr20_c1).
body(r_fr20_46,fr20_e2).
body(r_fr20_46,fr1_e1).
body(r_fr20_46,fr20_q1).
body(r_fr20_46,fr4_w1).
body(r_fr20_46,fr20_s1).
body(r_fr20_46,fr20_v1).
body(r_fr20_46,fr20_w1).
body(r_fr20_46,fr20_w3).
head(r_fr20_47,fr20_p3).
body(r_fr20_47,fr14_y1).
body(r_fr20_47,fr20_q1).
body(r_fr20_47,fr20_q4).
body(r_fr20_47,fr20_s2).
body(r_fr20_47,fr20_t3).
body(r_fr20_47,fr20_v2).
body(r_fr20_47,fr20_x2).
body(r_fr20_47,fr20_y3).
body(r_fr20_47,fr16_w4).
head(r_fr20_48,fr20_p3).
body(r_fr20_48,fr20_a1).
body(r_fr20_48,fr6_a1).
body(r_fr20_48,fr20_p4).
body(r_fr20_48,fr20_q1).
body(r_fr20_48,fr20_q2).
body(r_fr20_48,fr20_s1).
body(r_fr20_48,fr20_s2).
body(r_fr20_48,fr20_t3).
body(r_fr20_48,fr20_w2).
body(r_fr20_48,fr20_z3).
head(r_fr20_49,fr16_w4).
body(r_fr20_49,fr20_a2).
body(r_fr20_49,fr20_c2).
body(r_fr20_49,fr14_y1).
body(r_fr20_49,fr20_t3).
body(r_fr20_49,fr20_v1).
body(r_fr20_49,fr20_w1).
body(r_fr20_49,fr20_x3).
body(r_fr20_49,fr20_y3).
body(r_fr20_49,fr20_z3).
head(r_fr20_50,fr16_w4).
body(r_fr20_50,fr20_a2).
body(r_fr20_50,fr20_b1).
body(r_fr20_50,fr20_b2).
body(r_fr20_50,fr20_e1).
body(r_fr20_50,fr1_e1).
body(r_fr20_50,fr14_y1).
body(r_fr20_50,fr20_p2).
body(r_fr20_50,fr20_q2).
body(r_fr20_50,fr20_s1).
body(r_fr20_50,fr20_t1).
body(r_fr20_50,fr20_v2).
head(r_fr20_51,fr16_w4).
body(r_fr20_51,fr20_e2).
body(r_fr20_51,fr14_y1).
body(r_fr20_51,fr20_p2).
body(r_fr20_51,fr20_q1).
body(r_fr20_51,fr4_w1).
body(r_fr20_51,fr20_v1).
body(r_fr20_51,fr20_x1).
body(r_fr20_51,fr20_x3).
body(r_fr20_51,fr20_y3).
head(r_fr20_52,fr16_w4).
body(r_fr20_52,fr20_a2).
body(r_fr20_52,fr14_y1).
body(r_fr20_52,fr20_p2).
body(r_fr20_52,fr20_q4).
body(r_fr20_52,fr4_w1).
body(r_fr20_52,fr20_s2).
body(r_fr20_52,fr20_v1).
body(r_fr20_52,fr20_v2).
body(r_fr20_52,fr20_w1).
body(r_fr20_52,fr20_w2).
body(r_fr20_52,fr20_x1).
body(r_fr20_52,fr20_x2).
head(r_fr20_53,fr20_t3).
body(r_fr20_53,fr6_a1).
body(r_fr20_53,fr20_b3).
body(r_fr20_53,fr20_c1).
body(r_fr20_53,fr20_d2).
body(r_fr20_53,fr20_p2).
body(r_fr20_53,fr20_p4).
body(r_fr20_53,fr20_q4).
body(r_fr20_53,fr4_w1).
body(r_fr20_53,fr20_x1).
body(r_fr20_53,fr20_x2).
head(r_fr20_54,fr20_t3).
body(r_fr20_54,fr6_a1).
body(r_fr20_54,fr20_b2).
body(r_fr20_54,fr20_c1).
body(r_fr20_54,fr14_y1).
body(r_fr20_54,fr20_p4).
body(r_fr20_54,fr4_w1).
body(r_fr20_54,fr20_t2).
body(r_fr20_54,fr20_v1).
body(r_fr20_54,fr20_w3).
body(r_fr20_54,fr20_y3).
body(r_fr20_54,fr20_z3).
head(r_fr20_55,fr20_t3).
body(r_fr20_55,fr14_y1).
body(r_fr20_55,fr20_p2).
body(r_fr20_55,fr20_q1).
body(r_fr20_55,fr20_q2).
body(r_fr20_55,fr20_s1).
body(r_fr20_55,fr20_s2).
body(r_fr20_55,fr20_v1).
body(r_fr20_55,fr20_v2).
body(r_fr20_55,fr20_w1).
body(r_fr20_55,fr20_w2).
body(r_fr20_55,fr20_x1).
body(r_fr20_55,fr20_z3).
head(r_fr20_56,fr20_t3).
body(r_fr20_56,fr20_a1).
body(r_fr20_56,fr20_b1).
body(r_fr20_56,fr20_b3).
body(r_fr20_56,fr1_e1).
body(r_fr20_56,fr20_p2).
body(r_fr20_56,fr20_p4).
body(r_fr20_56,fr20_q4).
body(r_fr20_56,fr20_t2).
body(r_fr20_56,fr20_v2).
body(r_fr20_56,fr20_w1).
body(r_fr20_56,fr20_w2).
head(r_fr20_57,fr20_x3).
body(r_fr20_57,fr20_b1).
body(r_fr20_57,fr20_b2).
body(r_fr20_57,fr20_c1).
body(r_fr20_57,fr20_c2).
body(r_fr20_57,fr20_e1).
body(r_fr20_57,fr20_f1).
body(r_fr20_57,fr20_q1).
body(r_fr20_57,fr20_t2).
body(r_fr20_57,fr20_v1).
head(r_fr20_58,fr20_x3).
body(r_fr20_58,fr20_a1).
body(r_fr20_58,fr20_a2).
body(r_fr20_58,fr20_b1).
body(r_fr20_58,fr20_b3).
body(r_fr20_58,fr20_c3).
body(r_fr20_58,fr1_e1).
body(r_fr20_58,fr20_q2).
body(r_fr20_58,fr20_t1).
body(r_fr20_58,fr20_v2).
body(r_fr20_58,fr20_w1).
body(r_fr20_58,fr20_w3).
body(r_fr20_58,fr20_x1).
head(r_fr20_59,fr20_q4).
body(r_fr20_59,fr6_a1).
body(r_fr20_59,fr20_d1).
body(r_fr20_59,fr14_y1).
body(r_fr20_59,fr20_p2).
body(r_fr20_59,fr20_q1).
body(r_fr20_59,fr20_q2).
body(r_fr20_59,fr4_w1).
body(r_fr20_59,fr20_t2).
body(r_fr20_59,fr20_v1).
body(r_fr20_59,fr20_w1).
body(r_fr20_59,fr20_y3).
head(r_fr20_60,fr20_q4).
body(r_fr20_60,fr20_p2).
body(r_fr20_60,fr20_q2).
body(r_fr20_60,fr20_t1).
body(r_fr20_60,fr20_v2).
body(r_fr20_60,fr20_w2).
body(r_fr20_60,fr20_w3).
body(r_fr20_60,fr20_x2).
body(r_fr20_60,fr20_y3).
body(r_fr20_60,fr20_z3).
head(r_fr20_61,fr20_q4).
body(r_fr20_61,fr20_b3).
body(r_fr20_61,fr20_c3).
body(r_fr20_61,fr20_d2).
body(r_fr20_61,fr1_e1).
body(r_fr20_61,fr14_y1).
body(r_fr20_61,fr20_q1).
body(r_fr20_61,fr4_w1).
body(r_fr20_61,fr20_s1).
body(r_fr20_61,fr20_s2).
body(r_fr20_61,fr20_t2).
body(r_fr20_61,fr20_x1).
body(r_fr20_61,fr20_x2).
head(r_fr20_62,fr20_t2).
body(r_fr20_62,fr20_c2).
body(r_fr20_62,fr20_d1).
body(r_fr20_62,fr20_q1).
body(r_fr20_62,fr20_q2).
body(r_fr20_62,fr20_v1).
body(r_fr20_62,fr20_v2).
body(r_fr20_62,fr20_w1).
body(r_fr20_62,fr20_w3).
body(r_fr20_62,fr20_x1).
body(r_fr20_62,fr20_x2).
body(r_fr20_62,fr20_y3).
head(r_fr20_63,fr20_t2).
body(r_fr20_63,fr6_a1).
body(r_fr20_63,fr20_c2).
body(r_fr20_63,fr1_e1).
body(r_fr20_63,fr20_p2).
body(r_fr20_63,fr20_p4).
body(r_fr20_63,fr20_q2).
body(r_fr20_63,fr20_s1).
body(r_fr20_63,fr20_w1).
body(r_fr20_63,fr20_x1).
body(r_fr20_63,fr20_z3).
head(r_fr20_64,fr20_p4).
body(r_fr20_64,fr20_e1).
body(r_fr20_64,fr20_q1).
body(r_fr20_64,fr4_w1).
body(r_fr20_64,fr20_s1).
body(r_fr20_64,fr20_t1).
body(r_fr20_64,fr20_v2).
body(r_fr20_64,fr20_w2).
body(r_fr20_64,fr20_x2).
body(r_fr20_64,fr20_y3).
head(r_fr20_65,fr20_p4).
body(r_fr20_65,fr20_a2).
body(r_fr20_65,fr20_b2).
body(r_fr20_65,fr20_d1).
body(r_fr20_65,fr20_e1).
body(r_fr20_65,fr20_e2).
body(r_fr20_65,fr20_f1).
body(r_fr20_65,fr20_p2).
body(r_fr20_65,fr20_q1).
body(r_fr20_65,fr20_s1).
body(r_fr20_65,fr20_s2).
body(r_fr20_65,fr20_z3).
head(r_fr20_66,fr20_p4).
body(r_fr20_66,fr14_y1).
body(r_fr20_66,fr20_p2).
body(r_fr20_66,fr20_q1).
body(r_fr20_66,fr4_w1).
body(r_fr20_66,fr20_s2).
body(r_fr20_66,fr20_v1).
body(r_fr20_66,fr20_w3).
body(r_fr20_66,fr20_y3).
body(r_fr20_66,fr20_z3).
head(r_fr20_67,fr20_p4).
body(r_fr20_67,fr20_a2).
body(r_fr20_67,fr20_b2).
body(r_fr20_67,fr20_d2).
body(r_fr20_67,fr20_q2).
body(r_fr20_67,fr4_w1).
body(r_fr20_67,fr20_t1).
body(r_fr20_67,fr20_v1).
body(r_fr20_67,fr20_w1).
body(r_fr20_67,fr20_z3).
head(r_fr20_68,fr20_p4).
body(r_fr20_68,fr20_a1).
body(r_fr20_68,fr20_b1).
body(r_fr20_68,fr20_c2).
body(r_fr20_68,fr1_e1).
body(r_fr20_68,fr14_y1).
body(r_fr20_68,fr20_p2).
body(r_fr20_68,fr20_q1).
body(r_fr20_68,fr20_t1).
body(r_fr20_68,fr20_v1).
body(r_fr20_68,fr20_x1).
body(r_fr20_68,fr20_y3).
head(r_fr20_69,fr20_q1).
body(r_fr20_69,fr20_a1).
body(r_fr20_69,fr20_a2).
body(r_fr20_69,fr20_b2).
body(r_fr20_69,fr20_b3).
body(r_fr20_69,fr20_d1).
body(r_fr20_69,fr20_d2).
body(r_fr20_69,fr20_p2).
body(r_fr20_69,fr20_t1).
body(r_fr20_69,fr20_x2).
body(r_fr20_69,fr20_y3).
head(r_fr20_70,fr20_q1).
body(r_fr20_70,fr20_b1).
body(r_fr20_70,fr20_c1).
body(r_fr20_70,fr20_c3).
body(r_fr20_70,fr20_d2).
body(r_fr20_70,fr20_e2).
body(r_fr20_70,fr1_e1).
body(r_fr20_70,fr20_p2).
body(r_fr20_70,fr20_s2).
body(r_fr20_70,fr20_t1).
head(r_fr20_71,fr14_y1).
body(r_fr20_71,fr20_a1).
body(r_fr20_71,fr20_b2).
body(r_fr20_71,fr20_c1).
body(r_fr20_71,fr20_c2).
body(r_fr20_71,fr20_d1).
body(r_fr20_71,fr20_e2).
body(r_fr20_71,fr20_p2).
body(r_fr20_71,fr20_q2).
body(r_fr20_71,fr4_w1).
body(r_fr20_71,fr20_s2).
body(r_fr20_71,fr20_y3).
body(r_fr20_71,fr20_z3).
head(r_fr20_72,fr14_y1).
body(r_fr20_72,fr20_b1).
body(r_fr20_72,fr20_e1).
body(r_fr20_72,fr20_e2).
body(r_fr20_72,fr20_p2).
body(r_fr20_72,fr20_t1).
body(r_fr20_72,fr20_v1).
body(r_fr20_72,fr20_v2).
body(r_fr20_72,fr20_w1).
body(r_fr20_72,fr20_y3).
head(r_fr20_73,fr14_y1).
body(r_fr20_73,fr6_a1).
body(r_fr20_73,fr20_e1).
body(r_fr20_73,fr20_q2).
body(r_fr20_73,fr4_w1).
body(r_fr20_73,fr20_s1).
body(r_fr20_73,fr20_v1).
body(r_fr20_73,fr20_x1).
body(r_fr20_73,fr20_x2).
body(r_fr20_73,fr20_y3).
body(r_fr20_73,fr20_z3).
head(r_fr20_74,fr14_y1).
body(r_fr20_74,fr20_a2).
body(r_fr20_74,fr20_b2).
body(r_fr20_74,fr20_d2).
body(r_fr20_74,fr20_e2).
body(r_fr20_74,fr20_f1).
body(r_fr20_74,fr1_e1).
body(r_fr20_74,fr4_w1).
body(r_fr20_74,fr20_t1).
body(r_fr20_74,fr20_v1).
body(r_fr20_74,fr20_w2).
body(r_fr20_74,fr20_w3).
head(r_fr20_75,fr14_y1).
body(r_fr20_75,fr20_q2).
body(r_fr20_75,fr4_w1).
body(r_fr20_75,fr20_s1).
body(r_fr20_75,fr20_s2).
body(r_fr20_75,fr20_t1).
body(r_fr20_75,fr20_v1).
body(r_fr20_75,fr20_v2).
body(r_fr20_75,fr20_w1).
body(r_fr20_75,fr20_w3).
body(r_fr20_75,fr20_x2).
body(r_fr20_75,fr20_y3).

assumption(fr21_a1).
assumption(fr21_b1).
assumption(fr21_c1).
assumption(fr21_d1).
assumption(fr21_e1).
assumption(fr21_f1).
assumption(fr21_a2).
assumption(fr21_b2).
assumption(fr21_c2).
assumption(fr12_e2).
assumption(fr21_e2).
assumption(fr21_f2).
assumption(fr21_a3).
assumption(fr21_b3).
assumption(fr16_e4).
contrary(fr21_a1,fr21_v3).
contrary(fr21_a2,fr21_r2).
contrary(fr21_a3,fr21_v2).
contrary(fr21_b1,fr21_a3).
contrary(fr21_b2,fr21_b1).
contrary(fr21_b3,fr17_t4).
contrary(fr21_c1,fr21_z1).
contrary(fr21_c2,fr21_s2).
contrary(fr16_e4,fr21_f2).
contrary(fr21_d1,fr4_q2).
contrary(fr12_e2,fr21_a3).
contrary(fr21_e1,fr21_q4).
contrary(fr21_e2,fr21_v1).
contrary(fr21_f1,fr12_v1).
contrary(fr21_f2,fr17_t4).
head(r_fr21_0,fr21_x3).
body(r_fr21_0,fr21_a2).
body(r_fr21_0,fr21_a3).
body(r_fr21_0,fr21_c2).
body(r_fr21_0,fr17_t4).
body(r_fr21_0,fr21_q2).
body(r_fr21_0,fr23_z1).
body(r_fr21_0,fr21_r1).
body(r_fr21_0,fr21_u3).
body(r_fr21_0,fr21_v2).
body(r_fr21_0,fr21_v3).
body(r_fr21_0,fr21_y2).
body(r_fr21_0,fr12_v1).
body(r_fr21_0,fr21_z3).
head(r_fr21_1,fr21_x3).
body(r_fr21_1,fr21_d1).
body(r_fr21_1,fr21_f1).
body(r_fr21_1,fr17_t4).
body(r_fr21_1,fr21_p4).
body(r_fr21_1,fr21_q1).
body(r_fr21_1,fr21_t1).
body(r_fr21_1,fr21_t3).
body(r_fr21_1,fr21_v2).
body(r_fr21_1,fr21_w1).
body(r_fr21_1,fr21_w3).
body(r_fr21_1,fr13_p3).
body(r_fr21_1,fr21_x2).
body(r_fr21_1,fr21_z1).
body(r_fr21_1,fr12_v1).
body(r_fr21_1,fr21_z3).
head(r_fr21_2,fr21_x3).
body(r_fr21_2,fr21_a2).
body(r_fr21_2,fr21_d1).
body(r_fr21_2,fr17_t4).
body(r_fr21_2,fr4_q2).
body(r_fr21_2,fr21_p3).
body(r_fr21_2,fr21_p4).
body(r_fr21_2,fr21_q2).
body(r_fr21_2,fr23_z1).
body(r_fr21_2,fr21_r2).
body(r_fr21_2,fr21_r3).
body(r_fr21_2,fr21_s2).
body(r_fr21_2,fr21_v2).
body(r_fr21_2,fr21_v3).
body(r_fr21_2,fr21_w1).
body(r_fr21_2,fr4_u2).
head(r_fr21_3,fr21_x3).
body(r_fr21_3,fr16_e4).
body(r_fr21_3,fr21_f1).
body(r_fr21_3,fr17_t4).
body(r_fr21_3,fr4_q2).
body(r_fr21_3,fr21_p4).
body(r_fr21_3,fr23_z1).
body(r_fr21_3,fr21_r2).
body(r_fr21_3,fr8_w3).
body(r_fr21_3,fr21_u1).
body(r_fr21_3,fr21_v1).
body(r_fr21_3,fr21_v2).
body(r_fr21_3,fr21_w1).
body(r_fr21_3,fr4_u2).
body(r_fr21_3,fr6_y1).
head(r_fr21_4,fr21_x3).
body(r_fr21_4,fr21_a1).
body(r_fr21_4,fr21_a2).
body(r_fr21_4,fr21_c1).
body(r_fr21_4,fr21_e2).
body(r_fr21_4,fr21_f2).
body(r_fr21_4,fr21_r2).
body(r_fr21_4,fr21_r3).
body(r_fr21_4,fr21_t3).
body(r_fr21_4,fr21_u2).
body(r_fr21_4,fr21_u3).
body(r_fr21_4,fr21_v2).
body(r_fr21_4,fr21_w1).
body(r_fr21_4,fr4_u2).
body(r_fr21_4,fr21_y1).
head(r_fr21_5,fr21_z1).
body(r_fr21_5,fr21_a1).
body(r_fr21_5,fr21_a3).
body(r_fr21_5,fr16_e4).
body(r_fr21_5,fr21_e1).
body(r_fr21_5,fr21_e2).
body(r_fr21_5,fr17_t4).
body(r_fr21_5,fr21_p3).
body(r_fr21_5,fr21_p4).
body(r_fr21_5,fr21_q4).
body(r_fr21_5,fr21_t3).
body(r_fr21_5,fr21_u1).
body(r_fr21_5,fr21_v1).
body(r_fr21_5,fr12_v1).
head(r_fr21_6,fr21_z1).
body(r_fr21_6,fr21_b1).
body(r_fr21_6,fr17_t4).
body(r_fr21_6,fr4_q2).
body(r_fr21_6,fr21_q4).
body(r_fr21_6,fr21_r2).
body(r_fr21_6,fr21_r3).
body(r_fr21_6,fr21_t1).
body(r_fr21_6,fr21_t2).
body(r_fr21_6,fr21_t3).
body(r_fr21_6,fr21_u2).
body(r_fr21_6,fr21_v3).
body(r_fr21_6,fr21_x2).
body(r_fr21_6,fr21_y2).
head(r_fr21_7,fr21_z1).
body(r_fr21_7,fr12_e2).
body(r_fr21_7,fr21_f1).
body(r_fr21_7,fr21_q1).
body(r_fr21_7,fr8_w3).
body(r_fr21_7,fr21_t3).
body(r_fr21_7,fr21_v2).
body(r_fr21_7,fr21_v3).
body(r_fr21_7,fr21_w1).
body(r_fr21_7,fr13_p3).
body(r_fr21_7,fr21_y1).
body(r_fr21_7,fr21_y2).
body(r_fr21_7,fr6_y1).
body(r_fr21_7,fr21_z3).
head(r_fr21_8,fr21_z1).
body(r_fr21_8,fr21_a1).
body(r_fr21_8,fr16_e4).
body(r_fr21_8,fr12_e2).
body(r_fr21_8,fr21_e1).
body(r_fr21_8,fr21_q1).
body(r_fr21_8,fr8_w3).
body(r_fr21_8,fr8_q4).
body(r_fr21_8,fr21_t2).
body(r_fr21_8,fr21_t3).
body(r_fr21_8,fr21_v3).
body(r_fr21_8,fr21_w1).
body(r_fr21_8,fr4_u2).
body(r_fr21_8,fr21_x2).
body(r_fr21_8,fr21_x3).
head(r_fr21_9,fr21_z1).
body(r_fr21_9,fr21_c1).
body(r_fr21_9,fr21_p4).
body(r_fr21_9,fr21_q1).
body(r_fr21_9,fr21_r1).
body(r_fr21_9,fr8_w3).
body(r_fr21_9,fr8_q4).
body(r_fr21_9,fr21_t2).
body(r_fr21_9,fr21_v1).
body(r_fr21_9,fr21_v2).
body(r_fr21_9,fr4_u2).
body(r_fr21_9,fr13_p3).
body(r_fr21_9,fr21_x2).
head(r_fr21_10,fr21_r1).
body(r_fr21_10,fr4_q2).
body(r_fr21_10,fr21_p3).
body(r_fr21_10,fr21_q1).
body(r_fr21_10,fr23_z1).
body(r_fr21_10,fr21_r2).
body(r_fr21_10,fr8_w3).
body(r_fr21_10,fr21_s2).
body(r_fr21_10,fr21_u1).
body(r_fr21_10,fr21_u3).
body(r_fr21_10,fr6_y1).
body(r_fr21_10,fr21_z1).
body(r_fr21_10,fr12_v1).
head(r_fr21_11,fr21_r1).
body(r_fr21_11,fr21_b3).
body(r_fr21_11,fr21_e2).
body(r_fr21_11,fr17_t4).
body(r_fr21_11,fr21_q1).
body(r_fr21_11,fr21_q2).
body(r_fr21_11,fr23_z1).
body(r_fr21_11,fr21_s2).
body(r_fr21_11,fr21_t1).
body(r_fr21_11,fr21_t3).
body(r_fr21_11,fr21_v2).
body(r_fr21_11,fr21_v3).
body(r_fr21_11,fr21_w3).
body(r_fr21_11,fr21_x2).
body(r_fr21_11,fr21_x3).
head(r_fr21_12,fr21_r1).
body(r_fr21_12,fr12_e2).
body(r_fr21_12,fr21_q1).
body(r_fr21_12,fr21_r2).
body(r_fr21_12,fr8_w3).
body(r_fr21_12,fr8_q4).
body(r_fr21_12,fr21_u1).
body(r_fr21_12,fr21_u2).
body(r_fr21_12,fr21_u3).
body(r_fr21_12,fr21_v3).
body(r_fr21_12,fr21_w3).
body(r_fr21_12,fr13_p3).
body(r_fr21_12,fr21_x2).
body(r_fr21_12,fr21_z3).
head(r_fr21_13,fr13_p3).
body(r_fr21_13,fr21_c2).
body(r_fr21_13,fr4_q2).
body(r_fr21_13,fr21_p3).
body(r_fr21_13,fr21_q1).
body(r_fr21_13,fr23_z1).
body(r_fr21_13,fr21_r2).
body(r_fr21_13,fr21_r3).
body(r_fr21_13,fr8_w3).
body(r_fr21_13,fr21_v1).
body(r_fr21_13,fr21_w1).
body(r_fr21_13,fr21_y1).
body(r_fr21_13,fr21_y2).
body(r_fr21_13,fr21_z3).
head(r_fr21_14,fr13_p3).
body(r_fr21_14,fr21_a1).
body(r_fr21_14,fr21_b3).
body(r_fr21_14,fr21_e2).
body(r_fr21_14,fr17_t4).
body(r_fr21_14,fr4_q2).
body(r_fr21_14,fr21_q1).
body(r_fr21_14,fr21_r1).
body(r_fr21_14,fr21_r2).
body(r_fr21_14,fr21_r3).
body(r_fr21_14,fr21_s2).
body(r_fr21_14,fr8_q4).
body(r_fr21_14,fr21_u3).
body(r_fr21_14,fr21_v1).
body(r_fr21_14,fr21_v3).
body(r_fr21_14,fr21_z3).
head(r_fr21_15,fr21_t2).
body(r_fr21_15,fr21_b3).
body(r_fr21_15,fr21_c2).
body(r_fr21_15,fr16_e4).
body(r_fr21_15,fr21_e1).
body(r_fr21_15,fr21_e2).
body(r_fr21_15,fr21_f2).
body(r_fr21_15,fr21_q1).
body(r_fr21_15,fr21_q2).
body(r_fr21_15,fr23_z1).
body(r_fr21_15,fr21_s2).
body(r_fr21_15,fr8_q4).
body(r_fr21_15,fr21_u1).
body(r_fr21_15,fr21_v3).
body(r_fr21_15,fr6_y1).
head(r_fr21_16,fr21_t2).
body(r_fr21_16,fr21_a1).
body(r_fr21_16,fr21_a3).
body(r_fr21_16,fr16_e4).
body(r_fr21_16,fr21_e2).
body(r_fr21_16,fr17_t4).
body(r_fr21_16,fr4_q2).
body(r_fr21_16,fr21_p3).
body(r_fr21_16,fr21_p4).
body(r_fr21_16,fr21_t1).
body(r_fr21_16,fr21_t3).
body(r_fr21_16,fr21_u3).
body(r_fr21_16,fr21_x2).
body(r_fr21_16,fr21_y2).
body(r_fr21_16,fr21_z1).
body(r_fr21_16,fr21_z3).
head(r_fr21_17,fr21_t2).
body(r_fr21_17,fr21_a1).
body(r_fr21_17,fr21_a3).
body(r_fr21_17,fr16_e4).
body(r_fr21_17,fr21_e1).
body(r_fr21_17,fr21_e2).
body(r_fr21_17,fr21_f2).
body(r_fr21_17,fr21_p4).
body(r_fr21_17,fr21_q1).
body(r_fr21_17,fr21_q4).
body(r_fr21_17,fr21_r1).
body(r_fr21_17,fr21_t1).
body(r_fr21_17,fr21_z1).
head(r_fr21_18,fr21_t2).
body(r_fr21_18,fr21_e1).
body(r_fr21_18,fr4_q2).
body(r_fr21_18,fr21_p3).
body(r_fr21_18,fr23_z1).
body(r_fr21_18,fr21_r1).
body(r_fr21_18,fr8_w3).
body(r_fr21_18,fr21_u2).
body(r_fr21_18,fr21_v2).
body(r_fr21_18,fr21_v3).
body(r_fr21_18,fr4_u2).
body(r_fr21_18,fr21_w3).
body(r_fr21_18,fr21_x2).
head(r_fr21_19,fr21_z3).
body(r_fr21_19,fr21_a1).
body(r_fr21_19,fr21_b3).
body(r_fr21_19,fr21_c1).
body(r_fr21_19,fr21_d1).
body(r_fr21_19,fr21_e1).
body(r_fr21_19,fr21_e2).
body(r_fr21_19,fr17_t4).
body(r_fr21_19,fr21_r1).
body(r_fr21_19,fr21_t1).
body(r_fr21_19,fr21_u1).
body(r_fr21_19,fr4_u2).
body(r_fr21_19,fr6_y1).
head(r_fr21_20,fr21_z3).
body(r_fr21_20,fr4_q2).
body(r_fr21_20,fr21_p4).
body(r_fr21_20,fr21_q1).
body(r_fr21_20,fr21_q2).
body(r_fr21_20,fr21_q4).
body(r_fr21_20,fr21_r1).
body(r_fr21_20,fr21_r3).
body(r_fr21_20,fr8_w3).
body(r_fr21_20,fr21_t2).
body(r_fr21_20,fr21_t3).
body(r_fr21_20,fr21_u1).
body(r_fr21_20,fr21_u3).
body(r_fr21_20,fr13_p3).
body(r_fr21_20,fr21_x3).
body(r_fr21_20,fr21_y1).
head(r_fr21_21,fr21_z3).
body(r_fr21_21,fr17_t4).
body(r_fr21_21,fr21_p3).
body(r_fr21_21,fr21_q1).
body(r_fr21_21,fr21_q2).
body(r_fr21_21,fr21_r1).
body(r_fr21_21,fr8_w3).
body(r_fr21_21,fr21_t1).
body(r_fr21_21,fr21_v1).
body(r_fr21_21,fr21_v3).
body(r_fr21_21,fr13_p3).
body(r_fr21_21,fr21_x2).
body(r_fr21_21,fr21_x3).
head(r_fr21_22,fr21_z3).
body(r_fr21_22,fr21_b3).
body(r_fr21_22,fr12_e2).
body(r_fr21_22,fr21_q1).
body(r_fr21_22,fr8_w3).
body(r_fr21_22,fr21_t3).
body(r_fr21_22,fr21_u1).
body(r_fr21_22,fr21_u3).
body(r_fr21_22,fr21_v1).
body(r_fr21_22,fr21_w1).
body(r_fr21_22,fr21_y1).
body(r_fr21_22,fr6_y1).
body(r_fr21_22,fr21_z1).
head(r_fr21_23,fr21_q1).
body(r_fr21_23,fr21_a1).
body(r_fr21_23,fr21_a3).
body(r_fr21_23,fr21_b1).
body(r_fr21_23,fr21_c2).
body(r_fr21_23,fr21_e1).
body(r_fr21_23,fr21_q2).
body(r_fr21_23,fr21_r2).
body(r_fr21_23,fr21_t3).
body(r_fr21_23,fr21_v3).
body(r_fr21_23,fr21_w1).
body(r_fr21_23,fr21_x3).
body(r_fr21_23,fr21_y1).
body(r_fr21_23,fr6_y1).
body(r_fr21_23,fr21_z1).
body(r_fr21_23,fr21_z3).
head(r_fr21_24,fr21_q1).
body(r_fr21_24,fr21_a1).
body(r_fr21_24,fr21_b2).
body(r_fr21_24,fr21_c1).
body(r_fr21_24,fr21_e1).
body(r_fr21_24,fr21_e2).
body(r_fr21_24,fr21_f2).
body(r_fr21_24,fr21_r3).
body(r_fr21_24,fr21_u3).
body(r_fr21_24,fr21_v3).
body(r_fr21_24,fr21_w1).
body(r_fr21_24,fr21_x3).
body(r_fr21_24,fr6_y1).
head(r_fr21_25,fr21_q1).
body(r_fr21_25,fr21_b3).
body(r_fr21_25,fr21_f2).
body(r_fr21_25,fr17_t4).
body(r_fr21_25,fr4_q2).
body(r_fr21_25,fr21_p3).
body(r_fr21_25,fr21_p4).
body(r_fr21_25,fr21_q2).
body(r_fr21_25,fr21_q4).
body(r_fr21_25,fr21_s2).
body(r_fr21_25,fr21_t3).
body(r_fr21_25,fr21_v2).
body(r_fr21_25,fr21_w3).
body(r_fr21_25,fr21_x3).
head(r_fr21_26,fr21_q1).
body(r_fr21_26,fr21_a2).
body(r_fr21_26,fr21_f2).
body(r_fr21_26,fr21_p3).
body(r_fr21_26,fr21_p4).
body(r_fr21_26,fr21_q2).
body(r_fr21_26,fr21_q4).
body(r_fr21_26,fr21_r3).
body(r_fr21_26,fr21_t2).
body(r_fr21_26,fr21_u3).
body(r_fr21_26,fr21_v1).
body(r_fr21_26,fr21_v2).
body(r_fr21_26,fr13_p3).
body(r_fr21_26,fr12_v1).
head(r_fr21_27,fr21_q1).
body(r_fr21_27,fr21_b3).
body(r_fr21_27,fr21_c1).
body(r_fr21_27,fr21_d1).
body(r_fr21_27,fr12_e2).
body(r_fr21_27,fr21_e2).
body(r_fr21_27,fr21_f1).
body(r_fr21_27,fr8_w3).
body(r_fr21_27,fr21_u2).
body(r_fr21_27,fr21_u3).
body(r_fr21_27,fr21_v1).
body(r_fr21_27,fr21_y1).
body(r_fr21_27,fr12_v1).
head(r_fr21_28,fr8_q4).
body(r_fr21_28,fr21_a2).
body(r_fr21_28,fr21_b1).
body(r_fr21_28,fr21_b2).
body(r_fr21_28,fr4_q2).
body(r_fr21_28,fr21_p3).
body(r_fr21_28,fr21_q1).
body(r_fr21_28,fr23_z1).
body(r_fr21_28,fr21_q4).
body(r_fr21_28,fr21_s2).
body(r_fr21_28,fr21_t1).
body(r_fr21_28,fr21_v2).
body(r_fr21_28,fr21_x2).
body(r_fr21_28,fr21_y2).
body(r_fr21_28,fr12_v1).
head(r_fr21_29,fr8_q4).
body(r_fr21_29,fr16_e4).
body(r_fr21_29,fr21_p3).
body(r_fr21_29,fr21_p4).
body(r_fr21_29,fr21_q2).
body(r_fr21_29,fr21_r1).
body(r_fr21_29,fr21_r3).
body(r_fr21_29,fr21_s2).
body(r_fr21_29,fr21_t3).
body(r_fr21_29,fr21_u1).
body(r_fr21_29,fr21_v1).
body(r_fr21_29,fr21_v2).
body(r_fr21_29,fr13_p3).
body(r_fr21_29,fr21_y1).
body(r_fr21_29,fr21_y2).
body(r_fr21_29,fr12_v1).
head(r_fr21_30,fr8_q4).
body(r_fr21_30,fr21_b1).
body(r_fr21_30,fr21_c2).
body(r_fr21_30,fr17_t4).
body(r_fr21_30,fr21_q4).
body(r_fr21_30,fr21_r3).
body(r_fr21_30,fr8_w3).
body(r_fr21_30,fr21_s2).
body(r_fr21_30,fr21_v1).
body(r_fr21_30,fr21_v3).
body(r_fr21_30,fr21_w3).
body(r_fr21_30,fr21_y1).
body(r_fr21_30,fr6_y1).
body(r_fr21_30,fr21_z1).
body(r_fr21_30,fr12_v1).
body(r_fr21_30,fr21_z3).
head(r_fr21_31,fr21_r2).
body(r_fr21_31,fr21_a3).
body(r_fr21_31,fr21_b1).
body(r_fr21_31,fr21_b3).
body(r_fr21_31,fr17_t4).
body(r_fr21_31,fr4_q2).
body(r_fr21_31,fr23_z1).
body(r_fr21_31,fr21_r3).
body(r_fr21_31,fr8_w3).
body(r_fr21_31,fr21_v2).
body(r_fr21_31,fr13_p3).
body(r_fr21_31,fr21_y2).
body(r_fr21_31,fr21_z3).
head(r_fr21_32,fr21_r2).
body(r_fr21_32,fr21_a1).
body(r_fr21_32,fr21_c1).
body(r_fr21_32,fr21_c2).
body(r_fr21_32,fr21_f1).
body(r_fr21_32,fr21_f2).
body(r_fr21_32,fr4_q2).
body(r_fr21_32,fr23_z1).
body(r_fr21_32,fr8_q4).
body(r_fr21_32,fr21_v2).
body(r_fr21_32,fr21_x3).
body(r_fr21_32,fr21_y1).
body(r_fr21_32,fr6_y1).
body(r_fr21_32,fr12_v1).
head(r_fr21_33,fr21_r2).
body(r_fr21_33,fr21_a1).
body(r_fr21_33,fr21_e2).
body(r_fr21_33,fr21_q1).
body(r_fr21_33,fr23_z1).
body(r_fr21_33,fr21_q4).
body(r_fr21_33,fr21_r3).
body(r_fr21_33,fr8_w3).
body(r_fr21_33,fr21_t2).
body(r_fr21_33,fr21_u2).
body(r_fr21_33,fr4_u2).
body(r_fr21_33,fr21_w3).
body(r_fr21_33,fr13_p3).
body(r_fr21_33,fr21_y1).
body(r_fr21_33,fr21_z1).
head(r_fr21_34,fr21_v1).
body(r_fr21_34,fr21_b1).
body(r_fr21_34,fr16_e4).
body(r_fr21_34,fr17_t4).
body(r_fr21_34,fr4_q2).
body(r_fr21_34,fr23_z1).
body(r_fr21_34,fr8_w3).
body(r_fr21_34,fr21_t2).
body(r_fr21_34,fr21_t3).
body(r_fr21_34,fr21_v3).
body(r_fr21_34,fr21_w3).
body(r_fr21_34,fr12_v1).
body(r_fr21_34,fr21_z3).
head(r_fr21_35,fr21_v1).
body(r_fr21_35,fr21_d1).
body(r_fr21_35,fr21_p4).
body(r_fr21_35,fr21_q4).
body(r_fr21_35,fr21_s2).
body(r_fr21_35,fr8_q4).
body(r_fr21_35,fr21_u2).
body(r_fr21_35,fr21_v2).
body(r_fr21_35,fr21_v3).
body(r_fr21_35,fr21_x2).
body(r_fr21_35,fr21_x3).
body(r_fr21_35,fr21_y2).
body(r_fr21_35,fr12_v1).
head(r_fr21_36,fr21_u3).
body(r_fr21_36,fr21_b3).
body(r_fr21_36,fr21_q1).
body(r_fr21_36,fr21_q2).
body(r_fr21_36,fr23_z1).
body(r_fr21_36,fr21_q4).
body(r_fr21_36,fr21_r1).
body(r_fr21_36,fr21_s2).
body(r_fr21_36,fr21_t1).
body(r_fr21_36,fr21_t3).
body(r_fr21_36,fr21_v1).
body(r_fr21_36,fr21_v2).
body(r_fr21_36,fr21_x2).
body(r_fr21_36,fr21_y2).
body(r_fr21_36,fr21_z1).
body(r_fr21_36,fr12_v1).
head(r_fr21_37,fr21_u3).
body(r_fr21_37,fr21_a3).
body(r_fr21_37,fr21_b3).
body(r_fr21_37,fr16_e4).
body(r_fr21_37,fr21_e1).
body(r_fr21_37,fr21_f2).
body(r_fr21_37,fr4_q2).
body(r_fr21_37,fr21_q1).
body(r_fr21_37,fr21_r3).
body(r_fr21_37,fr21_t1).
body(r_fr21_37,fr21_t3).
body(r_fr21_37,fr21_u1).
body(r_fr21_37,fr21_v2).
body(r_fr21_37,fr21_v3).
body(r_fr21_37,fr13_p3).
body(r_fr21_37,fr12_v1).
head(r_fr21_38,fr21_u3).
body(r_fr21_38,fr21_b2).
body(r_fr21_38,fr21_b3).
body(r_fr21_38,fr21_e2).
body(r_fr21_38,fr21_p3).
body(r_fr21_38,fr23_z1).
body(r_fr21_38,fr21_q4).
body(r_fr21_38,fr21_r1).
body(r_fr21_38,fr21_s2).
body(r_fr21_38,fr21_u2).
body(r_fr21_38,fr21_v1).
body(r_fr21_38,fr21_v2).
body(r_fr21_38,fr21_w3).
body(r_fr21_38,fr21_x2).
body(r_fr21_38,fr6_y1).
body(r_fr21_38,fr21_z3).
head(r_fr21_39,fr21_q4).
body(r_fr21_39,fr21_c1).
body(r_fr21_39,fr12_e2).
body(r_fr21_39,fr21_e1).
body(r_fr21_39,fr21_e2).
body(r_fr21_39,fr17_t4).
body(r_fr21_39,fr21_r3).
body(r_fr21_39,fr8_w3).
body(r_fr21_39,fr21_t1).
body(r_fr21_39,fr21_u2).
body(r_fr21_39,fr21_v3).
body(r_fr21_39,fr21_w1).
body(r_fr21_39,fr4_u2).
body(r_fr21_39,fr21_z3).
head(r_fr21_40,fr21_q4).
body(r_fr21_40,fr21_b1).
body(r_fr21_40,fr21_c1).
body(r_fr21_40,fr12_e2).
body(r_fr21_40,fr21_e1).
body(r_fr21_40,fr21_p3).
body(r_fr21_40,fr21_q1).
body(r_fr21_40,fr23_z1).
body(r_fr21_40,fr21_s2).
body(r_fr21_40,fr8_q4).
body(r_fr21_40,fr21_t2).
body(r_fr21_40,fr21_t3).
body(r_fr21_40,fr21_v3).
body(r_fr21_40,fr21_w1).
body(r_fr21_40,fr6_y1).
body(r_fr21_40,fr21_z3).
head(r_fr21_41,fr21_q4).
body(r_fr21_41,fr21_b3).
body(r_fr21_41,fr21_q2).
body(r_fr21_41,fr23_z1).
body(r_fr21_41,fr21_r1).
body(r_fr21_41,fr8_w3).
body(r_fr21_41,fr21_v1).
body(r_fr21_41,fr21_v2).
body(r_fr21_41,fr21_v3).
body(r_fr21_41,fr4_u2).
body(r_fr21_41,fr13_p3).
body(r_fr21_41,fr21_x2).
body(r_fr21_41,fr21_x3).
body(r_fr21_41,fr21_y1).
body(r_fr21_41,fr21_y2).
body(r_fr21_41,fr21_z3).
head(r_fr21_42,fr21_q4).
body(r_fr21_42,fr21_a2).
body(r_fr21_42,fr21_b1).
body(r_fr21_42,fr21_c1).
body(r_fr21_42,fr21_c2).
body(r_fr21_42,fr12_e2).
body(r_fr21_42,fr21_f1).
body(r_fr21_42,fr17_t4).
body(r_fr21_42,fr21_r2).
body(r_fr21_42,fr21_t1).
body(r_fr21_42,fr21_t2).
body(r_fr21_42,fr21_v3).
body(r_fr21_42,fr21_w3).
body(r_fr21_42,fr21_y1).
body(r_fr21_42,fr21_z3).
head(r_fr21_43,fr21_y1).
body(r_fr21_43,fr21_c2).
body(r_fr21_43,fr16_e4).
body(r_fr21_43,fr21_d1).
body(r_fr21_43,fr12_e2).
body(r_fr21_43,fr17_t4).
body(r_fr21_43,fr21_p3).
body(r_fr21_43,fr23_z1).
body(r_fr21_43,fr21_s2).
body(r_fr21_43,fr21_u2).
body(r_fr21_43,fr21_v2).
body(r_fr21_43,fr21_w1).
body(r_fr21_43,fr21_w3).
body(r_fr21_43,fr21_x3).
body(r_fr21_43,fr21_y2).
body(r_fr21_43,fr6_y1).
head(r_fr21_44,fr21_y1).
body(r_fr21_44,fr21_b1).
body(r_fr21_44,fr21_b3).
body(r_fr21_44,fr21_c1).
body(r_fr21_44,fr21_c2).
body(r_fr21_44,fr21_d1).
body(r_fr21_44,fr21_p3).
body(r_fr21_44,fr21_p4).
body(r_fr21_44,fr23_z1).
body(r_fr21_44,fr21_t2).
body(r_fr21_44,fr21_t3).
body(r_fr21_44,fr21_u1).
body(r_fr21_44,fr21_u3).
body(r_fr21_44,fr4_u2).
body(r_fr21_44,fr13_p3).
head(r_fr21_45,fr21_w3).
body(r_fr21_45,fr21_c1).
body(r_fr21_45,fr21_d1).
body(r_fr21_45,fr21_e1).
body(r_fr21_45,fr4_q2).
body(r_fr21_45,fr21_p3).
body(r_fr21_45,fr21_p4).
body(r_fr21_45,fr21_u1).
body(r_fr21_45,fr21_v1).
body(r_fr21_45,fr4_u2).
body(r_fr21_45,fr21_x3).
body(r_fr21_45,fr21_y2).
body(r_fr21_45,fr12_v1).
head(r_fr21_46,fr21_w3).
body(r_fr21_46,fr21_a2).
body(r_fr21_46,fr21_b1).
body(r_fr21_46,fr21_b2).
body(r_fr21_46,fr12_e2).
body(r_fr21_46,fr21_e2).
body(r_fr21_46,fr21_f2).
body(r_fr21_46,fr21_p3).
body(r_fr21_46,fr21_p4).
body(r_fr21_46,fr23_z1).
body(r_fr21_46,fr21_r1).
body(r_fr21_46,fr21_t1).
body(r_fr21_46,fr21_t3).
body(r_fr21_46,fr21_v2).
head(r_fr21_47,fr21_w3).
body(r_fr21_47,fr21_p3).
body(r_fr21_47,fr21_q1).
body(r_fr21_47,fr21_q2).
body(r_fr21_47,fr21_s2).
body(r_fr21_47,fr21_u1).
body(r_fr21_47,fr21_u3).
body(r_fr21_47,fr21_v1).
body(r_fr21_47,fr21_v2).
body(r_fr21_47,fr21_x2).
body(r_fr21_47,fr21_y2).
body(r_fr21_47,fr6_y1).
body(r_fr21_47,fr12_v1).
head(r_fr21_48,fr21_x2).
body(r_fr21_48,fr21_p3).
body(r_fr21_48,fr21_p4).
body(r_fr21_48,fr21_q2).
body(r_fr21_48,fr21_s2).
body(r_fr21_48,fr8_q4).
body(r_fr21_48,fr21_t1).
body(r_fr21_48,fr21_t2).
body(r_fr21_48,fr21_u1).
body(r_fr21_48,fr21_u2).
body(r_fr21_48,fr21_v2).
body(r_fr21_48,fr21_v3).
body(r_fr21_48,fr21_y2).
head(r_fr21_49,fr21_x2).
body(r_fr21_49,fr21_a1).
body(r_fr21_49,fr21_a2).
body(r_fr21_49,fr21_b2).
body(r_fr21_49,fr21_b3).
body(r_fr21_49,fr21_c2).
body(r_fr21_49,fr21_q1).
body(r_fr21_49,fr21_r1).
body(r_fr21_49,fr21_t2).
body(r_fr21_49,fr4_u2).
body(r_fr21_49,fr21_w3).
body(r_fr21_49,fr21_y2).
body(r_fr21_49,fr6_y1).
body(r_fr21_49,fr12_v1).
head(r_fr21_50,fr21_x2).
body(r_fr21_50,fr21_a2).
body(r_fr21_50,fr21_b1).
body(r_fr21_50,fr21_e1).
body(r_fr21_50,fr21_e2).
body(r_fr21_50,fr17_t4).
body(r_fr21_50,fr21_p3).
body(r_fr21_50,fr8_w3).
body(r_fr21_50,fr21_u1).
body(r_fr21_50,fr21_u2).
body(r_fr21_50,fr21_u3).
body(r_fr21_50,fr21_v2).
body(r_fr21_50,fr13_p3).
body(r_fr21_50,fr21_x3).
body(r_fr21_50,fr21_y2).
head(r_fr21_51,fr6_y1).
body(r_fr21_51,fr21_b1).
body(r_fr21_51,fr17_t4).
body(r_fr21_51,fr4_q2).
body(r_fr21_51,fr8_w3).
body(r_fr21_51,fr8_q4).
body(r_fr21_51,fr21_t2).
body(r_fr21_51,fr21_u1).
body(r_fr21_51,fr21_u2).
body(r_fr21_51,fr21_v1).
body(r_fr21_51,fr13_p3).
body(r_fr21_51,fr21_x3).
body(r_fr21_51,fr21_y2).
body(r_fr21_51,fr21_z1).
head(r_fr21_52,fr6_y1).
body(r_fr21_52,fr21_d1).
body(r_fr21_52,fr12_e2).
body(r_fr21_52,fr21_p4).
body(r_fr21_52,fr21_q2).
body(r_fr21_52,fr21_r1).
body(r_fr21_52,fr21_t1).
body(r_fr21_52,fr21_u1).
body(r_fr21_52,fr21_w3).
body(r_fr21_52,fr21_x2).
body(r_fr21_52,fr21_y1).
body(r_fr21_52,fr21_y2).
body(r_fr21_52,fr21_z1).
body(r_fr21_52,fr21_z3).
head(r_fr21_53,fr6_y1).
body(r_fr21_53,fr17_t4).
body(r_fr21_53,fr21_p4).
body(r_fr21_53,fr21_q2).
body(r_fr21_53,fr23_z1).
body(r_fr21_53,fr21_r1).
body(r_fr21_53,fr21_t1).
body(r_fr21_53,fr21_u1).
body(r_fr21_53,fr21_v2).
body(r_fr21_53,fr21_v3).
body(r_fr21_53,fr13_p3).
body(r_fr21_53,fr21_x2).
body(r_fr21_53,fr21_y2).
body(r_fr21_53,fr21_z3).
head(r_fr21_54,fr6_y1).
body(r_fr21_54,fr21_a2).
body(r_fr21_54,fr21_a3).
body(r_fr21_54,fr21_b3).
body(r_fr21_54,fr21_e2).
body(r_fr21_54,fr21_f1).
body(r_fr21_54,fr21_p4).
body(r_fr21_54,fr21_q2).
body(r_fr21_54,fr23_z1).
body(r_fr21_54,fr21_t2).
body(r_fr21_54,fr21_u1).
body(r_fr21_54,fr21_v1).
body(r_fr21_54,fr13_p3).
body(r_fr21_54,fr21_x3).
head(r_fr21_55,fr12_v1).
body(r_fr21_55,fr21_a2).
body(r_fr21_55,fr21_a3).
body(r_fr21_55,fr21_b2).
body(r_fr21_55,fr21_d1).
body(r_fr21_55,fr21_e2).
body(r_fr21_55,fr21_f2).
body(r_fr21_55,fr21_p3).
body(r_fr21_55,fr21_q1).
body(r_fr21_55,fr21_r1).
body(r_fr21_55,fr8_w3).
body(r_fr21_55,fr21_u1).
body(r_fr21_55,fr21_u2).
body(r_fr21_55,fr21_u3).
body(r_fr21_55,fr4_u2).
body(r_fr21_55,fr21_x3).
head(r_fr21_56,fr12_v1).
body(r_fr21_56,fr17_t4).
body(r_fr21_56,fr21_p4).
body(r_fr21_56,fr21_q1).
body(r_fr21_56,fr21_r1).
body(r_fr21_56,fr8_w3).
body(r_fr21_56,fr21_t1).
body(r_fr21_56,fr21_u1).
body(r_fr21_56,fr21_v3).
body(r_fr21_56,fr21_w1).
body(r_fr21_56,fr13_p3).
body(r_fr21_56,fr21_x2).
body(r_fr21_56,fr21_y2).
body(r_fr21_56,fr21_z1).
head(r_fr21_57,fr12_v1).
body(r_fr21_57,fr21_b2).
body(r_fr21_57,fr21_b3).
body(r_fr21_57,fr16_e4).
body(r_fr21_57,fr21_d1).
body(r_fr21_57,fr21_f1).
body(r_fr21_57,fr21_q1).
body(r_fr21_57,fr21_r2).
body(r_fr21_57,fr21_r3).
body(r_fr21_57,fr21_t3).
body(r_fr21_57,fr21_v3).
body(r_fr21_57,fr6_y1).
body(r_fr21_57,fr21_z3).
head(r_fr21_58,fr12_v1).
body(r_fr21_58,fr21_b1).
body(r_fr21_58,fr21_b2).
body(r_fr21_58,fr21_c1).
body(r_fr21_58,fr17_t4).
body(r_fr21_58,fr21_p4).
body(r_fr21_58,fr21_r1).
body(r_fr21_58,fr8_w3).
body(r_fr21_58,fr21_t3).
body(r_fr21_58,fr21_u1).
body(r_fr21_58,fr21_v2).
body(r_fr21_58,fr21_y2).
body(r_fr21_58,fr6_y1).
body(r_fr21_58,fr21_z1).
head(r_fr21_59,fr21_w1).
body(r_fr21_59,fr21_a3).
body(r_fr21_59,fr21_b1).
body(r_fr21_59,fr21_b2).
body(r_fr21_59,fr21_b3).
body(r_fr21_59,fr12_e2).
body(r_fr21_59,fr21_e1).
body(r_fr21_59,fr21_p4).
body(r_fr21_59,fr21_r2).
body(r_fr21_59,fr21_r3).
body(r_fr21_59,fr8_w3).
body(r_fr21_59,fr21_u1).
body(r_fr21_59,fr21_u3).
body(r_fr21_59,fr21_v3).
body(r_fr21_59,fr6_y1).
body(r_fr21_59,fr21_z1).
head(r_fr21_60,fr21_w1).
body(r_fr21_60,fr21_b2).
body(r_fr21_60,fr21_b3).
body(r_fr21_60,fr21_c2).
body(r_fr21_60,fr21_e1).
body(r_fr21_60,fr21_p4).
body(r_fr21_60,fr23_z1).
body(r_fr21_60,fr21_s2).
body(r_fr21_60,fr8_q4).
body(r_fr21_60,fr21_t3).
body(r_fr21_60,fr21_u3).
body(r_fr21_60,fr21_v1).
body(r_fr21_60,fr21_x3).
body(r_fr21_60,fr21_z1).
head(r_fr21_61,fr8_w3).
body(r_fr21_61,fr21_b3).
body(r_fr21_61,fr21_c1).
body(r_fr21_61,fr21_c2).
body(r_fr21_61,fr21_p3).
body(r_fr21_61,fr21_q1).
body(r_fr21_61,fr21_r1).
body(r_fr21_61,fr21_r3).
body(r_fr21_61,fr21_t1).
body(r_fr21_61,fr21_u1).
body(r_fr21_61,fr21_v1).
body(r_fr21_61,fr21_v3).
body(r_fr21_61,fr4_u2).
body(r_fr21_61,fr13_p3).
body(r_fr21_61,fr21_y2).
body(r_fr21_61,fr6_y1).
head(r_fr21_62,fr8_w3).
body(r_fr21_62,fr21_a1).
body(r_fr21_62,fr21_a2).
body(r_fr21_62,fr16_e4).
body(r_fr21_62,fr21_d1).
body(r_fr21_62,fr21_e1).
body(r_fr21_62,fr21_r1).
body(r_fr21_62,fr21_r3).
body(r_fr21_62,fr8_q4).
body(r_fr21_62,fr21_t2).
body(r_fr21_62,fr21_t3).
body(r_fr21_62,fr21_u2).
body(r_fr21_62,fr13_p3).
body(r_fr21_62,fr21_z1).
head(r_fr21_63,fr8_w3).
body(r_fr21_63,fr21_a1).
body(r_fr21_63,fr21_a3).
body(r_fr21_63,fr21_d1).
body(r_fr21_63,fr21_e1).
body(r_fr21_63,fr21_e2).
body(r_fr21_63,fr21_f1).
body(r_fr21_63,fr17_t4).
body(r_fr21_63,fr21_q2).
body(r_fr21_63,fr21_t2).
body(r_fr21_63,fr21_u1).
body(r_fr21_63,fr21_u2).
body(r_fr21_63,fr21_v1).
body(r_fr21_63,fr12_v1).
head(r_fr21_64,fr8_w3).
body(r_fr21_64,fr21_b3).
body(r_fr21_64,fr21_q2).
body(r_fr21_64,fr21_s2).
body(r_fr21_64,fr21_t1).
body(r_fr21_64,fr21_t2).
body(r_fr21_64,fr21_t3).
body(r_fr21_64,fr21_v1).
body(r_fr21_64,fr21_v2).
body(r_fr21_64,fr21_v3).
body(r_fr21_64,fr21_w3).
body(r_fr21_64,fr13_p3).
body(r_fr21_64,fr21_y1).
head(r_fr21_65,fr8_w3).
body(r_fr21_65,fr21_a2).
body(r_fr21_65,fr21_d1).
body(r_fr21_65,fr21_e1).
body(r_fr21_65,fr21_f2).
body(r_fr21_65,fr21_q1).
body(r_fr21_65,fr21_q2).
body(r_fr21_65,fr21_r1).
body(r_fr21_65,fr21_r2).
body(r_fr21_65,fr21_t1).
body(r_fr21_65,fr21_u1).
body(r_fr21_65,fr21_u2).
body(r_fr21_65,fr21_w3).
body(r_fr21_65,fr21_x2).
body(r_fr21_65,fr21_x3).
head(r_fr21_66,fr21_u1).
body(r_fr21_66,fr21_a1).
body(r_fr21_66,fr21_b1).
body(r_fr21_66,fr16_e4).
body(r_fr21_66,fr21_d1).
body(r_fr21_66,fr21_f2).
body(r_fr21_66,fr21_q1).
body(r_fr21_66,fr23_z1).
body(r_fr21_66,fr21_s2).
body(r_fr21_66,fr8_q4).
body(r_fr21_66,fr21_t1).
body(r_fr21_66,fr13_p3).
body(r_fr21_66,fr21_x3).
body(r_fr21_66,fr21_y2).
body(r_fr21_66,fr21_z1).
body(r_fr21_66,fr21_z3).
head(r_fr21_67,fr21_u1).
body(r_fr21_67,fr21_a3).
body(r_fr21_67,fr21_c1).
body(r_fr21_67,fr21_d1).
body(r_fr21_67,fr21_e2).
body(r_fr21_67,fr21_p4).
body(r_fr21_67,fr21_q1).
body(r_fr21_67,fr23_z1).
body(r_fr21_67,fr21_r1).
body(r_fr21_67,fr8_w3).
body(r_fr21_67,fr21_t3).
body(r_fr21_67,fr21_u2).
body(r_fr21_67,fr21_v3).
body(r_fr21_67,fr21_x3).
body(r_fr21_67,fr21_y1).
head(r_fr21_68,fr21_u1).
body(r_fr21_68,fr21_c2).
body(r_fr21_68,fr17_t4).
body(r_fr21_68,fr21_p4).
body(r_fr21_68,fr21_q4).
body(r_fr21_68,fr8_q4).
body(r_fr21_68,fr21_t3).
body(r_fr21_68,fr21_u3).
body(r_fr21_68,fr21_v3).
body(r_fr21_68,fr21_w1).
body(r_fr21_68,fr13_p3).
body(r_fr21_68,fr21_y1).
body(r_fr21_68,fr21_y2).
body(r_fr21_68,fr6_y1).
head(r_fr21_69,fr21_u1).
body(r_fr21_69,fr21_b2).
body(r_fr21_69,fr21_q1).
body(r_fr21_69,fr21_q2).
body(r_fr21_69,fr21_q4).
body(r_fr21_69,fr21_r1).
body(r_fr21_69,fr8_w3).
body(r_fr21_69,fr21_t3).
body(r_fr21_69,fr21_u2).
body(r_fr21_69,fr21_v1).
body(r_fr21_69,fr21_w3).
body(r_fr21_69,fr13_p3).
body(r_fr21_69,fr21_y2).
body(r_fr21_69,fr21_z1).
body(r_fr21_69,fr12_v1).
head(r_fr21_70,fr21_u1).
body(r_fr21_70,fr17_t4).
body(r_fr21_70,fr21_q1).
body(r_fr21_70,fr21_q4).
body(r_fr21_70,fr21_r2).
body(r_fr21_70,fr8_w3).
body(r_fr21_70,fr21_s2).
body(r_fr21_70,fr21_t3).
body(r_fr21_70,fr21_u3).
body(r_fr21_70,fr21_v2).
body(r_fr21_70,fr21_w3).
body(r_fr21_70,fr13_p3).
body(r_fr21_70,fr6_y1).
body(r_fr21_70,fr12_v1).

assumption(fr22_a1).
assumption(fr22_b1).
assumption(fr12_e2).
assumption(fr22_d1).
assumption(fr22_e1).
assumption(fr4_b1).
contrary(fr22_a1,fr22_v1).
contrary(fr22_b1,fr22_e1).
contrary(fr12_e2,fr12_w2).
contrary(fr22_d1,fr22_u1).
contrary(fr22_e1,fr12_w2).
contrary(fr4_b1,fr22_s1).
head(r_fr22_0,fr22_r1).
body(r_fr22_0,fr22_e1).
head(r_fr22_1,fr22_r1).
body(r_fr22_1,fr22_d1).
head(r_fr22_2,fr22_x1).
body(r_fr22_2,fr12_e2).
body(r_fr22_2,fr22_q1).
head(r_fr22_3,fr22_x1).
head(r_fr22_4,fr22_q1).
body(r_fr22_4,fr12_w2).
body(r_fr22_4,fr22_y1).
head(r_fr22_5,fr22_q1).
head(r_fr22_6,fr12_w2).
body(r_fr22_6,fr22_b1).
body(r_fr22_6,fr12_e2).
head(r_fr22_7,fr12_w2).
body(r_fr22_7,fr4_b1).
head(r_fr22_8,fr22_u1).
head(r_fr22_9,fr22_u1).
body(r_fr22_9,fr4_b1).
head(r_fr22_10,fr22_s1).
body(r_fr22_10,fr22_v1).
head(r_fr22_11,fr22_s1).
head(r_fr22_12,fr22_y1).
head(r_fr22_13,fr22_y1).
body(r_fr22_13,fr22_b1).
body(r_fr22_13,fr12_e2).
head(r_fr22_14,fr22_p1).
body(r_fr22_14,fr22_t1).
body(r_fr22_14,fr22_v1).
head(r_fr22_15,fr22_p1).

assumption(fr23_a1).
assumption(fr23_b1).
assumption(fr23_c1).
assumption(fr23_d1).
assumption(fr23_e1).
assumption(fr23_f1).
assumption(fr23_a2).
assumption(fr23_b2).
assumption(fr23_c2).
assumption(fr23_d2).
assumption(fr23_e2).
assumption(fr23_f2).
assumption(fr23_a3).
assumption(fr23_b3).
assumption(fr23_c3).
contrary(fr23_a1,fr23_r3).
contrary(fr23_a2,fr23_r3).
contrary(fr23_a3,fr23_v1).
contrary(fr23_b1,fr23_w3).
contrary(fr23_b2,fr23_w1).
contrary(fr23_b3,fr23_x2).
contrary(fr23_c1,fr23_p4).
contrary(fr23_c2,fr23_p2).
contrary(fr23_c3,fr23_a3).
contrary(fr23_d1,fr23_s2).
contrary(fr23_d2,fr23_c3).
contrary(fr23_e1,fr19_z1).
contrary(fr23_e2,fr23_s2).
contrary(fr23_f1,fr23_c3).
contrary(fr23_f2,fr23_w1).
head(r_fr23_0,fr23_r2).
body(r_fr23_0,fr23_d1).
body(r_fr23_0,fr23_f1).
body(r_fr23_0,fr23_p1).
body(r_fr23_0,fr23_p2).
body(r_fr23_0,fr23_q3).
body(r_fr23_0,fr23_r1).
body(r_fr23_0,fr23_s1).
body(r_fr23_0,fr23_s2).
body(r_fr23_0,fr23_s3).
body(r_fr23_0,fr23_t3).
body(r_fr23_0,fr5_t3).
body(r_fr23_0,fr22_q1).
body(r_fr23_0,fr23_w1).
body(r_fr23_0,fr23_x2).
body(r_fr23_0,fr23_y1).
body(r_fr23_0,fr23_y3).
body(r_fr23_0,fr23_z1).
head(r_fr23_1,fr23_r2).
body(r_fr23_1,fr23_a3).
body(r_fr23_1,fr23_d1).
body(r_fr23_1,fr23_e2).
body(r_fr23_1,fr23_f2).
body(r_fr23_1,fr23_p1).
body(r_fr23_1,fr23_q1).
body(r_fr23_1,fr23_r3).
body(r_fr23_1,fr23_s1).
body(r_fr23_1,fr23_s2).
body(r_fr23_1,fr23_t3).
body(r_fr23_1,fr22_q1).
body(r_fr23_1,fr23_v3).
body(r_fr23_1,fr23_w3).
body(r_fr23_1,fr23_x2).
body(r_fr23_1,fr23_y1).
body(r_fr23_1,fr23_y2).
body(r_fr23_1,fr23_z3).
head(r_fr23_2,fr23_r2).
body(r_fr23_2,fr23_b1).
body(r_fr23_2,fr23_p1).
body(r_fr23_2,fr23_p2).
body(r_fr23_2,fr23_p3).
body(r_fr23_2,fr23_p4).
body(r_fr23_2,fr23_q2).
body(r_fr23_2,fr23_q3).
body(r_fr23_2,fr23_r1).
body(r_fr23_2,fr23_s2).
body(r_fr23_2,fr23_t1).
body(r_fr23_2,fr23_t2).
body(r_fr23_2,fr5_t3).
body(r_fr23_2,fr23_v3).
body(r_fr23_2,fr23_x3).
body(r_fr23_2,fr23_y1).
body(r_fr23_2,fr23_y2).
body(r_fr23_2,fr23_z1).
head(r_fr23_3,fr23_r2).
body(r_fr23_3,fr23_p1).
body(r_fr23_3,fr23_q1).
body(r_fr23_3,fr25_v2).
body(r_fr23_3,fr23_s2).
body(r_fr23_3,fr23_t1).
body(r_fr23_3,fr22_q1).
body(r_fr23_3,fr23_v1).
body(r_fr23_3,fr23_v2).
body(r_fr23_3,fr23_w1).
body(r_fr23_3,fr23_w2).
body(r_fr23_3,fr23_w3).
body(r_fr23_3,fr23_x2).
body(r_fr23_3,fr23_x3).
body(r_fr23_3,fr23_y1).
body(r_fr23_3,fr23_y3).
body(r_fr23_3,fr23_z1).
head(r_fr23_4,fr23_r2).
body(r_fr23_4,fr23_a2).
body(r_fr23_4,fr23_c1).
body(r_fr23_4,fr23_c3).
body(r_fr23_4,fr23_d2).
body(r_fr23_4,fr23_f1).
body(r_fr23_4,fr23_p4).
body(r_fr23_4,fr23_q1).
body(r_fr23_4,fr23_q2).
body(r_fr23_4,fr23_q3).
body(r_fr23_4,fr23_t2).
body(r_fr23_4,fr23_u1).
body(r_fr23_4,fr23_v1).
body(r_fr23_4,fr23_w3).
body(r_fr23_4,fr23_x1).
body(r_fr23_4,fr23_y2).
body(r_fr23_4,fr23_y3).
body(r_fr23_4,fr23_z1).
head(r_fr23_5,fr23_r3).
body(r_fr23_5,fr23_b1).
body(r_fr23_5,fr23_p1).
body(r_fr23_5,fr23_p4).
body(r_fr23_5,fr23_q1).
body(r_fr23_5,fr23_q2).
body(r_fr23_5,fr23_r2).
body(r_fr23_5,fr23_s3).
body(r_fr23_5,fr23_t3).
body(r_fr23_5,fr23_u1).
body(r_fr23_5,fr23_v2).
body(r_fr23_5,fr23_w1).
body(r_fr23_5,fr23_w2).
body(r_fr23_5,fr23_y1).
body(r_fr23_5,fr23_y2).
body(r_fr23_5,fr23_y3).
head(r_fr23_6,fr23_r3).
body(r_fr23_6,fr23_c1).
body(r_fr23_6,fr23_c3).
body(r_fr23_6,fr23_d1).
body(r_fr23_6,fr23_d2).
body(r_fr23_6,fr23_e1).
body(r_fr23_6,fr23_f2).
body(r_fr23_6,fr23_p2).
body(r_fr23_6,fr23_q3).
body(r_fr23_6,fr25_v2).
body(r_fr23_6,fr23_s1).
body(r_fr23_6,fr23_s2).
body(r_fr23_6,fr23_s3).
body(r_fr23_6,fr22_q1).
body(r_fr23_6,fr23_v1).
body(r_fr23_6,fr23_v3).
body(r_fr23_6,fr23_w1).
body(r_fr23_6,fr23_y1).
head(r_fr23_7,fr23_r3).
body(r_fr23_7,fr23_a2).
body(r_fr23_7,fr23_d1).
body(r_fr23_7,fr23_d2).
body(r_fr23_7,fr23_e2).
body(r_fr23_7,fr23_f1).
body(r_fr23_7,fr23_p1).
body(r_fr23_7,fr23_p3).
body(r_fr23_7,fr23_q1).
body(r_fr23_7,fr23_q2).
body(r_fr23_7,fr23_q3).
body(r_fr23_7,fr25_v2).
body(r_fr23_7,fr23_s2).
body(r_fr23_7,fr23_u1).
body(r_fr23_7,fr22_q1).
body(r_fr23_7,fr23_w2).
body(r_fr23_7,fr23_w3).
body(r_fr23_7,fr23_y3).
body(r_fr23_7,fr19_z1).
head(r_fr23_8,fr23_v1).
body(r_fr23_8,fr23_a3).
body(r_fr23_8,fr23_b2).
body(r_fr23_8,fr23_b3).
body(r_fr23_8,fr23_c1).
body(r_fr23_8,fr23_c3).
body(r_fr23_8,fr23_d2).
body(r_fr23_8,fr23_r2).
body(r_fr23_8,fr23_r3).
body(r_fr23_8,fr23_s1).
body(r_fr23_8,fr23_s2).
body(r_fr23_8,fr23_s3).
body(r_fr23_8,fr23_t1).
body(r_fr23_8,fr5_t3).
body(r_fr23_8,fr23_w3).
body(r_fr23_8,fr23_x1).
body(r_fr23_8,fr23_x2).
head(r_fr23_9,fr23_v1).
body(r_fr23_9,fr23_a3).
body(r_fr23_9,fr23_c1).
body(r_fr23_9,fr23_d1).
body(r_fr23_9,fr23_d2).
body(r_fr23_9,fr23_e1).
body(r_fr23_9,fr23_f1).
body(r_fr23_9,fr23_p2).
body(r_fr23_9,fr25_v2).
body(r_fr23_9,fr23_r2).
body(r_fr23_9,fr23_t1).
body(r_fr23_9,fr23_t3).
body(r_fr23_9,fr23_w1).
body(r_fr23_9,fr23_w2).
body(r_fr23_9,fr23_x1).
body(r_fr23_9,fr23_x2).
body(r_fr23_9,fr23_y2).
body(r_fr23_9,fr23_z3).
head(r_fr23_10,fr23_v1).
body(r_fr23_10,fr23_a2).
body(r_fr23_10,fr23_b3).
body(r_fr23_10,fr23_c3).
body(r_fr23_10,fr23_p3).
body(r_fr23_10,fr23_p4).
body(r_fr23_10,fr23_r1).
body(r_fr23_10,fr23_r3).
body(r_fr23_10,fr23_t1).
body(r_fr23_10,fr23_t3).
body(r_fr23_10,fr22_q1).
body(r_fr23_10,fr23_w1).
body(r_fr23_10,fr23_w3).
body(r_fr23_10,fr23_x3).
body(r_fr23_10,fr23_y1).
body(r_fr23_10,fr23_y2).
head(r_fr23_11,fr23_v1).
body(r_fr23_11,fr23_p3).
body(r_fr23_11,fr23_p4).
body(r_fr23_11,fr23_q2).
body(r_fr23_11,fr23_q3).
body(r_fr23_11,fr23_r3).
body(r_fr23_11,fr23_s1).
body(r_fr23_11,fr23_s2).
body(r_fr23_11,fr23_t2).
body(r_fr23_11,fr23_t3).
body(r_fr23_11,fr5_t3).
body(r_fr23_11,fr22_q1).
body(r_fr23_11,fr23_v3).
body(r_fr23_11,fr23_w3).
body(r_fr23_11,fr23_y1).
body(r_fr23_11,fr23_y3).
head(r_fr23_12,fr23_v1).
body(r_fr23_12,fr23_a3).
body(r_fr23_12,fr23_b2).
body(r_fr23_12,fr23_d1).
body(r_fr23_12,fr23_e1).
body(r_fr23_12,fr23_p2).
body(r_fr23_12,fr23_p3).
body(r_fr23_12,fr23_p4).
body(r_fr23_12,fr25_v2).
body(r_fr23_12,fr23_s2).
body(r_fr23_12,fr23_u1).
body(r_fr23_12,fr22_q1).
body(r_fr23_12,fr23_v2).
body(r_fr23_12,fr23_w1).
body(r_fr23_12,fr23_y1).
body(r_fr23_12,fr23_z1).
head(r_fr23_13,fr23_z1).
body(r_fr23_13,fr23_a2).
body(r_fr23_13,fr23_b3).
body(r_fr23_13,fr23_c1).
body(r_fr23_13,fr23_d1).
body(r_fr23_13,fr23_e1).
body(r_fr23_13,fr23_p2).
body(r_fr23_13,fr23_p4).
body(r_fr23_13,fr23_q1).
body(r_fr23_13,fr23_r2).
body(r_fr23_13,fr23_r3).
body(r_fr23_13,fr23_s2).
body(r_fr23_13,fr23_w1).
body(r_fr23_13,fr23_w3).
body(r_fr23_13,fr23_x1).
body(r_fr23_13,fr23_x2).
body(r_fr23_13,fr23_x3).
body(r_fr23_13,fr23_y2).
head(r_fr23_14,fr23_z1).
body(r_fr23_14,fr23_a3).
body(r_fr23_14,fr23_b1).
body(r_fr23_14,fr23_c1).
body(r_fr23_14,fr23_c2).
body(r_fr23_14,fr23_c3).
body(r_fr23_14,fr23_q2).
body(r_fr23_14,fr23_s1).
body(r_fr23_14,fr23_t1).
body(r_fr23_14,fr23_t2).
body(r_fr23_14,fr22_q1).
body(r_fr23_14,fr23_v2).
body(r_fr23_14,fr23_w2).
body(r_fr23_14,fr23_x1).
body(r_fr23_14,fr23_x2).
body(r_fr23_14,fr23_y3).
body(r_fr23_14,fr23_z3).
head(r_fr23_15,fr5_t3).
body(r_fr23_15,fr23_a2).
body(r_fr23_15,fr23_b2).
body(r_fr23_15,fr23_d1).
body(r_fr23_15,fr23_f1).
body(r_fr23_15,fr23_f2).
body(r_fr23_15,fr23_p1).
body(r_fr23_15,fr23_s1).
body(r_fr23_15,fr23_s2).
body(r_fr23_15,fr23_s3).
body(r_fr23_15,fr23_t1).
body(r_fr23_15,fr23_u1).
body(r_fr23_15,fr23_v1).
body(r_fr23_15,fr23_w1).
body(r_fr23_15,fr23_w2).
body(r_fr23_15,fr23_x1).
body(r_fr23_15,fr23_x3).
head(r_fr23_16,fr5_t3).
body(r_fr23_16,fr23_b1).
body(r_fr23_16,fr23_e1).
body(r_fr23_16,fr23_p1).
body(r_fr23_16,fr23_p3).
body(r_fr23_16,fr23_p4).
body(r_fr23_16,fr23_q3).
body(r_fr23_16,fr23_r3).
body(r_fr23_16,fr23_s1).
body(r_fr23_16,fr23_t1).
body(r_fr23_16,fr23_v1).
body(r_fr23_16,fr23_w1).
body(r_fr23_16,fr23_w2).
body(r_fr23_16,fr23_x1).
body(r_fr23_16,fr23_x2).
body(r_fr23_16,fr23_x3).
body(r_fr23_16,fr23_y1).
body(r_fr23_16,fr23_y3).
head(r_fr23_17,fr5_t3).
body(r_fr23_17,fr23_d1).
body(r_fr23_17,fr23_e1).
body(r_fr23_17,fr23_e2).
body(r_fr23_17,fr23_f1).
body(r_fr23_17,fr23_p4).
body(r_fr23_17,fr23_q2).
body(r_fr23_17,fr25_v2).
body(r_fr23_17,fr23_r1).
body(r_fr23_17,fr23_r2).
body(r_fr23_17,fr23_s2).
body(r_fr23_17,fr23_t1).
body(r_fr23_17,fr23_t3).
body(r_fr23_17,fr23_u1).
body(r_fr23_17,fr23_x1).
body(r_fr23_17,fr23_x2).
body(r_fr23_17,fr23_y1).
body(r_fr23_17,fr23_y3).
body(r_fr23_17,fr19_z1).
head(r_fr23_18,fr5_t3).
body(r_fr23_18,fr23_c2).
body(r_fr23_18,fr23_p3).
body(r_fr23_18,fr23_s1).
body(r_fr23_18,fr23_s2).
body(r_fr23_18,fr23_s3).
body(r_fr23_18,fr23_t2).
body(r_fr23_18,fr23_t3).
body(r_fr23_18,fr22_q1).
body(r_fr23_18,fr23_v1).
body(r_fr23_18,fr23_v3).
body(r_fr23_18,fr23_w1).
body(r_fr23_18,fr23_y1).
body(r_fr23_18,fr23_y2).
body(r_fr23_18,fr19_z1).
body(r_fr23_18,fr23_z3).
head(r_fr23_19,fr5_t3).
body(r_fr23_19,fr23_a1).
body(r_fr23_19,fr23_e1).
body(r_fr23_19,fr23_p1).
body(r_fr23_19,fr23_p2).
body(r_fr23_19,fr23_p3).
body(r_fr23_19,fr23_p4).
body(r_fr23_19,fr23_q2).
body(r_fr23_19,fr23_s2).
body(r_fr23_19,fr23_s3).
body(r_fr23_19,fr23_t1).
body(r_fr23_19,fr23_u1).
body(r_fr23_19,fr23_v3).
body(r_fr23_19,fr23_w3).
body(r_fr23_19,fr23_x1).
body(r_fr23_19,fr23_x2).
body(r_fr23_19,fr23_y1).
body(r_fr23_19,fr19_z1).
body(r_fr23_19,fr23_z3).
head(r_fr23_20,fr23_q2).
body(r_fr23_20,fr23_a1).
body(r_fr23_20,fr23_a2).
body(r_fr23_20,fr23_c2).
body(r_fr23_20,fr23_d2).
body(r_fr23_20,fr23_f1).
body(r_fr23_20,fr23_p2).
body(r_fr23_20,fr23_p4).
body(r_fr23_20,fr23_q3).
body(r_fr23_20,fr25_v2).
body(r_fr23_20,fr23_t1).
body(r_fr23_20,fr23_t2).
body(r_fr23_20,fr23_t3).
body(r_fr23_20,fr22_q1).
body(r_fr23_20,fr23_w2).
body(r_fr23_20,fr23_x1).
body(r_fr23_20,fr23_x2).
head(r_fr23_21,fr23_q2).
body(r_fr23_21,fr23_a2).
body(r_fr23_21,fr23_a3).
body(r_fr23_21,fr23_b2).
body(r_fr23_21,fr23_c2).
body(r_fr23_21,fr23_d2).
body(r_fr23_21,fr23_p4).
body(r_fr23_21,fr23_r2).
body(r_fr23_21,fr23_s1).
body(r_fr23_21,fr23_t1).
body(r_fr23_21,fr23_t3).
body(r_fr23_21,fr5_t3).
body(r_fr23_21,fr23_v2).
body(r_fr23_21,fr23_w2).
body(r_fr23_21,fr23_x2).
body(r_fr23_21,fr19_z1).
body(r_fr23_21,fr23_z3).
head(r_fr23_22,fr23_q2).
body(r_fr23_22,fr23_a1).
body(r_fr23_22,fr23_e1).
body(r_fr23_22,fr23_p2).
body(r_fr23_22,fr23_p3).
body(r_fr23_22,fr23_p4).
body(r_fr23_22,fr23_r2).
body(r_fr23_22,fr23_r3).
body(r_fr23_22,fr23_s1).
body(r_fr23_22,fr23_s3).
body(r_fr23_22,fr23_t1).
body(r_fr23_22,fr5_t3).
body(r_fr23_22,fr23_v1).
body(r_fr23_22,fr23_x1).
body(r_fr23_22,fr23_x2).
body(r_fr23_22,fr23_y1).
body(r_fr23_22,fr23_z3).
head(r_fr23_23,fr23_q2).
body(r_fr23_23,fr23_p1).
body(r_fr23_23,fr23_p3).
body(r_fr23_23,fr23_q1).
body(r_fr23_23,fr23_r2).
body(r_fr23_23,fr23_s1).
body(r_fr23_23,fr23_s3).
body(r_fr23_23,fr23_t2).
body(r_fr23_23,fr5_t3).
body(r_fr23_23,fr23_v1).
body(r_fr23_23,fr23_v3).
body(r_fr23_23,fr23_w3).
body(r_fr23_23,fr23_x2).
body(r_fr23_23,fr23_x3).
body(r_fr23_23,fr23_y2).
body(r_fr23_23,fr23_y3).
body(r_fr23_23,fr23_z1).
body(r_fr23_23,fr23_z3).
head(r_fr23_24,fr23_q2).
body(r_fr23_24,fr23_a2).
body(r_fr23_24,fr23_a3).
body(r_fr23_24,fr23_f1).
body(r_fr23_24,fr23_p3).
body(r_fr23_24,fr23_p4).
body(r_fr23_24,fr23_q1).
body(r_fr23_24,fr23_u1).
body(r_fr23_24,fr23_v1).
body(r_fr23_24,fr23_v2).
body(r_fr23_24,fr23_w1).
body(r_fr23_24,fr23_w2).
body(r_fr23_24,fr23_w3).
body(r_fr23_24,fr23_y1).
body(r_fr23_24,fr23_y2).
body(r_fr23_24,fr23_y3).
body(r_fr23_24,fr23_z3).
head(r_fr23_25,fr23_p1).
body(r_fr23_25,fr23_d2).
body(r_fr23_25,fr23_p3).
body(r_fr23_25,fr25_v2).
body(r_fr23_25,fr23_r1).
body(r_fr23_25,fr23_r2).
body(r_fr23_25,fr23_r3).
body(r_fr23_25,fr23_s2).
body(r_fr23_25,fr23_t3).
body(r_fr23_25,fr5_t3).
body(r_fr23_25,fr22_q1).
body(r_fr23_25,fr23_w1).
body(r_fr23_25,fr23_w2).
body(r_fr23_25,fr23_x1).
body(r_fr23_25,fr23_y2).
body(r_fr23_25,fr23_z1).
body(r_fr23_25,fr19_z1).
head(r_fr23_26,fr23_p1).
body(r_fr23_26,fr23_c3).
body(r_fr23_26,fr23_e1).
body(r_fr23_26,fr23_f2).
body(r_fr23_26,fr23_p2).
body(r_fr23_26,fr23_r1).
body(r_fr23_26,fr23_s1).
body(r_fr23_26,fr23_t2).
body(r_fr23_26,fr23_t3).
body(r_fr23_26,fr22_q1).
body(r_fr23_26,fr23_v1).
body(r_fr23_26,fr23_w1).
body(r_fr23_26,fr23_w2).
body(r_fr23_26,fr23_x2).
body(r_fr23_26,fr23_x3).
body(r_fr23_26,fr23_y1).
body(r_fr23_26,fr23_y2).
body(r_fr23_26,fr19_z1).
head(r_fr23_27,fr23_p1).
body(r_fr23_27,fr23_a2).
body(r_fr23_27,fr23_b2).
body(r_fr23_27,fr23_b3).
body(r_fr23_27,fr23_c1).
body(r_fr23_27,fr23_e2).
body(r_fr23_27,fr23_f2).
body(r_fr23_27,fr25_v2).
body(r_fr23_27,fr23_t1).
body(r_fr23_27,fr23_u1).
body(r_fr23_27,fr22_q1).
body(r_fr23_27,fr23_v3).
body(r_fr23_27,fr23_x2).
body(r_fr23_27,fr23_y3).
body(r_fr23_27,fr23_z1).
body(r_fr23_27,fr23_z3).
head(r_fr23_28,fr23_p1).
body(r_fr23_28,fr23_a2).
body(r_fr23_28,fr23_a3).
body(r_fr23_28,fr23_b3).
body(r_fr23_28,fr23_c2).
body(r_fr23_28,fr23_c3).
body(r_fr23_28,fr23_q1).
body(r_fr23_28,fr23_q2).
body(r_fr23_28,fr25_v2).
body(r_fr23_28,fr23_r1).
body(r_fr23_28,fr23_t1).
body(r_fr23_28,fr23_t3).
body(r_fr23_28,fr5_t3).
body(r_fr23_28,fr23_v2).
body(r_fr23_28,fr23_w2).
body(r_fr23_28,fr23_x2).
body(r_fr23_28,fr23_y1).
body(r_fr23_28,fr23_y3).
body(r_fr23_28,fr19_z1).
head(r_fr23_29,fr23_s3).
body(r_fr23_29,fr23_a2).
body(r_fr23_29,fr23_a3).
body(r_fr23_29,fr23_b1).
body(r_fr23_29,fr23_c2).
body(r_fr23_29,fr23_d2).
body(r_fr23_29,fr23_q2).
body(r_fr23_29,fr23_r1).
body(r_fr23_29,fr23_t2).
body(r_fr23_29,fr23_u1).
body(r_fr23_29,fr5_t3).
body(r_fr23_29,fr23_v1).
body(r_fr23_29,fr23_v3).
body(r_fr23_29,fr23_w1).
body(r_fr23_29,fr23_w2).
body(r_fr23_29,fr23_x2).
body(r_fr23_29,fr23_z1).
body(r_fr23_29,fr23_z3).
head(r_fr23_30,fr23_s3).
body(r_fr23_30,fr23_b3).
body(r_fr23_30,fr23_p2).
body(r_fr23_30,fr23_p4).
body(r_fr23_30,fr23_q2).
body(r_fr23_30,fr23_q3).
body(r_fr23_30,fr23_r2).
body(r_fr23_30,fr23_t1).
body(r_fr23_30,fr23_v1).
body(r_fr23_30,fr23_v2).
body(r_fr23_30,fr23_w1).
body(r_fr23_30,fr23_w2).
body(r_fr23_30,fr23_w3).
body(r_fr23_30,fr23_x2).
body(r_fr23_30,fr23_y2).
body(r_fr23_30,fr23_y3).
body(r_fr23_30,fr19_z1).
head(r_fr23_31,fr23_s3).
body(r_fr23_31,fr23_a1).
body(r_fr23_31,fr23_c1).
body(r_fr23_31,fr23_p3).
body(r_fr23_31,fr25_v2).
body(r_fr23_31,fr23_r3).
body(r_fr23_31,fr23_s1).
body(r_fr23_31,fr23_t3).
body(r_fr23_31,fr22_q1).
body(r_fr23_31,fr23_v1).
body(r_fr23_31,fr23_v2).
body(r_fr23_31,fr23_v3).
body(r_fr23_31,fr23_w2).
body(r_fr23_31,fr23_x2).
body(r_fr23_31,fr23_y2).
body(r_fr23_31,fr23_y3).
body(r_fr23_31,fr23_z1).
body(r_fr23_31,fr23_z3).
head(r_fr23_32,fr23_y2).
body(r_fr23_32,fr23_b1).
body(r_fr23_32,fr23_p1).
body(r_fr23_32,fr23_p2).
body(r_fr23_32,fr23_p3).
body(r_fr23_32,fr23_q1).
body(r_fr23_32,fr23_q2).
body(r_fr23_32,fr23_q3).
body(r_fr23_32,fr23_r2).
body(r_fr23_32,fr23_t2).
body(r_fr23_32,fr23_u1).
body(r_fr23_32,fr5_t3).
body(r_fr23_32,fr23_v1).
body(r_fr23_32,fr23_v3).
body(r_fr23_32,fr23_w2).
body(r_fr23_32,fr23_x1).
body(r_fr23_32,fr23_x2).
body(r_fr23_32,fr23_z1).
head(r_fr23_33,fr23_y2).
body(r_fr23_33,fr23_c2).
body(r_fr23_33,fr23_f1).
body(r_fr23_33,fr23_p2).
body(r_fr23_33,fr23_p4).
body(r_fr23_33,fr25_v2).
body(r_fr23_33,fr23_r2).
body(r_fr23_33,fr23_r3).
body(r_fr23_33,fr23_t1).
body(r_fr23_33,fr23_t2).
body(r_fr23_33,fr5_t3).
body(r_fr23_33,fr23_v1).
body(r_fr23_33,fr23_v3).
body(r_fr23_33,fr23_w2).
body(r_fr23_33,fr23_w3).
body(r_fr23_33,fr23_x3).
body(r_fr23_33,fr23_z3).
head(r_fr23_34,fr23_y2).
body(r_fr23_34,fr23_b3).
body(r_fr23_34,fr23_d2).
body(r_fr23_34,fr23_p1).
body(r_fr23_34,fr23_p2).
body(r_fr23_34,fr23_p4).
body(r_fr23_34,fr23_q3).
body(r_fr23_34,fr23_s2).
body(r_fr23_34,fr23_t2).
body(r_fr23_34,fr23_u1).
body(r_fr23_34,fr22_q1).
body(r_fr23_34,fr23_v2).
body(r_fr23_34,fr23_v3).
body(r_fr23_34,fr23_w3).
body(r_fr23_34,fr23_y1).
body(r_fr23_34,fr23_y3).
head(r_fr23_35,fr23_y2).
body(r_fr23_35,fr23_p1).
body(r_fr23_35,fr23_p3).
body(r_fr23_35,fr23_p4).
body(r_fr23_35,fr23_q1).
body(r_fr23_35,fr23_q2).
body(r_fr23_35,fr23_q3).
body(r_fr23_35,fr25_v2).
body(r_fr23_35,fr23_s3).
body(r_fr23_35,fr23_t3).
body(r_fr23_35,fr23_u1).
body(r_fr23_35,fr5_t3).
body(r_fr23_35,fr22_q1).
body(r_fr23_35,fr23_v3).
body(r_fr23_35,fr23_w1).
body(r_fr23_35,fr23_x3).
body(r_fr23_35,fr23_y3).
head(r_fr23_36,fr23_y2).
body(r_fr23_36,fr23_b1).
body(r_fr23_36,fr23_b3).
body(r_fr23_36,fr23_c2).
body(r_fr23_36,fr23_c3).
body(r_fr23_36,fr23_d2).
body(r_fr23_36,fr23_f1).
body(r_fr23_36,fr23_p1).
body(r_fr23_36,fr23_p4).
body(r_fr23_36,fr23_q2).
body(r_fr23_36,fr23_r1).
body(r_fr23_36,fr23_s1).
body(r_fr23_36,fr23_u1).
body(r_fr23_36,fr23_v2).
body(r_fr23_36,fr23_x1).
body(r_fr23_36,fr23_y1).
body(r_fr23_36,fr19_z1).
body(r_fr23_36,fr23_z3).
head(r_fr23_37,fr23_x3).
body(r_fr23_37,fr23_b3).
body(r_fr23_37,fr23_p1).
body(r_fr23_37,fr23_p2).
body(r_fr23_37,fr23_p3).
body(r_fr23_37,fr23_p4).
body(r_fr23_37,fr23_q3).
body(r_fr23_37,fr23_r1).
body(r_fr23_37,fr23_r3).
body(r_fr23_37,fr23_t1).
body(r_fr23_37,fr23_t3).
body(r_fr23_37,fr23_u1).
body(r_fr23_37,fr22_q1).
body(r_fr23_37,fr23_v1).
body(r_fr23_37,fr23_v3).
body(r_fr23_37,fr23_y2).
body(r_fr23_37,fr23_y3).
body(r_fr23_37,fr23_z1).
head(r_fr23_38,fr23_x3).
body(r_fr23_38,fr23_p4).
body(r_fr23_38,fr23_q1).
body(r_fr23_38,fr25_v2).
body(r_fr23_38,fr23_r1).
body(r_fr23_38,fr23_s3).
body(r_fr23_38,fr23_t2).
body(r_fr23_38,fr23_t3).
body(r_fr23_38,fr23_u1).
body(r_fr23_38,fr5_t3).
body(r_fr23_38,fr22_q1).
body(r_fr23_38,fr23_v3).
body(r_fr23_38,fr23_w1).
body(r_fr23_38,fr23_x1).
body(r_fr23_38,fr23_y2).
body(r_fr23_38,fr23_y3).
body(r_fr23_38,fr19_z1).
body(r_fr23_38,fr23_z3).
head(r_fr23_39,fr23_x3).
body(r_fr23_39,fr23_a1).
body(r_fr23_39,fr23_a3).
body(r_fr23_39,fr23_b1).
body(r_fr23_39,fr23_c1).
body(r_fr23_39,fr23_c2).
body(r_fr23_39,fr23_q1).
body(r_fr23_39,fr23_q2).
body(r_fr23_39,fr23_r3).
body(r_fr23_39,fr23_s3).
body(r_fr23_39,fr23_t1).
body(r_fr23_39,fr23_t3).
body(r_fr23_39,fr22_q1).
body(r_fr23_39,fr23_w2).
body(r_fr23_39,fr23_w3).
body(r_fr23_39,fr23_x2).
body(r_fr23_39,fr23_y2).
body(r_fr23_39,fr23_y3).
body(r_fr23_39,fr19_z1).
head(r_fr23_40,fr23_x3).
body(r_fr23_40,fr23_b2).
body(r_fr23_40,fr23_c1).
body(r_fr23_40,fr23_f2).
body(r_fr23_40,fr23_p1).
body(r_fr23_40,fr23_p2).
body(r_fr23_40,fr23_p3).
body(r_fr23_40,fr25_v2).
body(r_fr23_40,fr23_r2).
body(r_fr23_40,fr23_s1).
body(r_fr23_40,fr23_t2).
body(r_fr23_40,fr23_t3).
body(r_fr23_40,fr5_t3).
body(r_fr23_40,fr23_w2).
body(r_fr23_40,fr23_x1).
body(r_fr23_40,fr23_y1).
head(r_fr23_41,fr23_x3).
body(r_fr23_41,fr23_a1).
body(r_fr23_41,fr23_f1).
body(r_fr23_41,fr23_p1).
body(r_fr23_41,fr23_q1).
body(r_fr23_41,fr25_v2).
body(r_fr23_41,fr23_r1).
body(r_fr23_41,fr23_s1).
body(r_fr23_41,fr23_s2).
body(r_fr23_41,fr23_s3).
body(r_fr23_41,fr23_t3).
body(r_fr23_41,fr23_v2).
body(r_fr23_41,fr23_v3).
body(r_fr23_41,fr23_w3).
body(r_fr23_41,fr23_x1).
body(r_fr23_41,fr19_z1).
head(r_fr23_42,fr19_z1).
body(r_fr23_42,fr23_b2).
body(r_fr23_42,fr23_c1).
body(r_fr23_42,fr23_d2).
body(r_fr23_42,fr23_e2).
body(r_fr23_42,fr23_f1).
body(r_fr23_42,fr23_f2).
body(r_fr23_42,fr25_v2).
body(r_fr23_42,fr23_r1).
body(r_fr23_42,fr23_r3).
body(r_fr23_42,fr23_s2).
body(r_fr23_42,fr23_s3).
body(r_fr23_42,fr23_t1).
body(r_fr23_42,fr5_t3).
body(r_fr23_42,fr23_v3).
body(r_fr23_42,fr23_w2).
body(r_fr23_42,fr23_y1).
body(r_fr23_42,fr23_y2).
body(r_fr23_42,fr23_y3).
head(r_fr23_43,fr19_z1).
body(r_fr23_43,fr23_c1).
body(r_fr23_43,fr23_c3).
body(r_fr23_43,fr23_f2).
body(r_fr23_43,fr23_p4).
body(r_fr23_43,fr23_q1).
body(r_fr23_43,fr23_q2).
body(r_fr23_43,fr23_r1).
body(r_fr23_43,fr23_r3).
body(r_fr23_43,fr23_s2).
body(r_fr23_43,fr23_s3).
body(r_fr23_43,fr23_t1).
body(r_fr23_43,fr5_t3).
body(r_fr23_43,fr23_v1).
body(r_fr23_43,fr23_w2).
body(r_fr23_43,fr23_x3).
body(r_fr23_43,fr23_y1).
head(r_fr23_44,fr22_q1).
body(r_fr23_44,fr23_d2).
body(r_fr23_44,fr23_f2).
body(r_fr23_44,fr23_p1).
body(r_fr23_44,fr25_v2).
body(r_fr23_44,fr23_r2).
body(r_fr23_44,fr23_t2).
body(r_fr23_44,fr23_u1).
body(r_fr23_44,fr5_t3).
body(r_fr23_44,fr23_v1).
body(r_fr23_44,fr23_v2).
body(r_fr23_44,fr23_v3).
body(r_fr23_44,fr23_w2).
body(r_fr23_44,fr23_w3).
body(r_fr23_44,fr23_y1).
body(r_fr23_44,fr23_y2).
body(r_fr23_44,fr23_y3).
body(r_fr23_44,fr23_z1).
head(r_fr23_45,fr22_q1).
body(r_fr23_45,fr23_a2).
body(r_fr23_45,fr23_c1).
body(r_fr23_45,fr23_f2).
body(r_fr23_45,fr23_q2).
body(r_fr23_45,fr23_q3).
body(r_fr23_45,fr25_v2).
body(r_fr23_45,fr23_r2).
body(r_fr23_45,fr23_s1).
body(r_fr23_45,fr23_t1).
body(r_fr23_45,fr23_t2).
body(r_fr23_45,fr23_u1).
body(r_fr23_45,fr23_v2).
body(r_fr23_45,fr23_v3).
body(r_fr23_45,fr23_x2).
body(r_fr23_45,fr23_x3).
body(r_fr23_45,fr23_y3).
head(r_fr23_46,fr22_q1).
body(r_fr23_46,fr23_c1).
body(r_fr23_46,fr23_d2).
body(r_fr23_46,fr23_p1).
body(r_fr23_46,fr23_p3).
body(r_fr23_46,fr23_p4).
body(r_fr23_46,fr25_v2).
body(r_fr23_46,fr23_r1).
body(r_fr23_46,fr23_r2).
body(r_fr23_46,fr23_s2).
body(r_fr23_46,fr23_u1).
body(r_fr23_46,fr5_t3).
body(r_fr23_46,fr23_v1).
body(r_fr23_46,fr23_v3).
body(r_fr23_46,fr23_x1).
body(r_fr23_46,fr23_x3).
body(r_fr23_46,fr23_y1).
body(r_fr23_46,fr23_z1).
head(r_fr23_47,fr22_q1).
body(r_fr23_47,fr23_b1).
body(r_fr23_47,fr23_e1).
body(r_fr23_47,fr23_p1).
body(r_fr23_47,fr23_r1).
body(r_fr23_47,fr23_r2).
body(r_fr23_47,fr23_r3).
body(r_fr23_47,fr23_s3).
body(r_fr23_47,fr23_t1).
body(r_fr23_47,fr23_t2).
body(r_fr23_47,fr23_u1).
body(r_fr23_47,fr5_t3).
body(r_fr23_47,fr23_v1).
body(r_fr23_47,fr23_v2).
body(r_fr23_47,fr23_w2).
body(r_fr23_47,fr23_y1).
body(r_fr23_47,fr23_y3).
head(r_fr23_48,fr22_q1).
body(r_fr23_48,fr23_b3).
body(r_fr23_48,fr23_c2).
body(r_fr23_48,fr23_c3).
body(r_fr23_48,fr23_d1).
body(r_fr23_48,fr23_f2).
body(r_fr23_48,fr23_p1).
body(r_fr23_48,fr23_p2).
body(r_fr23_48,fr23_p4).
body(r_fr23_48,fr23_q1).
body(r_fr23_48,fr23_r3).
body(r_fr23_48,fr23_t1).
body(r_fr23_48,fr23_t2).
body(r_fr23_48,fr23_v1).
body(r_fr23_48,fr23_w2).
body(r_fr23_48,fr23_y3).
body(r_fr23_48,fr23_z3).
head(r_fr23_49,fr23_v2).
body(r_fr23_49,fr23_f2).
body(r_fr23_49,fr23_p1).
body(r_fr23_49,fr23_p4).
body(r_fr23_49,fr23_q3).
body(r_fr23_49,fr25_v2).
body(r_fr23_49,fr23_s1).
body(r_fr23_49,fr23_s2).
body(r_fr23_49,fr23_u1).
body(r_fr23_49,fr5_t3).
body(r_fr23_49,fr23_v1).
body(r_fr23_49,fr23_v3).
body(r_fr23_49,fr23_w1).
body(r_fr23_49,fr23_w3).
body(r_fr23_49,fr23_x2).
body(r_fr23_49,fr23_y1).
body(r_fr23_49,fr23_y3).
body(r_fr23_49,fr23_z3).
head(r_fr23_50,fr23_v2).
body(r_fr23_50,fr23_c3).
body(r_fr23_50,fr23_d2).
body(r_fr23_50,fr23_e1).
body(r_fr23_50,fr23_f1).
body(r_fr23_50,fr23_p3).
body(r_fr23_50,fr23_p4).
body(r_fr23_50,fr23_r3).
body(r_fr23_50,fr23_s3).
body(r_fr23_50,fr23_t2).
body(r_fr23_50,fr23_u1).
body(r_fr23_50,fr23_w1).
body(r_fr23_50,fr23_x1).
body(r_fr23_50,fr23_y1).
body(r_fr23_50,fr23_y2).
body(r_fr23_50,fr23_y3).
body(r_fr23_50,fr23_z1).
head(r_fr23_51,fr23_v2).
body(r_fr23_51,fr23_a1).
body(r_fr23_51,fr23_d1).
body(r_fr23_51,fr23_e1).
body(r_fr23_51,fr23_f1).
body(r_fr23_51,fr23_p1).
body(r_fr23_51,fr23_q1).
body(r_fr23_51,fr25_v2).
body(r_fr23_51,fr23_r2).
body(r_fr23_51,fr23_s1).
body(r_fr23_51,fr23_s2).
body(r_fr23_51,fr23_t2).
body(r_fr23_51,fr23_u1).
body(r_fr23_51,fr22_q1).
body(r_fr23_51,fr23_x2).
body(r_fr23_51,fr23_y1).
body(r_fr23_51,fr23_y2).
body(r_fr23_51,fr23_z3).
head(r_fr23_52,fr23_v2).
body(r_fr23_52,fr23_p1).
body(r_fr23_52,fr23_p3).
body(r_fr23_52,fr23_p4).
body(r_fr23_52,fr23_q3).
body(r_fr23_52,fr23_r2).
body(r_fr23_52,fr23_r3).
body(r_fr23_52,fr23_s3).
body(r_fr23_52,fr23_t1).
body(r_fr23_52,fr23_t2).
body(r_fr23_52,fr23_t3).
body(r_fr23_52,fr5_t3).
body(r_fr23_52,fr23_v1).
body(r_fr23_52,fr23_w3).
body(r_fr23_52,fr23_y1).
body(r_fr23_52,fr23_y2).
body(r_fr23_52,fr19_z1).
body(r_fr23_52,fr23_z3).
head(r_fr23_53,fr23_w1).
body(r_fr23_53,fr23_b3).
body(r_fr23_53,fr23_c1).
body(r_fr23_53,fr23_p1).
body(r_fr23_53,fr23_q1).
body(r_fr23_53,fr23_q2).
body(r_fr23_53,fr23_r3).
body(r_fr23_53,fr23_t1).
body(r_fr23_53,fr23_t2).
body(r_fr23_53,fr23_u1).
body(r_fr23_53,fr23_v1).
body(r_fr23_53,fr23_v2).
body(r_fr23_53,fr23_x1).
body(r_fr23_53,fr23_x3).
body(r_fr23_53,fr23_y1).
body(r_fr23_53,fr23_y2).
head(r_fr23_54,fr23_w1).
body(r_fr23_54,fr23_a3).
body(r_fr23_54,fr23_b1).
body(r_fr23_54,fr23_p2).
body(r_fr23_54,fr23_p3).
body(r_fr23_54,fr23_p4).
body(r_fr23_54,fr23_q1).
body(r_fr23_54,fr25_v2).
body(r_fr23_54,fr23_r2).
body(r_fr23_54,fr23_s2).
body(r_fr23_54,fr23_s3).
body(r_fr23_54,fr23_t2).
body(r_fr23_54,fr22_q1).
body(r_fr23_54,fr23_v1).
body(r_fr23_54,fr23_v3).
body(r_fr23_54,fr23_w2).
body(r_fr23_54,fr23_w3).
body(r_fr23_54,fr23_x3).
head(r_fr23_55,fr23_w1).
body(r_fr23_55,fr23_a2).
body(r_fr23_55,fr23_a3).
body(r_fr23_55,fr23_d1).
body(r_fr23_55,fr23_p4).
body(r_fr23_55,fr23_q3).
body(r_fr23_55,fr23_r3).
body(r_fr23_55,fr23_t2).
body(r_fr23_55,fr23_t3).
body(r_fr23_55,fr23_v2).
body(r_fr23_55,fr23_v3).
body(r_fr23_55,fr23_w2).
body(r_fr23_55,fr23_x2).
body(r_fr23_55,fr23_y3).
body(r_fr23_55,fr23_z1).
body(r_fr23_55,fr23_z3).
head(r_fr23_56,fr23_w1).
body(r_fr23_56,fr23_a1).
body(r_fr23_56,fr23_b3).
body(r_fr23_56,fr23_c2).
body(r_fr23_56,fr23_d1).
body(r_fr23_56,fr23_f1).
body(r_fr23_56,fr23_r1).
body(r_fr23_56,fr23_r2).
body(r_fr23_56,fr23_s1).
body(r_fr23_56,fr23_s3).
body(r_fr23_56,fr5_t3).
body(r_fr23_56,fr23_v2).
body(r_fr23_56,fr23_w2).
body(r_fr23_56,fr23_y3).
body(r_fr23_56,fr19_z1).
body(r_fr23_56,fr23_z3).
head(r_fr23_57,fr23_w1).
body(r_fr23_57,fr23_p1).
body(r_fr23_57,fr23_p3).
body(r_fr23_57,fr23_p4).
body(r_fr23_57,fr23_q1).
body(r_fr23_57,fr23_r3).
body(r_fr23_57,fr23_s2).
body(r_fr23_57,fr23_s3).
body(r_fr23_57,fr23_u1).
body(r_fr23_57,fr5_t3).
body(r_fr23_57,fr22_q1).
body(r_fr23_57,fr23_v2).
body(r_fr23_57,fr23_w2).
body(r_fr23_57,fr23_x2).
body(r_fr23_57,fr23_x3).
body(r_fr23_57,fr23_y3).
head(r_fr23_58,fr23_x1).
body(r_fr23_58,fr23_b1).
body(r_fr23_58,fr23_b3).
body(r_fr23_58,fr23_c1).
body(r_fr23_58,fr23_d1).
body(r_fr23_58,fr23_p1).
body(r_fr23_58,fr23_p2).
body(r_fr23_58,fr23_p4).
body(r_fr23_58,fr23_q1).
body(r_fr23_58,fr25_v2).
body(r_fr23_58,fr23_r2).
body(r_fr23_58,fr23_r3).
body(r_fr23_58,fr23_s1).
body(r_fr23_58,fr23_v3).
body(r_fr23_58,fr23_y3).
body(r_fr23_58,fr23_z3).
head(r_fr23_59,fr23_x1).
body(r_fr23_59,fr23_a1).
body(r_fr23_59,fr23_a3).
body(r_fr23_59,fr23_b3).
body(r_fr23_59,fr23_c2).
body(r_fr23_59,fr23_e2).
body(r_fr23_59,fr23_f1).
body(r_fr23_59,fr23_p1).
body(r_fr23_59,fr23_q3).
body(r_fr23_59,fr23_s1).
body(r_fr23_59,fr23_s2).
body(r_fr23_59,fr23_s3).
body(r_fr23_59,fr23_t1).
body(r_fr23_59,fr22_q1).
body(r_fr23_59,fr23_y2).
body(r_fr23_59,fr23_z1).
head(r_fr23_60,fr23_q3).
body(r_fr23_60,fr23_a1).
body(r_fr23_60,fr23_b3).
body(r_fr23_60,fr23_c2).
body(r_fr23_60,fr23_c3).
body(r_fr23_60,fr23_d1).
body(r_fr23_60,fr23_f1).
body(r_fr23_60,fr23_p3).
body(r_fr23_60,fr23_r2).
body(r_fr23_60,fr23_s2).
body(r_fr23_60,fr23_s3).
body(r_fr23_60,fr23_t3).
body(r_fr23_60,fr5_t3).
body(r_fr23_60,fr22_q1).
body(r_fr23_60,fr23_w2).
body(r_fr23_60,fr23_w3).
body(r_fr23_60,fr23_x1).
head(r_fr23_61,fr23_q3).
body(r_fr23_61,fr23_a1).
body(r_fr23_61,fr23_c2).
body(r_fr23_61,fr23_c3).
body(r_fr23_61,fr23_f1).
body(r_fr23_61,fr23_r3).
body(r_fr23_61,fr23_s2).
body(r_fr23_61,fr23_t3).
body(r_fr23_61,fr5_t3).
body(r_fr23_61,fr22_q1).
body(r_fr23_61,fr23_w1).
body(r_fr23_61,fr23_w2).
body(r_fr23_61,fr23_x1).
body(r_fr23_61,fr23_x2).
body(r_fr23_61,fr23_x3).
body(r_fr23_61,fr23_y1).
body(r_fr23_61,fr23_y2).
body(r_fr23_61,fr23_z1).
body(r_fr23_61,fr19_z1).
head(r_fr23_62,fr23_q3).
body(r_fr23_62,fr23_b2).
body(r_fr23_62,fr23_e2).
body(r_fr23_62,fr23_s2).
body(r_fr23_62,fr23_t1).
body(r_fr23_62,fr23_t3).
body(r_fr23_62,fr23_u1).
body(r_fr23_62,fr22_q1).
body(r_fr23_62,fr23_v1).
body(r_fr23_62,fr23_v2).
body(r_fr23_62,fr23_w2).
body(r_fr23_62,fr23_x1).
body(r_fr23_62,fr23_x2).
body(r_fr23_62,fr23_x3).
body(r_fr23_62,fr23_y2).
body(r_fr23_62,fr23_z1).
body(r_fr23_62,fr23_z3).
head(r_fr23_63,fr23_q3).
body(r_fr23_63,fr23_a3).
body(r_fr23_63,fr23_c2).
body(r_fr23_63,fr23_d1).
body(r_fr23_63,fr23_e1).
body(r_fr23_63,fr23_f2).
body(r_fr23_63,fr23_p3).
body(r_fr23_63,fr23_p4).
body(r_fr23_63,fr25_v2).
body(r_fr23_63,fr23_s3).
body(r_fr23_63,fr23_t3).
body(r_fr23_63,fr22_q1).
body(r_fr23_63,fr23_v1).
body(r_fr23_63,fr23_y2).
body(r_fr23_63,fr23_y3).
body(r_fr23_63,fr23_z1).
body(r_fr23_63,fr19_z1).
head(r_fr23_64,fr23_q3).
body(r_fr23_64,fr23_b1).
body(r_fr23_64,fr23_b2).
body(r_fr23_64,fr23_c1).
body(r_fr23_64,fr23_d1).
body(r_fr23_64,fr23_f2).
body(r_fr23_64,fr23_p1).
body(r_fr23_64,fr23_p3).
body(r_fr23_64,fr23_p4).
body(r_fr23_64,fr23_q1).
body(r_fr23_64,fr23_r2).
body(r_fr23_64,fr23_r3).
body(r_fr23_64,fr23_u1).
body(r_fr23_64,fr23_w1).
body(r_fr23_64,fr23_x3).
body(r_fr23_64,fr23_y2).
body(r_fr23_64,fr23_z1).
body(r_fr23_64,fr19_z1).
head(r_fr23_65,fr23_q1).
body(r_fr23_65,fr23_a3).
body(r_fr23_65,fr23_b3).
body(r_fr23_65,fr23_c2).
body(r_fr23_65,fr23_e2).
body(r_fr23_65,fr23_p4).
body(r_fr23_65,fr23_r2).
body(r_fr23_65,fr23_r3).
body(r_fr23_65,fr23_s1).
body(r_fr23_65,fr23_t1).
body(r_fr23_65,fr23_v3).
body(r_fr23_65,fr23_w1).
body(r_fr23_65,fr23_w3).
body(r_fr23_65,fr23_x2).
body(r_fr23_65,fr23_y2).
body(r_fr23_65,fr23_z1).
body(r_fr23_65,fr19_z1).
head(r_fr23_66,fr23_q1).
body(r_fr23_66,fr23_p2).
body(r_fr23_66,fr23_p3).
body(r_fr23_66,fr23_r1).
body(r_fr23_66,fr23_r2).
body(r_fr23_66,fr23_s1).
body(r_fr23_66,fr23_s2).
body(r_fr23_66,fr23_t1).
body(r_fr23_66,fr5_t3).
body(r_fr23_66,fr23_v1).
body(r_fr23_66,fr23_v3).
body(r_fr23_66,fr23_w2).
body(r_fr23_66,fr23_w3).
body(r_fr23_66,fr23_x3).
body(r_fr23_66,fr23_z1).
body(r_fr23_66,fr19_z1).
body(r_fr23_66,fr23_z3).
head(r_fr23_67,fr23_q1).
body(r_fr23_67,fr23_a2).
body(r_fr23_67,fr23_b2).
body(r_fr23_67,fr23_b3).
body(r_fr23_67,fr23_c3).
body(r_fr23_67,fr23_e2).
body(r_fr23_67,fr23_f2).
body(r_fr23_67,fr23_p3).
body(r_fr23_67,fr23_q3).
body(r_fr23_67,fr23_t2).
body(r_fr23_67,fr23_w2).
body(r_fr23_67,fr23_x2).
body(r_fr23_67,fr23_x3).
body(r_fr23_67,fr23_z1).
body(r_fr23_67,fr19_z1).
body(r_fr23_67,fr23_z3).
head(r_fr23_68,fr23_s2).
body(r_fr23_68,fr23_a3).
body(r_fr23_68,fr23_p1).
body(r_fr23_68,fr23_p2).
body(r_fr23_68,fr23_p3).
body(r_fr23_68,fr23_p4).
body(r_fr23_68,fr23_q3).
body(r_fr23_68,fr23_r1).
body(r_fr23_68,fr23_r3).
body(r_fr23_68,fr23_u1).
body(r_fr23_68,fr5_t3).
body(r_fr23_68,fr22_q1).
body(r_fr23_68,fr23_v2).
body(r_fr23_68,fr23_v3).
body(r_fr23_68,fr23_w3).
body(r_fr23_68,fr23_x1).
body(r_fr23_68,fr23_x2).
body(r_fr23_68,fr23_z1).
body(r_fr23_68,fr19_z1).
head(r_fr23_69,fr23_s2).
body(r_fr23_69,fr23_a3).
body(r_fr23_69,fr23_p2).
body(r_fr23_69,fr23_q3).
body(r_fr23_69,fr23_t3).
body(r_fr23_69,fr5_t3).
body(r_fr23_69,fr22_q1).
body(r_fr23_69,fr23_v2).
body(r_fr23_69,fr23_v3).
body(r_fr23_69,fr23_w1).
body(r_fr23_69,fr23_w3).
body(r_fr23_69,fr23_x1).
body(r_fr23_69,fr23_y1).
body(r_fr23_69,fr23_y2).
body(r_fr23_69,fr23_y3).
body(r_fr23_69,fr23_z1).
head(r_fr23_70,fr23_s2).
body(r_fr23_70,fr23_b3).
body(r_fr23_70,fr23_p3).
body(r_fr23_70,fr23_q1).
body(r_fr23_70,fr23_q3).
body(r_fr23_70,fr23_r1).
body(r_fr23_70,fr23_r2).
body(r_fr23_70,fr23_r3).
body(r_fr23_70,fr23_s1).
body(r_fr23_70,fr23_s3).
body(r_fr23_70,fr23_t2).
body(r_fr23_70,fr5_t3).
body(r_fr23_70,fr22_q1).
body(r_fr23_70,fr23_v2).
body(r_fr23_70,fr23_v3).
body(r_fr23_70,fr23_w1).
body(r_fr23_70,fr23_x2).
body(r_fr23_70,fr23_z3).
head(r_fr23_71,fr23_s2).
body(r_fr23_71,fr23_p1).
body(r_fr23_71,fr23_p2).
body(r_fr23_71,fr23_p3).
body(r_fr23_71,fr23_p4).
body(r_fr23_71,fr25_v2).
body(r_fr23_71,fr23_r1).
body(r_fr23_71,fr23_r2).
body(r_fr23_71,fr23_s1).
body(r_fr23_71,fr23_s3).
body(r_fr23_71,fr5_t3).
body(r_fr23_71,fr23_v2).
body(r_fr23_71,fr23_w2).
body(r_fr23_71,fr23_x3).
body(r_fr23_71,fr23_y1).
body(r_fr23_71,fr23_y2).
body(r_fr23_71,fr19_z1).
body(r_fr23_71,fr23_z3).
head(r_fr23_72,fr23_s2).
body(r_fr23_72,fr23_b1).
body(r_fr23_72,fr23_b3).
body(r_fr23_72,fr23_p1).
body(r_fr23_72,fr23_r2).
body(r_fr23_72,fr23_r3).
body(r_fr23_72,fr23_s3).
body(r_fr23_72,fr23_t1).
body(r_fr23_72,fr23_t2).
body(r_fr23_72,fr23_u1).
body(r_fr23_72,fr5_t3).
body(r_fr23_72,fr22_q1).
body(r_fr23_72,fr23_v3).
body(r_fr23_72,fr23_x1).
body(r_fr23_72,fr23_y1).
body(r_fr23_72,fr19_z1).
head(r_fr23_73,fr23_p3).
body(r_fr23_73,fr23_a1).
body(r_fr23_73,fr23_a3).
body(r_fr23_73,fr23_c2).
body(r_fr23_73,fr23_d2).
body(r_fr23_73,fr23_f1).
body(r_fr23_73,fr23_p1).
body(r_fr23_73,fr23_r1).
body(r_fr23_73,fr23_s1).
body(r_fr23_73,fr23_t3).
body(r_fr23_73,fr23_u1).
body(r_fr23_73,fr5_t3).
body(r_fr23_73,fr22_q1).
body(r_fr23_73,fr23_x2).
body(r_fr23_73,fr23_y2).
body(r_fr23_73,fr23_y3).
head(r_fr23_74,fr23_p3).
body(r_fr23_74,fr23_a3).
body(r_fr23_74,fr23_c1).
body(r_fr23_74,fr23_p1).
body(r_fr23_74,fr23_q2).
body(r_fr23_74,fr23_q3).
body(r_fr23_74,fr23_r3).
body(r_fr23_74,fr23_s3).
body(r_fr23_74,fr23_t2).
body(r_fr23_74,fr5_t3).
body(r_fr23_74,fr23_v1).
body(r_fr23_74,fr23_v2).
body(r_fr23_74,fr23_v3).
body(r_fr23_74,fr23_w3).
body(r_fr23_74,fr23_x3).
body(r_fr23_74,fr23_y1).
body(r_fr23_74,fr19_z1).
body(r_fr23_74,fr23_z3).
head(r_fr23_75,fr23_p3).
body(r_fr23_75,fr23_a2).
body(r_fr23_75,fr23_a3).
body(r_fr23_75,fr23_b1).
body(r_fr23_75,fr23_d1).
body(r_fr23_75,fr23_f1).
body(r_fr23_75,fr23_f2).
body(r_fr23_75,fr23_p4).
body(r_fr23_75,fr23_q3).
body(r_fr23_75,fr25_v2).
body(r_fr23_75,fr23_r2).
body(r_fr23_75,fr23_u1).
body(r_fr23_75,fr5_t3).
body(r_fr23_75,fr22_q1).
body(r_fr23_75,fr23_v2).
body(r_fr23_75,fr19_z1).
head(r_fr23_76,fr23_p3).
body(r_fr23_76,fr23_a1).
body(r_fr23_76,fr23_a2).
body(r_fr23_76,fr23_b1).
body(r_fr23_76,fr23_c3).
body(r_fr23_76,fr23_q1).
body(r_fr23_76,fr23_q2).
body(r_fr23_76,fr23_s3).
body(r_fr23_76,fr23_t2).
body(r_fr23_76,fr23_t3).
body(r_fr23_76,fr22_q1).
body(r_fr23_76,fr23_v1).
body(r_fr23_76,fr23_w1).
body(r_fr23_76,fr23_x2).
body(r_fr23_76,fr23_x3).
body(r_fr23_76,fr23_z3).
head(r_fr23_77,fr23_p3).
body(r_fr23_77,fr23_a1).
body(r_fr23_77,fr23_b2).
body(r_fr23_77,fr23_b3).
body(r_fr23_77,fr23_c2).
body(r_fr23_77,fr23_d1).
body(r_fr23_77,fr23_e2).
body(r_fr23_77,fr23_p1).
body(r_fr23_77,fr23_p4).
body(r_fr23_77,fr23_q3).
body(r_fr23_77,fr25_v2).
body(r_fr23_77,fr23_r2).
body(r_fr23_77,fr5_t3).
body(r_fr23_77,fr23_w2).
body(r_fr23_77,fr23_w3).
body(r_fr23_77,fr23_y3).
body(r_fr23_77,fr19_z1).
head(r_fr23_78,fr23_w3).
body(r_fr23_78,fr23_a2).
body(r_fr23_78,fr23_b2).
body(r_fr23_78,fr23_c3).
body(r_fr23_78,fr23_e1).
body(r_fr23_78,fr23_r2).
body(r_fr23_78,fr23_r3).
body(r_fr23_78,fr23_s2).
body(r_fr23_78,fr23_t1).
body(r_fr23_78,fr23_t3).
body(r_fr23_78,fr5_t3).
body(r_fr23_78,fr22_q1).
body(r_fr23_78,fr23_v1).
body(r_fr23_78,fr23_v2).
body(r_fr23_78,fr23_x1).
body(r_fr23_78,fr23_x2).
body(r_fr23_78,fr23_y1).
body(r_fr23_78,fr23_y2).
head(r_fr23_79,fr23_w3).
body(r_fr23_79,fr23_b3).
body(r_fr23_79,fr23_c1).
body(r_fr23_79,fr23_c2).
body(r_fr23_79,fr23_d1).
body(r_fr23_79,fr23_e1).
body(r_fr23_79,fr23_p3).
body(r_fr23_79,fr25_v2).
body(r_fr23_79,fr23_s1).
body(r_fr23_79,fr23_s3).
body(r_fr23_79,fr23_t1).
body(r_fr23_79,fr23_t2).
body(r_fr23_79,fr23_u1).
body(r_fr23_79,fr23_v1).
body(r_fr23_79,fr23_x2).
body(r_fr23_79,fr23_y2).
body(r_fr23_79,fr23_y3).
body(r_fr23_79,fr19_z1).
body(r_fr23_79,fr23_z3).
head(r_fr23_80,fr23_w3).
body(r_fr23_80,fr23_p1).
body(r_fr23_80,fr23_p4).
body(r_fr23_80,fr23_q1).
body(r_fr23_80,fr23_q2).
body(r_fr23_80,fr23_r2).
body(r_fr23_80,fr23_t1).
body(r_fr23_80,fr23_t2).
body(r_fr23_80,fr23_t3).
body(r_fr23_80,fr5_t3).
body(r_fr23_80,fr22_q1).
body(r_fr23_80,fr23_x1).
body(r_fr23_80,fr23_x2).
body(r_fr23_80,fr23_x3).
body(r_fr23_80,fr23_y3).
body(r_fr23_80,fr23_z3).

assumption(fr14_e2).
assumption(fr24_b1).
assumption(fr24_c1).
assumption(fr24_d1).
assumption(fr24_e1).
assumption(fr24_f1).
assumption(fr24_a2).
assumption(fr24_b2).
assumption(fr12_e2).
assumption(fr24_d2).
assumption(fr18_c3).
assumption(fr24_f2).
assumption(fr24_a3).
assumption(fr16_e4).
assumption(fr24_c3).
contrary(fr14_e2,fr24_r6).
contrary(fr24_a2,fr24_s6).
contrary(fr24_a3,fr24_u1).
contrary(fr24_b1,fr24_p4).
contrary(fr24_b2,fr24_s6).
contrary(fr16_e4,fr24_y1).
contrary(fr24_c1,fr12_e2).
contrary(fr12_e2,fr14_e2).
contrary(fr24_c3,fr24_x3).
contrary(fr24_d1,fr24_z5).
contrary(fr24_d2,fr24_v5).
contrary(fr24_e1,fr24_t6).
contrary(fr18_c3,fr24_v5).
contrary(fr24_f1,fr4_u2).
contrary(fr24_f2,fr24_p1).
head(r_fr24_0,fr24_v6).
body(r_fr24_0,fr24_f2).
head(r_fr24_1,fr24_v6).
body(r_fr24_1,fr14_e2).
body(r_fr24_1,fr24_a3).
body(r_fr24_1,fr24_c1).
body(r_fr24_1,fr12_e2).
body(r_fr24_1,fr24_c3).
body(r_fr24_1,fr24_f2).
head(r_fr24_2,fr24_v6).
body(r_fr24_2,fr24_e1).
body(r_fr24_2,fr24_f2).
head(r_fr24_3,fr24_q1).
body(r_fr24_3,fr16_e4).
body(r_fr24_3,fr24_f2).
body(r_fr24_3,fr24_x6).
head(r_fr24_4,fr24_q1).
body(r_fr24_4,fr4_u2).
body(r_fr24_4,fr24_x6).
head(r_fr24_5,fr24_q1).
body(r_fr24_5,fr14_e2).
head(r_fr24_6,fr24_q1).
body(r_fr24_6,fr24_x6).
body(r_fr24_6,fr24_y6).
body(r_fr24_6,fr24_z1).
head(r_fr24_7,fr24_q1).
head(r_fr24_8,fr24_p7).
body(r_fr24_8,fr14_e2).
body(r_fr24_8,fr12_e2).
body(r_fr24_8,fr24_d2).
body(r_fr24_8,fr24_f2).
body(r_fr24_8,fr4_u2).
body(r_fr24_8,fr24_x7).
head(r_fr24_9,fr24_p7).
head(r_fr24_10,fr24_p7).
body(r_fr24_10,fr24_s5).
head(r_fr24_11,fr24_s3).
body(r_fr24_11,fr16_e4).
head(r_fr24_12,fr24_s3).
body(r_fr24_12,fr14_e2).
body(r_fr24_12,fr24_b2).
body(r_fr24_12,fr18_c3).
body(r_fr24_12,fr24_p1).
body(r_fr24_12,fr9_s1).
body(r_fr24_12,fr24_z3).
head(r_fr24_13,fr24_s3).
body(r_fr24_13,fr24_e1).
head(r_fr24_14,fr24_s3).
body(r_fr24_14,fr24_t3).
head(r_fr24_15,fr24_p5).
body(r_fr24_15,fr24_r7).
body(r_fr24_15,fr5_t3).
body(r_fr24_15,fr4_u2).
body(r_fr24_15,fr24_y4).
head(r_fr24_16,fr24_p5).
body(r_fr24_16,fr14_e2).
body(r_fr24_16,fr24_e1).
body(r_fr24_16,fr18_c3).
body(r_fr24_16,fr24_f2).
head(r_fr24_17,fr24_p5).
body(r_fr24_17,fr24_b1).
body(r_fr24_17,fr12_e2).
head(r_fr24_18,fr24_x5).
body(r_fr24_18,fr24_r3).
body(r_fr24_18,fr24_t3).
body(r_fr24_18,fr24_u2).
body(r_fr24_18,fr9_w4).
body(r_fr24_18,fr24_x3).
body(r_fr24_18,fr24_z3).
head(r_fr24_19,fr24_x5).
body(r_fr24_19,fr24_q3).
body(r_fr24_19,fr24_s4).
body(r_fr24_19,fr4_u2).
head(r_fr24_20,fr24_x5).
body(r_fr24_20,fr24_b2).
body(r_fr24_20,fr24_t7).
body(r_fr24_20,fr24_w7).
head(r_fr24_21,fr24_v1).
body(r_fr24_21,fr24_e1).
body(r_fr24_21,fr24_y3).
body(r_fr24_21,fr24_z6).
head(r_fr24_22,fr24_v1).
body(r_fr24_22,fr24_r6).
body(r_fr24_22,fr24_u2).
body(r_fr24_22,fr24_z4).
head(r_fr24_23,fr24_v1).
body(r_fr24_23,fr24_u5).
body(r_fr24_23,fr4_u2).
body(r_fr24_23,fr24_z1).
head(r_fr24_24,fr24_v1).
head(r_fr24_25,fr24_v1).
body(r_fr24_25,fr24_b1).
head(r_fr24_26,fr24_y2).
body(r_fr24_26,fr24_b1).
body(r_fr24_26,fr24_c1).
body(r_fr24_26,fr24_r4).
body(r_fr24_26,fr24_x2).
body(r_fr24_26,fr23_v2).
head(r_fr24_27,fr24_y2).
body(r_fr24_27,fr24_t6).
body(r_fr24_27,fr24_u3).
head(r_fr24_28,fr24_x4).
body(r_fr24_28,fr14_e2).
body(r_fr24_28,fr24_p3).
body(r_fr24_28,fr24_r6).
body(r_fr24_28,fr24_s7).
body(r_fr24_28,fr24_v4).
body(r_fr24_28,fr11_p3).
head(r_fr24_29,fr24_x4).
head(r_fr24_30,fr24_x4).
body(r_fr24_30,fr24_f1).
body(r_fr24_30,fr24_r4).
body(r_fr24_30,fr24_t3).
body(r_fr24_30,fr4_u2).
head(r_fr24_31,fr24_u6).
body(r_fr24_31,fr24_c3).
body(r_fr24_31,fr23_v2).
head(r_fr24_32,fr24_u6).
body(r_fr24_32,fr12_e2).
body(r_fr24_32,fr18_c3).
body(r_fr24_32,fr24_q3).
body(r_fr24_32,fr24_s5).
head(r_fr24_33,fr24_y3).
body(r_fr24_33,fr24_b1).
body(r_fr24_33,fr24_d1).
body(r_fr24_33,fr24_d2).
body(r_fr24_33,fr24_t1).
body(r_fr24_33,fr24_u1).
body(r_fr24_33,fr24_x6).
head(r_fr24_34,fr24_y3).
head(r_fr24_35,fr24_z3).
body(r_fr24_35,fr24_b1).
body(r_fr24_35,fr18_c3).
body(r_fr24_35,fr24_f1).
body(r_fr24_35,fr24_f2).
head(r_fr24_36,fr24_z3).
body(r_fr24_36,fr24_f1).
body(r_fr24_36,fr16_x1).
body(r_fr24_36,fr24_x6).
head(r_fr24_37,fr24_z3).
body(r_fr24_37,fr24_d1).
body(r_fr24_37,fr24_s7).
body(r_fr24_37,fr24_t2).
body(r_fr24_37,fr9_s1).
body(r_fr24_37,fr24_x3).
head(r_fr24_38,fr24_z3).
head(r_fr24_39,fr24_z1).
body(r_fr24_39,fr16_e4).
body(r_fr24_39,fr24_e1).
body(r_fr24_39,fr18_c3).
head(r_fr24_40,fr24_z1).
head(r_fr24_41,fr24_z1).
body(r_fr24_41,fr12_e2).
body(r_fr24_41,fr18_c3).
body(r_fr24_41,fr24_s6).
head(r_fr24_42,fr24_z1).
body(r_fr24_42,fr18_c3).
body(r_fr24_42,fr24_x7).
head(r_fr24_43,fr4_u2).
body(r_fr24_43,fr24_p2).
body(r_fr24_43,fr16_x1).
head(r_fr24_44,fr4_u2).
body(r_fr24_44,fr14_e2).
head(r_fr24_45,fr4_u2).
body(r_fr24_45,fr11_p3).
head(r_fr24_46,fr24_t5).
body(r_fr24_46,fr24_v3).
head(r_fr24_47,fr24_t5).
body(r_fr24_47,fr14_e2).
body(r_fr24_47,fr24_f1).
body(r_fr24_47,fr24_w7).
body(r_fr24_47,fr24_x1).
head(r_fr24_48,fr24_t5).
body(r_fr24_48,fr14_e2).
body(r_fr24_48,fr24_b2).
body(r_fr24_48,fr24_d1).
body(r_fr24_48,fr24_f1).
head(r_fr24_49,fr24_t5).
body(r_fr24_49,fr24_a2).
body(r_fr24_49,fr24_c1).
body(r_fr24_49,fr24_f1).
body(r_fr24_49,fr24_f2).
head(r_fr24_50,fr24_t5).
body(r_fr24_50,fr11_p3).
head(r_fr24_51,fr24_w7).
head(r_fr24_52,fr24_w7).
body(r_fr24_52,fr14_e2).
body(r_fr24_52,fr24_p6).
body(r_fr24_52,fr24_r1).
body(r_fr24_52,fr24_r7).
head(r_fr24_53,fr24_w7).
body(r_fr24_53,fr24_a2).
body(r_fr24_53,fr24_b2).
body(r_fr24_53,fr16_e4).
body(r_fr24_53,fr24_c3).
body(r_fr24_53,fr24_f2).
head(r_fr24_54,fr24_r7).
body(r_fr24_54,fr24_q7).
body(r_fr24_54,fr5_t3).
body(r_fr24_54,fr11_p3).
body(r_fr24_54,fr24_z6).
head(r_fr24_55,fr24_r7).
body(r_fr24_55,fr24_p6).
body(r_fr24_55,fr24_t6).
body(r_fr24_55,fr4_u2).
body(r_fr24_55,fr24_z6).
head(r_fr24_56,fr24_x1).
body(r_fr24_56,fr24_a3).
body(r_fr24_56,fr24_b2).
body(r_fr24_56,fr12_e2).
body(r_fr24_56,fr24_c3).
body(r_fr24_56,fr24_p3).
head(r_fr24_57,fr24_x1).
head(r_fr24_58,fr24_x1).
body(r_fr24_58,fr24_v4).
body(r_fr24_58,fr24_y4).
head(r_fr24_59,fr24_x1).
body(r_fr24_59,fr24_z4).
head(r_fr24_60,fr24_x1).
body(r_fr24_60,fr24_b2).
body(r_fr24_60,fr24_p2).
head(r_fr24_61,fr24_r3).
body(r_fr24_61,fr14_e2).
body(r_fr24_61,fr24_d1).
body(r_fr24_61,fr24_d2).
body(r_fr24_61,fr24_f2).
body(r_fr24_61,fr24_p6).
body(r_fr24_61,fr24_u1).
head(r_fr24_62,fr24_r3).
body(r_fr24_62,fr24_e1).
body(r_fr24_62,fr24_t2).
head(r_fr24_63,fr24_r3).
body(r_fr24_63,fr24_a3).
body(r_fr24_63,fr12_e2).
body(r_fr24_63,fr18_c3).
body(r_fr24_63,fr24_f2).
head(r_fr24_64,fr24_r3).
body(r_fr24_64,fr12_e2).
body(r_fr24_64,fr16_x1).
body(r_fr24_64,fr24_r1).
body(r_fr24_64,fr24_u1).
body(r_fr24_64,fr24_v3).
head(r_fr24_65,fr24_t2).
body(r_fr24_65,fr24_d1).
body(r_fr24_65,fr24_d2).
body(r_fr24_65,fr24_f1).
body(r_fr24_65,fr24_s1).
body(r_fr24_65,fr24_s5).
body(r_fr24_65,fr24_u2).
head(r_fr24_66,fr24_t2).

assumption(fr25_a1).
assumption(fr25_b1).
assumption(fr25_c1).
assumption(fr25_d1).
assumption(fr2_f1).
assumption(fr16_a4).
assumption(fr25_a2).
assumption(fr25_b2).
assumption(fr25_c2).
assumption(fr25_d2).
assumption(fr9_d1).
assumption(fr16_a2).
assumption(fr25_a3).
assumption(fr23_f1).
assumption(fr25_c3).
assumption(fr25_d3).
assumption(fr25_e3).
assumption(fr25_f3).
assumption(fr18_c3).
assumption(fr25_b4).
assumption(fr25_c4).
assumption(fr25_d4).
assumption(fr25_e4).
assumption(fr25_f4).
assumption(fr25_a5).
assumption(fr4_b1).
assumption(fr25_c5).
assumption(fr25_d5).
assumption(fr25_e5).
assumption(fr25_f5).
contrary(fr25_a1,fr5_s5).
contrary(fr25_a2,fr25_x4).
contrary(fr25_a3,fr5_t6).
contrary(fr18_c3,fr23_f1).
contrary(fr25_a5,fr25_b1).
contrary(fr25_b1,fr25_v1).
contrary(fr25_b2,fr21_p4).
contrary(fr23_f1,fr25_y3).
contrary(fr25_b4,fr25_d2).
contrary(fr4_b1,fr23_f1).
contrary(fr25_c1,fr25_p4).
contrary(fr25_c2,fr25_e4).
contrary(fr25_c3,fr25_b4).
contrary(fr25_c4,fr16_a2).
contrary(fr25_c5,fr25_b4).
contrary(fr25_d1,fr5_s5).
contrary(fr25_d2,fr9_p3).
contrary(fr25_d3,fr25_u3).
contrary(fr25_d4,fr22_u1).
contrary(fr25_d5,fr25_d4).
contrary(fr2_f1,fr25_f5).
contrary(fr9_d1,fr25_y4).
contrary(fr25_e3,fr25_z3).
contrary(fr25_e4,fr25_f5).
contrary(fr25_e5,fr4_b1).
contrary(fr16_a4,fr25_a5).
contrary(fr16_a2,fr25_d1).
contrary(fr25_f3,fr25_f4).
contrary(fr25_f4,fr25_d2).
contrary(fr25_f5,fr25_d5).
head(r_fr25_0,fr25_w1).
body(r_fr25_0,fr25_a1).
body(r_fr25_0,fr25_a2).
body(r_fr25_0,fr18_c3).
body(r_fr25_0,fr25_b2).
body(r_fr25_0,fr25_c5).
body(r_fr25_0,fr25_d1).
body(r_fr25_0,fr25_d3).
body(r_fr25_0,fr16_a2).
body(r_fr25_0,fr25_f3).
body(r_fr25_0,fr25_f5).
body(r_fr25_0,fr4_q2).
head(r_fr25_1,fr25_w1).
body(r_fr25_1,fr25_b2).
body(r_fr25_1,fr23_f1).
body(r_fr25_1,fr25_e5).
body(r_fr25_1,fr20_v2).
body(r_fr25_1,fr25_x3).
head(r_fr25_2,fr25_w1).
body(r_fr25_2,fr25_b2).
body(r_fr25_2,fr25_c3).
body(r_fr25_2,fr25_d4).
body(r_fr25_2,fr25_e4).
body(r_fr25_2,fr16_a4).
body(r_fr25_2,fr16_a2).
body(r_fr25_2,fr25_f5).
body(r_fr25_2,fr20_v2).
head(r_fr25_3,fr25_w1).
body(r_fr25_3,fr25_s3).
body(r_fr25_3,fr16_q1).
body(r_fr25_3,fr22_r1).
head(r_fr25_4,fr25_w1).
body(r_fr25_4,fr20_x3).
head(r_fr25_5,fr25_w1).
body(r_fr25_5,fr25_d2).
head(r_fr25_6,fr25_u2).
body(r_fr25_6,fr25_c5).
body(r_fr25_6,fr25_p4).
body(r_fr25_6,fr25_q2).
body(r_fr25_6,fr25_q4).
body(r_fr25_6,fr25_u3).
body(r_fr25_6,fr25_u5).
body(r_fr25_6,fr25_v1).
body(r_fr25_6,fr25_z3).
head(r_fr25_7,fr25_u2).
body(r_fr25_7,fr25_a2).
body(r_fr25_7,fr25_r2).
body(r_fr25_7,fr25_v1).
body(r_fr25_7,fr25_w2).
head(r_fr25_8,fr25_u2).
body(r_fr25_8,fr25_d2).
body(r_fr25_8,fr25_p1).
body(r_fr25_8,fr25_p5).
body(r_fr25_8,fr4_q2).
body(r_fr25_8,fr25_r3).
body(r_fr25_8,fr25_r4).
body(r_fr25_8,fr25_s1).
body(r_fr25_8,fr25_s3).
body(r_fr25_8,fr25_v2).
body(r_fr25_8,fr25_x3).
head(r_fr25_9,fr25_u2).
body(r_fr25_9,fr25_c1).
body(r_fr25_9,fr25_c4).
body(r_fr25_9,fr25_p4).
head(r_fr25_10,fr25_q4).
body(r_fr25_10,fr4_b1).
body(r_fr25_10,fr25_d4).
body(r_fr25_10,fr16_a2).
body(r_fr25_10,fr25_y3).
head(r_fr25_11,fr25_q4).
body(r_fr25_11,fr25_a3).
body(r_fr25_11,fr25_c4).
body(r_fr25_11,fr25_d5).
body(r_fr25_11,fr9_d1).
body(r_fr25_11,fr25_r3).
body(r_fr25_11,fr9_p3).
body(r_fr25_11,fr25_x2).
body(r_fr25_11,fr25_z1).
head(r_fr25_12,fr25_q4).
body(r_fr25_12,fr25_b1).
body(r_fr25_12,fr25_c1).
body(r_fr25_12,fr25_c3).
body(r_fr25_12,fr2_f1).
body(r_fr25_12,fr9_p3).
head(r_fr25_13,fr25_q4).
body(r_fr25_13,fr9_p3).
head(r_fr25_14,fr25_q4).
body(r_fr25_14,fr25_c5).
body(r_fr25_14,fr25_d1).
body(r_fr25_14,fr25_f3).
body(r_fr25_14,fr25_f4).
body(r_fr25_14,fr25_t3).
body(r_fr25_14,fr25_w4).
head(r_fr25_15,fr25_p1).
body(r_fr25_15,fr25_a1).
body(r_fr25_15,fr25_a5).
body(r_fr25_15,fr25_c2).
body(r_fr25_15,fr25_d2).
body(r_fr25_15,fr9_d1).
body(r_fr25_15,fr16_a4).
body(r_fr25_15,fr25_z1).
head(r_fr25_16,fr25_p1).
body(r_fr25_16,fr25_c1).
body(r_fr25_16,fr25_c5).
body(r_fr25_16,fr25_y2).
body(r_fr25_16,fr25_y3).
body(r_fr25_16,fr5_t6).
head(r_fr25_17,fr25_p1).
body(r_fr25_17,fr25_b1).
body(r_fr25_17,fr23_f1).
body(r_fr25_17,fr25_d2).
body(r_fr25_17,fr25_f4).
body(r_fr25_17,fr16_q1).
head(r_fr25_18,fr25_p1).
body(r_fr25_18,fr25_p5).
body(r_fr25_18,fr25_r1).
body(r_fr25_18,fr25_r4).
body(r_fr25_18,fr5_s5).
body(r_fr25_18,fr25_t4).
body(r_fr25_18,fr25_u3).
body(r_fr25_18,fr25_v1).
head(r_fr25_19,fr25_p1).
body(r_fr25_19,fr25_c4).
body(r_fr25_19,fr25_p4).
body(r_fr25_19,fr25_q2).
body(r_fr25_19,fr25_t1).
body(r_fr25_19,fr25_u3).
body(r_fr25_19,fr25_w3).
body(r_fr25_19,fr25_x3).
body(r_fr25_19,fr25_y2).
head(r_fr25_20,fr25_p1).
body(r_fr25_20,fr25_c4).
body(r_fr25_20,fr25_d5).
head(r_fr25_21,fr25_p1).
body(r_fr25_21,fr25_q2).
body(r_fr25_21,fr20_x3).
body(r_fr25_21,fr25_t3).
body(r_fr25_21,fr9_p3).
body(r_fr25_21,fr25_w3).
body(r_fr25_21,fr25_y2).
body(r_fr25_21,fr25_y3).
body(r_fr25_21,fr25_z2).
head(r_fr25_22,fr25_p1).
body(r_fr25_22,fr25_c4).
head(r_fr25_23,fr25_p1).
head(r_fr25_24,fr25_p1).
body(r_fr25_24,fr25_q3).
body(r_fr25_24,fr25_r3).
body(r_fr25_24,fr25_r4).
body(r_fr25_24,fr25_t4).
body(r_fr25_24,fr16_q1).
head(r_fr25_25,fr25_p4).
body(r_fr25_25,fr25_e3).
head(r_fr25_26,fr25_p4).
body(r_fr25_26,fr25_c2).
body(r_fr25_26,fr16_a4).
body(r_fr25_26,fr25_f4).
body(r_fr25_26,fr20_x3).
head(r_fr25_27,fr25_p4).
body(r_fr25_27,fr25_c2).
body(r_fr25_27,fr22_u1).
body(r_fr25_27,fr25_r3).
body(r_fr25_27,fr25_t1).
body(r_fr25_27,fr25_x1).
body(r_fr25_27,fr25_x2).
body(r_fr25_27,fr25_y3).
body(r_fr25_27,fr5_t6).
head(r_fr25_28,fr25_p4).
body(r_fr25_28,fr22_u1).
body(r_fr25_28,fr25_p5).
body(r_fr25_28,fr20_v2).
body(r_fr25_28,fr25_s4).
body(r_fr25_28,fr25_t4).
body(r_fr25_28,fr16_q1).
body(r_fr25_28,fr25_w2).
body(r_fr25_28,fr25_w4).
body(r_fr25_28,fr25_x4).
body(r_fr25_28,fr25_y3).
head(r_fr25_29,fr25_p4).
body(r_fr25_29,fr25_c1).
body(r_fr25_29,fr25_u5).
body(r_fr25_29,fr25_y3).
head(r_fr25_30,fr25_p4).
body(r_fr25_30,fr25_a1).
body(r_fr25_30,fr25_c4).
body(r_fr25_30,fr25_d2).
body(r_fr25_30,fr25_d3).
body(r_fr25_30,fr2_f1).
body(r_fr25_30,fr25_f3).
body(r_fr25_30,fr25_t2).
body(r_fr25_30,fr25_u3).
body(r_fr25_30,fr25_y2).
head(r_fr25_31,fr25_x1).
body(r_fr25_31,fr4_b1).
body(r_fr25_31,fr22_u1).
body(r_fr25_31,fr25_s1).
body(r_fr25_31,fr25_s3).
head(r_fr25_32,fr25_x1).
body(r_fr25_32,fr25_a2).
body(r_fr25_32,fr18_c3).
body(r_fr25_32,fr25_a5).
body(r_fr25_32,fr25_b4).
body(r_fr25_32,fr2_f1).
body(r_fr25_32,fr9_d1).
body(r_fr25_32,fr16_a2).
body(r_fr25_32,fr25_f4).
body(r_fr25_32,fr25_r2).
body(r_fr25_32,fr25_s4).
body(r_fr25_32,fr13_q2).
head(r_fr25_33,fr25_x1).
body(r_fr25_33,fr25_a3).
body(r_fr25_33,fr25_b1).
body(r_fr25_33,fr25_d2).
body(r_fr25_33,fr25_e4).
body(r_fr25_33,fr25_f5).
head(r_fr25_34,fr25_x1).
body(r_fr25_34,fr25_d1).
body(r_fr25_34,fr25_d2).
body(r_fr25_34,fr25_d5).
body(r_fr25_34,fr25_e5).
body(r_fr25_34,fr16_a4).
head(r_fr25_35,fr25_x1).
body(r_fr25_35,fr25_d1).
body(r_fr25_35,fr25_f3).
head(r_fr25_36,fr22_u1).
body(r_fr25_36,fr25_b1).
body(r_fr25_36,fr25_c2).
body(r_fr25_36,fr25_c4).
body(r_fr25_36,fr25_e3).
body(r_fr25_36,fr25_e4).
body(r_fr25_36,fr25_q2).
body(r_fr25_36,fr25_r3).
body(r_fr25_36,fr25_t4).
head(r_fr25_37,fr22_u1).
body(r_fr25_37,fr25_a2).
body(r_fr25_37,fr25_b4).
body(r_fr25_37,fr4_b1).
body(r_fr25_37,fr25_c4).
body(r_fr25_37,fr25_e3).
body(r_fr25_37,fr16_a4).
body(r_fr25_37,fr25_t1).
body(r_fr25_37,fr25_v2).
body(r_fr25_37,fr25_x4).
head(r_fr25_38,fr22_u1).
body(r_fr25_38,fr25_b2).
body(r_fr25_38,fr25_b4).
body(r_fr25_38,fr25_c2).
body(r_fr25_38,fr25_d5).
body(r_fr25_38,fr25_f3).
body(r_fr25_38,fr4_q2).
body(r_fr25_38,fr25_t1).
body(r_fr25_38,fr13_q2).
head(r_fr25_39,fr22_u1).
body(r_fr25_39,fr18_c3).
body(r_fr25_39,fr25_x4).
body(r_fr25_39,fr25_z2).
head(r_fr25_40,fr22_u1).
body(r_fr25_40,fr25_a2).
body(r_fr25_40,fr25_b4).
body(r_fr25_40,fr25_c4).
body(r_fr25_40,fr25_d3).
body(r_fr25_40,fr25_e3).
head(r_fr25_41,fr22_u1).
body(r_fr25_41,fr25_d2).
body(r_fr25_41,fr25_x2).
head(r_fr25_42,fr25_q3).
body(r_fr25_42,fr25_a5).
body(r_fr25_42,fr25_b2).
body(r_fr25_42,fr25_d5).
body(r_fr25_42,fr16_a2).
body(r_fr25_42,fr20_v2).
head(r_fr25_43,fr25_q3).
body(r_fr25_43,fr25_b4).
body(r_fr25_43,fr4_b1).
body(r_fr25_43,fr25_d4).
body(r_fr25_43,fr9_d1).
body(r_fr25_43,fr25_e5).
body(r_fr25_43,fr4_q2).
body(r_fr25_43,fr25_t2).
body(r_fr25_43,fr25_x2).
body(r_fr25_43,fr25_z2).
head(r_fr25_44,fr25_v1).
body(r_fr25_44,fr25_e4).
body(r_fr25_44,fr16_a2).
body(r_fr25_44,fr25_p3).
body(r_fr25_44,fr20_v2).
body(r_fr25_44,fr25_t4).
body(r_fr25_44,fr9_p3).
body(r_fr25_44,fr22_r1).
body(r_fr25_44,fr25_v4).
body(r_fr25_44,fr25_y3).
head(r_fr25_45,fr25_v1).
body(r_fr25_45,fr25_a2).
body(r_fr25_45,fr18_c3).
body(r_fr25_45,fr25_b1).
body(r_fr25_45,fr25_b2).
body(r_fr25_45,fr25_c1).
body(r_fr25_45,fr25_c3).
body(r_fr25_45,fr25_c4).
body(r_fr25_45,fr25_d2).
body(r_fr25_45,fr25_d3).
head(r_fr25_46,fr25_v1).
body(r_fr25_46,fr25_a3).
body(r_fr25_46,fr18_c3).
body(r_fr25_46,fr25_b2).
head(r_fr25_47,fr25_v1).
body(r_fr25_47,fr25_a3).
body(r_fr25_47,fr25_b2).
body(r_fr25_47,fr25_b4).
body(r_fr25_47,fr25_d5).
body(r_fr25_47,fr16_a4).
body(r_fr25_47,fr25_x3).
head(r_fr25_48,fr25_v1).
body(r_fr25_48,fr25_p5).
head(r_fr25_49,fr25_v1).
body(r_fr25_49,fr25_c3).
body(r_fr25_49,fr25_d4).
body(r_fr25_49,fr25_f4).
body(r_fr25_49,fr20_x3).
head(r_fr25_50,fr25_v1).
body(r_fr25_50,fr25_c4).
body(r_fr25_50,fr2_f1).
body(r_fr25_50,fr25_e3).
body(r_fr25_50,fr25_x2).
head(r_fr25_51,fr25_v1).
body(r_fr25_51,fr25_c5).
body(r_fr25_51,fr5_s5).
body(r_fr25_51,fr25_z1).
head(r_fr25_52,fr25_v1).
body(r_fr25_52,fr25_a3).
body(r_fr25_52,fr25_b4).
body(r_fr25_52,fr25_c2).
body(r_fr25_52,fr25_e3).
head(r_fr25_53,fr25_r1).
body(r_fr25_53,fr25_b1).
body(r_fr25_53,fr25_b4).
body(r_fr25_53,fr25_c2).
body(r_fr25_53,fr25_c4).
body(r_fr25_53,fr25_d1).
body(r_fr25_53,fr16_a2).
body(r_fr25_53,fr25_f3).
body(r_fr25_53,fr25_f4).
body(r_fr25_53,fr25_r3).
body(r_fr25_53,fr25_z1).
head(r_fr25_54,fr25_r1).
body(r_fr25_54,fr25_f5).
body(r_fr25_54,fr25_p5).
body(r_fr25_54,fr20_v2).
body(r_fr25_54,fr25_s3).
body(r_fr25_54,fr25_t2).
body(r_fr25_54,fr25_t4).
body(r_fr25_54,fr25_t5).
body(r_fr25_54,fr25_v2).
body(r_fr25_54,fr25_w2).
body(r_fr25_54,fr25_x3).
body(r_fr25_54,fr5_t6).
head(r_fr25_55,fr25_w2).
body(r_fr25_55,fr16_a2).
body(r_fr25_55,fr25_s1).
body(r_fr25_55,fr25_s3).
body(r_fr25_55,fr5_s5).
body(r_fr25_55,fr25_u5).
body(r_fr25_55,fr22_r1).
body(r_fr25_55,fr25_v4).
head(r_fr25_56,fr25_w2).
body(r_fr25_56,fr18_c3).
body(r_fr25_56,fr25_b2).
body(r_fr25_56,fr25_c1).
body(r_fr25_56,fr25_c4).
body(r_fr25_56,fr25_d3).
body(r_fr25_56,fr25_d4).
body(r_fr25_56,fr2_f1).
head(r_fr25_57,fr25_w2).
body(r_fr25_57,fr18_c3).
body(r_fr25_57,fr23_f1).
body(r_fr25_57,fr25_e3).
body(r_fr25_57,fr25_e5).
body(r_fr25_57,fr20_v2).
body(r_fr25_57,fr22_r1).
body(r_fr25_57,fr13_q2).
head(r_fr25_58,fr25_w2).
body(r_fr25_58,fr25_d4).
body(r_fr25_58,fr21_p4).
body(r_fr25_58,fr9_p3).
body(r_fr25_58,fr13_q2).
head(r_fr25_59,fr25_x4).
body(r_fr25_59,fr25_b1).
body(r_fr25_59,fr23_f1).
body(r_fr25_59,fr25_d2).
body(r_fr25_59,fr25_e4).
body(r_fr25_59,fr25_s4).
body(r_fr25_59,fr25_t1).
body(r_fr25_59,fr25_t5).
body(r_fr25_59,fr25_v2).
body(r_fr25_59,fr25_y2).
head(r_fr25_60,fr25_x4).
body(r_fr25_60,fr25_a3).
body(r_fr25_60,fr25_a5).
body(r_fr25_60,fr25_b1).
body(r_fr25_60,fr25_e4).
head(r_fr25_61,fr25_x4).
body(r_fr25_61,fr25_p5).
body(r_fr25_61,fr25_q2).
body(r_fr25_61,fr25_r2).
body(r_fr25_61,fr25_r3).
body(r_fr25_61,fr21_p4).
body(r_fr25_61,fr25_w4).
body(r_fr25_61,fr13_q2).
body(r_fr25_61,fr25_y3).
head(r_fr25_62,fr25_x4).
head(r_fr25_63,fr25_x4).
body(r_fr25_63,fr23_f1).
body(r_fr25_63,fr25_d2).
body(r_fr25_63,fr25_d5).
body(r_fr25_63,fr25_p3).
body(r_fr25_63,fr4_q2).
body(r_fr25_63,fr25_u5).
body(r_fr25_63,fr25_v4).
head(r_fr25_64,fr25_x4).
body(r_fr25_64,fr25_a5).
head(r_fr25_65,fr25_x4).
body(r_fr25_65,fr25_a2).
body(r_fr25_65,fr25_b4).
body(r_fr25_65,fr4_b1).
body(r_fr25_65,fr25_d4).
body(r_fr25_65,fr16_a2).
body(r_fr25_65,fr25_f5).
body(r_fr25_65,fr4_q2).
body(r_fr25_65,fr20_v2).
head(r_fr25_66,fr25_x4).
body(r_fr25_66,fr20_v2).
body(r_fr25_66,fr25_z3).
head(r_fr25_67,fr25_x4).
body(r_fr25_67,fr21_p4).
body(r_fr25_67,fr25_x3).
head(r_fr25_68,fr9_p3).
body(r_fr25_68,fr25_a5).
body(r_fr25_68,fr25_c2).
body(r_fr25_68,fr25_d4).
body(r_fr25_68,fr25_q2).
body(r_fr25_68,fr20_v2).
head(r_fr25_69,fr9_p3).
body(r_fr25_69,fr25_a1).
body(r_fr25_69,fr25_b2).
body(r_fr25_69,fr4_b1).
body(r_fr25_69,fr25_c2).
body(r_fr25_69,fr25_d2).
head(r_fr25_70,fr9_p3).
body(r_fr25_70,fr25_a3).
body(r_fr25_70,fr25_b1).
body(r_fr25_70,fr23_f1).
body(r_fr25_70,fr25_c3).
body(r_fr25_70,fr2_f1).
body(r_fr25_70,fr9_d1).
body(r_fr25_70,fr22_r1).
head(r_fr25_71,fr9_p3).
body(r_fr25_71,fr25_a3).
body(r_fr25_71,fr25_b2).
body(r_fr25_71,fr23_f1).
body(r_fr25_71,fr25_f4).
body(r_fr25_71,fr25_r3).
body(r_fr25_71,fr25_t4).
body(r_fr25_71,fr25_w4).
body(r_fr25_71,fr13_q2).
head(r_fr25_72,fr9_p3).
body(r_fr25_72,fr25_a2).
body(r_fr25_72,fr25_a5).
body(r_fr25_72,fr25_c2).
body(r_fr25_72,fr25_p3).
body(r_fr25_72,fr21_p4).
body(r_fr25_72,fr25_z1).
head(r_fr25_73,fr9_p3).
body(r_fr25_73,fr25_a1).
body(r_fr25_73,fr25_a5).
body(r_fr25_73,fr25_c4).
body(r_fr25_73,fr25_d3).
body(r_fr25_73,fr16_a4).
head(r_fr25_74,fr9_p3).
body(r_fr25_74,fr25_c1).
body(r_fr25_74,fr25_d3).
body(r_fr25_74,fr25_d4).
body(r_fr25_74,fr25_r3).
body(r_fr25_74,fr21_p4).
body(r_fr25_74,fr25_t2).
body(r_fr25_74,fr25_w4).
head(r_fr25_75,fr9_p3).
body(r_fr25_75,fr25_c1).
body(r_fr25_75,fr25_c4).
body(r_fr25_75,fr25_d2).
body(r_fr25_75,fr2_f1).
body(r_fr25_75,fr9_d1).
body(r_fr25_75,fr25_p3).
body(r_fr25_75,fr25_t1).
body(r_fr25_75,fr22_r1).
body(r_fr25_75,fr25_v4).
body(r_fr25_75,fr25_x2).
head(r_fr25_76,fr25_w3).
body(r_fr25_76,fr25_e4).
body(r_fr25_76,fr25_p3).
body(r_fr25_76,fr25_q2).
body(r_fr25_76,fr21_p4).
body(r_fr25_76,fr25_t1).
body(r_fr25_76,fr25_t2).
body(r_fr25_76,fr25_u3).
body(r_fr25_76,fr25_y2).
body(r_fr25_76,fr25_y4).
head(r_fr25_77,fr25_w3).
body(r_fr25_77,fr25_b1).
body(r_fr25_77,fr25_b2).
body(r_fr25_77,fr25_c4).
body(r_fr25_77,fr25_d4).
body(r_fr25_77,fr25_p5).
body(r_fr25_77,fr4_q2).
body(r_fr25_77,fr20_x3).
body(r_fr25_77,fr25_s1).
body(r_fr25_77,fr25_y3).
head(r_fr25_78,fr25_w3).
head(r_fr25_79,fr25_w3).
body(r_fr25_79,fr25_d2).
body(r_fr25_79,fr25_d3).
body(r_fr25_79,fr16_q1).
body(r_fr25_79,fr25_w4).
body(r_fr25_79,fr25_y2).
head(r_fr25_80,fr25_w3).
body(r_fr25_80,fr25_b1).
body(r_fr25_80,fr25_p5).
head(r_fr25_81,fr25_w3).
body(r_fr25_81,fr18_c3).
body(r_fr25_81,fr25_f5).
body(r_fr25_81,fr4_q2).
body(r_fr25_81,fr21_p4).
body(r_fr25_81,fr25_s4).
body(r_fr25_81,fr25_u5).
body(r_fr25_81,fr25_x2).
body(r_fr25_81,fr25_y3).
head(r_fr25_82,fr25_w3).
body(r_fr25_82,fr23_f1).
body(r_fr25_82,fr25_c4).
body(r_fr25_82,fr25_d4).
body(r_fr25_82,fr25_f3).
body(r_fr25_82,fr20_x3).
body(r_fr25_82,fr25_z1).
head(r_fr25_83,fr20_x3).
body(r_fr25_83,fr25_a5).
body(r_fr25_83,fr16_a2).
body(r_fr25_83,fr4_q2).
head(r_fr25_84,fr20_x3).
body(r_fr25_84,fr4_b1).
body(r_fr25_84,fr25_p5).
body(r_fr25_84,fr25_q2).
body(r_fr25_84,fr25_t4).
body(r_fr25_84,fr25_t5).
body(r_fr25_84,fr16_q1).
body(r_fr25_84,fr25_u5).
body(r_fr25_84,fr25_v4).
body(r_fr25_84,fr25_y2).
body(r_fr25_84,fr25_y4).
body(r_fr25_84,fr25_z2).
head(r_fr25_85,fr20_x3).
body(r_fr25_85,fr25_p5).
body(r_fr25_85,fr4_q2).
body(r_fr25_85,fr25_r4).
body(r_fr25_85,fr16_q1).
body(r_fr25_85,fr25_v2).
body(r_fr25_85,fr25_v4).
body(r_fr25_85,fr25_y2).
body(r_fr25_85,fr25_z2).
body(r_fr25_85,fr25_z3).
head(r_fr25_86,fr25_z1).
body(r_fr25_86,fr25_c3).
body(r_fr25_86,fr25_t3).
body(r_fr25_86,fr25_u5).
head(r_fr25_87,fr25_z1).
body(r_fr25_87,fr25_a1).
body(r_fr25_87,fr25_c2).
body(r_fr25_87,fr25_d5).
body(r_fr25_87,fr16_a2).
body(r_fr25_87,fr25_t4).
body(r_fr25_87,fr25_u5).
body(r_fr25_87,fr25_v2).
body(r_fr25_87,fr13_q2).
head(r_fr25_88,fr25_z1).
body(r_fr25_88,fr25_r4).
body(r_fr25_88,fr21_p4).
body(r_fr25_88,fr16_q1).
body(r_fr25_88,fr25_z2).
head(r_fr25_89,fr25_z1).
body(r_fr25_89,fr18_c3).
body(r_fr25_89,fr25_a5).
body(r_fr25_89,fr25_c1).
body(r_fr25_89,fr9_d1).
body(r_fr25_89,fr25_e5).
body(r_fr25_89,fr16_a2).
body(r_fr25_89,fr25_f5).
body(r_fr25_89,fr25_q2).
body(r_fr25_89,fr25_r2).
body(r_fr25_89,fr20_v2).
body(r_fr25_89,fr25_u3).
head(r_fr25_90,fr25_z1).
body(r_fr25_90,fr25_a1).
body(r_fr25_90,fr25_a3).
body(r_fr25_90,fr25_b4).
body(r_fr25_90,fr25_c3).
body(r_fr25_90,fr25_d2).
body(r_fr25_90,fr25_d4).
body(r_fr25_90,fr16_a4).
body(r_fr25_90,fr16_a2).
body(r_fr25_90,fr20_v2).
body(r_fr25_90,fr16_q1).
head(r_fr25_91,fr25_z1).
body(r_fr25_91,fr25_c3).
body(r_fr25_91,fr4_q2).
body(r_fr25_91,fr16_q1).
body(r_fr25_91,fr25_x2).
head(r_fr25_92,fr25_t1).
body(r_fr25_92,fr23_f1).
body(r_fr25_92,fr25_c2).
body(r_fr25_92,fr25_d2).
head(r_fr25_93,fr25_t1).
body(r_fr25_93,fr4_b1).
body(r_fr25_93,fr25_d4).
body(r_fr25_93,fr25_d5).
body(r_fr25_93,fr9_d1).
body(r_fr25_93,fr16_a4).
body(r_fr25_93,fr25_s4).
body(r_fr25_93,fr25_w4).
body(r_fr25_93,fr13_q2).
body(r_fr25_93,fr25_y4).
head(r_fr25_94,fr25_t1).
body(r_fr25_94,fr4_q2).
body(r_fr25_94,fr25_t4).
body(r_fr25_94,fr22_r1).
body(r_fr25_94,fr25_w4).
body(r_fr25_94,fr25_x2).
body(r_fr25_94,fr25_y3).
head(r_fr25_95,fr25_t1).
body(r_fr25_95,fr25_e4).
head(r_fr25_96,fr25_t1).
body(r_fr25_96,fr25_a3).
body(r_fr25_96,fr18_c3).
body(r_fr25_96,fr25_b4).
body(r_fr25_96,fr4_b1).
body(r_fr25_96,fr25_d1).
body(r_fr25_96,fr25_d3).
body(r_fr25_96,fr2_f1).
body(r_fr25_96,fr25_e4).
body(r_fr25_96,fr16_a4).
body(r_fr25_96,fr25_f5).
head(r_fr25_97,fr25_v4).
body(r_fr25_97,fr25_b4).
body(r_fr25_97,fr25_p5).
body(r_fr25_97,fr25_s4).
body(r_fr25_97,fr25_t5).
body(r_fr25_97,fr25_u3).
body(r_fr25_97,fr16_q1).
body(r_fr25_97,fr25_u5).
body(r_fr25_97,fr25_x2).
body(r_fr25_97,fr13_q2).
body(r_fr25_97,fr25_z3).
head(r_fr25_98,fr25_v4).
body(r_fr25_98,fr25_b2).
body(r_fr25_98,fr4_b1).
body(r_fr25_98,fr2_f1).
body(r_fr25_98,fr25_t5).
head(r_fr25_99,fr25_v4).
body(r_fr25_99,fr25_c2).
body(r_fr25_99,fr25_c3).
body(r_fr25_99,fr25_d1).
body(r_fr25_99,fr25_d5).
body(r_fr25_99,fr25_e5).
body(r_fr25_99,fr21_p4).
body(r_fr25_99,fr25_u3).
body(r_fr25_99,fr25_v2).
head(r_fr25_100,fr25_v4).
body(r_fr25_100,fr25_w4).
head(r_fr25_101,fr25_v4).
body(r_fr25_101,fr18_c3).
body(r_fr25_101,fr25_b1).
body(r_fr25_101,fr25_f3).
head(r_fr25_102,fr21_p4).
head(r_fr25_103,fr21_p4).
body(r_fr25_103,fr18_c3).
body(r_fr25_103,fr25_b1).
body(r_fr25_103,fr25_c4).
body(r_fr25_103,fr25_d3).
body(r_fr25_103,fr2_f1).
body(r_fr25_103,fr25_f4).
body(r_fr25_103,fr25_p3).
body(r_fr25_103,fr4_q2).
body(r_fr25_103,fr25_r3).
body(r_fr25_103,fr20_v2).
body(r_fr25_103,fr16_q1).
head(r_fr25_104,fr21_p4).
body(r_fr25_104,fr25_c1).
body(r_fr25_104,fr25_e3).
body(r_fr25_104,fr25_f4).
body(r_fr25_104,fr25_f5).
head(r_fr25_105,fr21_p4).
body(r_fr25_105,fr25_d2).
body(r_fr25_105,fr25_d5).
body(r_fr25_105,fr25_s4).
head(r_fr25_106,fr21_p4).
body(r_fr25_106,fr25_c1).
body(r_fr25_106,fr25_c2).
body(r_fr25_106,fr25_c3).
body(r_fr25_106,fr25_e4).
body(r_fr25_106,fr25_f5).
body(r_fr25_106,fr5_s5).
body(r_fr25_106,fr22_r1).
body(r_fr25_106,fr25_z2).
head(r_fr25_107,fr25_t5).
body(r_fr25_107,fr25_d4).
body(r_fr25_107,fr4_q2).
body(r_fr25_107,fr25_q2).
body(r_fr25_107,fr25_r3).
body(r_fr25_107,fr25_t3).
body(r_fr25_107,fr25_x3).
body(r_fr25_107,fr25_z2).
head(r_fr25_108,fr25_t5).
body(r_fr25_108,fr25_d5).
body(r_fr25_108,fr25_e3).
head(r_fr25_109,fr25_t5).
body(r_fr25_109,fr25_c5).
head(r_fr25_110,fr25_t5).
body(r_fr25_110,fr25_p3).
body(r_fr25_110,fr25_q2).
body(r_fr25_110,fr25_x2).
body(r_fr25_110,fr25_y2).
head(r_fr25_111,fr25_t5).
body(r_fr25_111,fr23_f1).
body(r_fr25_111,fr5_s5).
body(r_fr25_111,fr25_x3).
body(r_fr25_111,fr13_q2).
head(r_fr25_112,fr25_t5).
head(r_fr25_113,fr25_t5).
body(r_fr25_113,fr25_s1).
body(r_fr25_113,fr20_v2).
body(r_fr25_113,fr25_t2).
body(r_fr25_113,fr25_t3).
body(r_fr25_113,fr25_t4).
body(r_fr25_113,fr25_v2).
body(r_fr25_113,fr25_x3).
body(r_fr25_113,fr25_y2).
body(r_fr25_113,fr25_z3).
head(r_fr25_114,fr25_u5).
body(r_fr25_114,fr25_a3).
body(r_fr25_114,fr23_f1).
body(r_fr25_114,fr25_c1).
body(r_fr25_114,fr25_d1).
body(r_fr25_114,fr25_d2).
body(r_fr25_114,fr25_d4).
body(r_fr25_114,fr16_a4).
head(r_fr25_115,fr25_u5).
body(r_fr25_115,fr23_f1).
body(r_fr25_115,fr25_c1).
body(r_fr25_115,fr25_c3).
body(r_fr25_115,fr25_e3).
body(r_fr25_115,fr16_a4).
body(r_fr25_115,fr25_f3).
body(r_fr25_115,fr25_p5).
body(r_fr25_115,fr25_r3).
body(r_fr25_115,fr25_t2).
body(r_fr25_115,fr25_t3).
body(r_fr25_115,fr25_x2).
head(r_fr25_116,fr25_u5).
body(r_fr25_116,fr25_p5).
body(r_fr25_116,fr20_v2).
body(r_fr25_116,fr25_s4).
body(r_fr25_116,fr25_u3).
body(r_fr25_116,fr16_q1).
body(r_fr25_116,fr25_v2).
body(r_fr25_116,fr25_w4).
body(r_fr25_116,fr25_x2).
head(r_fr25_117,fr25_r4).
body(r_fr25_117,fr23_f1).
body(r_fr25_117,fr25_d4).
body(r_fr25_117,fr25_f4).
body(r_fr25_117,fr16_q1).
body(r_fr25_117,fr22_r1).
body(r_fr25_117,fr25_y3).
head(r_fr25_118,fr25_r4).
body(r_fr25_118,fr25_b2).
body(r_fr25_118,fr9_d1).
body(r_fr25_118,fr25_e4).
body(r_fr25_118,fr16_a2).
body(r_fr25_118,fr25_f3).
body(r_fr25_118,fr25_f4).
body(r_fr25_118,fr25_p5).
body(r_fr25_118,fr4_q2).
body(r_fr25_118,fr5_s5).
body(r_fr25_118,fr25_t2).
head(r_fr25_119,fr25_r4).
body(r_fr25_119,fr25_a1).
body(r_fr25_119,fr4_b1).
body(r_fr25_119,fr25_c5).
body(r_fr25_119,fr25_e3).
body(r_fr25_119,fr25_f5).
body(r_fr25_119,fr20_v2).
body(r_fr25_119,fr25_t4).
head(r_fr25_120,fr25_r4).
body(r_fr25_120,fr25_a2).
body(r_fr25_120,fr25_c1).
body(r_fr25_120,fr2_f1).
body(r_fr25_120,fr9_d1).
body(r_fr25_120,fr25_f3).
body(r_fr25_120,fr25_f5).
body(r_fr25_120,fr25_v2).
body(r_fr25_120,fr13_q2).
head(r_fr25_121,fr25_r4).
body(r_fr25_121,fr23_f1).
body(r_fr25_121,fr25_d3).
body(r_fr25_121,fr25_e3).
body(r_fr25_121,fr25_f3).
body(r_fr25_121,fr25_p5).
body(r_fr25_121,fr25_s3).
head(r_fr25_122,fr25_r4).
body(r_fr25_122,fr25_q2).
head(r_fr25_123,fr25_r4).
head(r_fr25_124,fr25_r4).
body(r_fr25_124,fr23_f1).
body(r_fr25_124,fr25_b4).
body(r_fr25_124,fr25_c5).
body(r_fr25_124,fr25_d1).
body(r_fr25_124,fr2_f1).
body(r_fr25_124,fr25_e3).
head(r_fr25_125,fr25_r4).
body(r_fr25_125,fr25_f5).
head(r_fr25_126,fr25_r4).
body(r_fr25_126,fr25_q2).
body(r_fr25_126,fr25_r3).
body(r_fr25_126,fr25_w4).
body(r_fr25_126,fr25_x3).
body(r_fr25_126,fr25_z3).
head(r_fr25_127,fr25_q2).
body(r_fr25_127,fr25_b2).
body(r_fr25_127,fr25_c2).
body(r_fr25_127,fr25_c3).
body(r_fr25_127,fr25_c5).
body(r_fr25_127,fr25_d3).
body(r_fr25_127,fr25_d4).
body(r_fr25_127,fr25_e4).
body(r_fr25_127,fr16_a2).
body(r_fr25_127,fr25_f3).
body(r_fr25_127,fr20_v2).
body(r_fr25_127,fr22_r1).
head(r_fr25_128,fr25_q2).
body(r_fr25_128,fr18_c3).
body(r_fr25_128,fr25_p3).
head(r_fr25_129,fr25_q2).
body(r_fr25_129,fr18_c3).
body(r_fr25_129,fr25_a5).
body(r_fr25_129,fr25_c3).
body(r_fr25_129,fr25_c5).
body(r_fr25_129,fr25_d3).
body(r_fr25_129,fr25_d5).
body(r_fr25_129,fr9_d1).
body(r_fr25_129,fr25_f3).
body(r_fr25_129,fr5_s5).
head(r_fr25_130,fr25_q2).
body(r_fr25_130,fr25_a5).
body(r_fr25_130,fr25_b1).
body(r_fr25_130,fr23_f1).
body(r_fr25_130,fr4_b1).
body(r_fr25_130,fr25_c1).
body(r_fr25_130,fr25_e5).
body(r_fr25_130,fr25_t3).
body(r_fr25_130,fr25_w4).
body(r_fr25_130,fr25_z2).
head(r_fr25_131,fr25_q2).
body(r_fr25_131,fr25_a5).
body(r_fr25_131,fr25_c1).
body(r_fr25_131,fr25_d4).
body(r_fr25_131,fr5_t6).
head(r_fr25_132,fr25_w4).
body(r_fr25_132,fr18_c3).
body(r_fr25_132,fr25_c4).
body(r_fr25_132,fr4_q2).
body(r_fr25_132,fr25_t2).
body(r_fr25_132,fr25_t4).
body(r_fr25_132,fr25_u3).
body(r_fr25_132,fr25_v2).
body(r_fr25_132,fr25_x3).
body(r_fr25_132,fr25_y4).
head(r_fr25_133,fr25_w4).
body(r_fr25_133,fr25_c2).
body(r_fr25_133,fr25_p3).
body(r_fr25_133,fr20_v2).
body(r_fr25_133,fr25_t3).
body(r_fr25_133,fr25_u3).
body(r_fr25_133,fr25_z3).
body(r_fr25_133,fr5_t6).
head(r_fr25_134,fr25_w4).
body(r_fr25_134,fr25_d3).
body(r_fr25_134,fr25_r2).
body(r_fr25_134,fr5_s5).
body(r_fr25_134,fr13_q2).
head(r_fr25_135,fr25_w4).
body(r_fr25_135,fr5_t6).
head(r_fr25_136,fr25_w4).
body(r_fr25_136,fr25_a3).
body(r_fr25_136,fr18_c3).
body(r_fr25_136,fr23_f1).
body(r_fr25_136,fr25_c4).
body(r_fr25_136,fr25_d4).
body(r_fr25_136,fr25_d5).
body(r_fr25_136,fr25_e4).
body(r_fr25_136,fr25_e5).
body(r_fr25_136,fr16_a2).
body(r_fr25_136,fr25_f5).
head(r_fr25_137,fr25_w4).
body(r_fr25_137,fr25_c4).
body(r_fr25_137,fr25_e4).
body(r_fr25_137,fr25_f5).
body(r_fr25_137,fr16_q1).
body(r_fr25_137,fr25_v2).
head(r_fr25_138,fr25_w4).
body(r_fr25_138,fr25_a5).
body(r_fr25_138,fr25_b2).
body(r_fr25_138,fr25_c3).
body(r_fr25_138,fr25_c5).
body(r_fr25_138,fr25_p3).
body(r_fr25_138,fr4_q2).
body(r_fr25_138,fr20_v2).
body(r_fr25_138,fr25_s3).
body(r_fr25_138,fr25_u3).
head(r_fr25_139,fr25_w4).
body(r_fr25_139,fr25_b2).
body(r_fr25_139,fr25_b4).
body(r_fr25_139,fr25_c2).
body(r_fr25_139,fr25_c5).
body(r_fr25_139,fr25_d1).
body(r_fr25_139,fr25_d4).
head(r_fr25_140,fr25_w4).
body(r_fr25_140,fr25_b2).
body(r_fr25_140,fr23_f1).
body(r_fr25_140,fr25_d2).
body(r_fr25_140,fr2_f1).
body(r_fr25_140,fr25_e5).
body(r_fr25_140,fr25_f3).
head(r_fr25_141,fr25_y3).
body(r_fr25_141,fr25_a2).
body(r_fr25_141,fr25_a5).
body(r_fr25_141,fr25_c2).
body(r_fr25_141,fr25_c4).
body(r_fr25_141,fr25_d5).
body(r_fr25_141,fr2_f1).
body(r_fr25_141,fr9_d1).
body(r_fr25_141,fr25_e3).
body(r_fr25_141,fr25_e4).
body(r_fr25_141,fr16_a4).
body(r_fr25_141,fr25_s4).
head(r_fr25_142,fr25_y3).
body(r_fr25_142,fr25_a5).
body(r_fr25_142,fr25_b1).
body(r_fr25_142,fr25_d5).
body(r_fr25_142,fr9_d1).
body(r_fr25_142,fr25_e5).
body(r_fr25_142,fr25_p3).
body(r_fr25_142,fr25_p5).
body(r_fr25_142,fr25_r3).
body(r_fr25_142,fr25_s1).
body(r_fr25_142,fr25_v2).
body(r_fr25_142,fr25_z2).
head(r_fr25_143,fr25_y3).
body(r_fr25_143,fr4_q2).
body(r_fr25_143,fr25_r2).
body(r_fr25_143,fr25_s4).
body(r_fr25_143,fr25_t2).
head(r_fr25_144,fr25_y3).
head(r_fr25_145,fr25_y3).
body(r_fr25_145,fr25_a1).
body(r_fr25_145,fr25_b2).
body(r_fr25_145,fr25_c1).
body(r_fr25_145,fr25_d3).
body(r_fr25_145,fr25_r2).
body(r_fr25_145,fr25_u3).
head(r_fr25_146,fr25_r2).
body(r_fr25_146,fr18_c3).
body(r_fr25_146,fr25_c5).
body(r_fr25_146,fr25_d1).
body(r_fr25_146,fr16_a4).
body(r_fr25_146,fr25_f4).
body(r_fr25_146,fr25_s1).
head(r_fr25_147,fr25_r2).
body(r_fr25_147,fr25_a5).
body(r_fr25_147,fr25_b4).
body(r_fr25_147,fr25_c3).
body(r_fr25_147,fr25_e3).
body(r_fr25_147,fr25_f3).
head(r_fr25_148,fr4_q2).
body(r_fr25_148,fr25_a1).
body(r_fr25_148,fr25_a2).
body(r_fr25_148,fr25_b2).
body(r_fr25_148,fr25_c2).
body(r_fr25_148,fr25_d3).
body(r_fr25_148,fr25_d4).
body(r_fr25_148,fr2_f1).
body(r_fr25_148,fr25_e3).
body(r_fr25_148,fr25_e4).
body(r_fr25_148,fr16_a2).
head(r_fr25_149,fr4_q2).
body(r_fr25_149,fr25_a1).
body(r_fr25_149,fr25_b1).
body(r_fr25_149,fr25_t4).
head(r_fr25_150,fr4_q2).
body(r_fr25_150,fr25_r3).
body(r_fr25_150,fr25_t2).
body(r_fr25_150,fr25_v2).
body(r_fr25_150,fr25_y4).
body(r_fr25_150,fr25_z3).
body(r_fr25_150,fr5_t6).
head(r_fr25_151,fr4_q2).
body(r_fr25_151,fr25_a1).
body(r_fr25_151,fr25_c4).
body(r_fr25_151,fr16_a4).
body(r_fr25_151,fr25_s3).
body(r_fr25_151,fr16_q1).
body(r_fr25_151,fr25_x2).
body(r_fr25_151,fr25_x3).
head(r_fr25_152,fr4_q2).
body(r_fr25_152,fr25_a3).
body(r_fr25_152,fr25_b1).
body(r_fr25_152,fr25_b4).
body(r_fr25_152,fr25_c3).
body(r_fr25_152,fr25_d2).
body(r_fr25_152,fr16_a2).
body(r_fr25_152,fr25_f4).
head(r_fr25_153,fr4_q2).
body(r_fr25_153,fr25_r3).
body(r_fr25_153,fr20_v2).
body(r_fr25_153,fr25_s3).
body(r_fr25_153,fr25_s4).
body(r_fr25_153,fr5_s5).
body(r_fr25_153,fr25_u3).
body(r_fr25_153,fr25_v2).
body(r_fr25_153,fr25_x3).
body(r_fr25_153,fr25_y4).
body(r_fr25_153,fr25_z3).
head(r_fr25_154,fr4_q2).
body(r_fr25_154,fr16_a4).
head(r_fr25_155,fr4_q2).
body(r_fr25_155,fr25_b2).
body(r_fr25_155,fr9_d1).
body(r_fr25_155,fr25_e4).
body(r_fr25_155,fr25_e5).
body(r_fr25_155,fr25_f4).
body(r_fr25_155,fr25_f5).
head(r_fr25_156,fr4_q2).
head(r_fr25_157,fr25_x2).
body(r_fr25_157,fr25_p3).
body(r_fr25_157,fr25_s1).
body(r_fr25_157,fr16_q1).
body(r_fr25_157,fr25_v2).
body(r_fr25_157,fr25_z2).
head(r_fr25_158,fr25_x2).
body(r_fr25_158,fr25_c4).
body(r_fr25_158,fr25_d3).
body(r_fr25_158,fr2_f1).
body(r_fr25_158,fr25_e4).
body(r_fr25_158,fr25_r3).
body(r_fr25_158,fr25_u3).
body(r_fr25_158,fr25_x3).
head(r_fr25_159,fr25_x2).
body(r_fr25_159,fr25_a1).
body(r_fr25_159,fr25_c2).
head(r_fr25_160,fr25_x2).
head(r_fr25_161,fr25_x2).
body(r_fr25_161,fr16_a2).
body(r_fr25_161,fr25_f5).
body(r_fr25_161,fr25_p3).
body(r_fr25_161,fr5_s5).
body(r_fr25_161,fr25_t4).
body(r_fr25_161,fr16_q1).
head(r_fr25_162,fr25_x2).
body(r_fr25_162,fr2_f1).
body(r_fr25_162,fr25_p5).
body(r_fr25_162,fr25_r3).
body(r_fr25_162,fr25_s1).
body(r_fr25_162,fr5_s5).
body(r_fr25_162,fr25_u3).
body(r_fr25_162,fr25_v2).
body(r_fr25_162,fr22_r1).
body(r_fr25_162,fr25_z2).
head(r_fr25_163,fr25_s4).
body(r_fr25_163,fr25_c2).
body(r_fr25_163,fr25_y2).
head(r_fr25_164,fr25_s4).
body(r_fr25_164,fr25_z2).
head(r_fr25_165,fr25_s4).
body(r_fr25_165,fr25_c1).
body(r_fr25_165,fr25_c3).
head(r_fr25_166,fr25_s4).
body(r_fr25_166,fr25_b2).
body(r_fr25_166,fr16_a4).
body(r_fr25_166,fr25_f4).
head(r_fr25_167,fr25_s4).
body(r_fr25_167,fr25_p5).
body(r_fr25_167,fr25_s3).
body(r_fr25_167,fr25_t4).
body(r_fr25_167,fr25_u3).
body(r_fr25_167,fr25_y4).
head(r_fr25_168,fr25_s4).
body(r_fr25_168,fr25_b4).
body(r_fr25_168,fr25_c4).
body(r_fr25_168,fr25_d2).
body(r_fr25_168,fr25_d5).
body(r_fr25_168,fr25_r3).
body(r_fr25_168,fr25_s3).
body(r_fr25_168,fr25_t3).
body(r_fr25_168,fr22_r1).
body(r_fr25_168,fr25_x3).
head(r_fr25_169,fr25_s4).
body(r_fr25_169,fr25_c4).
body(r_fr25_169,fr25_d1).
body(r_fr25_169,fr25_t4).
body(r_fr25_169,fr16_q1).
head(r_fr25_170,fr25_s4).
body(r_fr25_170,fr25_b1).
body(r_fr25_170,fr25_e5).
body(r_fr25_170,fr25_r3).
body(r_fr25_170,fr25_s3).
body(r_fr25_170,fr5_s5).
body(r_fr25_170,fr25_u3).
head(r_fr25_171,fr25_s4).
body(r_fr25_171,fr4_b1).
body(r_fr25_171,fr25_x3).
head(r_fr25_172,fr25_s4).
body(r_fr25_172,fr25_a1).
body(r_fr25_172,fr25_c5).
body(r_fr25_172,fr25_f3).
body(r_fr25_172,fr25_p3).
body(r_fr25_172,fr25_p5).
body(r_fr25_172,fr25_s1).
body(r_fr25_172,fr20_v2).
body(r_fr25_172,fr25_t3).
body(r_fr25_172,fr25_t4).
body(r_fr25_172,fr22_r1).
body(r_fr25_172,fr5_t6).
head(r_fr25_173,fr25_s1).
body(r_fr25_173,fr25_d3).
body(r_fr25_173,fr25_p3).
body(r_fr25_173,fr25_p5).
body(r_fr25_173,fr25_t2).
body(r_fr25_173,fr16_q1).
body(r_fr25_173,fr22_r1).
body(r_fr25_173,fr25_y4).
head(r_fr25_174,fr25_s1).
body(r_fr25_174,fr25_a5).
body(r_fr25_174,fr25_c4).
body(r_fr25_174,fr16_a2).
body(r_fr25_174,fr25_f5).
body(r_fr25_174,fr25_p3).
body(r_fr25_174,fr25_t4).
body(r_fr25_174,fr25_u3).
body(r_fr25_174,fr25_v2).
body(r_fr25_174,fr25_x3).
body(r_fr25_174,fr25_y4).
head(r_fr25_175,fr25_s1).
body(r_fr25_175,fr25_p5).
body(r_fr25_175,fr20_v2).
body(r_fr25_175,fr25_t2).
body(r_fr25_175,fr25_u3).
body(r_fr25_175,fr16_q1).
body(r_fr25_175,fr5_t6).
head(r_fr25_176,fr25_s1).
body(r_fr25_176,fr25_c2).
body(r_fr25_176,fr25_d4).
body(r_fr25_176,fr25_e5).
body(r_fr25_176,fr16_a4).
body(r_fr25_176,fr16_a2).
body(r_fr25_176,fr20_v2).
body(r_fr25_176,fr25_u3).
body(r_fr25_176,fr16_q1).
body(r_fr25_176,fr25_x3).
body(r_fr25_176,fr25_y4).
head(r_fr25_177,fr25_s1).
body(r_fr25_177,fr25_d5).
body(r_fr25_177,fr25_v2).
body(r_fr25_177,fr25_y4).
head(r_fr25_178,fr25_s1).
body(r_fr25_178,fr25_a5).
body(r_fr25_178,fr23_f1).
body(r_fr25_178,fr4_b1).
body(r_fr25_178,fr25_c5).
body(r_fr25_178,fr25_d2).
body(r_fr25_178,fr25_d4).
body(r_fr25_178,fr25_e3).
body(r_fr25_178,fr25_e4).
body(r_fr25_178,fr25_f5).
body(r_fr25_178,fr25_s3).
head(r_fr25_179,fr25_s1).
body(r_fr25_179,fr25_e4).
body(r_fr25_179,fr16_a4).
head(r_fr25_180,fr25_s1).
body(r_fr25_180,fr25_d5).
head(r_fr25_181,fr25_s1).
body(r_fr25_181,fr25_a3).
body(r_fr25_181,fr25_b2).
body(r_fr25_181,fr25_c3).
body(r_fr25_181,fr25_c5).
body(r_fr25_181,fr25_d4).
body(r_fr25_181,fr16_a2).
body(r_fr25_181,fr25_f5).
body(r_fr25_181,fr25_t4).
body(r_fr25_181,fr16_q1).
body(r_fr25_181,fr25_v2).
body(r_fr25_181,fr13_q2).
head(r_fr25_182,fr25_x3).
body(r_fr25_182,fr25_a2).
body(r_fr25_182,fr25_d1).
body(r_fr25_182,fr25_e3).
body(r_fr25_182,fr25_s3).
body(r_fr25_182,fr25_t2).
body(r_fr25_182,fr25_z2).
body(r_fr25_182,fr5_t6).
head(r_fr25_183,fr25_x3).
body(r_fr25_183,fr25_p3).
body(r_fr25_183,fr25_p5).
body(r_fr25_183,fr25_r3).
body(r_fr25_183,fr25_s3).
body(r_fr25_183,fr25_t2).
body(r_fr25_183,fr16_q1).
body(r_fr25_183,fr25_v2).
body(r_fr25_183,fr25_y2).
body(r_fr25_183,fr25_z2).
body(r_fr25_183,fr5_t6).
head(r_fr25_184,fr25_x3).
body(r_fr25_184,fr25_a3).
body(r_fr25_184,fr25_c3).
body(r_fr25_184,fr25_d4).
body(r_fr25_184,fr25_e5).
body(r_fr25_184,fr16_a2).
body(r_fr25_184,fr20_v2).
head(r_fr25_185,fr25_y2).
body(r_fr25_185,fr20_v2).
body(r_fr25_185,fr25_t2).
body(r_fr25_185,fr25_t3).
head(r_fr25_186,fr25_y2).
body(r_fr25_186,fr25_e3).
body(r_fr25_186,fr25_p5).
body(r_fr25_186,fr5_s5).
body(r_fr25_186,fr25_t4).
body(r_fr25_186,fr13_q2).
head(r_fr25_187,fr25_y2).
body(r_fr25_187,fr16_q1).
body(r_fr25_187,fr25_v2).
body(r_fr25_187,fr25_y4).
head(r_fr25_188,fr25_y2).
body(r_fr25_188,fr25_c3).
body(r_fr25_188,fr25_d2).
body(r_fr25_188,fr25_d5).
body(r_fr25_188,fr25_f4).
body(r_fr25_188,fr25_z2).
body(r_fr25_188,fr5_t6).
head(r_fr25_189,fr25_y2).
body(r_fr25_189,fr2_f1).
body(r_fr25_189,fr25_f4).
body(r_fr25_189,fr25_f5).
head(r_fr25_190,fr25_y2).
body(r_fr25_190,fr5_t6).
head(r_fr25_191,fr25_y2).
body(r_fr25_191,fr18_c3).
body(r_fr25_191,fr25_b2).
body(r_fr25_191,fr25_c1).
body(r_fr25_191,fr25_c5).
body(r_fr25_191,fr25_e4).
body(r_fr25_191,fr25_p3).
body(r_fr25_191,fr20_v2).
body(r_fr25_191,fr16_q1).
body(r_fr25_191,fr22_r1).
body(r_fr25_191,fr25_y4).
head(r_fr25_192,fr13_q2).
body(r_fr25_192,fr25_a3).
body(r_fr25_192,fr25_d3).
body(r_fr25_192,fr25_e4).
body(r_fr25_192,fr16_a4).
body(r_fr25_192,fr16_a2).
body(r_fr25_192,fr25_z3).
head(r_fr25_193,fr13_q2).
body(r_fr25_193,fr25_a5).
head(r_fr25_194,fr13_q2).
body(r_fr25_194,fr5_s5).
body(r_fr25_194,fr5_t6).
head(r_fr25_195,fr13_q2).
body(r_fr25_195,fr25_a5).
body(r_fr25_195,fr23_f1).
body(r_fr25_195,fr25_c4).
body(r_fr25_195,fr25_d1).
body(r_fr25_195,fr25_d2).
body(r_fr25_195,fr25_e3).
body(r_fr25_195,fr25_f4).
body(r_fr25_195,fr5_t6).
head(r_fr25_196,fr13_q2).
body(r_fr25_196,fr25_a1).
body(r_fr25_196,fr25_c5).
body(r_fr25_196,fr25_p5).
body(r_fr25_196,fr20_v2).
body(r_fr25_196,fr5_s5).
body(r_fr25_196,fr25_u3).
body(r_fr25_196,fr16_q1).
body(r_fr25_196,fr22_r1).
body(r_fr25_196,fr25_y4).
body(r_fr25_196,fr25_z2).
body(r_fr25_196,fr25_z3).
head(r_fr25_197,fr13_q2).
body(r_fr25_197,fr25_c1).
body(r_fr25_197,fr25_e3).
body(r_fr25_197,fr25_p5).
body(r_fr25_197,fr25_r3).
head(r_fr25_198,fr13_q2).
body(r_fr25_198,fr25_a3).
body(r_fr25_198,fr18_c3).
body(r_fr25_198,fr25_b1).
body(r_fr25_198,fr25_d4).
body(r_fr25_198,fr25_d5).
body(r_fr25_198,fr9_d1).
body(r_fr25_198,fr16_a4).
body(r_fr25_198,fr25_f3).
body(r_fr25_198,fr25_p5).
body(r_fr25_198,fr25_t4).
body(r_fr25_198,fr25_z3).
head(r_fr25_199,fr13_q2).
body(r_fr25_199,fr25_b4).
body(r_fr25_199,fr25_c2).
body(r_fr25_199,fr25_c4).
body(r_fr25_199,fr25_e3).
body(r_fr25_199,fr16_a2).
body(r_fr25_199,fr25_t3).
body(r_fr25_199,fr25_t4).
body(r_fr25_199,fr16_q1).
body(r_fr25_199,fr25_z2).
head(r_fr25_200,fr13_q2).
body(r_fr25_200,fr25_t4).
body(r_fr25_200,fr16_q1).
head(r_fr25_201,fr20_v2).
body(r_fr25_201,fr25_a5).
body(r_fr25_201,fr25_c4).
body(r_fr25_201,fr25_p3).
body(r_fr25_201,fr25_r3).
body(r_fr25_201,fr5_s5).
body(r_fr25_201,fr25_t2).
body(r_fr25_201,fr25_v2).
body(r_fr25_201,fr22_r1).
body(r_fr25_201,fr25_z2).
body(r_fr25_201,fr25_z3).
head(r_fr25_202,fr20_v2).
body(r_fr25_202,fr18_c3).
body(r_fr25_202,fr25_a5).
body(r_fr25_202,fr25_b1).
body(r_fr25_202,fr25_b4).
body(r_fr25_202,fr25_d2).
body(r_fr25_202,fr25_d3).
body(r_fr25_202,fr25_d5).
body(r_fr25_202,fr9_d1).
body(r_fr25_202,fr25_t2).
head(r_fr25_203,fr20_v2).
body(r_fr25_203,fr25_a3).
body(r_fr25_203,fr25_b1).
body(r_fr25_203,fr25_c1).
body(r_fr25_203,fr25_d5).
head(r_fr25_204,fr20_v2).
body(r_fr25_204,fr25_p3).
body(r_fr25_204,fr25_r3).
body(r_fr25_204,fr25_t4).
body(r_fr25_204,fr16_q1).
body(r_fr25_204,fr22_r1).
body(r_fr25_204,fr25_z2).
body(r_fr25_204,fr25_z3).
head(r_fr25_205,fr20_v2).
head(r_fr25_206,fr20_v2).
body(r_fr25_206,fr25_a5).
body(r_fr25_206,fr25_b2).
body(r_fr25_206,fr23_f1).
body(r_fr25_206,fr25_v2).
body(r_fr25_206,fr25_y4).
head(r_fr25_207,fr25_t4).
body(r_fr25_207,fr25_c2).
body(r_fr25_207,fr25_f5).
head(r_fr25_208,fr25_t4).
head(r_fr25_209,fr16_q1).
body(r_fr25_209,fr25_a3).
body(r_fr25_209,fr25_b1).
body(r_fr25_209,fr25_c1).
body(r_fr25_209,fr25_e4).
body(r_fr25_209,fr16_a2).
body(r_fr25_209,fr25_r3).
body(r_fr25_209,fr25_t2).
body(r_fr25_209,fr25_u3).
body(r_fr25_209,fr22_r1).
body(r_fr25_209,fr25_y4).
head(r_fr25_210,fr16_q1).
body(r_fr25_210,fr25_c3).
body(r_fr25_210,fr25_d5).
body(r_fr25_210,fr25_p5).
body(r_fr25_210,fr25_r3).
body(r_fr25_210,fr5_s5).
body(r_fr25_210,fr25_t2).
body(r_fr25_210,fr25_t3).
body(r_fr25_210,fr22_r1).
body(r_fr25_210,fr25_z3).
body(r_fr25_210,fr5_t6).
head(r_fr25_211,fr16_q1).
body(r_fr25_211,fr25_f3).
head(r_fr25_212,fr25_z3).
head(r_fr25_213,fr25_z3).
body(r_fr25_213,fr4_b1).
body(r_fr25_213,fr25_c2).
body(r_fr25_213,fr25_d1).
body(r_fr25_213,fr25_d2).
body(r_fr25_213,fr9_d1).
body(r_fr25_213,fr16_a4).
head(r_fr25_214,fr25_z3).
body(r_fr25_214,fr25_a2).
body(r_fr25_214,fr25_b4).
body(r_fr25_214,fr25_c3).
body(r_fr25_214,fr25_d3).
body(r_fr25_214,fr2_f1).
body(r_fr25_214,fr25_e3).
body(r_fr25_214,fr25_e4).
body(r_fr25_214,fr16_a2).
head(r_fr25_215,fr25_z3).
body(r_fr25_215,fr25_b1).
body(r_fr25_215,fr25_b4).
body(r_fr25_215,fr25_d3).
body(r_fr25_215,fr25_p5).
body(r_fr25_215,fr25_r3).
body(r_fr25_215,fr25_t2).
body(r_fr25_215,fr25_u3).
body(r_fr25_215,fr25_v2).
body(r_fr25_215,fr25_y4).
body(r_fr25_215,fr25_z2).
body(r_fr25_215,fr5_t6).
head(r_fr25_216,fr25_z3).
body(r_fr25_216,fr16_a4).
body(r_fr25_216,fr25_p3).
head(r_fr25_217,fr25_z3).
body(r_fr25_217,fr5_s5).
head(r_fr25_218,fr25_z2).
body(r_fr25_218,fr25_d4).
body(r_fr25_218,fr25_e5).
head(r_fr25_219,fr25_z2).
body(r_fr25_219,fr25_p3).
body(r_fr25_219,fr25_t3).
body(r_fr25_219,fr25_v2).
body(r_fr25_219,fr5_t6).
head(r_fr25_220,fr25_z2).
body(r_fr25_220,fr25_c2).
body(r_fr25_220,fr25_c3).
body(r_fr25_220,fr25_c4).
body(r_fr25_220,fr9_d1).
body(r_fr25_220,fr16_a4).
body(r_fr25_220,fr25_f4).
body(r_fr25_220,fr25_r3).
body(r_fr25_220,fr5_s5).
body(r_fr25_220,fr25_v2).
body(r_fr25_220,fr22_r1).
head(r_fr25_221,fr25_z2).
body(r_fr25_221,fr25_a1).
body(r_fr25_221,fr23_f1).
body(r_fr25_221,fr25_c3).
body(r_fr25_221,fr25_c5).
body(r_fr25_221,fr25_d3).
body(r_fr25_221,fr25_e3).
body(r_fr25_221,fr25_p5).
body(r_fr25_221,fr5_s5).
body(r_fr25_221,fr25_t2).
body(r_fr25_221,fr25_v2).
body(r_fr25_221,fr25_y4).
head(r_fr25_222,fr25_z2).
body(r_fr25_222,fr18_c3).
body(r_fr25_222,fr25_b4).
body(r_fr25_222,fr25_c5).
body(r_fr25_222,fr25_d1).
body(r_fr25_222,fr25_d2).
body(r_fr25_222,fr25_d5).
body(r_fr25_222,fr25_f5).
body(r_fr25_222,fr25_p5).
body(r_fr25_222,fr25_t3).
head(r_fr25_223,fr25_z2).
body(r_fr25_223,fr25_d1).
body(r_fr25_223,fr9_d1).
body(r_fr25_223,fr25_p3).
body(r_fr25_223,fr25_p5).
body(r_fr25_223,fr25_s3).
body(r_fr25_223,fr5_s5).
body(r_fr25_223,fr25_t2).
body(r_fr25_223,fr25_t3).
body(r_fr25_223,fr22_r1).
body(r_fr25_223,fr25_y4).
body(r_fr25_223,fr5_t6).
head(r_fr25_224,fr25_p3).
body(r_fr25_224,fr25_c1).
body(r_fr25_224,fr25_f3).
body(r_fr25_224,fr25_s3).
body(r_fr25_224,fr5_s5).
body(r_fr25_224,fr25_t3).
body(r_fr25_224,fr25_u3).
body(r_fr25_224,fr5_t6).
head(r_fr25_225,fr25_p3).
body(r_fr25_225,fr25_c4).
body(r_fr25_225,fr5_s5).
body(r_fr25_225,fr22_r1).
body(r_fr25_225,fr25_y4).
body(r_fr25_225,fr5_t6).
head(r_fr25_226,fr25_p3).
body(r_fr25_226,fr4_b1).
body(r_fr25_226,fr25_c4).
body(r_fr25_226,fr25_d1).
body(r_fr25_226,fr25_p5).
body(r_fr25_226,fr25_r3).
body(r_fr25_226,fr25_s3).
body(r_fr25_226,fr25_u3).
head(r_fr25_227,fr22_r1).
body(r_fr25_227,fr25_f4).
body(r_fr25_227,fr25_f5).
body(r_fr25_227,fr25_s3).
body(r_fr25_227,fr5_s5).
body(r_fr25_227,fr25_t2).
body(r_fr25_227,fr25_t3).
body(r_fr25_227,fr25_u3).
body(r_fr25_227,fr25_v2).
body(r_fr25_227,fr5_t6).
head(r_fr25_228,fr22_r1).
body(r_fr25_228,fr25_d4).
body(r_fr25_228,fr25_d5).
body(r_fr25_228,fr2_f1).
body(r_fr25_228,fr25_e4).
body(r_fr25_228,fr16_a2).
body(r_fr25_228,fr25_p5).
body(r_fr25_228,fr25_r3).
body(r_fr25_228,fr25_t2).
body(r_fr25_228,fr25_u3).
body(r_fr25_228,fr25_y4).
body(r_fr25_228,fr5_t6).
head(r_fr25_229,fr22_r1).
body(r_fr25_229,fr25_b4).
body(r_fr25_229,fr25_d1).
body(r_fr25_229,fr2_f1).
head(r_fr25_230,fr22_r1).
body(r_fr25_230,fr16_a2).
body(r_fr25_230,fr25_p5).
head(r_fr25_231,fr22_r1).
body(r_fr25_231,fr25_c5).
body(r_fr25_231,fr25_d5).
body(r_fr25_231,fr25_p5).
body(r_fr25_231,fr25_v2).
body(r_fr25_231,fr25_y4).
head(r_fr25_232,fr22_r1).
body(r_fr25_232,fr25_p5).
body(r_fr25_232,fr25_r3).
body(r_fr25_232,fr25_s3).
body(r_fr25_232,fr5_s5).
body(r_fr25_232,fr25_t2).
body(r_fr25_232,fr25_y4).
head(r_fr25_233,fr22_r1).
body(r_fr25_233,fr5_s5).
body(r_fr25_233,fr25_u3).
body(r_fr25_233,fr25_v2).
body(r_fr25_233,fr25_y4).
body(r_fr25_233,fr5_t6).

