assumption(fr1_a1).
assumption(fr9_b2).
assumption(fr1_c1).
assumption(fr1_d1).
assumption(fr7_q3).
assumption(fr1_f1).
assumption(fr1_a2).
assumption(fr1_b2).
assumption(fr1_c2).
assumption(fr1_d2).
assumption(fr1_e2).
assumption(fr1_f2).
assumption(fr5_d2).
assumption(fr1_c1).
assumption(fr1_c3).
contrary(fr1_a1,fr9_v1).
contrary(fr1_a2,fr1_p2).
contrary(fr5_d2,fr1_d2).
contrary(fr9_b2,fr7_q3).
contrary(fr1_b2,fr1_c1).
contrary(fr1_c1,fr1_a1).
contrary(fr1_c1,fr1_r1).
contrary(fr1_c2,fr1_r3).
contrary(fr1_c3,fr5_d2).
contrary(fr1_d1,fr9_b2).
contrary(fr1_d2,fr1_q3).
contrary(fr7_q3,fr1_x2).
contrary(fr1_e2,fr1_c1).
contrary(fr1_f1,fr1_p2).
contrary(fr1_f2,fr1_u2).
head(r_fr1_0,fr1_y1).
body(r_fr1_0,fr1_c1).
body(r_fr1_0,fr1_p1).
body(r_fr1_0,fr7_x1).
body(r_fr1_0,fr1_z2).
head(r_fr1_1,fr1_y1).
head(r_fr1_2,fr1_y1).
body(r_fr1_2,fr1_d2).
head(r_fr1_3,fr1_y1).
body(r_fr1_3,fr1_a1).
body(r_fr1_3,fr1_a2).
body(r_fr1_3,fr1_d1).
body(r_fr1_3,fr1_f1).
body(r_fr1_3,fr1_r1).
head(r_fr1_4,fr1_y1).
body(r_fr1_4,fr1_s1).
body(r_fr1_4,fr4_v2).
head(r_fr1_5,fr1_y1).
body(r_fr1_5,fr1_a2).
body(r_fr1_5,fr1_c3).
body(r_fr1_5,fr1_f1).
body(r_fr1_5,fr1_f2).
body(r_fr1_5,fr1_t1).
body(r_fr1_5,fr1_y2).
head(r_fr1_6,fr1_y1).
body(r_fr1_6,fr1_p2).
body(r_fr1_6,fr1_p3).
body(r_fr1_6,fr1_s1).
body(r_fr1_6,fr1_w2).
head(r_fr1_7,fr1_y1).
body(r_fr1_7,fr1_s2).
head(r_fr1_8,fr1_y1).
body(r_fr1_8,fr1_c3).
body(r_fr1_8,fr1_d2).
body(r_fr1_8,fr1_f1).
body(r_fr1_8,fr1_z2).
head(r_fr1_9,fr1_y1).
body(r_fr1_9,fr1_b2).
body(r_fr1_9,fr1_d1).
body(r_fr1_9,fr1_d2).
body(r_fr1_9,fr7_q3).
head(r_fr1_10,fr1_y1).
body(r_fr1_10,fr1_p3).
body(r_fr1_10,fr1_s1).
body(r_fr1_10,fr1_w2).
body(r_fr1_10,fr1_x2).
head(r_fr1_11,fr1_y1).
body(r_fr1_11,fr1_a1).
body(r_fr1_11,fr1_a2).
body(r_fr1_11,fr1_c1).
body(r_fr1_11,fr1_d1).
head(r_fr1_12,fr1_y1).
body(r_fr1_12,fr1_r2).
body(r_fr1_12,fr1_s1).
body(r_fr1_12,fr1_s2).
body(r_fr1_12,fr1_w2).
body(r_fr1_12,fr4_v2).
body(r_fr1_12,fr1_y2).
head(r_fr1_13,fr1_y1).
body(r_fr1_13,fr1_c3).
body(r_fr1_13,fr1_f2).
body(r_fr1_13,fr1_y2).
head(r_fr1_14,fr1_p3).
body(r_fr1_14,fr1_r3).
body(r_fr1_14,fr1_v2).
head(r_fr1_15,fr1_p3).
body(r_fr1_15,fr1_c2).
body(r_fr1_15,fr1_f2).
body(r_fr1_15,fr1_s2).
body(r_fr1_15,fr1_u2).
body(r_fr1_15,fr1_w1).
head(r_fr1_16,fr1_p3).
body(r_fr1_16,fr9_b2).
body(r_fr1_16,fr1_c3).
body(r_fr1_16,fr1_e2).
head(r_fr1_17,fr1_p3).
body(r_fr1_17,fr1_a1).
body(r_fr1_17,fr9_b2).
body(r_fr1_17,fr1_d1).
body(r_fr1_17,fr1_e2).
body(r_fr1_17,fr1_f2).
head(r_fr1_18,fr1_p3).
body(r_fr1_18,fr1_p2).
body(r_fr1_18,fr1_q2).
body(r_fr1_18,fr1_q3).
body(r_fr1_18,fr1_r3).
body(r_fr1_18,fr7_x1).
body(r_fr1_18,fr1_x2).
head(r_fr1_19,fr1_p3).
body(r_fr1_19,fr1_c2).
body(r_fr1_19,fr1_e2).
body(r_fr1_19,fr1_y1).
head(r_fr1_20,fr1_p3).
head(r_fr1_21,fr1_p3).
body(r_fr1_21,fr1_c2).
body(r_fr1_21,fr1_q1).
body(r_fr1_21,fr1_q3).
body(r_fr1_21,fr1_x2).
head(r_fr1_22,fr1_p3).
body(r_fr1_22,fr1_q3).
body(r_fr1_22,fr1_r3).
head(r_fr1_23,fr1_p3).
body(r_fr1_23,fr1_r2).
body(r_fr1_23,fr9_v1).
head(r_fr1_24,fr1_p3).
body(r_fr1_24,fr1_s2).
body(r_fr1_24,fr1_t1).
head(r_fr1_25,fr1_p3).
body(r_fr1_25,fr1_f1).
body(r_fr1_25,fr1_r2).
head(r_fr1_26,fr1_p3).
body(r_fr1_26,fr1_a1).
body(r_fr1_26,fr9_b2).
body(r_fr1_26,fr1_c1).
body(r_fr1_26,fr1_d1).
body(r_fr1_26,fr1_f1).
body(r_fr1_26,fr1_y1).
head(r_fr1_27,fr1_p3).
body(r_fr1_27,fr1_c1).
body(r_fr1_27,fr1_p1).
body(r_fr1_27,fr1_r2).
body(r_fr1_27,fr7_x1).
body(r_fr1_27,fr7_w2).
head(r_fr1_28,fr1_q1).
body(r_fr1_28,fr1_a1).
body(r_fr1_28,fr1_y2).
head(r_fr1_29,fr1_q1).
body(r_fr1_29,fr1_t2).
body(r_fr1_29,fr1_w2).
head(r_fr1_30,fr1_q1).
body(r_fr1_30,fr1_f1).
head(r_fr1_31,fr1_q1).
body(r_fr1_31,fr1_r1).
body(r_fr1_31,fr1_t1).
body(r_fr1_31,fr9_v1).
head(r_fr1_32,fr1_q1).
body(r_fr1_32,fr1_c3).
body(r_fr1_32,fr1_d2).
head(r_fr1_33,fr1_q1).
body(r_fr1_33,fr9_b2).
body(r_fr1_33,fr1_c1).
body(r_fr1_33,fr1_d1).
body(r_fr1_33,fr1_f1).
body(r_fr1_33,fr1_w2).
body(r_fr1_33,fr1_y2).
head(r_fr1_34,fr1_q1).
body(r_fr1_34,fr5_d2).
body(r_fr1_34,fr1_d1).
body(r_fr1_34,fr1_e2).
body(r_fr1_34,fr1_t1).
body(r_fr1_34,fr1_t2).
body(r_fr1_34,fr1_x2).
head(r_fr1_35,fr1_q1).
body(r_fr1_35,fr1_p2).
head(r_fr1_36,fr1_q1).
body(r_fr1_36,fr1_a1).
body(r_fr1_36,fr1_r3).
head(r_fr1_37,fr1_q1).
body(r_fr1_37,fr1_b2).
body(r_fr1_37,fr1_d2).
body(r_fr1_37,fr1_s2).
body(r_fr1_37,fr9_v1).
body(r_fr1_37,fr1_x2).
body(r_fr1_37,fr1_y2).
head(r_fr1_38,fr1_q1).
body(r_fr1_38,fr1_y1).
head(r_fr1_39,fr1_q1).
body(r_fr1_39,fr1_b2).
body(r_fr1_39,fr1_c1).
body(r_fr1_39,fr1_f1).
head(r_fr1_40,fr1_q1).
body(r_fr1_40,fr1_r3).
head(r_fr1_41,fr1_p1).
body(r_fr1_41,fr1_a2).
head(r_fr1_42,fr1_p1).
body(r_fr1_42,fr1_a1).
body(r_fr1_42,fr1_b2).
body(r_fr1_42,fr1_c1).
body(r_fr1_42,fr1_e2).
body(r_fr1_42,fr1_p2).
body(r_fr1_42,fr1_p3).
head(r_fr1_43,fr1_p1).
body(r_fr1_43,fr1_p3).
body(r_fr1_43,fr1_v2).
head(r_fr1_44,fr1_p1).
body(r_fr1_44,fr1_y1).
head(r_fr1_45,fr1_p1).
body(r_fr1_45,fr5_d2).
body(r_fr1_45,fr1_p3).
body(r_fr1_45,fr1_u2).
body(r_fr1_45,fr1_z2).
head(r_fr1_46,fr1_p1).
body(r_fr1_46,fr7_x1).
head(r_fr1_47,fr1_p1).
body(r_fr1_47,fr1_d1).
body(r_fr1_47,fr1_d2).
body(r_fr1_47,fr1_f1).
body(r_fr1_47,fr1_p3).
body(r_fr1_47,fr1_w2).
head(r_fr1_48,fr1_p1).
body(r_fr1_48,fr4_v2).
head(r_fr1_49,fr1_p1).
body(r_fr1_49,fr1_c3).
body(r_fr1_49,fr1_d2).
body(r_fr1_49,fr7_q3).
body(r_fr1_49,fr1_f2).
head(r_fr1_50,fr1_p1).
body(r_fr1_50,fr1_c1).
body(r_fr1_50,fr1_d1).
body(r_fr1_50,fr1_d2).
body(r_fr1_50,fr7_q3).
body(r_fr1_50,fr1_e2).
head(r_fr1_51,fr1_p1).
body(r_fr1_51,fr1_p2).
body(r_fr1_51,fr1_r3).
body(r_fr1_51,fr1_t1).
body(r_fr1_51,fr9_v1).
body(r_fr1_51,fr1_y1).
body(r_fr1_51,fr1_z2).
head(r_fr1_52,fr1_p1).
body(r_fr1_52,fr1_d2).
body(r_fr1_52,fr7_q3).
body(r_fr1_52,fr1_p3).
body(r_fr1_52,fr1_s1).
body(r_fr1_52,fr1_y2).
head(r_fr1_53,fr1_p1).
body(r_fr1_53,fr1_r3).
body(r_fr1_53,fr7_w2).
head(r_fr1_54,fr1_p1).
head(r_fr1_55,fr4_v2).
body(r_fr1_55,fr9_b2).
body(r_fr1_55,fr1_c2).
body(r_fr1_55,fr1_s1).
head(r_fr1_56,fr4_v2).
body(r_fr1_56,fr1_f1).
body(r_fr1_56,fr1_r1).
body(r_fr1_56,fr1_r2).
head(r_fr1_57,fr4_v2).
body(r_fr1_57,fr1_b2).
body(r_fr1_57,fr1_q3).
body(r_fr1_57,fr1_r2).
body(r_fr1_57,fr1_w2).
head(r_fr1_58,fr4_v2).
body(r_fr1_58,fr1_c1).
body(r_fr1_58,fr1_e2).
body(r_fr1_58,fr1_p3).
body(r_fr1_58,fr1_w2).
head(r_fr1_59,fr4_v2).
body(r_fr1_59,fr1_t1).
body(r_fr1_59,fr1_v2).
head(r_fr1_60,fr4_v2).
body(r_fr1_60,fr1_q3).
body(r_fr1_60,fr1_t1).
body(r_fr1_60,fr7_x1).
body(r_fr1_60,fr1_v2).
body(r_fr1_60,fr1_w2).
body(r_fr1_60,fr1_y1).
head(r_fr1_61,fr4_v2).
body(r_fr1_61,fr1_r1).
body(r_fr1_61,fr1_x2).
head(r_fr1_62,fr4_v2).
body(r_fr1_62,fr1_a2).
body(r_fr1_62,fr1_c2).
body(r_fr1_62,fr1_f2).
body(r_fr1_62,fr1_v2).
body(r_fr1_62,fr1_w1).
body(r_fr1_62,fr1_z2).
head(r_fr1_63,fr4_v2).
body(r_fr1_63,fr1_c2).
body(r_fr1_63,fr1_w1).
head(r_fr1_64,fr4_v2).
body(r_fr1_64,fr1_q1).
body(r_fr1_64,fr1_s2).
body(r_fr1_64,fr1_t2).
head(r_fr1_65,fr4_v2).
body(r_fr1_65,fr1_a2).
head(r_fr1_66,fr4_v2).
head(r_fr1_67,fr4_v2).
body(r_fr1_67,fr1_b2).
body(r_fr1_67,fr1_p1).
body(r_fr1_67,fr1_r2).
body(r_fr1_67,fr1_u2).
body(r_fr1_67,fr1_w1).
body(r_fr1_67,fr7_w2).
head(r_fr1_68,fr4_v2).
body(r_fr1_68,fr1_c1).
body(r_fr1_68,fr1_r2).
body(r_fr1_68,fr1_t2).
body(r_fr1_68,fr1_w2).
body(r_fr1_68,fr1_x2).
head(r_fr1_69,fr1_r1).
body(r_fr1_69,fr1_a1).
body(r_fr1_69,fr5_d2).
body(r_fr1_69,fr1_b2).
body(r_fr1_69,fr1_c2).
body(r_fr1_69,fr1_d1).
head(r_fr1_70,fr1_r1).
body(r_fr1_70,fr1_b2).
body(r_fr1_70,fr1_d1).
body(r_fr1_70,fr1_d2).
body(r_fr1_70,fr1_p3).
body(r_fr1_70,fr1_w2).
body(r_fr1_70,fr1_x2).
head(r_fr1_71,fr1_r1).
body(r_fr1_71,fr1_s2).
head(r_fr1_72,fr1_r1).
body(r_fr1_72,fr1_b2).
body(r_fr1_72,fr1_c1).
body(r_fr1_72,fr1_c2).
body(r_fr1_72,fr1_p1).
head(r_fr1_73,fr1_r1).
body(r_fr1_73,fr1_a1).
body(r_fr1_73,fr1_e2).
head(r_fr1_74,fr1_r1).
body(r_fr1_74,fr5_d2).
body(r_fr1_74,fr1_d1).
body(r_fr1_74,fr1_p3).
body(r_fr1_74,fr1_q1).
body(r_fr1_74,fr7_x1).
head(r_fr1_75,fr1_r1).
body(r_fr1_75,fr1_c3).
body(r_fr1_75,fr1_q3).
body(r_fr1_75,fr1_r2).
body(r_fr1_75,fr9_v1).
head(r_fr1_76,fr1_r1).
body(r_fr1_76,fr1_c1).
body(r_fr1_76,fr1_c1).
body(r_fr1_76,fr1_d2).
head(r_fr1_77,fr1_r1).
body(r_fr1_77,fr1_f2).
head(r_fr1_78,fr1_r1).
body(r_fr1_78,fr1_a2).
body(r_fr1_78,fr5_d2).
body(r_fr1_78,fr1_b2).
body(r_fr1_78,fr1_c3).
body(r_fr1_78,fr1_f2).
body(r_fr1_78,fr1_v2).
head(r_fr1_79,fr1_r1).
body(r_fr1_79,fr1_c1).
body(r_fr1_79,fr1_c1).
body(r_fr1_79,fr1_w2).
head(r_fr1_80,fr1_r1).
body(r_fr1_80,fr7_x1).
head(r_fr1_81,fr1_r1).
body(r_fr1_81,fr9_b2).
body(r_fr1_81,fr4_v2).
body(r_fr1_81,fr1_x2).
body(r_fr1_81,fr1_y2).
head(r_fr1_82,fr1_r1).
body(r_fr1_82,fr1_c1).
body(r_fr1_82,fr1_d1).
body(r_fr1_82,fr1_f2).
body(r_fr1_82,fr1_p2).
body(r_fr1_82,fr1_q1).
head(r_fr1_83,fr7_w2).
body(r_fr1_83,fr1_u2).
body(r_fr1_83,fr1_x2).
head(r_fr1_84,fr7_w2).
body(r_fr1_84,fr5_d2).
body(r_fr1_84,fr1_c2).
body(r_fr1_84,fr7_q3).
body(r_fr1_84,fr1_e2).
body(r_fr1_84,fr9_v1).
body(r_fr1_84,fr1_x2).
head(r_fr1_85,fr7_w2).
body(r_fr1_85,fr5_d2).
head(r_fr1_86,fr7_w2).
body(r_fr1_86,fr1_c3).
body(r_fr1_86,fr1_z2).
head(r_fr1_87,fr7_w2).
body(r_fr1_87,fr1_c3).
body(r_fr1_87,fr1_q3).
body(r_fr1_87,fr1_r1).
body(r_fr1_87,fr1_s1).
body(r_fr1_87,fr1_y1).
head(r_fr1_88,fr7_w2).
body(r_fr1_88,fr1_a1).
body(r_fr1_88,fr1_c3).
body(r_fr1_88,fr1_d1).
body(r_fr1_88,fr7_q3).
body(r_fr1_88,fr1_f1).
body(r_fr1_88,fr1_s1).
head(r_fr1_89,fr7_w2).
body(r_fr1_89,fr1_c1).
body(r_fr1_89,fr1_c2).
head(r_fr1_90,fr7_w2).
body(r_fr1_90,fr1_p2).
body(r_fr1_90,fr1_r2).
body(r_fr1_90,fr1_s2).
body(r_fr1_90,fr9_v1).
body(r_fr1_90,fr1_x2).
head(r_fr1_91,fr7_w2).
body(r_fr1_91,fr1_c1).
body(r_fr1_91,fr1_c1).
body(r_fr1_91,fr1_q2).
body(r_fr1_91,fr1_r1).
body(r_fr1_91,fr1_s2).
head(r_fr1_92,fr7_w2).
head(r_fr1_93,fr7_w2).
body(r_fr1_93,fr1_p2).
body(r_fr1_93,fr1_q1).
body(r_fr1_93,fr1_q2).
body(r_fr1_93,fr1_r1).
body(r_fr1_93,fr1_u2).
head(r_fr1_94,fr1_p2).
body(r_fr1_94,fr9_b2).
body(r_fr1_94,fr1_d1).
body(r_fr1_94,fr1_f1).
body(r_fr1_94,fr1_t1).
body(r_fr1_94,fr7_x1).
body(r_fr1_94,fr1_z2).
head(r_fr1_95,fr1_p2).
body(r_fr1_95,fr1_q1).
body(r_fr1_95,fr7_x1).
body(r_fr1_95,fr1_y1).
body(r_fr1_95,fr1_y2).
head(r_fr1_96,fr1_p2).
body(r_fr1_96,fr1_c1).
body(r_fr1_96,fr1_q2).
body(r_fr1_96,fr1_r2).
body(r_fr1_96,fr1_y1).
head(r_fr1_97,fr1_p2).
body(r_fr1_97,fr1_u2).
body(r_fr1_97,fr9_v1).
body(r_fr1_97,fr1_v2).
body(r_fr1_97,fr1_y1).
body(r_fr1_97,fr1_y2).
body(r_fr1_97,fr7_w2).
head(r_fr1_98,fr1_p2).
body(r_fr1_98,fr1_a2).
body(r_fr1_98,fr9_b2).
body(r_fr1_98,fr1_s2).
head(r_fr1_99,fr1_p2).
body(r_fr1_99,fr5_d2).
body(r_fr1_99,fr1_c2).
body(r_fr1_99,fr1_c3).
body(r_fr1_99,fr1_q1).
head(r_fr1_100,fr1_p2).
body(r_fr1_100,fr1_c1).
body(r_fr1_100,fr1_c3).
body(r_fr1_100,fr1_w2).
head(r_fr1_101,fr1_p2).
body(r_fr1_101,fr1_p1).
body(r_fr1_101,fr1_r3).
body(r_fr1_101,fr7_w2).
head(r_fr1_102,fr1_p2).
head(r_fr1_103,fr1_p2).
body(r_fr1_103,fr1_q3).
body(r_fr1_103,fr1_r2).
body(r_fr1_103,fr1_v2).
head(r_fr1_104,fr1_p2).
body(r_fr1_104,fr1_c1).
body(r_fr1_104,fr1_q1).
body(r_fr1_104,fr1_t2).
body(r_fr1_104,fr1_u2).
body(r_fr1_104,fr1_v2).
body(r_fr1_104,fr1_w2).
head(r_fr1_105,fr1_q3).
body(r_fr1_105,fr1_c1).
body(r_fr1_105,fr1_q1).
body(r_fr1_105,fr1_r2).
head(r_fr1_106,fr1_q3).
body(r_fr1_106,fr9_b2).
body(r_fr1_106,fr1_e2).
head(r_fr1_107,fr1_q3).
head(r_fr1_108,fr1_q3).
body(r_fr1_108,fr1_q1).
head(r_fr1_109,fr1_q3).
body(r_fr1_109,fr5_d2).
body(r_fr1_109,fr1_f1).
head(r_fr1_110,fr1_q3).
body(r_fr1_110,fr7_x1).
body(r_fr1_110,fr1_w1).
body(r_fr1_110,fr1_w2).
body(r_fr1_110,fr1_y2).
head(r_fr1_111,fr1_q3).
body(r_fr1_111,fr1_c1).
body(r_fr1_111,fr1_d2).
body(r_fr1_111,fr1_f1).
body(r_fr1_111,fr1_u2).
head(r_fr1_112,fr1_q3).
body(r_fr1_112,fr1_t2).
body(r_fr1_112,fr7_x1).
head(r_fr1_113,fr1_q3).
body(r_fr1_113,fr1_c3).
body(r_fr1_113,fr1_d1).
body(r_fr1_113,fr7_q3).
body(r_fr1_113,fr1_e2).
head(r_fr1_114,fr1_q3).
body(r_fr1_114,fr9_b2).
body(r_fr1_114,fr1_c1).
body(r_fr1_114,fr1_c3).
body(r_fr1_114,fr1_p2).
body(r_fr1_114,fr1_w2).
body(r_fr1_114,fr1_y1).
head(r_fr1_115,fr1_q3).
body(r_fr1_115,fr7_q3).
body(r_fr1_115,fr1_r3).
body(r_fr1_115,fr7_x1).
head(r_fr1_116,fr1_q3).
body(r_fr1_116,fr9_b2).
body(r_fr1_116,fr1_c3).
body(r_fr1_116,fr1_t2).
body(r_fr1_116,fr1_z2).
head(r_fr1_117,fr1_u2).
body(r_fr1_117,fr1_a1).
body(r_fr1_117,fr7_q3).
body(r_fr1_117,fr1_t2).
head(r_fr1_118,fr1_u2).
body(r_fr1_118,fr1_b2).
body(r_fr1_118,fr1_d2).
body(r_fr1_118,fr1_r3).
body(r_fr1_118,fr1_w2).
head(r_fr1_119,fr1_u2).
body(r_fr1_119,fr1_b2).
body(r_fr1_119,fr1_d2).
body(r_fr1_119,fr1_s2).
body(r_fr1_119,fr7_x1).
body(r_fr1_119,fr1_v2).
head(r_fr1_120,fr1_u2).
body(r_fr1_120,fr1_x2).
body(r_fr1_120,fr7_w2).
head(r_fr1_121,fr1_u2).
body(r_fr1_121,fr1_a2).
body(r_fr1_121,fr1_c1).
body(r_fr1_121,fr1_r3).
body(r_fr1_121,fr4_v2).
body(r_fr1_121,fr1_x2).
head(r_fr1_122,fr1_u2).
body(r_fr1_122,fr9_b2).
body(r_fr1_122,fr1_t1).
head(r_fr1_123,fr1_u2).
head(r_fr1_124,fr1_u2).
body(r_fr1_124,fr1_d2).
body(r_fr1_124,fr9_v1).
body(r_fr1_124,fr1_x2).
body(r_fr1_124,fr1_y2).
body(r_fr1_124,fr1_z2).
head(r_fr1_125,fr1_u2).
body(r_fr1_125,fr1_s2).
head(r_fr1_126,fr1_u2).
body(r_fr1_126,fr5_d2).
body(r_fr1_126,fr1_b2).
body(r_fr1_126,fr1_d2).
head(r_fr1_127,fr1_u2).
body(r_fr1_127,fr1_d1).
body(r_fr1_127,fr1_v2).
body(r_fr1_127,fr1_w1).
body(r_fr1_127,fr1_y1).
body(r_fr1_127,fr1_z2).
head(r_fr1_128,fr1_r2).
body(r_fr1_128,fr1_a2).
body(r_fr1_128,fr9_b2).
body(r_fr1_128,fr1_p1).
head(r_fr1_129,fr1_r2).
body(r_fr1_129,fr1_a2).
body(r_fr1_129,fr1_b2).
body(r_fr1_129,fr1_c3).
body(r_fr1_129,fr1_d1).
body(r_fr1_129,fr7_q3).
body(r_fr1_129,fr1_f1).
head(r_fr1_130,fr1_r2).
body(r_fr1_130,fr1_a2).
head(r_fr1_131,fr1_r2).
body(r_fr1_131,fr1_a1).
body(r_fr1_131,fr9_b2).
body(r_fr1_131,fr1_c1).
body(r_fr1_131,fr1_d2).
body(r_fr1_131,fr1_f1).
body(r_fr1_131,fr4_v2).
head(r_fr1_132,fr1_r2).
body(r_fr1_132,fr1_a1).
body(r_fr1_132,fr1_a2).
body(r_fr1_132,fr1_c2).
body(r_fr1_132,fr1_f1).
body(r_fr1_132,fr1_f2).
head(r_fr1_133,fr1_r2).
body(r_fr1_133,fr1_q2).
body(r_fr1_133,fr1_y2).
head(r_fr1_134,fr1_r2).
body(r_fr1_134,fr1_r3).
body(r_fr1_134,fr1_s2).
body(r_fr1_134,fr4_v2).
head(r_fr1_135,fr1_r2).
body(r_fr1_135,fr5_d2).
body(r_fr1_135,fr1_d1).
body(r_fr1_135,fr1_e2).
body(r_fr1_135,fr1_p3).
body(r_fr1_135,fr1_s1).
body(r_fr1_135,fr9_v1).
head(r_fr1_136,fr1_r2).
body(r_fr1_136,fr7_q3).
body(r_fr1_136,fr1_p2).
body(r_fr1_136,fr1_q2).
body(r_fr1_136,fr1_s1).
body(r_fr1_136,fr7_x1).
body(r_fr1_136,fr1_w1).
head(r_fr1_137,fr1_r2).
body(r_fr1_137,fr1_p2).
body(r_fr1_137,fr1_s1).
body(r_fr1_137,fr1_u2).
body(r_fr1_137,fr1_x2).
body(r_fr1_137,fr1_y1).
head(r_fr1_138,fr1_r2).
body(r_fr1_138,fr1_y1).
head(r_fr1_139,fr1_r2).
head(r_fr1_140,fr1_r2).
body(r_fr1_140,fr1_p3).
body(r_fr1_140,fr1_q3).
body(r_fr1_140,fr1_s2).
body(r_fr1_140,fr1_w2).
body(r_fr1_140,fr4_v2).
head(r_fr1_141,fr1_r2).
body(r_fr1_141,fr1_a1).
body(r_fr1_141,fr1_p2).
body(r_fr1_141,fr1_q2).
body(r_fr1_141,fr1_v2).
body(r_fr1_141,fr1_y2).
head(r_fr1_142,fr1_z2).
body(r_fr1_142,fr1_p1).
body(r_fr1_142,fr9_v1).
head(r_fr1_143,fr1_z2).
body(r_fr1_143,fr1_a2).
body(r_fr1_143,fr1_c3).
body(r_fr1_143,fr1_f1).
body(r_fr1_143,fr1_q2).
body(r_fr1_143,fr4_v2).
head(r_fr1_144,fr1_z2).
body(r_fr1_144,fr1_p3).
head(r_fr1_145,fr1_z2).
body(r_fr1_145,fr1_p2).
body(r_fr1_145,fr1_w1).
body(r_fr1_145,fr1_w2).
body(r_fr1_145,fr7_w2).
head(r_fr1_146,fr1_z2).
body(r_fr1_146,fr1_b2).
body(r_fr1_146,fr1_c1).
body(r_fr1_146,fr7_x1).
body(r_fr1_146,fr9_v1).
body(r_fr1_146,fr1_w2).
head(r_fr1_147,fr1_z2).
body(r_fr1_147,fr1_c1).
body(r_fr1_147,fr1_r2).
head(r_fr1_148,fr1_z2).
body(r_fr1_148,fr1_q3).
head(r_fr1_149,fr1_z2).
head(r_fr1_150,fr1_z2).
body(r_fr1_150,fr1_q1).
body(r_fr1_150,fr1_q2).
body(r_fr1_150,fr1_r1).
body(r_fr1_150,fr1_r3).
body(r_fr1_150,fr1_w2).
head(r_fr1_151,fr1_z2).
body(r_fr1_151,fr1_p3).
body(r_fr1_151,fr1_t1).
head(r_fr1_152,fr1_z2).
body(r_fr1_152,fr1_e2).
body(r_fr1_152,fr1_r1).
body(r_fr1_152,fr1_u2).
body(r_fr1_152,fr1_v2).
head(r_fr1_153,fr7_x1).
body(r_fr1_153,fr1_c1).
head(r_fr1_154,fr7_x1).
body(r_fr1_154,fr1_a2).
body(r_fr1_154,fr1_p1).
head(r_fr1_155,fr7_x1).
body(r_fr1_155,fr1_a2).
body(r_fr1_155,fr9_b2).
body(r_fr1_155,fr1_c3).
body(r_fr1_155,fr1_e2).
head(r_fr1_156,fr7_x1).
body(r_fr1_156,fr5_d2).
body(r_fr1_156,fr1_b2).
body(r_fr1_156,fr1_c3).
head(r_fr1_157,fr7_x1).
body(r_fr1_157,fr1_p3).
body(r_fr1_157,fr1_v2).
body(r_fr1_157,fr1_w1).
head(r_fr1_158,fr7_x1).
body(r_fr1_158,fr1_b2).
body(r_fr1_158,fr1_c1).
body(r_fr1_158,fr1_c1).
body(r_fr1_158,fr1_f1).
body(r_fr1_158,fr1_f2).
body(r_fr1_158,fr1_q1).
head(r_fr1_159,fr7_x1).
body(r_fr1_159,fr1_c1).
body(r_fr1_159,fr1_d2).
body(r_fr1_159,fr1_v2).
body(r_fr1_159,fr1_x2).
head(r_fr1_160,fr7_x1).
body(r_fr1_160,fr1_w1).
head(r_fr1_161,fr7_x1).
body(r_fr1_161,fr1_a1).
body(r_fr1_161,fr9_b2).
body(r_fr1_161,fr1_d2).
body(r_fr1_161,fr7_q3).
head(r_fr1_162,fr7_x1).
body(r_fr1_162,fr5_d2).
body(r_fr1_162,fr1_f1).
body(r_fr1_162,fr1_q1).
head(r_fr1_163,fr7_x1).
body(r_fr1_163,fr1_a1).
body(r_fr1_163,fr1_d2).
body(r_fr1_163,fr1_f1).
head(r_fr1_164,fr7_x1).
head(r_fr1_165,fr1_t1).
body(r_fr1_165,fr1_p1).
body(r_fr1_165,fr1_r1).
body(r_fr1_165,fr1_s1).
body(r_fr1_165,fr1_x2).
head(r_fr1_166,fr1_t1).
body(r_fr1_166,fr1_s1).
head(r_fr1_167,fr1_t1).
body(r_fr1_167,fr7_x1).
body(r_fr1_167,fr1_u2).
body(r_fr1_167,fr1_x2).
head(r_fr1_168,fr1_t1).
body(r_fr1_168,fr1_c3).
body(r_fr1_168,fr7_q3).
body(r_fr1_168,fr1_f1).
body(r_fr1_168,fr1_w1).
head(r_fr1_169,fr1_t1).
body(r_fr1_169,fr1_z2).
head(r_fr1_170,fr1_t1).
body(r_fr1_170,fr1_d2).
body(r_fr1_170,fr1_f2).
head(r_fr1_171,fr1_t1).
body(r_fr1_171,fr1_c1).
body(r_fr1_171,fr1_u2).
head(r_fr1_172,fr1_t1).
body(r_fr1_172,fr1_b2).
body(r_fr1_172,fr1_c1).
body(r_fr1_172,fr1_d2).
body(r_fr1_172,fr1_f2).
head(r_fr1_173,fr1_t1).
body(r_fr1_173,fr1_q2).
body(r_fr1_173,fr1_s2).
body(r_fr1_173,fr4_v2).
body(r_fr1_173,fr1_y1).
head(r_fr1_174,fr1_t1).
body(r_fr1_174,fr1_d2).
body(r_fr1_174,fr1_e2).
body(r_fr1_174,fr1_r3).
head(r_fr1_175,fr1_t1).
body(r_fr1_175,fr1_a2).
head(r_fr1_176,fr1_t1).
body(r_fr1_176,fr1_a2).
body(r_fr1_176,fr1_f2).
body(r_fr1_176,fr1_q1).
body(r_fr1_176,fr1_q3).
body(r_fr1_176,fr9_v1).
body(r_fr1_176,fr1_v2).
head(r_fr1_177,fr1_t1).
head(r_fr1_178,fr1_x2).
head(r_fr1_179,fr1_x2).
body(r_fr1_179,fr1_y1).
head(r_fr1_180,fr1_x2).
body(r_fr1_180,fr1_u2).
body(r_fr1_180,fr1_z2).
head(r_fr1_181,fr1_x2).
body(r_fr1_181,fr1_a1).
body(r_fr1_181,fr1_d1).
head(r_fr1_182,fr1_x2).
body(r_fr1_182,fr1_c1).
body(r_fr1_182,fr1_c1).
body(r_fr1_182,fr1_e2).
body(r_fr1_182,fr1_f1).
body(r_fr1_182,fr1_f2).
head(r_fr1_183,fr1_x2).
body(r_fr1_183,fr1_a2).
body(r_fr1_183,fr5_d2).
body(r_fr1_183,fr1_b2).
body(r_fr1_183,fr1_c1).
body(r_fr1_183,fr1_d1).
body(r_fr1_183,fr1_f2).
head(r_fr1_184,fr1_x2).
body(r_fr1_184,fr1_c2).
body(r_fr1_184,fr1_c3).
body(r_fr1_184,fr1_t1).
head(r_fr1_185,fr1_x2).
body(r_fr1_185,fr1_e2).
body(r_fr1_185,fr1_f1).
body(r_fr1_185,fr4_v2).
body(r_fr1_185,fr1_y2).
head(r_fr1_186,fr1_x2).
body(r_fr1_186,fr1_a1).
body(r_fr1_186,fr1_a2).
body(r_fr1_186,fr1_p2).
body(r_fr1_186,fr4_v2).
body(r_fr1_186,fr1_y1).
body(r_fr1_186,fr1_y2).
head(r_fr1_187,fr1_x2).
body(r_fr1_187,fr9_b2).
body(r_fr1_187,fr1_q2).
body(r_fr1_187,fr1_t2).
body(r_fr1_187,fr1_w2).
body(r_fr1_187,fr1_y1).
body(r_fr1_187,fr1_y2).
head(r_fr1_188,fr1_x2).
body(r_fr1_188,fr1_t2).
body(r_fr1_188,fr1_y1).
head(r_fr1_189,fr1_x2).
body(r_fr1_189,fr9_b2).
body(r_fr1_189,fr1_c1).
body(r_fr1_189,fr1_r1).
body(r_fr1_189,fr1_r3).
body(r_fr1_189,fr1_u2).
body(r_fr1_189,fr1_w2).
head(r_fr1_190,fr1_s2).
body(r_fr1_190,fr1_b2).
body(r_fr1_190,fr1_d2).
head(r_fr1_191,fr1_s2).
head(r_fr1_192,fr1_s2).
body(r_fr1_192,fr1_a1).
body(r_fr1_192,fr1_r3).
body(r_fr1_192,fr4_v2).
head(r_fr1_193,fr1_s2).
body(r_fr1_193,fr1_d1).
head(r_fr1_194,fr1_s2).
body(r_fr1_194,fr1_c3).
body(r_fr1_194,fr1_d2).
body(r_fr1_194,fr1_r2).
body(r_fr1_194,fr1_s1).
body(r_fr1_194,fr7_x1).
head(r_fr1_195,fr1_s2).
body(r_fr1_195,fr5_d2).
body(r_fr1_195,fr1_f2).
body(r_fr1_195,fr1_s1).
head(r_fr1_196,fr1_s2).
body(r_fr1_196,fr9_b2).
body(r_fr1_196,fr1_c1).
body(r_fr1_196,fr1_d2).
body(r_fr1_196,fr7_q3).
body(r_fr1_196,fr1_e2).
head(r_fr1_197,fr1_s2).
body(r_fr1_197,fr1_r1).
head(r_fr1_198,fr1_s2).
body(r_fr1_198,fr1_d2).
body(r_fr1_198,fr1_e2).
body(r_fr1_198,fr1_r3).
body(r_fr1_198,fr1_w2).
body(r_fr1_198,fr1_y2).
head(r_fr1_199,fr1_s2).
body(r_fr1_199,fr5_d2).
body(r_fr1_199,fr9_b2).
body(r_fr1_199,fr1_c3).
body(r_fr1_199,fr1_e2).
body(r_fr1_199,fr1_r3).
head(r_fr1_200,fr1_s2).
body(r_fr1_200,fr7_q3).
head(r_fr1_201,fr1_s2).
body(r_fr1_201,fr7_q3).
body(r_fr1_201,fr1_q1).
head(r_fr1_202,fr9_v1).
body(r_fr1_202,fr1_r2).
body(r_fr1_202,fr1_r3).
body(r_fr1_202,fr4_v2).
head(r_fr1_203,fr9_v1).
body(r_fr1_203,fr1_a1).
body(r_fr1_203,fr7_x1).
head(r_fr1_204,fr9_v1).
body(r_fr1_204,fr1_a2).
body(r_fr1_204,fr5_d2).
head(r_fr1_205,fr9_v1).
body(r_fr1_205,fr1_a2).
body(r_fr1_205,fr5_d2).
body(r_fr1_205,fr1_p1).
body(r_fr1_205,fr1_s2).
body(r_fr1_205,fr1_x2).
head(r_fr1_206,fr9_v1).
body(r_fr1_206,fr1_r2).
head(r_fr1_207,fr9_v1).
head(r_fr1_208,fr9_v1).
body(r_fr1_208,fr1_c2).
body(r_fr1_208,fr1_s2).
head(r_fr1_209,fr9_v1).
body(r_fr1_209,fr1_c1).
body(r_fr1_209,fr1_f2).
body(r_fr1_209,fr1_u2).
head(r_fr1_210,fr9_v1).
body(r_fr1_210,fr1_q3).
body(r_fr1_210,fr1_x2).
body(r_fr1_210,fr7_w2).
body(r_fr1_210,fr1_z2).
head(r_fr1_211,fr9_v1).
body(r_fr1_211,fr1_q3).
body(r_fr1_211,fr1_t2).
body(r_fr1_211,fr1_u2).
head(r_fr1_212,fr9_v1).
body(r_fr1_212,fr1_q1).
body(r_fr1_212,fr1_r3).
body(r_fr1_212,fr1_y1).
head(r_fr1_213,fr1_t2).
body(r_fr1_213,fr1_a1).
body(r_fr1_213,fr1_c2).
body(r_fr1_213,fr1_d2).
body(r_fr1_213,fr1_f1).
body(r_fr1_213,fr1_f2).
body(r_fr1_213,fr1_q2).
head(r_fr1_214,fr1_t2).
body(r_fr1_214,fr1_c3).
body(r_fr1_214,fr1_d2).
head(r_fr1_215,fr1_t2).
body(r_fr1_215,fr1_c3).
body(r_fr1_215,fr1_f2).
body(r_fr1_215,fr1_s1).
body(r_fr1_215,fr7_w2).
head(r_fr1_216,fr1_t2).
body(r_fr1_216,fr1_f2).
head(r_fr1_217,fr1_t2).
body(r_fr1_217,fr1_a1).
body(r_fr1_217,fr1_a2).
body(r_fr1_217,fr1_c1).
body(r_fr1_217,fr7_q3).
body(r_fr1_217,fr1_f2).
head(r_fr1_218,fr1_t2).
body(r_fr1_218,fr1_c1).
body(r_fr1_218,fr1_y2).
head(r_fr1_219,fr1_t2).
body(r_fr1_219,fr1_f1).
body(r_fr1_219,fr4_v2).
head(r_fr1_220,fr1_t2).
head(r_fr1_221,fr1_t2).
body(r_fr1_221,fr5_d2).
head(r_fr1_222,fr1_t2).
body(r_fr1_222,fr1_a2).
body(r_fr1_222,fr1_q1).
body(r_fr1_222,fr1_t1).
body(r_fr1_222,fr7_x1).
body(r_fr1_222,fr1_u2).
body(r_fr1_222,fr1_y1).
head(r_fr1_223,fr1_t2).
body(r_fr1_223,fr1_c2).
body(r_fr1_223,fr1_q2).
head(r_fr1_224,fr1_t2).
body(r_fr1_224,fr1_a2).
body(r_fr1_224,fr5_d2).
body(r_fr1_224,fr1_b2).
body(r_fr1_224,fr1_c3).
body(r_fr1_224,fr1_d1).
body(r_fr1_224,fr7_q3).
head(r_fr1_225,fr1_t2).
body(r_fr1_225,fr1_q3).
body(r_fr1_225,fr1_r1).
body(r_fr1_225,fr1_r2).
body(r_fr1_225,fr1_s1).
body(r_fr1_225,fr1_w2).
head(r_fr1_226,fr1_y2).
body(r_fr1_226,fr1_c2).
body(r_fr1_226,fr1_d1).
body(r_fr1_226,fr7_q3).
body(r_fr1_226,fr1_e2).
head(r_fr1_227,fr1_y2).
body(r_fr1_227,fr1_a1).
body(r_fr1_227,fr1_c1).
body(r_fr1_227,fr7_q3).
body(r_fr1_227,fr4_v2).
head(r_fr1_228,fr1_y2).
body(r_fr1_228,fr5_d2).
body(r_fr1_228,fr1_c3).
body(r_fr1_228,fr7_q3).
head(r_fr1_229,fr1_y2).
body(r_fr1_229,fr1_c1).
head(r_fr1_230,fr1_y2).
body(r_fr1_230,fr1_p2).
body(r_fr1_230,fr1_r1).
body(r_fr1_230,fr1_r3).
body(r_fr1_230,fr1_w1).
body(r_fr1_230,fr1_w2).
body(r_fr1_230,fr1_y1).
head(r_fr1_231,fr1_y2).
body(r_fr1_231,fr1_b2).
body(r_fr1_231,fr1_f2).
head(r_fr1_232,fr1_y2).
head(r_fr1_233,fr1_y2).
body(r_fr1_233,fr1_a1).
body(r_fr1_233,fr9_b2).
body(r_fr1_233,fr1_b2).
body(r_fr1_233,fr1_p1).
body(r_fr1_233,fr1_s1).
body(r_fr1_233,fr1_u2).
head(r_fr1_234,fr1_y2).
body(r_fr1_234,fr1_q1).
body(r_fr1_234,fr1_q2).
body(r_fr1_234,fr1_q3).
body(r_fr1_234,fr1_r2).
body(r_fr1_234,fr4_v2).
head(r_fr1_235,fr1_y2).
body(r_fr1_235,fr1_f1).
head(r_fr1_236,fr1_y2).
body(r_fr1_236,fr1_w2).
head(r_fr1_237,fr1_y2).
body(r_fr1_237,fr1_a1).
body(r_fr1_237,fr1_p1).
body(r_fr1_237,fr1_q3).
body(r_fr1_237,fr1_r3).
body(r_fr1_237,fr1_x2).
head(r_fr1_238,fr1_y2).
body(r_fr1_238,fr9_b2).
body(r_fr1_238,fr1_e2).
head(r_fr1_239,fr1_y2).
body(r_fr1_239,fr1_p1).
body(r_fr1_239,fr1_t1).
body(r_fr1_239,fr4_v2).
head(r_fr1_240,fr1_s1).
body(r_fr1_240,fr1_q2).
body(r_fr1_240,fr1_r1).
body(r_fr1_240,fr1_y2).
head(r_fr1_241,fr1_s1).
body(r_fr1_241,fr1_d1).
body(r_fr1_241,fr1_u2).
head(r_fr1_242,fr1_s1).
body(r_fr1_242,fr1_d1).
body(r_fr1_242,fr1_f2).
head(r_fr1_243,fr1_s1).
body(r_fr1_243,fr1_c1).
body(r_fr1_243,fr1_s2).
head(r_fr1_244,fr1_s1).
body(r_fr1_244,fr1_a2).
body(r_fr1_244,fr1_t1).
head(r_fr1_245,fr1_s1).
body(r_fr1_245,fr1_r1).
body(r_fr1_245,fr1_r3).
body(r_fr1_245,fr1_t1).
body(r_fr1_245,fr1_z2).
head(r_fr1_246,fr1_s1).
body(r_fr1_246,fr1_c2).
body(r_fr1_246,fr1_c3).
body(r_fr1_246,fr1_q1).
head(r_fr1_247,fr1_s1).
body(r_fr1_247,fr1_a1).
body(r_fr1_247,fr1_c1).
body(r_fr1_247,fr1_w1).
head(r_fr1_248,fr1_s1).
body(r_fr1_248,fr1_d1).
body(r_fr1_248,fr1_s2).
body(r_fr1_248,fr1_w1).
body(r_fr1_248,fr1_y2).
head(r_fr1_249,fr1_s1).
body(r_fr1_249,fr5_d2).
body(r_fr1_249,fr1_b2).
body(r_fr1_249,fr1_c1).
body(r_fr1_249,fr1_c2).
body(r_fr1_249,fr7_q3).
body(r_fr1_249,fr1_r2).
head(r_fr1_250,fr1_s1).
body(r_fr1_250,fr4_v2).
head(r_fr1_251,fr1_s1).

assumption(fr6_s2).
assumption(fr3_z2).
assumption(fr4_a3).
assumption(fr2_d1).
assumption(fr2_e1).
assumption(fr2_f1).
assumption(fr2_a2).
assumption(fr7_p4).
assumption(fr2_c2).
assumption(fr2_d2).
assumption(fr7_x1).
assumption(fr2_f2).
assumption(fr6_s2).
assumption(fr2_b3).
assumption(fr2_c3).
contrary(fr6_s2,fr2_v2).
contrary(fr2_a2,fr2_x1).
contrary(fr6_s2,fr2_t2).
contrary(fr3_z2,fr2_q3).
contrary(fr7_p4,fr2_p3).
contrary(fr2_b3,fr2_w1).
contrary(fr4_a3,fr2_s2).
contrary(fr2_c2,fr2_u2).
contrary(fr2_c3,fr2_z1).
contrary(fr2_d1,fr2_v2).
contrary(fr2_d2,fr1_c3).
contrary(fr2_e1,fr2_t1).
contrary(fr7_x1,fr2_z1).
contrary(fr2_f1,fr2_p3).
contrary(fr2_f2,fr2_a2).
head(r_fr2_0,fr4_a3).
body(r_fr2_0,fr2_r1).
head(r_fr2_1,fr4_a3).
body(r_fr2_1,fr2_w1).
head(r_fr2_2,fr2_w2).
body(r_fr2_2,fr2_p2).
body(r_fr2_2,fr2_r2).
body(r_fr2_2,fr6_b2).
head(r_fr2_3,fr2_w2).
body(r_fr2_3,fr7_p4).
body(r_fr2_3,fr2_t2).
body(r_fr2_3,fr2_x2).
head(r_fr2_4,fr2_w2).
body(r_fr2_4,fr2_a2).
body(r_fr2_4,fr2_t1).
head(r_fr2_5,fr2_w2).
body(r_fr2_5,fr2_r1).
body(r_fr2_5,fr2_s1).
body(r_fr2_5,fr2_w1).
head(r_fr2_6,fr2_w2).
body(r_fr2_6,fr2_b3).
head(r_fr2_7,fr2_z2).
body(r_fr2_7,fr2_c2).
body(r_fr2_7,fr2_c3).
head(r_fr2_8,fr2_z2).
body(r_fr2_8,fr3_z2).
body(r_fr2_8,fr2_b3).
body(r_fr2_8,fr2_c3).
body(r_fr2_8,fr2_e1).
body(r_fr2_8,fr2_f1).
body(r_fr2_8,fr2_s1).
head(r_fr2_9,fr2_z2).
body(r_fr2_9,fr6_s2).
body(r_fr2_9,fr3_z2).
body(r_fr2_9,fr2_c2).
body(r_fr2_9,fr2_d1).
body(r_fr2_9,fr2_t2).
head(r_fr2_10,fr2_z2).
body(r_fr2_10,fr2_a2).
body(r_fr2_10,fr2_u2).
body(r_fr2_10,fr2_x2).
head(r_fr2_11,fr2_q3).
body(r_fr2_11,fr6_s2).
body(r_fr2_11,fr4_a3).
body(r_fr2_11,fr7_x1).
body(r_fr2_11,fr2_f1).
body(r_fr2_11,fr2_t2).
head(r_fr2_12,fr2_q3).
body(r_fr2_12,fr3_z2).
body(r_fr2_12,fr4_a3).
body(r_fr2_12,fr2_d1).
body(r_fr2_12,fr2_e1).
head(r_fr2_13,fr2_q3).
body(r_fr2_13,fr2_b3).
body(r_fr2_13,fr2_e1).
body(r_fr2_13,fr7_x1).
body(r_fr2_13,fr2_f1).
body(r_fr2_13,fr2_f2).
head(r_fr2_14,fr2_q3).
body(r_fr2_14,fr6_s2).
body(r_fr2_14,fr2_b3).
body(r_fr2_14,fr2_d1).
body(r_fr2_14,fr2_e1).
body(r_fr2_14,fr2_x1).
body(r_fr2_14,fr2_x2).
head(r_fr2_15,fr2_q2).
body(r_fr2_15,fr6_s2).
body(r_fr2_15,fr2_d2).
head(r_fr2_16,fr2_q2).
body(r_fr2_16,fr7_p4).
body(r_fr2_16,fr2_c3).
body(r_fr2_16,fr2_t1).
body(r_fr2_16,fr7_s1).
head(r_fr2_17,fr2_q2).
body(r_fr2_17,fr2_a2).
body(r_fr2_17,fr7_p4).
head(r_fr2_18,fr2_s2).
body(r_fr2_18,fr2_a2).
body(r_fr2_18,fr2_b3).
body(r_fr2_18,fr7_x1).
head(r_fr2_19,fr2_s2).
body(r_fr2_19,fr6_s2).
body(r_fr2_19,fr3_z2).
body(r_fr2_19,fr2_d1).
body(r_fr2_19,fr2_f2).
body(r_fr2_19,fr7_s1).
head(r_fr2_20,fr2_s2).
head(r_fr2_21,fr2_s2).
body(r_fr2_21,fr2_q2).
head(r_fr2_22,fr7_s1).
body(r_fr2_22,fr6_s2).
body(r_fr2_22,fr2_f1).
body(r_fr2_22,fr2_p3).
body(r_fr2_22,fr2_w2).
head(r_fr2_23,fr7_s1).
body(r_fr2_23,fr2_r1).
body(r_fr2_23,fr2_s1).
body(r_fr2_23,fr4_a3).
body(r_fr2_23,fr6_b2).
body(r_fr2_23,fr2_x1).
head(r_fr2_24,fr2_x2).
body(r_fr2_24,fr2_q1).
body(r_fr2_24,fr2_w1).
head(r_fr2_25,fr2_x2).
body(r_fr2_25,fr2_d2).
body(r_fr2_25,fr2_e1).
body(r_fr2_25,fr2_u2).
body(r_fr2_25,fr2_v2).
body(r_fr2_25,fr2_w1).
head(r_fr2_26,fr2_x2).
body(r_fr2_26,fr7_p4).
body(r_fr2_26,fr2_c2).
head(r_fr2_27,fr2_x2).
body(r_fr2_27,fr2_q2).
head(r_fr2_28,fr2_p2).
body(r_fr2_28,fr2_a2).
body(r_fr2_28,fr2_q1).
body(r_fr2_28,fr2_x2).
body(r_fr2_28,fr2_z1).
head(r_fr2_29,fr2_p2).
body(r_fr2_29,fr4_a3).
body(r_fr2_29,fr2_c3).
body(r_fr2_29,fr2_q1).
body(r_fr2_29,fr2_u2).
body(r_fr2_29,fr7_s1).
head(r_fr2_30,fr2_p2).
body(r_fr2_30,fr7_x1).
body(r_fr2_30,fr2_q2).
body(r_fr2_30,fr2_w2).
head(r_fr2_31,fr2_p2).
body(r_fr2_31,fr2_z2).
head(r_fr2_32,fr2_p2).
body(r_fr2_32,fr6_s2).
body(r_fr2_32,fr3_z2).
body(r_fr2_32,fr2_b3).
body(r_fr2_32,fr2_c2).
body(r_fr2_32,fr7_x1).
body(r_fr2_32,fr2_f1).
head(r_fr2_33,fr2_r2).
head(r_fr2_34,fr2_r2).
body(r_fr2_34,fr2_a2).
body(r_fr2_34,fr4_a3).
body(r_fr2_34,fr2_c3).
body(r_fr2_34,fr2_d1).
body(r_fr2_34,fr2_p2).
head(r_fr2_35,fr2_v2).
body(r_fr2_35,fr7_s1).
body(r_fr2_35,fr2_z2).
head(r_fr2_36,fr2_v2).
head(r_fr2_37,fr2_v2).
body(r_fr2_37,fr2_f1).
body(r_fr2_37,fr2_z2).
head(r_fr2_38,fr2_v2).
body(r_fr2_38,fr1_c3).
body(r_fr2_38,fr2_q2).
body(r_fr2_38,fr2_w1).
head(r_fr2_39,fr2_v2).
body(r_fr2_39,fr6_s2).
body(r_fr2_39,fr2_e1).
head(r_fr2_40,fr2_z1).
body(r_fr2_40,fr1_c3).
body(r_fr2_40,fr2_q3).
body(r_fr2_40,fr2_s1).
body(r_fr2_40,fr2_x2).
head(r_fr2_41,fr2_z1).
body(r_fr2_41,fr2_p2).
body(r_fr2_41,fr2_w1).
head(r_fr2_42,fr2_z1).
body(r_fr2_42,fr2_c2).
body(r_fr2_42,fr7_x1).
body(r_fr2_42,fr2_f1).
body(r_fr2_42,fr2_p3).
body(r_fr2_42,fr2_w1).
body(r_fr2_42,fr7_s1).
head(r_fr2_43,fr2_z1).
body(r_fr2_43,fr7_p4).
body(r_fr2_43,fr4_a3).
body(r_fr2_43,fr2_e1).
body(r_fr2_43,fr2_f1).
body(r_fr2_43,fr2_f2).
body(r_fr2_43,fr2_q2).
head(r_fr2_44,fr1_c3).
body(r_fr2_44,fr2_d2).
body(r_fr2_44,fr2_e1).
body(r_fr2_44,fr2_s2).
body(r_fr2_44,fr2_w2).
head(r_fr2_45,fr1_c3).
head(r_fr2_46,fr1_c3).
body(r_fr2_46,fr6_s2).
body(r_fr2_46,fr3_z2).
body(r_fr2_46,fr2_c3).
body(r_fr2_46,fr2_f1).
head(r_fr2_47,fr1_c3).
body(r_fr2_47,fr2_q1).
body(r_fr2_47,fr2_r1).
body(r_fr2_47,fr2_s1).
body(r_fr2_47,fr4_a3).
body(r_fr2_47,fr2_z1).
head(r_fr2_48,fr2_w1).
body(r_fr2_48,fr3_z2).
body(r_fr2_48,fr7_p4).
body(r_fr2_48,fr2_f1).
body(r_fr2_48,fr2_p3).
head(r_fr2_49,fr2_w1).
body(r_fr2_49,fr6_s2).
body(r_fr2_49,fr2_b3).
body(r_fr2_49,fr2_c2).
body(r_fr2_49,fr2_f1).
body(r_fr2_49,fr2_f2).
body(r_fr2_49,fr2_p2).
head(r_fr2_50,fr2_w1).
head(r_fr2_51,fr2_w1).
body(r_fr2_51,fr6_s2).
body(r_fr2_51,fr2_b3).
body(r_fr2_51,fr2_c2).
body(r_fr2_51,fr2_c3).
body(r_fr2_51,fr2_f1).
body(r_fr2_51,fr2_f2).
head(r_fr2_52,fr2_r3).
body(r_fr2_52,fr7_p4).
body(r_fr2_52,fr2_f2).
body(r_fr2_52,fr2_r1).
body(r_fr2_52,fr2_u2).
head(r_fr2_53,fr2_r3).
body(r_fr2_53,fr2_f2).
body(r_fr2_53,fr2_w2).
head(r_fr2_54,fr2_r3).
body(r_fr2_54,fr6_s2).
body(r_fr2_54,fr2_a2).
body(r_fr2_54,fr2_c2).
body(r_fr2_54,fr2_c3).
body(r_fr2_54,fr2_p2).
body(r_fr2_54,fr2_z1).
head(r_fr2_55,fr2_r3).
body(r_fr2_55,fr2_q1).
body(r_fr2_55,fr2_q3).
body(r_fr2_55,fr2_u2).
body(r_fr2_55,fr2_x1).
head(r_fr2_56,fr2_q1).
body(r_fr2_56,fr6_s2).
body(r_fr2_56,fr2_b3).
body(r_fr2_56,fr7_x1).
body(r_fr2_56,fr2_f2).
head(r_fr2_57,fr2_q1).
body(r_fr2_57,fr4_a3).
body(r_fr2_57,fr2_r2).
body(r_fr2_57,fr2_u2).
head(r_fr2_58,fr2_r1).
body(r_fr2_58,fr2_q3).
body(r_fr2_58,fr2_x1).
head(r_fr2_59,fr2_r1).
body(r_fr2_59,fr2_t1).
body(r_fr2_59,fr4_a3).
body(r_fr2_59,fr6_b2).
body(r_fr2_59,fr2_v2).
body(r_fr2_59,fr2_w2).
body(r_fr2_59,fr2_x1).
head(r_fr2_60,fr2_r1).
body(r_fr2_60,fr3_z2).
body(r_fr2_60,fr7_p4).
body(r_fr2_60,fr2_f2).
head(r_fr2_61,fr2_r1).
body(r_fr2_61,fr6_s2).
body(r_fr2_61,fr7_x1).
head(r_fr2_62,fr2_t2).
body(r_fr2_62,fr3_z2).
body(r_fr2_62,fr2_b3).
body(r_fr2_62,fr2_c2).
body(r_fr2_62,fr7_x1).
head(r_fr2_63,fr2_t2).
body(r_fr2_63,fr2_f1).
body(r_fr2_63,fr2_s1).
body(r_fr2_63,fr2_t1).
head(r_fr2_64,fr2_t2).
body(r_fr2_64,fr2_a2).
body(r_fr2_64,fr6_s2).
body(r_fr2_64,fr2_b3).
body(r_fr2_64,fr2_e1).
head(r_fr2_65,fr2_t2).
body(r_fr2_65,fr2_q2).
body(r_fr2_65,fr4_a3).
body(r_fr2_65,fr7_s1).
head(r_fr2_66,fr2_t2).
body(r_fr2_66,fr3_z2).
body(r_fr2_66,fr7_p4).
body(r_fr2_66,fr2_b3).
body(r_fr2_66,fr4_a3).
body(r_fr2_66,fr2_e1).
body(r_fr2_66,fr2_f2).
head(r_fr2_67,fr6_q3).
body(r_fr2_67,fr7_p4).
body(r_fr2_67,fr2_f2).
body(r_fr2_67,fr1_c3).
body(r_fr2_67,fr2_w1).
body(r_fr2_67,fr2_x2).
head(r_fr2_68,fr6_q3).
body(r_fr2_68,fr1_c3).
body(r_fr2_68,fr2_q2).
body(r_fr2_68,fr2_r2).
body(r_fr2_68,fr2_s2).
body(r_fr2_68,fr4_a3).
body(r_fr2_68,fr2_x2).
head(r_fr2_69,fr6_q3).
head(r_fr2_70,fr6_q3).
body(r_fr2_70,fr7_s1).
head(r_fr2_71,fr6_q3).
body(r_fr2_71,fr4_a3).
body(r_fr2_71,fr2_e1).
body(r_fr2_71,fr2_w2).
body(r_fr2_71,fr2_z2).
head(r_fr2_72,fr2_t1).
body(r_fr2_72,fr2_d2).
body(r_fr2_72,fr2_s2).
body(r_fr2_72,fr2_w2).
head(r_fr2_73,fr2_t1).
body(r_fr2_73,fr2_a2).
head(r_fr2_74,fr2_t1).
body(r_fr2_74,fr1_c3).
body(r_fr2_74,fr2_p2).
body(r_fr2_74,fr2_r2).
body(r_fr2_74,fr2_s1).
body(r_fr2_74,fr2_w2).
body(r_fr2_74,fr2_z2).

assumption(fr3_a1).
assumption(fr3_b1).
assumption(fr3_c1).
assumption(fr3_d1).
assumption(fr3_e1).
assumption(fr3_f1).
assumption(fr3_a2).
assumption(fr3_b2).
assumption(fr3_c2).
assumption(fr8_e1).
assumption(fr3_e2).
assumption(fr4_r3).
assumption(fr8_b3).
assumption(fr1_y2).
assumption(fr3_c3).
contrary(fr3_a1,fr3_y1).
contrary(fr3_a2,fr3_u2).
contrary(fr8_b3,fr3_p3).
contrary(fr3_b1,fr1_y2).
contrary(fr3_b2,fr3_b1).
contrary(fr1_y2,fr3_v1).
contrary(fr3_c1,fr3_t2).
contrary(fr3_c2,fr3_c3).
contrary(fr3_c3,fr3_b1).
contrary(fr3_d1,fr3_p3).
contrary(fr8_e1,fr3_p3).
contrary(fr3_e1,fr3_w2).
contrary(fr3_e2,fr3_z2).
contrary(fr3_f1,fr3_z1).
contrary(fr4_r3,fr3_w2).
head(r_fr3_0,fr3_y2).
body(r_fr3_0,fr7_s1).
body(r_fr3_0,fr3_w1).
body(r_fr3_0,fr3_w2).
body(r_fr3_0,fr3_x2).
body(r_fr3_0,fr3_z1).
head(r_fr3_1,fr3_y2).
body(r_fr3_1,fr3_e1).
head(r_fr3_2,fr3_y2).
body(r_fr3_2,fr3_b1).
body(r_fr3_2,fr3_c1).
body(r_fr3_2,fr8_e1).
body(r_fr3_2,fr3_e2).
body(r_fr3_2,fr3_s1).
head(r_fr3_3,fr3_y2).
body(r_fr3_3,fr3_p1).
body(r_fr3_3,fr3_p2).
body(r_fr3_3,fr3_p3).
body(r_fr3_3,fr4_w3).
body(r_fr3_3,fr3_u1).
head(r_fr3_4,fr3_y2).
body(r_fr3_4,fr3_c3).
body(r_fr3_4,fr3_e1).
body(r_fr3_4,fr4_r3).
body(r_fr3_4,fr3_p1).
body(r_fr3_4,fr7_s1).
body(r_fr3_4,fr3_z1).
head(r_fr3_5,fr3_y2).
body(r_fr3_5,fr3_w2).
head(r_fr3_6,fr3_y2).
body(r_fr3_6,fr1_y2).
body(r_fr3_6,fr8_e1).
body(r_fr3_6,fr3_e1).
head(r_fr3_7,fr3_y2).
body(r_fr3_7,fr3_d1).
body(r_fr3_7,fr3_e2).
head(r_fr3_8,fr3_y2).
body(r_fr3_8,fr3_e2).
body(r_fr3_8,fr3_p2).
body(r_fr3_8,fr3_w2).
head(r_fr3_9,fr3_y2).
body(r_fr3_9,fr3_a2).
body(r_fr3_9,fr8_e1).
body(r_fr3_9,fr3_e1).
head(r_fr3_10,fr3_y2).
body(r_fr3_10,fr3_a1).
body(r_fr3_10,fr1_y2).
body(r_fr3_10,fr3_d1).
head(r_fr3_11,fr3_y2).
body(r_fr3_11,fr3_q2).
body(r_fr3_11,fr3_s2).
body(r_fr3_11,fr3_t2).
body(r_fr3_11,fr3_u2).
head(r_fr3_12,fr3_y2).
body(r_fr3_12,fr3_e1).
body(r_fr3_12,fr3_v1).
head(r_fr3_13,fr3_y2).
body(r_fr3_13,fr3_a1).
body(r_fr3_13,fr8_b3).
body(r_fr3_13,fr3_s1).
body(r_fr3_13,fr3_t1).
body(r_fr3_13,fr3_x1).
body(r_fr3_13,fr3_z2).
head(r_fr3_14,fr3_y2).
body(r_fr3_14,fr3_s2).
head(r_fr3_15,fr3_y2).
body(r_fr3_15,fr3_c3).
head(r_fr3_16,fr3_y2).
head(r_fr3_17,fr3_s2).
body(r_fr3_17,fr3_c2).
body(r_fr3_17,fr3_e2).
head(r_fr3_18,fr3_s2).
body(r_fr3_18,fr3_q3).
body(r_fr3_18,fr3_z1).
head(r_fr3_19,fr3_s2).
body(r_fr3_19,fr1_y2).
body(r_fr3_19,fr4_r3).
head(r_fr3_20,fr3_s2).
body(r_fr3_20,fr8_b3).
body(r_fr3_20,fr3_e1).
body(r_fr3_20,fr3_f1).
head(r_fr3_21,fr3_s2).
body(r_fr3_21,fr8_b3).
body(r_fr3_21,fr3_b2).
body(r_fr3_21,fr3_c1).
body(r_fr3_21,fr4_r3).
head(r_fr3_22,fr3_s2).
body(r_fr3_22,fr8_b3).
body(r_fr3_22,fr3_f1).
body(r_fr3_22,fr4_w3).
body(r_fr3_22,fr3_t1).
body(r_fr3_22,fr3_w1).
body(r_fr3_22,fr3_x1).
head(r_fr3_23,fr3_s2).
body(r_fr3_23,fr3_u1).
body(r_fr3_23,fr3_w1).
head(r_fr3_24,fr3_s2).
body(r_fr3_24,fr3_c2).
body(r_fr3_24,fr3_e1).
head(r_fr3_25,fr3_s2).
body(r_fr3_25,fr3_a1).
body(r_fr3_25,fr3_b2).
body(r_fr3_25,fr4_w3).
body(r_fr3_25,fr3_u1).
body(r_fr3_25,fr3_y2).
head(r_fr3_26,fr3_s2).
body(r_fr3_26,fr3_p2).
body(r_fr3_26,fr3_p3).
body(r_fr3_26,fr3_t1).
body(r_fr3_26,fr3_u1).
body(r_fr3_26,fr3_u2).
body(r_fr3_26,fr3_z2).
head(r_fr3_27,fr3_s2).
head(r_fr3_28,fr3_s2).
body(r_fr3_28,fr3_a2).
body(r_fr3_28,fr1_y2).
body(r_fr3_28,fr3_e1).
body(r_fr3_28,fr3_p1).
body(r_fr3_28,fr3_q2).
body(r_fr3_28,fr3_w1).
head(r_fr3_29,fr3_s2).
body(r_fr3_29,fr3_u1).
head(r_fr3_30,fr3_s2).
body(r_fr3_30,fr3_p2).
body(r_fr3_30,fr3_v1).
head(r_fr3_31,fr3_s2).
body(r_fr3_31,fr3_c1).
body(r_fr3_31,fr4_r3).
head(r_fr3_32,fr3_s2).
body(r_fr3_32,fr3_d1).
body(r_fr3_32,fr8_e1).
head(r_fr3_33,fr3_s2).
body(r_fr3_33,fr3_a2).
body(r_fr3_33,fr8_e1).
head(r_fr3_34,fr3_t2).
body(r_fr3_34,fr3_p1).
body(r_fr3_34,fr3_q3).
body(r_fr3_34,fr3_w1).
head(r_fr3_35,fr3_t2).
body(r_fr3_35,fr3_b2).
body(r_fr3_35,fr4_r3).
body(r_fr3_35,fr3_q3).
head(r_fr3_36,fr3_t2).
body(r_fr3_36,fr3_b1).
body(r_fr3_36,fr8_e1).
body(r_fr3_36,fr3_f1).
body(r_fr3_36,fr4_r3).
head(r_fr3_37,fr3_t2).
body(r_fr3_37,fr3_a1).
body(r_fr3_37,fr3_b2).
body(r_fr3_37,fr3_c2).
body(r_fr3_37,fr8_e1).
body(r_fr3_37,fr3_f1).
body(r_fr3_37,fr3_r2).
head(r_fr3_38,fr3_t2).
body(r_fr3_38,fr3_c2).
body(r_fr3_38,fr3_p1).
body(r_fr3_38,fr3_p2).
body(r_fr3_38,fr3_q2).
body(r_fr3_38,fr3_w2).
head(r_fr3_39,fr3_t2).
head(r_fr3_40,fr3_t2).
body(r_fr3_40,fr3_x1).
head(r_fr3_41,fr3_t2).
body(r_fr3_41,fr3_b2).
body(r_fr3_41,fr3_c1).
body(r_fr3_41,fr3_p3).
head(r_fr3_42,fr3_t2).
body(r_fr3_42,fr3_b2).
body(r_fr3_42,fr4_r3).
head(r_fr3_43,fr3_t2).
body(r_fr3_43,fr1_a1).
body(r_fr3_43,fr3_s2).
body(r_fr3_43,fr3_w2).
body(r_fr3_43,fr3_x2).
head(r_fr3_44,fr3_t2).
body(r_fr3_44,fr3_y2).
head(r_fr3_45,fr3_t2).
body(r_fr3_45,fr3_b1).
body(r_fr3_45,fr4_w3).
body(r_fr3_45,fr3_u2).
body(r_fr3_45,fr3_x2).
body(r_fr3_45,fr3_z1).
head(r_fr3_46,fr3_t2).
body(r_fr3_46,fr3_a2).
body(r_fr3_46,fr8_b3).
body(r_fr3_46,fr3_e1).
body(r_fr3_46,fr4_r3).
body(r_fr3_46,fr3_w1).
body(r_fr3_46,fr3_z2).
head(r_fr3_47,fr3_t2).
body(r_fr3_47,fr3_a2).
body(r_fr3_47,fr8_e1).
body(r_fr3_47,fr3_e1).
body(r_fr3_47,fr3_s2).
body(r_fr3_47,fr3_t1).
body(r_fr3_47,fr3_v1).
head(r_fr3_48,fr3_t2).
body(r_fr3_48,fr3_f1).
head(r_fr3_49,fr3_t2).
body(r_fr3_49,fr1_y2).
body(r_fr3_49,fr3_f1).
body(r_fr3_49,fr3_q3).
body(r_fr3_49,fr3_y1).
head(r_fr3_50,fr3_t2).
body(r_fr3_50,fr3_a2).
body(r_fr3_50,fr3_b1).
body(r_fr3_50,fr3_c2).
body(r_fr3_50,fr4_r3).
body(r_fr3_50,fr3_w2).
body(r_fr3_50,fr3_y2).
head(r_fr3_51,fr3_p3).
body(r_fr3_51,fr3_x1).
head(r_fr3_52,fr3_p3).
body(r_fr3_52,fr3_r1).
body(r_fr3_52,fr3_v1).
body(r_fr3_52,fr3_y2).
body(r_fr3_52,fr3_z2).
head(r_fr3_53,fr3_p3).
body(r_fr3_53,fr3_a1).
body(r_fr3_53,fr8_b3).
body(r_fr3_53,fr3_b1).
body(r_fr3_53,fr8_e1).
body(r_fr3_53,fr3_f1).
head(r_fr3_54,fr3_p3).
body(r_fr3_54,fr3_a1).
body(r_fr3_54,fr8_b3).
body(r_fr3_54,fr4_r3).
body(r_fr3_54,fr3_s2).
head(r_fr3_55,fr3_p3).
body(r_fr3_55,fr4_w3).
body(r_fr3_55,fr3_q3).
body(r_fr3_55,fr1_a1).
body(r_fr3_55,fr3_t1).
body(r_fr3_55,fr3_y2).
body(r_fr3_55,fr3_z2).
head(r_fr3_56,fr3_p3).
body(r_fr3_56,fr3_c1).
body(r_fr3_56,fr3_p1).
body(r_fr3_56,fr3_y2).
body(r_fr3_56,fr3_z1).
body(r_fr3_56,fr3_z2).
head(r_fr3_57,fr3_p3).
body(r_fr3_57,fr3_c2).
body(r_fr3_57,fr8_e1).
head(r_fr3_58,fr3_p3).
body(r_fr3_58,fr3_c1).
body(r_fr3_58,fr3_e2).
body(r_fr3_58,fr3_q3).
body(r_fr3_58,fr3_v1).
body(r_fr3_58,fr3_y2).
head(r_fr3_59,fr3_p3).
body(r_fr3_59,fr3_a2).
body(r_fr3_59,fr1_y2).
body(r_fr3_59,fr3_d1).
body(r_fr3_59,fr4_r3).
body(r_fr3_59,fr3_r1).
head(r_fr3_60,fr3_p3).
body(r_fr3_60,fr3_c1).
body(r_fr3_60,fr3_c2).
body(r_fr3_60,fr3_d1).
body(r_fr3_60,fr3_f1).
body(r_fr3_60,fr3_r1).
head(r_fr3_61,fr3_p3).
head(r_fr3_62,fr3_p3).
body(r_fr3_62,fr8_e1).
body(r_fr3_62,fr3_q3).
body(r_fr3_62,fr3_s2).
body(r_fr3_62,fr3_t1).
head(r_fr3_63,fr3_p3).
body(r_fr3_63,fr8_b3).
body(r_fr3_63,fr3_c1).
body(r_fr3_63,fr4_r3).
body(r_fr3_63,fr3_x2).
head(r_fr3_64,fr3_p3).
body(r_fr3_64,fr3_b2).
body(r_fr3_64,fr3_e2).
body(r_fr3_64,fr3_r1).
body(r_fr3_64,fr3_s1).
head(r_fr3_65,fr3_p3).
body(r_fr3_65,fr3_b2).
body(r_fr3_65,fr3_v1).
head(r_fr3_66,fr3_p3).
body(r_fr3_66,fr3_a1).
body(r_fr3_66,fr3_c2).
body(r_fr3_66,fr3_e1).
body(r_fr3_66,fr3_t2).
body(r_fr3_66,fr3_y1).
body(r_fr3_66,fr3_z2).
head(r_fr3_67,fr3_q3).
body(r_fr3_67,fr1_y2).
body(r_fr3_67,fr3_e1).
head(r_fr3_68,fr3_q3).
body(r_fr3_68,fr8_b3).
body(r_fr3_68,fr3_b1).
body(r_fr3_68,fr4_r3).
head(r_fr3_69,fr3_q3).
body(r_fr3_69,fr3_a2).
body(r_fr3_69,fr7_s1).
body(r_fr3_69,fr3_w1).
body(r_fr3_69,fr3_y2).
head(r_fr3_70,fr3_q3).
body(r_fr3_70,fr3_a1).
body(r_fr3_70,fr4_r3).
body(r_fr3_70,fr3_r2).
head(r_fr3_71,fr3_q3).
body(r_fr3_71,fr3_b1).
body(r_fr3_71,fr3_e1).
body(r_fr3_71,fr3_s2).
body(r_fr3_71,fr3_u1).
body(r_fr3_71,fr3_w2).
body(r_fr3_71,fr3_y1).
head(r_fr3_72,fr3_q3).
body(r_fr3_72,fr3_a2).
body(r_fr3_72,fr3_e1).
body(r_fr3_72,fr3_s1).
body(r_fr3_72,fr3_y2).
head(r_fr3_73,fr3_q3).
body(r_fr3_73,fr1_y2).
body(r_fr3_73,fr3_e2).
body(r_fr3_73,fr3_f1).
body(r_fr3_73,fr3_t2).
head(r_fr3_74,fr3_q3).
head(r_fr3_75,fr3_q3).
body(r_fr3_75,fr3_a2).
body(r_fr3_75,fr3_c3).
body(r_fr3_75,fr3_f1).
body(r_fr3_75,fr3_r1).
body(r_fr3_75,fr3_z2).
head(r_fr3_76,fr3_q3).
body(r_fr3_76,fr3_p1).
body(r_fr3_76,fr3_t1).
body(r_fr3_76,fr7_s1).
head(r_fr3_77,fr3_q3).
body(r_fr3_77,fr3_q2).
body(r_fr3_77,fr3_r1).
body(r_fr3_77,fr3_s2).
head(r_fr3_78,fr3_q3).
body(r_fr3_78,fr8_e1).
body(r_fr3_78,fr3_e2).
body(r_fr3_78,fr3_p1).
body(r_fr3_78,fr4_w3).
body(r_fr3_78,fr3_x1).
head(r_fr3_79,fr3_q3).
body(r_fr3_79,fr3_w1).
head(r_fr3_80,fr3_q3).
body(r_fr3_80,fr3_c3).
body(r_fr3_80,fr3_y2).
head(r_fr3_81,fr3_q3).
body(r_fr3_81,fr4_r3).
head(r_fr3_82,fr3_r1).
body(r_fr3_82,fr3_p3).
body(r_fr3_82,fr3_r2).
body(r_fr3_82,fr3_u1).
body(r_fr3_82,fr3_u2).
head(r_fr3_83,fr3_r1).
body(r_fr3_83,fr3_p2).
body(r_fr3_83,fr3_q3).
body(r_fr3_83,fr3_w1).
body(r_fr3_83,fr3_x2).
head(r_fr3_84,fr3_r1).
body(r_fr3_84,fr3_f1).
body(r_fr3_84,fr3_p2).
body(r_fr3_84,fr3_u2).
body(r_fr3_84,fr3_v1).
body(r_fr3_84,fr3_x1).
head(r_fr3_85,fr3_r1).
body(r_fr3_85,fr3_b1).
body(r_fr3_85,fr3_x2).
head(r_fr3_86,fr3_r1).
body(r_fr3_86,fr3_b2).
head(r_fr3_87,fr3_r1).
body(r_fr3_87,fr3_p1).
body(r_fr3_87,fr4_w3).
body(r_fr3_87,fr3_u1).
body(r_fr3_87,fr3_x1).
body(r_fr3_87,fr3_y1).
head(r_fr3_88,fr3_r1).
body(r_fr3_88,fr3_a2).
body(r_fr3_88,fr8_b3).
body(r_fr3_88,fr3_c2).
body(r_fr3_88,fr4_r3).
body(r_fr3_88,fr1_a1).
head(r_fr3_89,fr3_r1).
body(r_fr3_89,fr3_b1).
body(r_fr3_89,fr8_e1).
body(r_fr3_89,fr3_p2).
body(r_fr3_89,fr3_w1).
body(r_fr3_89,fr3_y2).
head(r_fr3_90,fr3_r1).
body(r_fr3_90,fr8_b3).
body(r_fr3_90,fr3_b2).
body(r_fr3_90,fr1_y2).
body(r_fr3_90,fr3_c2).
body(r_fr3_90,fr3_q2).
body(r_fr3_90,fr3_w1).
head(r_fr3_91,fr3_r1).
body(r_fr3_91,fr3_b1).
body(r_fr3_91,fr3_c3).
body(r_fr3_91,fr3_d1).
body(r_fr3_91,fr4_r3).
body(r_fr3_91,fr4_w3).
body(r_fr3_91,fr3_t2).
head(r_fr3_92,fr3_r1).
body(r_fr3_92,fr3_d1).
body(r_fr3_92,fr7_s1).
body(r_fr3_92,fr3_w1).
head(r_fr3_93,fr3_r1).
body(r_fr3_93,fr3_a2).
body(r_fr3_93,fr3_b1).
body(r_fr3_93,fr3_c1).
body(r_fr3_93,fr3_e1).
body(r_fr3_93,fr4_r3).
head(r_fr3_94,fr3_r1).
body(r_fr3_94,fr3_t2).
head(r_fr3_95,fr3_r1).
body(r_fr3_95,fr3_q3).
body(r_fr3_95,fr3_t1).
body(r_fr3_95,fr3_t2).
head(r_fr3_96,fr3_r1).
body(r_fr3_96,fr3_b1).
head(r_fr3_97,fr3_r1).
body(r_fr3_97,fr3_a2).
head(r_fr3_98,fr3_r1).
body(r_fr3_98,fr3_c1).
head(r_fr3_99,fr3_x2).
body(r_fr3_99,fr3_b2).
body(r_fr3_99,fr3_c1).
body(r_fr3_99,fr3_d1).
body(r_fr3_99,fr3_t2).
body(r_fr3_99,fr3_y2).
head(r_fr3_100,fr3_x2).
body(r_fr3_100,fr3_f1).
body(r_fr3_100,fr3_s1).
head(r_fr3_101,fr3_x2).
head(r_fr3_102,fr3_x2).
body(r_fr3_102,fr3_a1).
body(r_fr3_102,fr3_c1).
head(r_fr3_103,fr3_x2).
body(r_fr3_103,fr8_b3).
body(r_fr3_103,fr3_c3).
body(r_fr3_103,fr3_e1).
body(r_fr3_103,fr3_y2).
head(r_fr3_104,fr3_x2).
body(r_fr3_104,fr3_c2).
body(r_fr3_104,fr3_p1).
body(r_fr3_104,fr3_r1).
body(r_fr3_104,fr3_t1).
head(r_fr3_105,fr3_x2).
body(r_fr3_105,fr3_a2).
body(r_fr3_105,fr8_b3).
body(r_fr3_105,fr3_b1).
body(r_fr3_105,fr3_e2).
head(r_fr3_106,fr3_x2).
body(r_fr3_106,fr3_b2).
body(r_fr3_106,fr3_e2).
body(r_fr3_106,fr3_s1).
head(r_fr3_107,fr3_x2).
body(r_fr3_107,fr3_a2).
body(r_fr3_107,fr3_f1).
head(r_fr3_108,fr3_x2).
body(r_fr3_108,fr3_a2).
body(r_fr3_108,fr8_b3).
body(r_fr3_108,fr3_e2).
head(r_fr3_109,fr3_x2).
body(r_fr3_109,fr3_a2).
body(r_fr3_109,fr3_c1).
body(r_fr3_109,fr3_f1).
head(r_fr3_110,fr3_x2).
body(r_fr3_110,fr3_a1).
body(r_fr3_110,fr3_a2).
body(r_fr3_110,fr3_c1).
body(r_fr3_110,fr3_c2).
body(r_fr3_110,fr3_e2).
head(r_fr3_111,fr3_x2).
body(r_fr3_111,fr3_c2).
body(r_fr3_111,fr3_e2).
body(r_fr3_111,fr3_q2).
body(r_fr3_111,fr3_q3).
head(r_fr3_112,fr3_x2).
body(r_fr3_112,fr3_e1).
body(r_fr3_112,fr3_f1).
body(r_fr3_112,fr3_p3).
body(r_fr3_112,fr3_q3).
body(r_fr3_112,fr3_w2).
body(r_fr3_112,fr3_y1).
head(r_fr3_113,fr3_x2).
body(r_fr3_113,fr3_p1).
body(r_fr3_113,fr3_s1).
body(r_fr3_113,fr3_w1).
body(r_fr3_113,fr3_w2).
head(r_fr3_114,fr3_x2).
body(r_fr3_114,fr3_a1).
body(r_fr3_114,fr3_c1).
body(r_fr3_114,fr4_r3).
body(r_fr3_114,fr3_p2).
body(r_fr3_114,fr4_w3).
head(r_fr3_115,fr3_p2).
body(r_fr3_115,fr3_v1).
body(r_fr3_115,fr3_y2).
head(r_fr3_116,fr3_p2).
body(r_fr3_116,fr3_c1).
body(r_fr3_116,fr4_r3).
body(r_fr3_116,fr3_p1).
body(r_fr3_116,fr3_p3).
body(r_fr3_116,fr7_s1).
body(r_fr3_116,fr3_w2).
head(r_fr3_117,fr3_p2).
body(r_fr3_117,fr3_p3).
body(r_fr3_117,fr3_s2).
head(r_fr3_118,fr3_p2).
body(r_fr3_118,fr3_a1).
body(r_fr3_118,fr3_b2).
body(r_fr3_118,fr3_c1).
body(r_fr3_118,fr3_f1).
body(r_fr3_118,fr3_y1).
head(r_fr3_119,fr3_p2).
body(r_fr3_119,fr3_a1).
body(r_fr3_119,fr3_b2).
head(r_fr3_120,fr3_p2).
body(r_fr3_120,fr3_a2).
body(r_fr3_120,fr3_c1).
body(r_fr3_120,fr3_z2).
head(r_fr3_121,fr3_p2).
body(r_fr3_121,fr3_c2).
body(r_fr3_121,fr3_p1).
body(r_fr3_121,fr3_p3).
body(r_fr3_121,fr3_s1).
body(r_fr3_121,fr3_x2).
head(r_fr3_122,fr3_p2).
body(r_fr3_122,fr4_w3).
head(r_fr3_123,fr3_p2).
head(r_fr3_124,fr3_p2).
body(r_fr3_124,fr1_y2).
body(r_fr3_124,fr3_p3).
body(r_fr3_124,fr3_r1).
body(r_fr3_124,fr3_s1).
body(r_fr3_124,fr3_u1).
head(r_fr3_125,fr3_p2).
body(r_fr3_125,fr3_a1).
body(r_fr3_125,fr3_c1).
body(r_fr3_125,fr3_u2).
body(r_fr3_125,fr3_w2).
head(r_fr3_126,fr3_p2).
body(r_fr3_126,fr3_r2).
body(r_fr3_126,fr3_t1).
body(r_fr3_126,fr3_u2).
head(r_fr3_127,fr3_p2).
body(r_fr3_127,fr3_a1).
body(r_fr3_127,fr8_e1).
body(r_fr3_127,fr3_e2).
body(r_fr3_127,fr3_r2).
body(r_fr3_127,fr1_a1).
head(r_fr3_128,fr3_p2).
body(r_fr3_128,fr3_b1).
body(r_fr3_128,fr3_e1).
body(r_fr3_128,fr3_e2).
head(r_fr3_129,fr3_p2).
body(r_fr3_129,fr3_u2).
head(r_fr3_130,fr3_p2).
body(r_fr3_130,fr3_a2).
body(r_fr3_130,fr3_b1).
body(r_fr3_130,fr3_b2).
body(r_fr3_130,fr3_c1).
body(r_fr3_130,fr3_w1).
head(r_fr3_131,fr3_w2).
body(r_fr3_131,fr1_a1).
body(r_fr3_131,fr3_t2).
body(r_fr3_131,fr3_v1).
body(r_fr3_131,fr7_s1).
body(r_fr3_131,fr3_y1).
head(r_fr3_132,fr3_w2).
body(r_fr3_132,fr3_b1).
body(r_fr3_132,fr3_b2).
body(r_fr3_132,fr3_c3).
body(r_fr3_132,fr3_x2).
head(r_fr3_133,fr3_w2).
body(r_fr3_133,fr3_a2).
body(r_fr3_133,fr8_b3).
body(r_fr3_133,fr1_y2).
head(r_fr3_134,fr3_w2).
body(r_fr3_134,fr3_c2).
body(r_fr3_134,fr8_e1).
body(r_fr3_134,fr3_f1).
head(r_fr3_135,fr3_w2).
body(r_fr3_135,fr8_b3).
body(r_fr3_135,fr3_c1).
body(r_fr3_135,fr3_f1).
body(r_fr3_135,fr3_q2).
head(r_fr3_136,fr3_w2).
body(r_fr3_136,fr1_y2).
body(r_fr3_136,fr4_w3).
body(r_fr3_136,fr3_q2).
body(r_fr3_136,fr3_u1).
body(r_fr3_136,fr7_s1).
head(r_fr3_137,fr3_w2).
body(r_fr3_137,fr1_y2).
head(r_fr3_138,fr3_w2).
head(r_fr3_139,fr3_w2).
body(r_fr3_139,fr1_y2).
body(r_fr3_139,fr3_c2).
body(r_fr3_139,fr8_e1).
head(r_fr3_140,fr3_w2).
body(r_fr3_140,fr3_a1).
body(r_fr3_140,fr3_b1).
body(r_fr3_140,fr1_y2).
body(r_fr3_140,fr3_c3).
head(r_fr3_141,fr3_w2).
body(r_fr3_141,fr3_b2).
body(r_fr3_141,fr3_c1).
body(r_fr3_141,fr3_x1).
head(r_fr3_142,fr3_w2).
body(r_fr3_142,fr3_a2).
head(r_fr3_143,fr3_w2).
body(r_fr3_143,fr3_q3).
head(r_fr3_144,fr3_w2).
body(r_fr3_144,fr8_b3).
body(r_fr3_144,fr3_c1).
body(r_fr3_144,fr3_c3).
body(r_fr3_144,fr3_f1).
head(r_fr3_145,fr3_r2).
body(r_fr3_145,fr3_b2).
body(r_fr3_145,fr3_e2).
body(r_fr3_145,fr3_t2).
body(r_fr3_145,fr3_u1).
body(r_fr3_145,fr3_u2).
head(r_fr3_146,fr3_r2).
body(r_fr3_146,fr3_a2).
body(r_fr3_146,fr1_y2).
body(r_fr3_146,fr3_c1).
body(r_fr3_146,fr3_c3).
body(r_fr3_146,fr3_d1).
body(r_fr3_146,fr3_y1).
head(r_fr3_147,fr3_r2).
body(r_fr3_147,fr4_w3).
body(r_fr3_147,fr3_r1).
body(r_fr3_147,fr3_w2).
body(r_fr3_147,fr3_x1).
body(r_fr3_147,fr3_z2).
head(r_fr3_148,fr3_r2).
body(r_fr3_148,fr3_p1).
body(r_fr3_148,fr3_w1).
head(r_fr3_149,fr3_r2).
body(r_fr3_149,fr3_q3).
body(r_fr3_149,fr3_u2).
body(r_fr3_149,fr3_w1).
body(r_fr3_149,fr3_w2).
body(r_fr3_149,fr3_y1).
body(r_fr3_149,fr3_z1).
head(r_fr3_150,fr3_r2).
body(r_fr3_150,fr3_t1).
head(r_fr3_151,fr3_r2).
body(r_fr3_151,fr3_a1).
body(r_fr3_151,fr3_b2).
body(r_fr3_151,fr1_y2).
body(r_fr3_151,fr3_e2).
body(r_fr3_151,fr3_f1).
body(r_fr3_151,fr4_r3).
head(r_fr3_152,fr3_r2).
body(r_fr3_152,fr3_a1).
body(r_fr3_152,fr8_b3).
body(r_fr3_152,fr3_e2).
body(r_fr3_152,fr3_q2).
body(r_fr3_152,fr3_t2).
head(r_fr3_153,fr3_r2).
body(r_fr3_153,fr3_c1).
body(r_fr3_153,fr3_w2).
head(r_fr3_154,fr3_r2).
body(r_fr3_154,fr3_a1).
body(r_fr3_154,fr4_w3).
body(r_fr3_154,fr3_s2).
body(r_fr3_154,fr3_u2).
head(r_fr3_155,fr3_r2).
body(r_fr3_155,fr3_b2).
body(r_fr3_155,fr3_c3).
body(r_fr3_155,fr3_f1).
body(r_fr3_155,fr3_q2).
body(r_fr3_155,fr3_r1).
body(r_fr3_155,fr1_a1).
head(r_fr3_156,fr3_r2).
body(r_fr3_156,fr3_y2).
head(r_fr3_157,fr3_r2).
body(r_fr3_157,fr8_b3).
body(r_fr3_157,fr4_r3).
head(r_fr3_158,fr3_r2).
body(r_fr3_158,fr3_c1).
head(r_fr3_159,fr3_r2).
body(r_fr3_159,fr3_a1).
head(r_fr3_160,fr3_s1).
body(r_fr3_160,fr8_b3).
body(r_fr3_160,fr3_c2).
body(r_fr3_160,fr3_c3).
body(r_fr3_160,fr3_u1).
body(r_fr3_160,fr3_z1).
body(r_fr3_160,fr3_z2).
head(r_fr3_161,fr3_s1).
body(r_fr3_161,fr3_a2).
body(r_fr3_161,fr3_c2).
body(r_fr3_161,fr3_d1).
body(r_fr3_161,fr3_f1).
body(r_fr3_161,fr3_w2).
body(r_fr3_161,fr3_z2).
head(r_fr3_162,fr3_s1).
body(r_fr3_162,fr3_c3).
body(r_fr3_162,fr3_e1).
body(r_fr3_162,fr3_t2).
body(r_fr3_162,fr3_v1).
head(r_fr3_163,fr3_s1).
body(r_fr3_163,fr3_w1).
head(r_fr3_164,fr3_s1).
body(r_fr3_164,fr3_a1).
body(r_fr3_164,fr8_e1).
body(r_fr3_164,fr3_e1).
body(r_fr3_164,fr3_e2).
body(r_fr3_164,fr3_r1).
body(r_fr3_164,fr3_t1).
head(r_fr3_165,fr3_s1).
body(r_fr3_165,fr3_e2).
head(r_fr3_166,fr3_s1).
body(r_fr3_166,fr3_c2).
body(r_fr3_166,fr3_d1).
body(r_fr3_166,fr3_p3).
head(r_fr3_167,fr3_s1).
body(r_fr3_167,fr3_a1).
head(r_fr3_168,fr3_s1).
body(r_fr3_168,fr3_x2).
head(r_fr3_169,fr3_s1).
body(r_fr3_169,fr3_d1).
body(r_fr3_169,fr3_s2).
body(r_fr3_169,fr3_w2).
head(r_fr3_170,fr3_s1).
body(r_fr3_170,fr3_e2).
body(r_fr3_170,fr3_q2).
body(r_fr3_170,fr3_u1).
body(r_fr3_170,fr3_v1).
body(r_fr3_170,fr7_s1).
head(r_fr3_171,fr3_s1).
head(r_fr3_172,fr3_s1).
body(r_fr3_172,fr3_a2).
body(r_fr3_172,fr3_b2).
body(r_fr3_172,fr1_y2).
body(r_fr3_172,fr3_c3).
body(r_fr3_172,fr3_d1).
body(r_fr3_172,fr4_r3).
head(r_fr3_173,fr3_s1).
body(r_fr3_173,fr3_p2).
body(r_fr3_173,fr3_p3).
body(r_fr3_173,fr3_s2).
body(r_fr3_173,fr7_s1).
body(r_fr3_173,fr3_y1).
body(r_fr3_173,fr3_z2).
head(r_fr3_174,fr3_s1).
body(r_fr3_174,fr3_b2).
body(r_fr3_174,fr3_c2).
body(r_fr3_174,fr3_f1).
body(r_fr3_174,fr3_t2).
head(r_fr3_175,fr3_s1).
body(r_fr3_175,fr3_a2).
body(r_fr3_175,fr1_y2).
body(r_fr3_175,fr3_q2).
head(r_fr3_176,fr3_y1).
body(r_fr3_176,fr3_a2).
body(r_fr3_176,fr3_c3).
body(r_fr3_176,fr3_d1).
body(r_fr3_176,fr8_e1).
body(r_fr3_176,fr3_e2).
head(r_fr3_177,fr3_y1).
body(r_fr3_177,fr3_q2).
head(r_fr3_178,fr3_y1).
body(r_fr3_178,fr4_w3).
body(r_fr3_178,fr3_y2).
head(r_fr3_179,fr3_y1).
body(r_fr3_179,fr4_w3).
body(r_fr3_179,fr3_s2).
body(r_fr3_179,fr3_t1).
body(r_fr3_179,fr7_s1).
body(r_fr3_179,fr3_y2).
head(r_fr3_180,fr3_y1).
body(r_fr3_180,fr8_e1).
body(r_fr3_180,fr3_t1).
head(r_fr3_181,fr3_y1).
body(r_fr3_181,fr3_f1).
head(r_fr3_182,fr3_y1).
body(r_fr3_182,fr3_q3).
body(r_fr3_182,fr3_z2).
head(r_fr3_183,fr3_y1).
body(r_fr3_183,fr8_b3).
body(r_fr3_183,fr3_c3).
body(r_fr3_183,fr3_v1).
head(r_fr3_184,fr3_y1).
body(r_fr3_184,fr3_c3).
body(r_fr3_184,fr3_w1).
head(r_fr3_185,fr3_y1).
body(r_fr3_185,fr1_y2).
body(r_fr3_185,fr3_q3).
body(r_fr3_185,fr3_w1).
head(r_fr3_186,fr3_y1).
body(r_fr3_186,fr1_y2).
body(r_fr3_186,fr3_c2).
head(r_fr3_187,fr3_y1).
head(r_fr3_188,fr3_y1).
body(r_fr3_188,fr3_c1).
body(r_fr3_188,fr3_c3).
body(r_fr3_188,fr3_e1).
body(r_fr3_188,fr3_y2).
head(r_fr3_189,fr3_y1).
body(r_fr3_189,fr3_r1).
body(r_fr3_189,fr3_u2).
body(r_fr3_189,fr3_y2).
head(r_fr3_190,fr3_y1).
body(r_fr3_190,fr3_p3).
body(r_fr3_190,fr4_w3).
head(r_fr3_191,fr3_p1).
body(r_fr3_191,fr1_y2).
body(r_fr3_191,fr4_r3).
body(r_fr3_191,fr3_q2).
body(r_fr3_191,fr3_u2).
body(r_fr3_191,fr3_z2).
head(r_fr3_192,fr3_p1).
body(r_fr3_192,fr3_a1).
body(r_fr3_192,fr3_c1).
body(r_fr3_192,fr3_d1).
body(r_fr3_192,fr3_e1).
body(r_fr3_192,fr3_e2).
body(r_fr3_192,fr3_f1).
head(r_fr3_193,fr3_p1).
body(r_fr3_193,fr3_q3).
body(r_fr3_193,fr7_s1).
body(r_fr3_193,fr3_w1).
body(r_fr3_193,fr3_z2).
head(r_fr3_194,fr3_p1).
body(r_fr3_194,fr3_b1).
body(r_fr3_194,fr3_b2).
body(r_fr3_194,fr1_y2).
head(r_fr3_195,fr3_p1).
body(r_fr3_195,fr3_v1).
head(r_fr3_196,fr3_p1).
body(r_fr3_196,fr3_a1).
body(r_fr3_196,fr3_a2).
body(r_fr3_196,fr8_b3).
body(r_fr3_196,fr3_b1).
body(r_fr3_196,fr3_d1).
body(r_fr3_196,fr3_f1).
head(r_fr3_197,fr3_p1).
body(r_fr3_197,fr3_c3).
body(r_fr3_197,fr3_f1).
head(r_fr3_198,fr3_p1).
body(r_fr3_198,fr3_b1).
body(r_fr3_198,fr3_q3).
body(r_fr3_198,fr3_x1).
body(r_fr3_198,fr3_y1).
body(r_fr3_198,fr3_z1).
head(r_fr3_199,fr3_p1).
body(r_fr3_199,fr3_c2).
body(r_fr3_199,fr8_e1).
body(r_fr3_199,fr3_e1).
body(r_fr3_199,fr3_f1).
body(r_fr3_199,fr4_w3).
head(r_fr3_200,fr3_p1).
body(r_fr3_200,fr3_c2).
body(r_fr3_200,fr3_f1).
head(r_fr3_201,fr3_p1).
body(r_fr3_201,fr3_a2).
body(r_fr3_201,fr3_c1).
body(r_fr3_201,fr3_d1).
body(r_fr3_201,fr8_e1).
body(r_fr3_201,fr4_r3).
body(r_fr3_201,fr3_u1).
head(r_fr3_202,fr3_p1).
body(r_fr3_202,fr8_b3).
body(r_fr3_202,fr3_b2).
body(r_fr3_202,fr3_d1).
body(r_fr3_202,fr8_e1).
body(r_fr3_202,fr3_w2).
body(r_fr3_202,fr3_y1).
head(r_fr3_203,fr3_p1).
body(r_fr3_203,fr3_q3).
body(r_fr3_203,fr1_a1).
body(r_fr3_203,fr3_t1).
body(r_fr3_203,fr3_t2).
body(r_fr3_203,fr3_u1).
body(r_fr3_203,fr3_x1).
head(r_fr3_204,fr3_p1).
body(r_fr3_204,fr3_x2).
head(r_fr3_205,fr3_p1).
body(r_fr3_205,fr3_b2).
body(r_fr3_205,fr3_d1).
body(r_fr3_205,fr3_t1).
body(r_fr3_205,fr3_y2).
head(r_fr3_206,fr3_p1).
body(r_fr3_206,fr8_e1).
head(r_fr3_207,fr3_x1).
body(r_fr3_207,fr3_b2).
body(r_fr3_207,fr3_q3).
body(r_fr3_207,fr3_s2).
body(r_fr3_207,fr3_y1).
head(r_fr3_208,fr3_x1).
body(r_fr3_208,fr3_a1).
head(r_fr3_209,fr3_x1).
body(r_fr3_209,fr3_a1).
body(r_fr3_209,fr3_a2).
body(r_fr3_209,fr3_b1).
body(r_fr3_209,fr3_b2).
body(r_fr3_209,fr3_e1).
body(r_fr3_209,fr4_r3).
head(r_fr3_210,fr3_x1).
body(r_fr3_210,fr3_q2).
body(r_fr3_210,fr3_y1).
head(r_fr3_211,fr3_x1).
body(r_fr3_211,fr3_b1).
body(r_fr3_211,fr4_w3).
head(r_fr3_212,fr3_x1).
head(r_fr3_213,fr3_x1).
body(r_fr3_213,fr3_p3).
body(r_fr3_213,fr3_q2).
body(r_fr3_213,fr3_s2).
body(r_fr3_213,fr3_w1).
body(r_fr3_213,fr3_y2).
head(r_fr3_214,fr3_x1).
body(r_fr3_214,fr3_a1).
body(r_fr3_214,fr3_q2).
body(r_fr3_214,fr3_w1).
head(r_fr3_215,fr3_x1).
body(r_fr3_215,fr3_r2).
body(r_fr3_215,fr3_s1).
body(r_fr3_215,fr3_w2).
body(r_fr3_215,fr3_y1).
head(r_fr3_216,fr3_x1).
body(r_fr3_216,fr3_b1).
body(r_fr3_216,fr3_b2).
body(r_fr3_216,fr3_c1).
body(r_fr3_216,fr3_c2).
body(r_fr3_216,fr4_r3).
body(r_fr3_216,fr3_p3).
head(r_fr3_217,fr3_x1).
body(r_fr3_217,fr1_y2).
body(r_fr3_217,fr3_e1).
body(r_fr3_217,fr3_e2).
body(r_fr3_217,fr3_z2).
head(r_fr3_218,fr3_x1).
body(r_fr3_218,fr1_y2).
body(r_fr3_218,fr3_p1).
body(r_fr3_218,fr3_u1).
body(r_fr3_218,fr3_v1).
body(r_fr3_218,fr3_z1).
head(r_fr3_219,fr3_x1).
body(r_fr3_219,fr3_b1).
body(r_fr3_219,fr1_y2).
body(r_fr3_219,fr8_e1).
body(r_fr3_219,fr3_e2).
body(r_fr3_219,fr1_a1).
body(r_fr3_219,fr3_v1).
head(r_fr3_220,fr3_x1).
body(r_fr3_220,fr8_b3).
body(r_fr3_220,fr3_u1).
head(r_fr3_221,fr3_x1).
body(r_fr3_221,fr3_r2).
head(r_fr3_222,fr3_x1).
body(r_fr3_222,fr3_a2).
body(r_fr3_222,fr3_u2).
head(r_fr3_223,fr3_x1).
body(r_fr3_223,fr3_e1).
body(r_fr3_223,fr3_r2).
body(r_fr3_223,fr3_t2).
body(r_fr3_223,fr3_w2).
head(r_fr3_224,fr3_q2).
body(r_fr3_224,fr3_a2).
body(r_fr3_224,fr8_b3).
body(r_fr3_224,fr3_c1).
body(r_fr3_224,fr3_d1).
body(r_fr3_224,fr3_f1).
body(r_fr3_224,fr3_r1).
head(r_fr3_225,fr3_q2).
body(r_fr3_225,fr3_a1).
body(r_fr3_225,fr3_c3).
body(r_fr3_225,fr8_e1).
body(r_fr3_225,fr3_f1).
head(r_fr3_226,fr3_q2).
body(r_fr3_226,fr3_w2).
body(r_fr3_226,fr3_x2).
body(r_fr3_226,fr3_z1).
body(r_fr3_226,fr3_z2).
head(r_fr3_227,fr3_q2).
body(r_fr3_227,fr1_y2).
body(r_fr3_227,fr3_e2).
body(r_fr3_227,fr4_w3).
body(r_fr3_227,fr3_t2).
body(r_fr3_227,fr7_s1).
head(r_fr3_228,fr3_q2).
body(r_fr3_228,fr3_c2).
body(r_fr3_228,fr8_e1).
head(r_fr3_229,fr3_q2).
body(r_fr3_229,fr3_e1).
body(r_fr3_229,fr3_s1).
body(r_fr3_229,fr3_v1).
body(r_fr3_229,fr3_z1).
head(r_fr3_230,fr3_q2).
body(r_fr3_230,fr1_y2).
body(r_fr3_230,fr3_e1).
body(r_fr3_230,fr3_p1).
body(r_fr3_230,fr3_p3).
body(r_fr3_230,fr7_s1).
body(r_fr3_230,fr3_y1).
head(r_fr3_231,fr3_q2).
body(r_fr3_231,fr3_a1).
body(r_fr3_231,fr3_e1).
body(r_fr3_231,fr3_f1).
body(r_fr3_231,fr3_q3).
body(r_fr3_231,fr3_v1).
body(r_fr3_231,fr3_w2).
head(r_fr3_232,fr3_q2).
body(r_fr3_232,fr4_w3).
body(r_fr3_232,fr7_s1).
head(r_fr3_233,fr3_q2).
body(r_fr3_233,fr3_b2).
body(r_fr3_233,fr3_r2).
body(r_fr3_233,fr3_t2).
body(r_fr3_233,fr3_u1).
body(r_fr3_233,fr3_w2).
body(r_fr3_233,fr3_y1).
head(r_fr3_234,fr3_q2).
head(r_fr3_235,fr3_q2).
body(r_fr3_235,fr8_b3).
body(r_fr3_235,fr3_c1).
head(r_fr3_236,fr3_q2).
body(r_fr3_236,fr3_a1).
body(r_fr3_236,fr3_p2).
body(r_fr3_236,fr3_p3).
body(r_fr3_236,fr3_z1).
head(r_fr3_237,fr3_q2).
body(r_fr3_237,fr3_p3).
body(r_fr3_237,fr3_r1).
body(r_fr3_237,fr3_t2).
body(r_fr3_237,fr3_u2).
body(r_fr3_237,fr3_z2).
head(r_fr3_238,fr7_s1).
body(r_fr3_238,fr3_b2).
head(r_fr3_239,fr7_s1).
body(r_fr3_239,fr3_a1).
body(r_fr3_239,fr3_b2).
body(r_fr3_239,fr1_y2).
body(r_fr3_239,fr3_c3).
body(r_fr3_239,fr3_f1).
head(r_fr3_240,fr7_s1).
body(r_fr3_240,fr3_b1).
body(r_fr3_240,fr3_c2).
body(r_fr3_240,fr3_q3).
body(r_fr3_240,fr3_s2).
body(r_fr3_240,fr3_y2).
head(r_fr3_241,fr7_s1).
body(r_fr3_241,fr8_b3).
body(r_fr3_241,fr3_e2).
body(r_fr3_241,fr3_z2).
head(r_fr3_242,fr7_s1).
body(r_fr3_242,fr3_b1).
body(r_fr3_242,fr3_c1).
body(r_fr3_242,fr4_r3).
body(r_fr3_242,fr3_w1).
body(r_fr3_242,fr3_x2).
head(r_fr3_243,fr7_s1).
body(r_fr3_243,fr3_p1).
body(r_fr3_243,fr3_q3).
body(r_fr3_243,fr3_s1).
body(r_fr3_243,fr3_u1).
body(r_fr3_243,fr3_x1).
head(r_fr3_244,fr7_s1).
body(r_fr3_244,fr3_f1).
body(r_fr3_244,fr3_q2).
head(r_fr3_245,fr7_s1).
body(r_fr3_245,fr3_v1).
body(r_fr3_245,fr3_w2).
head(r_fr3_246,fr7_s1).
body(r_fr3_246,fr8_b3).
body(r_fr3_246,fr3_c3).
body(r_fr3_246,fr3_e2).
body(r_fr3_246,fr4_r3).
body(r_fr3_246,fr3_t1).
head(r_fr3_247,fr7_s1).
head(r_fr3_248,fr7_s1).
body(r_fr3_248,fr3_b1).
body(r_fr3_248,fr3_c1).
body(r_fr3_248,fr3_d1).
body(r_fr3_248,fr3_f1).
body(r_fr3_248,fr3_z1).
head(r_fr3_249,fr7_s1).
body(r_fr3_249,fr3_z2).
head(r_fr3_250,fr7_s1).
body(r_fr3_250,fr3_b2).
body(r_fr3_250,fr3_d1).
body(r_fr3_250,fr8_e1).
body(r_fr3_250,fr3_f1).
body(r_fr3_250,fr4_r3).
body(r_fr3_250,fr3_p2).
head(r_fr3_251,fr7_s1).
body(r_fr3_251,fr3_u1).
head(r_fr3_252,fr7_s1).
body(r_fr3_252,fr3_a1).
head(r_fr3_253,fr7_s1).
body(r_fr3_253,fr3_p1).
body(r_fr3_253,fr3_p2).
head(r_fr3_254,fr7_s1).
body(r_fr3_254,fr3_b1).
body(r_fr3_254,fr1_y2).
body(r_fr3_254,fr3_c3).
body(r_fr3_254,fr3_r1).
body(r_fr3_254,fr3_x2).
head(r_fr3_255,fr3_u1).
body(r_fr3_255,fr3_a1).
body(r_fr3_255,fr3_b2).
body(r_fr3_255,fr1_y2).
body(r_fr3_255,fr3_f1).
body(r_fr3_255,fr3_t2).
head(r_fr3_256,fr3_u1).
body(r_fr3_256,fr3_a1).
body(r_fr3_256,fr8_b3).
body(r_fr3_256,fr3_c2).
body(r_fr3_256,fr3_d1).
body(r_fr3_256,fr3_e1).
body(r_fr3_256,fr3_x1).
head(r_fr3_257,fr3_u1).
body(r_fr3_257,fr3_b1).
body(r_fr3_257,fr3_c1).
body(r_fr3_257,fr8_e1).
body(r_fr3_257,fr4_w3).
head(r_fr3_258,fr3_u1).
body(r_fr3_258,fr1_a1).
body(r_fr3_258,fr3_w2).
head(r_fr3_259,fr3_u1).
body(r_fr3_259,fr1_y2).
head(r_fr3_260,fr3_u1).
body(r_fr3_260,fr3_d1).
body(r_fr3_260,fr3_e2).
body(r_fr3_260,fr3_s1).
body(r_fr3_260,fr7_s1).
body(r_fr3_260,fr3_w2).
head(r_fr3_261,fr3_u1).
body(r_fr3_261,fr8_b3).
body(r_fr3_261,fr3_c3).
body(r_fr3_261,fr3_f1).
body(r_fr3_261,fr3_p1).
body(r_fr3_261,fr3_r1).
body(r_fr3_261,fr3_s2).
head(r_fr3_262,fr3_u1).
body(r_fr3_262,fr8_b3).
body(r_fr3_262,fr3_c1).
head(r_fr3_263,fr3_u1).
body(r_fr3_263,fr3_b1).
body(r_fr3_263,fr3_c3).
body(r_fr3_263,fr3_e1).
body(r_fr3_263,fr3_e2).
body(r_fr3_263,fr4_r3).
body(r_fr3_263,fr7_s1).
head(r_fr3_264,fr3_u1).
body(r_fr3_264,fr3_a2).
body(r_fr3_264,fr3_e2).
body(r_fr3_264,fr4_w3).
body(r_fr3_264,fr3_x2).
body(r_fr3_264,fr3_z1).
body(r_fr3_264,fr3_z2).
head(r_fr3_265,fr3_u1).
body(r_fr3_265,fr8_e1).
body(r_fr3_265,fr3_e2).
body(r_fr3_265,fr3_t2).
head(r_fr3_266,fr3_u1).
body(r_fr3_266,fr7_s1).
body(r_fr3_266,fr3_w1).
body(r_fr3_266,fr3_x2).
head(r_fr3_267,fr3_u1).
body(r_fr3_267,fr3_a2).
body(r_fr3_267,fr3_c2).
body(r_fr3_267,fr3_c3).
body(r_fr3_267,fr3_d1).
body(r_fr3_267,fr4_w3).
body(r_fr3_267,fr3_s2).
head(r_fr3_268,fr3_u1).
body(r_fr3_268,fr3_q3).
body(r_fr3_268,fr3_t2).
body(r_fr3_268,fr3_z2).
head(r_fr3_269,fr3_u1).
body(r_fr3_269,fr4_w3).
body(r_fr3_269,fr7_s1).
body(r_fr3_269,fr3_y1).
head(r_fr3_270,fr3_u1).
head(r_fr3_271,fr3_u1).
body(r_fr3_271,fr4_r3).
head(r_fr3_272,fr3_v1).
body(r_fr3_272,fr3_d1).
body(r_fr3_272,fr3_e1).
body(r_fr3_272,fr3_f1).
body(r_fr3_272,fr4_r3).
head(r_fr3_273,fr3_v1).
body(r_fr3_273,fr8_b3).
body(r_fr3_273,fr3_b1).
body(r_fr3_273,fr1_y2).
body(r_fr3_273,fr3_c1).
body(r_fr3_273,fr3_e2).
body(r_fr3_273,fr4_r3).
head(r_fr3_274,fr3_v1).
body(r_fr3_274,fr3_r2).
head(r_fr3_275,fr3_v1).
body(r_fr3_275,fr3_q2).
body(r_fr3_275,fr3_r2).
body(r_fr3_275,fr3_t1).
body(r_fr3_275,fr3_u1).
body(r_fr3_275,fr3_u2).
body(r_fr3_275,fr3_w2).
head(r_fr3_276,fr3_v1).
body(r_fr3_276,fr3_b1).
body(r_fr3_276,fr3_b2).
body(r_fr3_276,fr3_c3).
head(r_fr3_277,fr3_v1).
body(r_fr3_277,fr3_c2).
body(r_fr3_277,fr3_u1).
body(r_fr3_277,fr7_s1).
head(r_fr3_278,fr3_v1).
head(r_fr3_279,fr3_v1).
body(r_fr3_279,fr3_b1).
body(r_fr3_279,fr3_e2).
body(r_fr3_279,fr3_t1).
body(r_fr3_279,fr3_w2).
body(r_fr3_279,fr3_x1).
body(r_fr3_279,fr3_z2).
head(r_fr3_280,fr3_v1).
body(r_fr3_280,fr3_e1).
body(r_fr3_280,fr3_p2).
head(r_fr3_281,fr3_v1).
body(r_fr3_281,fr3_p1).
body(r_fr3_281,fr3_s1).
head(r_fr3_282,fr3_v1).
body(r_fr3_282,fr3_q2).
head(r_fr3_283,fr3_v1).
body(r_fr3_283,fr3_a1).
body(r_fr3_283,fr3_a2).
body(r_fr3_283,fr3_c1).
body(r_fr3_283,fr3_c3).
body(r_fr3_283,fr3_e1).
body(r_fr3_283,fr3_f1).
head(r_fr3_284,fr3_v1).
body(r_fr3_284,fr3_a1).
body(r_fr3_284,fr3_b2).
body(r_fr3_284,fr8_e1).
head(r_fr3_285,fr3_v1).
body(r_fr3_285,fr3_z2).
head(r_fr3_286,fr3_v1).
body(r_fr3_286,fr3_p1).
body(r_fr3_286,fr3_p2).
head(r_fr3_287,fr3_t1).
body(r_fr3_287,fr3_c1).
body(r_fr3_287,fr3_c2).
body(r_fr3_287,fr8_e1).
head(r_fr3_288,fr3_t1).
body(r_fr3_288,fr3_a1).
body(r_fr3_288,fr8_b3).
body(r_fr3_288,fr3_u1).
body(r_fr3_288,fr3_x1).
head(r_fr3_289,fr3_t1).
body(r_fr3_289,fr3_b2).
body(r_fr3_289,fr3_f1).
body(r_fr3_289,fr1_a1).
head(r_fr3_290,fr3_t1).
body(r_fr3_290,fr3_r1).
body(r_fr3_290,fr3_r2).
body(r_fr3_290,fr3_z1).
head(r_fr3_291,fr3_t1).
body(r_fr3_291,fr1_y2).
body(r_fr3_291,fr3_d1).
body(r_fr3_291,fr3_r2).
body(r_fr3_291,fr1_a1).
body(r_fr3_291,fr3_s2).
body(r_fr3_291,fr3_x1).
head(r_fr3_292,fr3_t1).
body(r_fr3_292,fr8_b3).
head(r_fr3_293,fr3_t1).
body(r_fr3_293,fr8_e1).
body(r_fr3_293,fr4_r3).
head(r_fr3_294,fr3_t1).
body(r_fr3_294,fr8_b3).
body(r_fr3_294,fr1_y2).
body(r_fr3_294,fr3_c2).
body(r_fr3_294,fr3_c3).
body(r_fr3_294,fr3_e1).
body(r_fr3_294,fr3_r2).
head(r_fr3_295,fr3_t1).
body(r_fr3_295,fr1_y2).
head(r_fr3_296,fr3_t1).
body(r_fr3_296,fr3_p3).
body(r_fr3_296,fr3_r2).
body(r_fr3_296,fr3_s2).
body(r_fr3_296,fr3_u1).
head(r_fr3_297,fr3_t1).
body(r_fr3_297,fr3_a1).
body(r_fr3_297,fr3_a2).
body(r_fr3_297,fr1_y2).
body(r_fr3_297,fr3_e1).
body(r_fr3_297,fr3_f1).
head(r_fr3_298,fr3_t1).
body(r_fr3_298,fr3_b2).
body(r_fr3_298,fr3_u1).
body(r_fr3_298,fr3_w1).
body(r_fr3_298,fr3_y2).
head(r_fr3_299,fr3_t1).
body(r_fr3_299,fr3_w2).
head(r_fr3_300,fr3_t1).
body(r_fr3_300,fr3_a2).
body(r_fr3_300,fr4_w3).
body(r_fr3_300,fr7_s1).
body(r_fr3_300,fr3_z2).
head(r_fr3_301,fr3_t1).
head(r_fr3_302,fr3_t1).
body(r_fr3_302,fr8_b3).
body(r_fr3_302,fr3_b2).
body(r_fr3_302,fr3_p1).
body(r_fr3_302,fr3_y1).
body(r_fr3_302,fr3_z2).
head(r_fr3_303,fr3_t1).
body(r_fr3_303,fr3_a1).
body(r_fr3_303,fr8_e1).
body(r_fr3_303,fr3_e2).
body(r_fr3_303,fr3_w1).
head(r_fr3_304,fr3_z1).
body(r_fr3_304,fr3_b2).
body(r_fr3_304,fr3_e2).
head(r_fr3_305,fr3_z1).
body(r_fr3_305,fr8_b3).
body(r_fr3_305,fr1_y2).
body(r_fr3_305,fr3_f1).
head(r_fr3_306,fr3_z1).
body(r_fr3_306,fr3_c1).
body(r_fr3_306,fr3_e2).
body(r_fr3_306,fr3_p2).
head(r_fr3_307,fr3_z1).
body(r_fr3_307,fr3_a2).
body(r_fr3_307,fr3_c3).
body(r_fr3_307,fr3_y1).
head(r_fr3_308,fr3_z1).
body(r_fr3_308,fr3_q3).
body(r_fr3_308,fr3_t1).
body(r_fr3_308,fr3_z2).
head(r_fr3_309,fr3_z1).
body(r_fr3_309,fr3_p3).
body(r_fr3_309,fr3_q2).
body(r_fr3_309,fr3_r1).
body(r_fr3_309,fr3_x2).
body(r_fr3_309,fr3_y1).
head(r_fr3_310,fr3_z1).
body(r_fr3_310,fr3_c2).
body(r_fr3_310,fr3_d1).
body(r_fr3_310,fr8_e1).
body(r_fr3_310,fr4_w3).
body(r_fr3_310,fr3_s2).
body(r_fr3_310,fr3_v1).
head(r_fr3_311,fr3_z1).
body(r_fr3_311,fr3_a2).
body(r_fr3_311,fr1_y2).
body(r_fr3_311,fr3_c2).
body(r_fr3_311,fr8_e1).
body(r_fr3_311,fr3_t1).
body(r_fr3_311,fr3_w2).
head(r_fr3_312,fr3_z1).
body(r_fr3_312,fr3_c2).
body(r_fr3_312,fr3_x2).
head(r_fr3_313,fr3_z1).
body(r_fr3_313,fr8_b3).
body(r_fr3_313,fr3_c3).
body(r_fr3_313,fr3_p1).
head(r_fr3_314,fr3_z1).
body(r_fr3_314,fr3_a2).
body(r_fr3_314,fr3_c3).
body(r_fr3_314,fr3_f1).
body(r_fr3_314,fr3_s1).
head(r_fr3_315,fr3_z1).
body(r_fr3_315,fr8_b3).
head(r_fr3_316,fr3_z1).
head(r_fr3_317,fr3_z1).
body(r_fr3_317,fr8_b3).
body(r_fr3_317,fr3_c2).
body(r_fr3_317,fr3_t2).

assumption(fr9_d1).
assumption(fr7_x1).
assumption(fr4_c1).
assumption(fr4_d1).
assumption(fr4_e1).
assumption(fr4_f1).
assumption(fr4_a2).
assumption(fr4_b2).
assumption(fr4_c2).
assumption(fr4_d2).
assumption(fr4_e2).
assumption(fr4_f2).
assumption(fr4_a3).
assumption(fr4_b3).
assumption(fr4_c3).
contrary(fr9_d1,fr4_d1).
contrary(fr4_a2,fr4_w3).
contrary(fr4_a3,fr4_r2).
contrary(fr7_x1,fr4_c3).
contrary(fr4_b2,fr4_f1).
contrary(fr4_b3,fr4_t1).
contrary(fr4_c1,fr4_b2).
contrary(fr4_c2,fr4_x2).
contrary(fr4_c3,fr4_w2).
contrary(fr4_d1,fr4_s1).
contrary(fr4_d2,fr4_d1).
contrary(fr4_e1,fr4_z3).
contrary(fr4_e2,fr4_t1).
contrary(fr4_f1,fr4_x2).
contrary(fr4_f2,fr4_b2).
head(r_fr4_0,fr4_y3).
body(r_fr4_0,fr4_d1).
body(r_fr4_0,fr9_d1).
head(r_fr4_1,fr4_y3).
body(r_fr4_1,fr4_f1).
body(r_fr4_1,fr4_f2).
body(r_fr4_1,fr9_d1).
head(r_fr4_2,fr4_y3).
body(r_fr4_2,fr4_b2).
body(r_fr4_2,fr4_d1).
head(r_fr4_3,fr4_t2).
head(r_fr4_4,fr4_t2).
body(r_fr4_4,fr4_c2).
body(r_fr4_4,fr4_e1).
head(r_fr4_5,fr4_t2).
body(r_fr4_5,fr4_f1).
head(r_fr4_6,fr4_t2).
body(r_fr4_6,fr4_b3).
body(r_fr4_6,fr4_d1).
head(r_fr4_7,fr4_t2).
body(r_fr4_7,fr7_x1).
head(r_fr4_8,fr4_p4).
body(r_fr4_8,fr4_d1).
head(r_fr4_9,fr4_p4).
body(r_fr4_9,fr4_a3).
body(r_fr4_9,fr4_e1).
head(r_fr4_10,fr4_p4).
body(r_fr4_10,fr4_b2).
head(r_fr4_11,fr4_p4).
body(r_fr4_11,fr4_a3).
body(r_fr4_11,fr4_u2).
head(r_fr4_12,fr4_w2).
head(r_fr4_13,fr4_w2).
body(r_fr4_13,fr4_b2).
body(r_fr4_13,fr9_a2).
body(r_fr4_13,fr4_v1).
head(r_fr4_14,fr4_w2).
body(r_fr4_14,fr9_a2).
body(r_fr4_14,fr4_s3).
body(r_fr4_14,fr4_u3).
head(r_fr4_15,fr4_s2).
body(r_fr4_15,fr4_e2).
head(r_fr4_16,fr4_s2).
body(r_fr4_16,fr4_a3).
body(r_fr4_16,fr4_t1).
body(r_fr4_16,fr1_f2).
head(r_fr4_17,fr4_s2).
body(r_fr4_17,fr9_d1).
body(r_fr4_17,fr4_c3).
body(r_fr4_17,fr4_f2).
head(r_fr4_18,fr4_s2).
body(r_fr4_18,fr1_f2).
head(r_fr4_19,fr4_v1).
body(r_fr4_19,fr4_e2).
head(r_fr4_20,fr4_v1).
body(r_fr4_20,fr7_x1).
body(r_fr4_20,fr4_u1).
body(r_fr4_20,fr4_u3).
head(r_fr4_21,fr4_v1).
body(r_fr4_21,fr4_c1).
head(r_fr4_22,fr4_v1).
body(r_fr4_22,fr4_d2).
body(r_fr4_22,fr4_q2).
body(r_fr4_22,fr4_t1).
head(r_fr4_23,fr9_a2).
body(r_fr4_23,fr4_f2).
head(r_fr4_24,fr9_a2).
body(r_fr4_24,fr4_a2).
head(r_fr4_25,fr9_a2).
head(r_fr4_26,fr9_a2).
body(r_fr4_26,fr4_u3).
head(r_fr4_27,fr9_a2).
body(r_fr4_27,fr4_b2).
body(r_fr4_27,fr4_d2).
head(r_fr4_28,fr4_s3).
body(r_fr4_28,fr4_c3).
body(r_fr4_28,fr4_q2).
head(r_fr4_29,fr4_s3).
body(r_fr4_29,fr4_r3).
body(r_fr4_29,fr4_v3).
head(r_fr4_30,fr4_s3).
body(r_fr4_30,fr4_t1).
head(r_fr4_31,fr4_s3).
head(r_fr4_32,fr4_p1).
head(r_fr4_33,fr4_p1).
body(r_fr4_33,fr4_d2).
body(r_fr4_33,fr4_q3).
head(r_fr4_34,fr4_p1).
body(r_fr4_34,fr4_d2).
body(r_fr4_34,fr9_d1).
body(r_fr4_34,fr4_u3).
head(r_fr4_35,fr4_p1).
body(r_fr4_35,fr4_d1).
head(r_fr4_36,fr4_w3).
head(r_fr4_37,fr4_w3).
body(r_fr4_37,fr9_d1).
head(r_fr4_38,fr4_s1).
body(r_fr4_38,fr4_x1).
head(r_fr4_39,fr4_s1).
head(r_fr4_40,fr4_s1).
body(r_fr4_40,fr7_x1).
body(r_fr4_40,fr4_q2).
head(r_fr4_41,fr9_y1).
body(r_fr4_41,fr4_c2).
body(r_fr4_41,fr4_r3).
head(r_fr4_42,fr9_y1).
body(r_fr4_42,fr4_v3).
head(r_fr4_43,fr9_y1).
head(r_fr4_44,fr4_x2).
body(r_fr4_44,fr4_t1).
body(r_fr4_44,fr4_v3).
head(r_fr4_45,fr4_x2).
body(r_fr4_45,fr9_d1).
body(r_fr4_45,fr4_e1).
body(r_fr4_45,fr4_v3).
head(r_fr4_46,fr4_x2).
head(r_fr4_47,fr4_q3).
body(r_fr4_47,fr4_r3).
head(r_fr4_48,fr4_q3).
body(r_fr4_48,fr4_u2).
body(r_fr4_48,fr4_v2).
head(r_fr4_49,fr4_q3).
body(r_fr4_49,fr4_u1).
head(r_fr4_50,fr4_q3).
head(r_fr4_51,fr4_q3).
body(r_fr4_51,fr9_d1).
body(r_fr4_51,fr7_x1).
body(r_fr4_51,fr4_d2).
head(r_fr4_52,fr9_d1).
body(r_fr4_52,fr7_x1).
body(r_fr4_52,fr4_q1).
body(r_fr4_52,fr4_z1).
head(r_fr4_53,fr9_d1).
head(r_fr4_54,fr4_z1).
body(r_fr4_54,fr4_u1).
head(r_fr4_55,fr4_z1).
body(r_fr4_55,fr4_c1).
body(r_fr4_55,fr4_d1).
body(r_fr4_55,fr4_r2).
head(r_fr4_56,fr1_f2).
body(r_fr4_56,fr4_r1).
body(r_fr4_56,fr4_u2).
body(r_fr4_56,fr4_x3).
head(r_fr4_57,fr1_f2).
body(r_fr4_57,fr4_r3).
head(r_fr4_58,fr4_p3).
body(r_fr4_58,fr4_c2).
head(r_fr4_59,fr4_p3).
body(r_fr4_59,fr4_d1).
body(r_fr4_59,fr4_u2).
head(r_fr4_60,fr4_p3).
body(r_fr4_60,fr4_z2).
head(r_fr4_61,fr4_p3).
body(r_fr4_61,fr4_a2).
body(r_fr4_61,fr4_e1).
head(r_fr4_62,fr4_p3).
head(r_fr4_63,fr9_b3).
body(r_fr4_63,fr4_u2).
body(r_fr4_63,fr4_z3).
head(r_fr4_64,fr9_b3).
head(r_fr4_65,fr4_q1).
body(r_fr4_65,fr4_d2).
body(r_fr4_65,fr4_v2).
body(r_fr4_65,fr4_x1).
head(r_fr4_66,fr4_q1).
head(r_fr4_67,fr4_q1).
body(r_fr4_67,fr4_f2).
head(r_fr4_68,fr4_q1).
body(r_fr4_68,fr4_d2).

assumption(fr5_a1).
assumption(fr5_b1).
assumption(fr2_r1).
assumption(fr5_d1).
assumption(fr5_e1).
assumption(fr7_s1).
assumption(fr5_a2).
assumption(fr5_b2).
assumption(fr8_a3).
assumption(fr8_b3).
assumption(fr4_a3).
assumption(fr3_c1).
assumption(fr4_w2).
assumption(fr10_c2).
assumption(fr5_c3).
contrary(fr5_a1,fr5_p1).
contrary(fr5_a2,fr7_s1).
contrary(fr4_w2,fr8_b3).
contrary(fr5_b1,fr8_a3).
contrary(fr5_b2,fr10_c2).
contrary(fr10_c2,fr8_b3).
contrary(fr2_r1,fr5_b2).
contrary(fr8_a3,fr5_r1).
contrary(fr5_c3,fr7_s1).
contrary(fr5_d1,fr4_a3).
contrary(fr8_b3,fr4_w2).
contrary(fr5_e1,fr5_p1).
contrary(fr4_a3,fr5_e1).
contrary(fr7_s1,fr5_d1).
contrary(fr3_c1,fr5_d1).
head(r_fr5_0,fr4_r3).
body(r_fr5_0,fr5_c3).
head(r_fr5_1,fr4_r3).
body(r_fr5_1,fr5_e1).
body(r_fr5_1,fr5_p1).
body(r_fr5_1,fr5_s1).
head(r_fr5_2,fr5_p1).
body(r_fr5_2,fr4_w2).
body(r_fr5_2,fr2_r1).
body(r_fr5_2,fr8_b3).
body(r_fr5_2,fr4_a3).
body(r_fr5_2,fr3_c3).
head(r_fr5_3,fr5_p1).
body(r_fr5_3,fr4_w2).
body(r_fr5_3,fr5_e1).
body(r_fr5_3,fr5_r1).
head(r_fr5_4,fr5_p1).
body(r_fr5_4,fr10_c2).
body(r_fr5_4,fr5_r1).
head(r_fr5_5,fr5_p1).
body(r_fr5_5,fr4_w2).
body(r_fr5_5,fr5_r1).
head(r_fr5_6,fr5_p1).
head(r_fr5_7,fr5_r1).
body(r_fr5_7,fr5_c3).
body(r_fr5_7,fr3_c3).
head(r_fr5_8,fr5_r1).
body(r_fr5_8,fr5_s1).
head(r_fr5_9,fr3_c3).
body(r_fr5_9,fr5_b1).
head(r_fr5_10,fr3_c3).
body(r_fr5_10,fr4_w2).
head(r_fr5_11,fr5_s1).
body(r_fr5_11,fr5_a1).
body(r_fr5_11,fr4_a3).
head(r_fr5_12,fr5_s1).
body(r_fr5_12,fr5_p1).
head(r_fr5_13,fr5_s1).
body(r_fr5_13,fr5_b1).
head(r_fr5_14,fr5_s1).

assumption(fr4_t2).
assumption(fr10_c2).
assumption(fr6_c1).
assumption(fr8_c1).
assumption(fr4_e2).
assumption(fr6_f1).
assumption(fr6_a2).
assumption(fr8_b3).
assumption(fr6_c2).
assumption(fr6_d2).
assumption(fr6_e2).
assumption(fr4_a3).
assumption(fr6_a3).
assumption(fr4_d2).
assumption(fr6_c3).
contrary(fr4_t2,fr4_d2).
contrary(fr6_a2,fr6_x1).
contrary(fr6_a3,fr6_p3).
contrary(fr10_c2,fr6_w1).
contrary(fr8_b3,fr6_c1).
contrary(fr4_d2,fr6_a2).
contrary(fr6_c1,fr6_q3).
contrary(fr6_c2,fr6_z1).
contrary(fr6_c3,fr6_s2).
contrary(fr8_c1,fr6_c1).
contrary(fr6_d2,fr4_a3).
contrary(fr4_e2,fr6_c1).
contrary(fr6_e2,fr4_t2).
contrary(fr6_f1,fr4_w2).
contrary(fr4_a3,fr10_c2).
head(r_fr6_0,fr6_q1).
body(r_fr6_0,fr6_s1).
body(r_fr6_0,fr1_c1).
body(r_fr6_0,fr6_w2).
head(r_fr6_1,fr6_q1).
body(r_fr6_1,fr4_d2).
head(r_fr6_2,fr6_r2).
head(r_fr6_3,fr6_r2).
body(r_fr6_3,fr6_c1).
body(r_fr6_3,fr8_c1).
body(r_fr6_3,fr6_f1).
head(r_fr6_4,fr6_r2).
body(r_fr6_4,fr6_a2).
body(r_fr6_4,fr6_e2).
body(r_fr6_4,fr6_p3).
head(r_fr6_5,fr6_r2).
body(r_fr6_5,fr4_w2).
body(r_fr6_5,fr6_s1).
body(r_fr6_5,fr6_u2).
body(r_fr6_5,fr6_z1).
head(r_fr6_6,fr6_u1).
body(r_fr6_6,fr6_a2).
body(r_fr6_6,fr6_p3).
body(r_fr6_6,fr6_w1).
head(r_fr6_7,fr6_u1).
body(r_fr6_7,fr6_a2).
body(r_fr6_7,fr6_e2).
body(r_fr6_7,fr4_a3).
body(r_fr6_7,fr7_x1).
head(r_fr6_8,fr4_w2).
body(r_fr6_8,fr6_r3).
body(r_fr6_8,fr6_s2).
body(r_fr6_8,fr7_x1).
body(r_fr6_8,fr6_w2).
body(r_fr6_8,fr6_z1).
body(r_fr6_8,fr7_w2).
head(r_fr6_9,fr4_w2).
head(r_fr6_10,fr4_w2).
body(r_fr6_10,fr4_t2).
body(r_fr6_10,fr6_a3).
body(r_fr6_10,fr6_c2).
body(r_fr6_10,fr6_c3).
body(r_fr6_10,fr6_v1).
head(r_fr6_11,fr7_x1).
body(r_fr6_11,fr8_c1).
body(r_fr6_11,fr6_d2).
body(r_fr6_11,fr6_p1).
body(r_fr6_11,fr6_s1).
body(r_fr6_11,fr6_y2).
head(r_fr6_12,fr7_x1).
head(r_fr6_13,fr6_s1).
head(r_fr6_14,fr6_s1).
body(r_fr6_14,fr10_c2).
head(r_fr6_15,fr6_s1).
body(r_fr6_15,fr6_f1).
body(r_fr6_15,fr6_p3).
body(r_fr6_15,fr6_q3).
body(r_fr6_15,fr6_x2).
body(r_fr6_15,fr6_z1).
head(r_fr6_16,fr6_s1).
body(r_fr6_16,fr4_t2).
body(r_fr6_16,fr6_c1).
body(r_fr6_16,fr1_c1).
head(r_fr6_17,fr6_y2).
body(r_fr6_17,fr6_x1).
body(r_fr6_17,fr6_x2).
body(r_fr6_17,fr6_y1).
head(r_fr6_18,fr6_y2).
head(r_fr6_19,fr6_y2).
body(r_fr6_19,fr4_t2).
body(r_fr6_19,fr6_a3).
body(r_fr6_19,fr6_c1).
body(r_fr6_19,fr6_c3).
body(r_fr6_19,fr6_e2).
body(r_fr6_19,fr6_f1).
head(r_fr6_20,fr6_y2).
body(r_fr6_20,fr6_f1).
body(r_fr6_20,fr6_p3).
body(r_fr6_20,fr6_v2).
body(r_fr6_20,fr6_z1).
body(r_fr6_20,fr7_w2).
head(r_fr6_21,fr6_w1).
body(r_fr6_21,fr6_p1).
body(r_fr6_21,fr6_q3).
body(r_fr6_21,fr6_x1).
head(r_fr6_22,fr6_w1).
body(r_fr6_22,fr6_a3).
body(r_fr6_22,fr6_f1).
head(r_fr6_23,fr6_w1).
body(r_fr6_23,fr4_d2).
body(r_fr6_23,fr6_c1).
body(r_fr6_23,fr6_p1).
body(r_fr6_23,fr6_s2).
head(r_fr6_24,fr6_w1).
body(r_fr6_24,fr10_c2).
body(r_fr6_24,fr6_c1).
body(r_fr6_24,fr4_e2).
body(r_fr6_24,fr6_e2).
body(r_fr6_24,fr4_a3).
head(r_fr6_25,fr6_w1).
body(r_fr6_25,fr6_c2).
body(r_fr6_25,fr6_v1).
body(r_fr6_25,fr6_y1).
body(r_fr6_25,fr6_z1).
head(r_fr6_26,fr6_r3).
body(r_fr6_26,fr4_t2).
body(r_fr6_26,fr6_s2).
body(r_fr6_26,fr6_w2).
head(r_fr6_27,fr6_r3).
body(r_fr6_27,fr6_x1).
body(r_fr6_27,fr7_w2).
head(r_fr6_28,fr6_z1).
body(r_fr6_28,fr6_a2).
body(r_fr6_28,fr4_d2).
body(r_fr6_28,fr6_p2).
head(r_fr6_29,fr6_z1).
body(r_fr6_29,fr6_a2).
body(r_fr6_29,fr4_d2).
body(r_fr6_29,fr6_c1).
body(r_fr6_29,fr6_c2).
body(r_fr6_29,fr6_p2).
head(r_fr6_30,fr6_q3).
head(r_fr6_31,fr6_q3).
body(r_fr6_31,fr6_c2).
body(r_fr6_31,fr6_c3).
body(r_fr6_31,fr4_e2).
body(r_fr6_31,fr6_p3).
body(r_fr6_31,fr6_q2).
body(r_fr6_31,fr6_v1).
head(r_fr6_32,fr6_q3).
body(r_fr6_32,fr6_v1).
body(r_fr6_32,fr6_x1).
head(r_fr6_33,fr1_c1).
body(r_fr6_33,fr6_a3).
body(r_fr6_33,fr10_c2).
body(r_fr6_33,fr4_d2).
body(r_fr6_33,fr6_c2).
body(r_fr6_33,fr6_d2).
body(r_fr6_33,fr6_f1).
head(r_fr6_34,fr1_c1).
body(r_fr6_34,fr6_a2).
body(r_fr6_34,fr6_a3).
body(r_fr6_34,fr8_b3).
body(r_fr6_34,fr4_e2).
body(r_fr6_34,fr6_s2).
body(r_fr6_34,fr6_u2).
head(r_fr6_35,fr1_c1).
body(r_fr6_35,fr4_t2).
body(r_fr6_35,fr6_a3).
body(r_fr6_35,fr6_d2).
body(r_fr6_35,fr6_e2).
body(r_fr6_35,fr6_q2).
body(r_fr6_35,fr6_x1).
head(r_fr6_36,fr6_x2).
body(r_fr6_36,fr10_c2).
body(r_fr6_36,fr6_d2).
body(r_fr6_36,fr6_q2).
body(r_fr6_36,fr6_s2).
body(r_fr6_36,fr6_w2).
head(r_fr6_37,fr6_x2).
body(r_fr6_37,fr6_p1).
body(r_fr6_37,fr6_p3).
body(r_fr6_37,fr6_q2).
head(r_fr6_38,fr6_p2).
body(r_fr6_38,fr4_a3).
body(r_fr6_38,fr6_v2).
body(r_fr6_38,fr6_w2).
body(r_fr6_38,fr6_y1).
head(r_fr6_39,fr6_p2).
head(r_fr6_40,fr6_p2).
body(r_fr6_40,fr6_p3).
head(r_fr6_41,fr6_s2).
body(r_fr6_41,fr8_b3).
body(r_fr6_41,fr6_d2).
head(r_fr6_42,fr6_s2).
body(r_fr6_42,fr6_p1).
head(r_fr6_43,fr6_v2).
body(r_fr6_43,fr4_d2).
body(r_fr6_43,fr6_p3).
body(r_fr6_43,fr6_v1).
head(r_fr6_44,fr6_v2).
body(r_fr6_44,fr6_v1).
head(r_fr6_45,fr6_v2).
body(r_fr6_45,fr6_c1).
body(r_fr6_45,fr6_p3).
body(r_fr6_45,fr6_u2).
body(r_fr6_45,fr6_v1).
body(r_fr6_45,fr7_w2).
head(r_fr6_46,fr6_v2).
body(r_fr6_46,fr6_p3).
body(r_fr6_46,fr6_q2).
body(r_fr6_46,fr6_u2).
body(r_fr6_46,fr6_w2).
body(r_fr6_46,fr6_y1).
head(r_fr6_47,fr6_y1).
head(r_fr6_48,fr6_y1).
body(r_fr6_48,fr6_p3).
body(r_fr6_48,fr6_q2).
body(r_fr6_48,fr6_u2).
body(r_fr6_48,fr6_x1).
body(r_fr6_48,fr7_w2).
head(r_fr6_49,fr6_p1).
body(r_fr6_49,fr10_c2).
body(r_fr6_49,fr6_c2).
body(r_fr6_49,fr6_c3).
body(r_fr6_49,fr6_f1).
body(r_fr6_49,fr6_u2).
body(r_fr6_49,fr6_x1).
head(r_fr6_50,fr6_p1).
body(r_fr6_50,fr6_q2).
body(r_fr6_50,fr6_v1).
body(r_fr6_50,fr6_x1).
body(r_fr6_50,fr7_w2).
head(r_fr6_51,fr6_p1).
body(r_fr6_51,fr6_a2).
body(r_fr6_51,fr6_c1).
head(r_fr6_52,fr6_p1).
body(r_fr6_52,fr6_c3).
body(r_fr6_52,fr4_a3).
head(r_fr6_53,fr6_w2).
head(r_fr6_54,fr6_w2).
body(r_fr6_54,fr6_f1).
body(r_fr6_54,fr6_p3).
body(r_fr6_54,fr6_q2).
body(r_fr6_54,fr6_u2).
body(r_fr6_54,fr6_x1).
body(r_fr6_54,fr7_w2).
head(r_fr6_55,fr6_w2).
body(r_fr6_55,fr8_b3).
body(r_fr6_55,fr6_p3).
body(r_fr6_55,fr6_q2).
body(r_fr6_55,fr6_x1).
head(r_fr6_56,fr6_w2).
body(r_fr6_56,fr6_a3).
body(r_fr6_56,fr4_a3).
head(r_fr6_57,fr6_w2).
body(r_fr6_57,fr6_a2).
body(r_fr6_57,fr4_e2).
body(r_fr6_57,fr6_q2).
body(r_fr6_57,fr6_v1).
body(r_fr6_57,fr7_w2).
head(r_fr6_58,fr6_v1).
body(r_fr6_58,fr8_c1).
body(r_fr6_58,fr4_e2).
body(r_fr6_58,fr6_q2).
body(r_fr6_58,fr6_u2).
head(r_fr6_59,fr6_v1).
body(r_fr6_59,fr6_u2).
body(r_fr6_59,fr6_x1).

assumption(fr7_a1).
assumption(fr7_b1).
assumption(fr6_s2).
assumption(fr7_d1).
assumption(fr7_e1).
assumption(fr10_c2).
assumption(fr7_a2).
assumption(fr7_b2).
assumption(fr7_c2).
assumption(fr10_c2).
assumption(fr4_e1).
assumption(fr7_f2).
assumption(fr7_a3).
assumption(fr7_b3).
assumption(fr4_b3).
contrary(fr7_a1,fr10_c2).
contrary(fr7_a2,fr6_s2).
contrary(fr7_a3,fr7_y3).
contrary(fr7_b1,fr6_s2).
contrary(fr7_b2,fr10_c2).
contrary(fr7_b3,fr7_p4).
contrary(fr6_s2,fr7_p4).
contrary(fr7_c2,fr7_u2).
contrary(fr4_b3,fr4_f1).
contrary(fr7_d1,fr7_w1).
contrary(fr10_c2,fr7_b1).
contrary(fr7_e1,fr7_u1).
contrary(fr4_e1,fr7_q2).
contrary(fr10_c2,fr7_q1).
contrary(fr7_f2,fr7_u1).
head(r_fr7_0,fr7_x1).
body(r_fr7_0,fr6_s2).
body(r_fr7_0,fr10_c2).
body(r_fr7_0,fr7_p3).
body(r_fr7_0,fr7_r3).
body(r_fr7_0,fr7_s2).
body(r_fr7_0,fr1_f2).
body(r_fr7_0,fr9_y2).
body(r_fr7_0,fr7_u2).
body(r_fr7_0,fr7_x2).
body(r_fr7_0,fr7_y2).
body(r_fr7_0,fr7_z2).
head(r_fr7_1,fr7_x1).
body(r_fr7_1,fr7_b1).
body(r_fr7_1,fr10_c2).
body(r_fr7_1,fr7_p2).
body(r_fr7_1,fr7_p4).
body(r_fr7_1,fr7_q2).
body(r_fr7_1,fr7_s1).
body(r_fr7_1,fr7_t3).
body(r_fr7_1,fr7_u1).
body(r_fr7_1,fr7_v2).
body(r_fr7_1,fr3_x1).
head(r_fr7_2,fr7_q1).
body(r_fr7_2,fr7_a2).
body(r_fr7_2,fr6_s2).
body(r_fr7_2,fr7_q2).
body(r_fr7_2,fr7_q3).
body(r_fr7_2,fr7_r3).
body(r_fr7_2,fr9_y2).
body(r_fr7_2,fr7_t2).
body(r_fr7_2,fr7_u2).
body(r_fr7_2,fr7_u3).
body(r_fr7_2,fr7_v1).
body(r_fr7_2,fr7_w2).
body(r_fr7_2,fr4_f1).
head(r_fr7_3,fr7_q1).
body(r_fr7_3,fr7_b1).
body(r_fr7_3,fr7_b2).
body(r_fr7_3,fr6_s2).
body(r_fr7_3,fr4_b3).
body(r_fr7_3,fr7_d1).
body(r_fr7_3,fr7_e1).
body(r_fr7_3,fr7_p4).
body(r_fr7_3,fr7_q4).
body(r_fr7_3,fr7_s1).
body(r_fr7_3,fr7_w3).
body(r_fr7_3,fr7_x2).
body(r_fr7_3,fr7_x3).
head(r_fr7_4,fr7_q1).
body(r_fr7_4,fr7_a1).
body(r_fr7_4,fr7_a3).
body(r_fr7_4,fr7_b2).
body(r_fr7_4,fr7_b3).
body(r_fr7_4,fr7_f2).
body(r_fr7_4,fr7_t2).
body(r_fr7_4,fr7_u2).
body(r_fr7_4,fr7_u3).
body(r_fr7_4,fr7_x2).
body(r_fr7_4,fr3_x1).
body(r_fr7_4,fr7_z1).
head(r_fr7_5,fr7_q1).
body(r_fr7_5,fr7_a3).
body(r_fr7_5,fr7_b1).
body(r_fr7_5,fr7_b3).
body(r_fr7_5,fr7_c2).
body(r_fr7_5,fr10_c2).
body(r_fr7_5,fr4_e1).
body(r_fr7_5,fr7_q2).
body(r_fr7_5,fr7_r1).
body(r_fr7_5,fr7_x2).
body(r_fr7_5,fr4_f1).
head(r_fr7_6,fr7_q4).
body(r_fr7_6,fr7_a2).
body(r_fr7_6,fr4_e1).
body(r_fr7_6,fr7_f2).
body(r_fr7_6,fr7_p1).
body(r_fr7_6,fr7_p4).
body(r_fr7_6,fr7_q2).
body(r_fr7_6,fr7_r2).
body(r_fr7_6,fr1_f2).
body(r_fr7_6,fr7_v2).
body(r_fr7_6,fr3_x1).
head(r_fr7_7,fr7_q4).
body(r_fr7_7,fr7_p4).
body(r_fr7_7,fr7_r1).
body(r_fr7_7,fr7_s2).
body(r_fr7_7,fr7_t2).
body(r_fr7_7,fr7_x2).
body(r_fr7_7,fr7_x3).
body(r_fr7_7,fr3_x1).
body(r_fr7_7,fr7_y2).
body(r_fr7_7,fr7_z1).
body(r_fr7_7,fr7_z2).
head(r_fr7_8,fr9_y2).
body(r_fr7_8,fr7_a1).
body(r_fr7_8,fr7_a3).
body(r_fr7_8,fr4_b3).
body(r_fr7_8,fr7_e1).
body(r_fr7_8,fr7_f2).
body(r_fr7_8,fr7_p1).
body(r_fr7_8,fr7_w2).
body(r_fr7_8,fr3_x1).
body(r_fr7_8,fr7_y2).
head(r_fr7_9,fr9_y2).
body(r_fr7_9,fr7_a2).
body(r_fr7_9,fr7_b2).
body(r_fr7_9,fr7_d1).
body(r_fr7_9,fr10_c2).
body(r_fr7_9,fr7_e1).
body(r_fr7_9,fr4_e1).
body(r_fr7_9,fr7_t2).
body(r_fr7_9,fr7_w1).
body(r_fr7_9,fr7_w2).
head(r_fr7_10,fr9_y2).
body(r_fr7_10,fr7_b3).
body(r_fr7_10,fr6_s2).
body(r_fr7_10,fr7_c2).
body(r_fr7_10,fr4_b3).
body(r_fr7_10,fr7_f2).
body(r_fr7_10,fr7_r1).
body(r_fr7_10,fr7_r2).
body(r_fr7_10,fr7_t3).
body(r_fr7_10,fr7_u2).
body(r_fr7_10,fr4_f1).
head(r_fr7_11,fr9_y2).
body(r_fr7_11,fr7_a1).
body(r_fr7_11,fr7_d1).
body(r_fr7_11,fr7_e1).
body(r_fr7_11,fr7_f2).
body(r_fr7_11,fr7_p3).
body(r_fr7_11,fr7_s1).
body(r_fr7_11,fr7_u1).
body(r_fr7_11,fr7_w3).
body(r_fr7_11,fr7_y3).
body(r_fr7_11,fr7_z1).
head(r_fr7_12,fr9_y2).
body(r_fr7_12,fr7_a2).
body(r_fr7_12,fr7_a3).
body(r_fr7_12,fr6_s2).
body(r_fr7_12,fr1_f2).
body(r_fr7_12,fr7_t2).
body(r_fr7_12,fr7_t3).
body(r_fr7_12,fr7_v1).
body(r_fr7_12,fr7_x2).
body(r_fr7_12,fr7_y2).
body(r_fr7_12,fr7_y3).
head(r_fr7_13,fr7_t3).
body(r_fr7_13,fr7_b1).
body(r_fr7_13,fr7_b2).
body(r_fr7_13,fr6_s2).
body(r_fr7_13,fr4_e1).
body(r_fr7_13,fr7_s2).
body(r_fr7_13,fr1_f2).
body(r_fr7_13,fr7_u2).
body(r_fr7_13,fr3_x1).
body(r_fr7_13,fr7_y3).
head(r_fr7_14,fr7_t3).
body(r_fr7_14,fr7_p2).
body(r_fr7_14,fr7_p3).
body(r_fr7_14,fr7_p4).
body(r_fr7_14,fr7_q2).
body(r_fr7_14,fr7_r3).
body(r_fr7_14,fr7_v2).
body(r_fr7_14,fr7_v3).
body(r_fr7_14,fr7_x2).
body(r_fr7_14,fr3_x1).
body(r_fr7_14,fr7_y3).
head(r_fr7_15,fr7_t3).
body(r_fr7_15,fr7_p2).
body(r_fr7_15,fr7_p3).
body(r_fr7_15,fr7_u1).
body(r_fr7_15,fr7_v2).
body(r_fr7_15,fr7_w1).
body(r_fr7_15,fr7_w2).
body(r_fr7_15,fr7_y3).
body(r_fr7_15,fr7_z1).
body(r_fr7_15,fr7_z2).
head(r_fr7_16,fr7_r3).
body(r_fr7_16,fr7_a1).
body(r_fr7_16,fr4_b3).
body(r_fr7_16,fr10_c2).
body(r_fr7_16,fr7_f2).
body(r_fr7_16,fr7_p3).
body(r_fr7_16,fr7_s1).
body(r_fr7_16,fr1_f2).
body(r_fr7_16,fr7_v2).
body(r_fr7_16,fr7_w2).
body(r_fr7_16,fr3_x1).
body(r_fr7_16,fr7_y3).
body(r_fr7_16,fr4_f1).
head(r_fr7_17,fr7_r3).
body(r_fr7_17,fr7_a1).
body(r_fr7_17,fr7_b1).
body(r_fr7_17,fr7_b2).
body(r_fr7_17,fr6_s2).
body(r_fr7_17,fr10_c2).
body(r_fr7_17,fr4_e1).
body(r_fr7_17,fr7_q3).
body(r_fr7_17,fr7_u1).
body(r_fr7_17,fr4_f1).
head(r_fr7_18,fr7_r3).
body(r_fr7_18,fr7_a3).
body(r_fr7_18,fr7_b1).
body(r_fr7_18,fr7_b2).
body(r_fr7_18,fr4_b3).
body(r_fr7_18,fr7_d1).
body(r_fr7_18,fr10_c2).
body(r_fr7_18,fr7_p2).
body(r_fr7_18,fr7_p3).
body(r_fr7_18,fr7_t2).
body(r_fr7_18,fr7_x2).
body(r_fr7_18,fr7_x3).
body(r_fr7_18,fr7_z2).
head(r_fr7_19,fr7_r3).
body(r_fr7_19,fr7_a2).
body(r_fr7_19,fr7_b3).
body(r_fr7_19,fr6_s2).
body(r_fr7_19,fr4_e1).
body(r_fr7_19,fr7_p1).
body(r_fr7_19,fr7_r1).
body(r_fr7_19,fr7_r2).
body(r_fr7_19,fr7_t2).
body(r_fr7_19,fr7_w2).
body(r_fr7_19,fr7_y3).
head(r_fr7_20,fr7_v1).
body(r_fr7_20,fr6_s2).
body(r_fr7_20,fr7_p1).
body(r_fr7_20,fr7_p3).
body(r_fr7_20,fr7_r1).
body(r_fr7_20,fr7_s1).
body(r_fr7_20,fr1_f2).
body(r_fr7_20,fr7_w1).
body(r_fr7_20,fr7_x3).
body(r_fr7_20,fr7_y2).
body(r_fr7_20,fr7_z1).
body(r_fr7_20,fr4_f1).
head(r_fr7_21,fr7_v1).
body(r_fr7_21,fr7_b1).
body(r_fr7_21,fr7_b3).
body(r_fr7_21,fr7_c2).
body(r_fr7_21,fr4_b3).
body(r_fr7_21,fr10_c2).
body(r_fr7_21,fr4_e1).
body(r_fr7_21,fr7_p1).
body(r_fr7_21,fr7_r2).
body(r_fr7_21,fr7_s2).
body(r_fr7_21,fr7_w2).
head(r_fr7_22,fr7_v1).
body(r_fr7_22,fr7_a2).
body(r_fr7_22,fr7_a3).
body(r_fr7_22,fr7_b1).
body(r_fr7_22,fr6_s2).
body(r_fr7_22,fr10_c2).
body(r_fr7_22,fr4_e1).
body(r_fr7_22,fr7_p3).
body(r_fr7_22,fr7_t2).
body(r_fr7_22,fr7_u3).
head(r_fr7_23,fr7_v1).
body(r_fr7_23,fr7_a2).
body(r_fr7_23,fr7_b3).
body(r_fr7_23,fr7_p3).
body(r_fr7_23,fr7_s1).
body(r_fr7_23,fr7_s2).
body(r_fr7_23,fr7_t2).
body(r_fr7_23,fr7_u3).
body(r_fr7_23,fr7_w2).
body(r_fr7_23,fr7_y2).
body(r_fr7_23,fr7_y3).
body(r_fr7_23,fr7_z1).
head(r_fr7_24,fr7_u2).
body(r_fr7_24,fr7_a1).
body(r_fr7_24,fr7_b1).
body(r_fr7_24,fr10_c2).
body(r_fr7_24,fr4_e1).
body(r_fr7_24,fr7_p2).
body(r_fr7_24,fr7_p3).
body(r_fr7_24,fr7_r1).
body(r_fr7_24,fr7_w3).
body(r_fr7_24,fr7_y3).
body(r_fr7_24,fr7_z2).
head(r_fr7_25,fr7_u2).
body(r_fr7_25,fr7_p1).
body(r_fr7_25,fr7_p3).
body(r_fr7_25,fr7_q3).
body(r_fr7_25,fr7_r2).
body(r_fr7_25,fr7_s2).
body(r_fr7_25,fr7_u3).
body(r_fr7_25,fr7_w3).
body(r_fr7_25,fr7_x2).
body(r_fr7_25,fr7_y3).
head(r_fr7_26,fr7_u2).
body(r_fr7_26,fr7_b3).
body(r_fr7_26,fr7_c2).
body(r_fr7_26,fr7_e1).
body(r_fr7_26,fr7_f2).
body(r_fr7_26,fr7_p4).
body(r_fr7_26,fr7_q2).
body(r_fr7_26,fr7_s2).
body(r_fr7_26,fr7_u3).
body(r_fr7_26,fr7_w2).
body(r_fr7_26,fr7_y3).
body(r_fr7_26,fr7_z1).
head(r_fr7_27,fr7_u2).
body(r_fr7_27,fr7_b1).
body(r_fr7_27,fr4_b3).
body(r_fr7_27,fr7_d1).
body(r_fr7_27,fr7_p2).
body(r_fr7_27,fr7_r2).
body(r_fr7_27,fr7_v3).
body(r_fr7_27,fr7_x2).
body(r_fr7_27,fr3_x1).
body(r_fr7_27,fr7_z1).
head(r_fr7_28,fr7_y3).
body(r_fr7_28,fr7_b1).
body(r_fr7_28,fr7_p1).
body(r_fr7_28,fr7_s1).
body(r_fr7_28,fr7_s2).
body(r_fr7_28,fr7_u1).
body(r_fr7_28,fr7_u3).
body(r_fr7_28,fr7_v2).
body(r_fr7_28,fr7_v3).
body(r_fr7_28,fr7_w1).
head(r_fr7_29,fr7_y3).
body(r_fr7_29,fr7_a3).
body(r_fr7_29,fr7_c2).
body(r_fr7_29,fr7_d1).
body(r_fr7_29,fr4_e1).
body(r_fr7_29,fr7_p3).
body(r_fr7_29,fr7_r1).
body(r_fr7_29,fr7_v2).
body(r_fr7_29,fr7_x2).
body(r_fr7_29,fr7_z2).
head(r_fr7_30,fr7_y3).
body(r_fr7_30,fr7_p1).
body(r_fr7_30,fr7_p4).
body(r_fr7_30,fr7_q2).
body(r_fr7_30,fr7_s1).
body(r_fr7_30,fr7_s2).
body(r_fr7_30,fr7_u1).
body(r_fr7_30,fr7_w2).
body(r_fr7_30,fr7_w3).
body(r_fr7_30,fr3_x1).
body(r_fr7_30,fr7_y2).
body(r_fr7_30,fr7_z2).
body(r_fr7_30,fr4_f1).
head(r_fr7_31,fr7_p2).
body(r_fr7_31,fr10_c2).
body(r_fr7_31,fr7_f2).
body(r_fr7_31,fr7_p3).
body(r_fr7_31,fr7_q3).
body(r_fr7_31,fr7_s2).
body(r_fr7_31,fr7_t2).
body(r_fr7_31,fr7_u1).
body(r_fr7_31,fr7_u3).
body(r_fr7_31,fr7_w2).
body(r_fr7_31,fr7_w3).
body(r_fr7_31,fr7_z2).
body(r_fr7_31,fr4_f1).
head(r_fr7_32,fr7_p2).
body(r_fr7_32,fr6_s2).
body(r_fr7_32,fr4_b3).
body(r_fr7_32,fr7_e1).
body(r_fr7_32,fr4_e1).
body(r_fr7_32,fr10_c2).
body(r_fr7_32,fr7_f2).
body(r_fr7_32,fr7_p3).
body(r_fr7_32,fr7_w2).
body(r_fr7_32,fr3_x1).
body(r_fr7_32,fr4_f1).
head(r_fr7_33,fr7_p2).
body(r_fr7_33,fr7_a1).
body(r_fr7_33,fr6_s2).
body(r_fr7_33,fr7_d1).
body(r_fr7_33,fr10_c2).
body(r_fr7_33,fr7_e1).
body(r_fr7_33,fr7_f2).
body(r_fr7_33,fr7_r2).
body(r_fr7_33,fr7_s2).
body(r_fr7_33,fr7_u1).
body(r_fr7_33,fr7_w1).
body(r_fr7_33,fr7_z2).
head(r_fr7_34,fr3_x1).
body(r_fr7_34,fr7_a1).
body(r_fr7_34,fr7_b2).
body(r_fr7_34,fr6_s2).
body(r_fr7_34,fr7_c2).
body(r_fr7_34,fr7_f2).
body(r_fr7_34,fr7_p1).
body(r_fr7_34,fr7_s1).
body(r_fr7_34,fr7_s2).
body(r_fr7_34,fr7_z1).
head(r_fr7_35,fr3_x1).
body(r_fr7_35,fr7_a1).
body(r_fr7_35,fr7_a3).
body(r_fr7_35,fr7_b2).
body(r_fr7_35,fr7_b3).
body(r_fr7_35,fr4_b3).
body(r_fr7_35,fr4_e1).
body(r_fr7_35,fr7_q3).
body(r_fr7_35,fr1_f2).
body(r_fr7_35,fr7_u3).
body(r_fr7_35,fr7_v2).
head(r_fr7_36,fr3_x1).
body(r_fr7_36,fr7_b1).
body(r_fr7_36,fr7_c2).
body(r_fr7_36,fr7_p3).
body(r_fr7_36,fr7_p4).
body(r_fr7_36,fr7_q2).
body(r_fr7_36,fr7_s1).
body(r_fr7_36,fr7_s2).
body(r_fr7_36,fr7_t2).
body(r_fr7_36,fr7_u1).
body(r_fr7_36,fr7_u3).
body(r_fr7_36,fr7_y2).
body(r_fr7_36,fr7_z1).
head(r_fr7_37,fr7_r1).
body(r_fr7_37,fr7_a3).
body(r_fr7_37,fr7_b1).
body(r_fr7_37,fr6_s2).
body(r_fr7_37,fr7_c2).
body(r_fr7_37,fr4_e1).
body(r_fr7_37,fr10_c2).
body(r_fr7_37,fr7_q2).
body(r_fr7_37,fr7_s2).
body(r_fr7_37,fr7_w2).
body(r_fr7_37,fr7_x2).
head(r_fr7_38,fr7_r1).
body(r_fr7_38,fr7_b2).
body(r_fr7_38,fr6_s2).
body(r_fr7_38,fr7_f2).
body(r_fr7_38,fr7_q3).
body(r_fr7_38,fr7_s1).
body(r_fr7_38,fr1_f2).
body(r_fr7_38,fr7_x3).
body(r_fr7_38,fr7_z1).
body(r_fr7_38,fr4_f1).
head(r_fr7_39,fr7_r1).
body(r_fr7_39,fr6_s2).
body(r_fr7_39,fr7_f2).
body(r_fr7_39,fr7_p3).
body(r_fr7_39,fr1_f2).
body(r_fr7_39,fr7_u1).
body(r_fr7_39,fr7_u3).
body(r_fr7_39,fr7_v3).
body(r_fr7_39,fr7_w1).
body(r_fr7_39,fr7_w3).
body(r_fr7_39,fr7_y2).
body(r_fr7_39,fr7_z1).
body(r_fr7_39,fr7_z2).
head(r_fr7_40,fr7_r1).
body(r_fr7_40,fr7_b1).
body(r_fr7_40,fr10_c2).
body(r_fr7_40,fr7_p3).
body(r_fr7_40,fr7_s1).
body(r_fr7_40,fr1_f2).
body(r_fr7_40,fr7_v2).
body(r_fr7_40,fr7_w1).
body(r_fr7_40,fr7_w2).
body(r_fr7_40,fr7_x3).
body(r_fr7_40,fr7_z1).
head(r_fr7_41,fr7_r1).
body(r_fr7_41,fr7_c2).
body(r_fr7_41,fr7_p3).
body(r_fr7_41,fr7_q3).
body(r_fr7_41,fr7_r2).
body(r_fr7_41,fr1_f2).
body(r_fr7_41,fr7_t2).
body(r_fr7_41,fr7_u1).
body(r_fr7_41,fr7_v2).
body(r_fr7_41,fr7_w1).
body(r_fr7_41,fr7_w3).
body(r_fr7_41,fr7_x3).
body(r_fr7_41,fr4_f1).
head(r_fr7_42,fr7_u1).
body(r_fr7_42,fr7_b2).
body(r_fr7_42,fr7_b3).
body(r_fr7_42,fr7_c2).
body(r_fr7_42,fr10_c2).
body(r_fr7_42,fr4_e1).
body(r_fr7_42,fr10_c2).
body(r_fr7_42,fr7_p3).
body(r_fr7_42,fr7_v3).
body(r_fr7_42,fr4_f1).
head(r_fr7_43,fr7_u1).
body(r_fr7_43,fr7_p3).
body(r_fr7_43,fr7_q2).
body(r_fr7_43,fr7_q3).
body(r_fr7_43,fr7_r2).
body(r_fr7_43,fr1_f2).
body(r_fr7_43,fr7_t2).
body(r_fr7_43,fr7_v2).
body(r_fr7_43,fr7_v3).
body(r_fr7_43,fr7_z2).
head(r_fr7_44,fr7_u1).
body(r_fr7_44,fr7_q2).
body(r_fr7_44,fr7_q3).
body(r_fr7_44,fr7_s1).
body(r_fr7_44,fr7_w1).
body(r_fr7_44,fr7_w3).
body(r_fr7_44,fr7_x2).
body(r_fr7_44,fr7_x3).
body(r_fr7_44,fr7_y2).
body(r_fr7_44,fr7_z2).
head(r_fr7_45,fr7_z1).
body(r_fr7_45,fr7_b2).
body(r_fr7_45,fr7_c2).
body(r_fr7_45,fr4_b3).
body(r_fr7_45,fr7_d1).
body(r_fr7_45,fr7_f2).
body(r_fr7_45,fr7_q2).
body(r_fr7_45,fr7_s1).
body(r_fr7_45,fr7_t2).
body(r_fr7_45,fr7_x2).
body(r_fr7_45,fr7_y2).
head(r_fr7_46,fr7_z1).
body(r_fr7_46,fr7_b3).
body(r_fr7_46,fr7_c2).
body(r_fr7_46,fr7_d1).
body(r_fr7_46,fr7_e1).
body(r_fr7_46,fr7_p1).
body(r_fr7_46,fr7_q2).
body(r_fr7_46,fr7_v3).
body(r_fr7_46,fr7_w2).
body(r_fr7_46,fr7_x3).
body(r_fr7_46,fr7_y2).
head(r_fr7_47,fr7_z1).
body(r_fr7_47,fr7_p1).
body(r_fr7_47,fr7_p3).
body(r_fr7_47,fr7_p4).
body(r_fr7_47,fr7_r2).
body(r_fr7_47,fr7_s1).
body(r_fr7_47,fr7_s2).
body(r_fr7_47,fr7_w1).
body(r_fr7_47,fr7_z2).
body(r_fr7_47,fr4_f1).
head(r_fr7_48,fr1_f2).
body(r_fr7_48,fr4_b3).
body(r_fr7_48,fr7_e1).
body(r_fr7_48,fr7_q2).
body(r_fr7_48,fr7_v2).
body(r_fr7_48,fr7_w2).
body(r_fr7_48,fr7_w3).
body(r_fr7_48,fr7_x2).
body(r_fr7_48,fr7_y2).
body(r_fr7_48,fr7_z2).
head(r_fr7_49,fr1_f2).
body(r_fr7_49,fr7_a2).
body(r_fr7_49,fr7_b3).
body(r_fr7_49,fr7_c2).
body(r_fr7_49,fr4_e1).
body(r_fr7_49,fr7_r2).
body(r_fr7_49,fr7_s2).
body(r_fr7_49,fr7_w2).
body(r_fr7_49,fr7_w3).
body(r_fr7_49,fr7_y2).
body(r_fr7_49,fr7_z2).
body(r_fr7_49,fr4_f1).
head(r_fr7_50,fr1_f2).
body(r_fr7_50,fr7_a1).
body(r_fr7_50,fr7_b3).
body(r_fr7_50,fr4_b3).
body(r_fr7_50,fr7_d1).
body(r_fr7_50,fr7_p1).
body(r_fr7_50,fr7_p3).
body(r_fr7_50,fr7_t2).
body(r_fr7_50,fr7_w1).
body(r_fr7_50,fr7_w3).
body(r_fr7_50,fr7_z2).
head(r_fr7_51,fr7_r2).
body(r_fr7_51,fr7_a3).
body(r_fr7_51,fr7_b1).
body(r_fr7_51,fr4_b3).
body(r_fr7_51,fr7_e1).
body(r_fr7_51,fr7_f2).
body(r_fr7_51,fr7_q2).
body(r_fr7_51,fr7_q3).
body(r_fr7_51,fr7_s1).
body(r_fr7_51,fr7_t2).
body(r_fr7_51,fr7_v2).
body(r_fr7_51,fr7_v3).
body(r_fr7_51,fr7_x2).
head(r_fr7_52,fr7_r2).
body(r_fr7_52,fr7_p3).
body(r_fr7_52,fr7_q2).
body(r_fr7_52,fr7_s1).
body(r_fr7_52,fr7_s2).
body(r_fr7_52,fr7_t2).
body(r_fr7_52,fr7_u3).
body(r_fr7_52,fr7_v3).
body(r_fr7_52,fr7_w1).
body(r_fr7_52,fr7_w2).
body(r_fr7_52,fr7_w3).
body(r_fr7_52,fr7_y2).
body(r_fr7_52,fr7_z2).
head(r_fr7_53,fr7_s1).
body(r_fr7_53,fr7_a1).
body(r_fr7_53,fr7_b1).
body(r_fr7_53,fr4_e1).
body(r_fr7_53,fr10_c2).
body(r_fr7_53,fr7_p1).
body(r_fr7_53,fr7_v2).
body(r_fr7_53,fr7_w1).
body(r_fr7_53,fr7_z2).
body(r_fr7_53,fr4_f1).
head(r_fr7_54,fr7_s1).
body(r_fr7_54,fr7_a1).
body(r_fr7_54,fr7_b1).
body(r_fr7_54,fr7_b2).
body(r_fr7_54,fr7_d1).
body(r_fr7_54,fr7_f2).
body(r_fr7_54,fr7_p3).
body(r_fr7_54,fr7_q3).
body(r_fr7_54,fr7_s2).
body(r_fr7_54,fr7_x3).
head(r_fr7_55,fr7_s1).
body(r_fr7_55,fr7_d1).
body(r_fr7_55,fr7_p1).
body(r_fr7_55,fr7_q2).
body(r_fr7_55,fr7_q3).
body(r_fr7_55,fr7_s2).
body(r_fr7_55,fr7_t2).
body(r_fr7_55,fr7_v2).
body(r_fr7_55,fr7_v3).
body(r_fr7_55,fr7_w2).
body(r_fr7_55,fr7_x2).
body(r_fr7_55,fr7_x3).
body(r_fr7_55,fr7_y2).
head(r_fr7_56,fr7_v3).
body(r_fr7_56,fr7_a1).
body(r_fr7_56,fr7_b3).
body(r_fr7_56,fr4_e1).
body(r_fr7_56,fr7_q3).
body(r_fr7_56,fr7_s2).
body(r_fr7_56,fr7_w2).
body(r_fr7_56,fr7_x2).
body(r_fr7_56,fr7_y2).
body(r_fr7_56,fr4_f1).
head(r_fr7_57,fr7_v3).
body(r_fr7_57,fr7_a3).
body(r_fr7_57,fr7_b2).
body(r_fr7_57,fr4_e1).
body(r_fr7_57,fr7_p1).
body(r_fr7_57,fr7_p3).
body(r_fr7_57,fr7_p4).
body(r_fr7_57,fr7_q2).
body(r_fr7_57,fr7_q3).
body(r_fr7_57,fr7_s2).
body(r_fr7_57,fr7_v2).
body(r_fr7_57,fr7_w3).
body(r_fr7_57,fr7_x3).
head(r_fr7_58,fr7_v3).
body(r_fr7_58,fr7_a1).
body(r_fr7_58,fr7_a2).
body(r_fr7_58,fr7_b2).
body(r_fr7_58,fr7_f2).
body(r_fr7_58,fr7_p3).
body(r_fr7_58,fr7_q2).
body(r_fr7_58,fr7_s2).
body(r_fr7_58,fr7_w2).
body(r_fr7_58,fr7_x3).
body(r_fr7_58,fr7_y2).
body(r_fr7_58,fr7_z2).
body(r_fr7_58,fr4_f1).
head(r_fr7_59,fr7_v3).
body(r_fr7_59,fr7_a2).
body(r_fr7_59,fr7_d1).
body(r_fr7_59,fr10_c2).
body(r_fr7_59,fr7_e1).
body(r_fr7_59,fr4_e1).
body(r_fr7_59,fr7_p1).
body(r_fr7_59,fr7_p4).
body(r_fr7_59,fr7_v2).
body(r_fr7_59,fr7_w3).
body(r_fr7_59,fr7_x3).
body(r_fr7_59,fr4_f1).
head(r_fr7_60,fr7_v3).
body(r_fr7_60,fr7_a1).
body(r_fr7_60,fr7_b3).
body(r_fr7_60,fr4_e1).
body(r_fr7_60,fr7_f2).
body(r_fr7_60,fr7_q2).
body(r_fr7_60,fr7_q3).
body(r_fr7_60,fr7_s2).
body(r_fr7_60,fr7_v2).
body(r_fr7_60,fr7_x3).
head(r_fr7_61,fr7_p4).
body(r_fr7_61,fr7_a1).
body(r_fr7_61,fr7_a3).
body(r_fr7_61,fr7_b1).
body(r_fr7_61,fr7_b2).
body(r_fr7_61,fr7_b3).
body(r_fr7_61,fr4_b3).
body(r_fr7_61,fr7_p1).
body(r_fr7_61,fr7_q2).
body(r_fr7_61,fr7_q3).
body(r_fr7_61,fr7_x2).
body(r_fr7_61,fr4_f1).
head(r_fr7_62,fr7_p4).
body(r_fr7_62,fr7_a3).
body(r_fr7_62,fr7_b3).
body(r_fr7_62,fr6_s2).
body(r_fr7_62,fr4_b3).
body(r_fr7_62,fr4_e1).
body(r_fr7_62,fr10_c2).
body(r_fr7_62,fr7_u3).
body(r_fr7_62,fr7_w2).
body(r_fr7_62,fr7_x3).
head(r_fr7_63,fr7_z2).
body(r_fr7_63,fr7_a1).
body(r_fr7_63,fr7_a3).
body(r_fr7_63,fr7_b1).
body(r_fr7_63,fr10_c2).
body(r_fr7_63,fr7_e1).
body(r_fr7_63,fr7_f2).
body(r_fr7_63,fr7_p3).
body(r_fr7_63,fr7_s2).
body(r_fr7_63,fr7_w1).
body(r_fr7_63,fr7_w2).
body(r_fr7_63,fr7_x2).
body(r_fr7_63,fr4_f1).
head(r_fr7_64,fr7_z2).
body(r_fr7_64,fr7_a1).
body(r_fr7_64,fr7_b1).
body(r_fr7_64,fr7_b3).
body(r_fr7_64,fr6_s2).
body(r_fr7_64,fr7_e1).
body(r_fr7_64,fr7_f2).
body(r_fr7_64,fr7_u3).
body(r_fr7_64,fr7_x2).
body(r_fr7_64,fr7_x3).
body(r_fr7_64,fr4_f1).
head(r_fr7_65,fr7_z2).
body(r_fr7_65,fr7_a3).
body(r_fr7_65,fr7_c2).
body(r_fr7_65,fr10_c2).
body(r_fr7_65,fr7_e1).
body(r_fr7_65,fr10_c2).
body(r_fr7_65,fr7_q3).
body(r_fr7_65,fr7_v2).
body(r_fr7_65,fr7_w3).
body(r_fr7_65,fr7_y2).
body(r_fr7_65,fr4_f1).
head(r_fr7_66,fr7_z2).
body(r_fr7_66,fr6_s2).
body(r_fr7_66,fr4_b3).
body(r_fr7_66,fr7_d1).
body(r_fr7_66,fr4_e1).
body(r_fr7_66,fr10_c2).
body(r_fr7_66,fr7_p1).
body(r_fr7_66,fr7_s2).
body(r_fr7_66,fr7_t2).
body(r_fr7_66,fr7_u3).
body(r_fr7_66,fr7_w1).
body(r_fr7_66,fr4_f1).

assumption(fr4_v2).
assumption(fr10_c2).
assumption(fr8_c1).
assumption(fr8_d1).
assumption(fr8_e1).
assumption(fr8_f1).
assumption(fr4_a3).
assumption(fr8_b2).
assumption(fr8_c2).
assumption(fr8_d2).
assumption(fr8_e2).
assumption(fr8_f2).
assumption(fr1_f2).
assumption(fr8_b3).
assumption(fr8_c3).
contrary(fr4_v2,fr8_d2).
contrary(fr4_a3,fr8_q1).
contrary(fr1_f2,fr8_z1).
contrary(fr10_c2,fr8_f1).
contrary(fr8_b2,fr8_q1).
contrary(fr8_b3,fr8_e2).
contrary(fr8_c1,fr7_v3).
contrary(fr8_c2,fr8_d2).
contrary(fr8_c3,fr8_q1).
contrary(fr8_d1,fr8_x1).
contrary(fr8_d2,fr4_v2).
contrary(fr8_e1,fr8_z1).
contrary(fr8_e2,fr4_r1).
contrary(fr8_f1,fr8_e2).
contrary(fr8_f2,fr8_r2).
head(r_fr8_0,fr8_r1).
body(r_fr8_0,fr4_v2).
body(r_fr8_0,fr1_f2).
body(r_fr8_0,fr8_d1).
body(r_fr8_0,fr8_e2).
body(r_fr8_0,fr8_f1).
body(r_fr8_0,fr4_t1).
head(r_fr8_1,fr8_r1).
body(r_fr8_1,fr10_c2).
body(r_fr8_1,fr8_c1).
body(r_fr8_1,fr8_d1).
head(r_fr8_2,fr8_r1).
body(r_fr8_2,fr1_f2).
body(r_fr8_2,fr8_u1).
body(r_fr8_2,fr7_v3).
head(r_fr8_3,fr8_r1).
body(r_fr8_3,fr4_v2).
body(r_fr8_3,fr1_f2).
body(r_fr8_3,fr8_b3).
body(r_fr8_3,fr8_c3).
body(r_fr8_3,fr8_d1).
body(r_fr8_3,fr8_d2).
head(r_fr8_4,fr8_p1).
body(r_fr8_4,fr8_q2).
body(r_fr8_4,fr8_r2).
body(r_fr8_4,fr8_s2).
head(r_fr8_5,fr8_p1).
body(r_fr8_5,fr8_q1).
body(r_fr8_5,fr8_q2).
body(r_fr8_5,fr4_r1).
body(r_fr8_5,fr8_s2).
body(r_fr8_5,fr7_v3).
head(r_fr8_6,fr8_p1).
body(r_fr8_6,fr1_c1).
body(r_fr8_6,fr7_v3).
body(r_fr8_6,fr4_w2).
body(r_fr8_6,fr8_x1).
head(r_fr8_7,fr4_t1).
body(r_fr8_7,fr1_f2).
body(r_fr8_7,fr8_u1).
head(r_fr8_8,fr4_t1).
body(r_fr8_8,fr8_c3).
head(r_fr8_9,fr4_t1).
body(r_fr8_9,fr4_v2).
body(r_fr8_9,fr4_a3).
body(r_fr8_9,fr8_c1).
body(r_fr8_9,fr8_c2).
body(r_fr8_9,fr8_q1).
body(r_fr8_9,fr8_q2).
head(r_fr8_10,fr4_t1).
body(r_fr8_10,fr4_a3).
body(r_fr8_10,fr8_c3).
body(r_fr8_10,fr8_d1).
body(r_fr8_10,fr8_d2).
body(r_fr8_10,fr8_f1).
head(r_fr8_11,fr8_s2).
body(r_fr8_11,fr8_c1).
body(r_fr8_11,fr8_c2).
body(r_fr8_11,fr8_d2).
body(r_fr8_11,fr8_p2).
body(r_fr8_11,fr8_q2).
body(r_fr8_11,fr8_z1).
head(r_fr8_12,fr8_s2).
body(r_fr8_12,fr8_d1).
head(r_fr8_13,fr8_s2).
body(r_fr8_13,fr1_f2).
body(r_fr8_13,fr8_b2).
body(r_fr8_13,fr8_c2).
body(r_fr8_13,fr8_d1).
body(r_fr8_13,fr8_f1).
body(r_fr8_13,fr8_p2).
head(r_fr8_14,fr8_u1).
body(r_fr8_14,fr8_d1).
body(r_fr8_14,fr8_e2).
body(r_fr8_14,fr8_f2).
body(r_fr8_14,fr7_v3).
head(r_fr8_15,fr8_u1).
body(r_fr8_15,fr1_f2).
body(r_fr8_15,fr8_d2).
body(r_fr8_15,fr8_p2).
head(r_fr8_16,fr8_u1).
body(r_fr8_16,fr8_x1).
head(r_fr8_17,fr8_u1).
body(r_fr8_17,fr10_c2).
body(r_fr8_17,fr8_b3).
body(r_fr8_17,fr8_d1).
body(r_fr8_17,fr8_p2).
head(r_fr8_18,fr8_u1).
head(r_fr8_19,fr8_q2).
body(r_fr8_19,fr4_v2).
body(r_fr8_19,fr8_c1).
body(r_fr8_19,fr8_c3).
body(r_fr8_19,fr8_d1).
body(r_fr8_19,fr8_q1).
head(r_fr8_20,fr8_q2).
head(r_fr8_21,fr8_q2).
body(r_fr8_21,fr8_b2).
body(r_fr8_21,fr8_c1).
body(r_fr8_21,fr8_d2).
body(r_fr8_21,fr8_e2).
body(r_fr8_21,fr8_r2).
head(r_fr8_22,fr8_q2).
body(r_fr8_22,fr4_v2).
head(r_fr8_23,fr8_q2).
body(r_fr8_23,fr8_b2).
body(r_fr8_23,fr8_c1).
body(r_fr8_23,fr7_v3).
head(r_fr8_24,fr4_w2).
body(r_fr8_24,fr4_a3).
body(r_fr8_24,fr8_q1).
body(r_fr8_24,fr4_r1).
body(r_fr8_24,fr7_v3).
head(r_fr8_25,fr4_w2).
body(r_fr8_25,fr4_v2).
body(r_fr8_25,fr8_e2).
head(r_fr8_26,fr4_w2).
body(r_fr8_26,fr8_f2).
head(r_fr8_27,fr4_w2).
body(r_fr8_27,fr1_c1).
head(r_fr8_28,fr4_w2).
body(r_fr8_28,fr10_c2).
body(r_fr8_28,fr8_b3).
body(r_fr8_28,fr8_d1).
body(r_fr8_28,fr8_f1).
head(r_fr8_29,fr8_z1).
body(r_fr8_29,fr8_q1).
body(r_fr8_29,fr8_r2).
body(r_fr8_29,fr4_r1).
body(r_fr8_29,fr7_v3).
body(r_fr8_29,fr8_x1).
head(r_fr8_30,fr8_z1).
body(r_fr8_30,fr1_f2).
body(r_fr8_30,fr8_c2).
body(r_fr8_30,fr8_c3).
body(r_fr8_30,fr8_p2).
head(r_fr8_31,fr8_z1).
body(r_fr8_31,fr4_a3).
body(r_fr8_31,fr1_f2).
body(r_fr8_31,fr8_c3).
body(r_fr8_31,fr8_d1).
body(r_fr8_31,fr8_f1).
body(r_fr8_31,fr8_r2).
head(r_fr8_32,fr8_z1).
body(r_fr8_32,fr4_v2).
head(r_fr8_33,fr8_p2).
body(r_fr8_33,fr4_a3).
body(r_fr8_33,fr8_c3).
body(r_fr8_33,fr8_d1).
body(r_fr8_33,fr8_e2).
body(r_fr8_33,fr8_f2).
head(r_fr8_34,fr8_p2).
body(r_fr8_34,fr4_v2).
body(r_fr8_34,fr8_q1).
body(r_fr8_34,fr8_r2).
body(r_fr8_34,fr4_r1).
body(r_fr8_34,fr1_c1).
body(r_fr8_34,fr8_x1).
head(r_fr8_35,fr8_p2).
body(r_fr8_35,fr4_a3).
body(r_fr8_35,fr1_c1).
body(r_fr8_35,fr8_x1).
head(r_fr8_36,fr8_p2).
body(r_fr8_36,fr8_q1).
body(r_fr8_36,fr8_r2).
body(r_fr8_36,fr4_r1).
body(r_fr8_36,fr1_c1).
body(r_fr8_36,fr7_v3).
body(r_fr8_36,fr8_x1).
head(r_fr8_37,fr8_p2).
body(r_fr8_37,fr8_c1).
head(r_fr8_38,fr4_r1).
body(r_fr8_38,fr10_c2).
body(r_fr8_38,fr8_c3).
body(r_fr8_38,fr8_d2).
body(r_fr8_38,fr8_f2).
head(r_fr8_39,fr4_r1).
body(r_fr8_39,fr8_q1).
body(r_fr8_39,fr1_c1).
body(r_fr8_39,fr7_v3).
body(r_fr8_39,fr8_x1).
head(r_fr8_40,fr4_r1).
body(r_fr8_40,fr4_a3).
body(r_fr8_40,fr8_b3).
body(r_fr8_40,fr8_d1).
body(r_fr8_40,fr8_d2).
body(r_fr8_40,fr8_e2).
body(r_fr8_40,fr8_f1).
head(r_fr8_41,fr4_r1).
body(r_fr8_41,fr8_b3).
body(r_fr8_41,fr8_c1).
body(r_fr8_41,fr8_d1).
body(r_fr8_41,fr8_e2).
body(r_fr8_41,fr8_f2).
head(r_fr8_42,fr7_v3).
body(r_fr8_42,fr8_q1).
head(r_fr8_43,fr7_v3).
body(r_fr8_43,fr8_q1).
body(r_fr8_43,fr8_r2).
body(r_fr8_43,fr1_c1).
body(r_fr8_43,fr8_x1).
head(r_fr8_44,fr7_v3).
body(r_fr8_44,fr8_q1).
body(r_fr8_44,fr8_r2).
head(r_fr8_45,fr7_v3).
body(r_fr8_45,fr1_f2).
body(r_fr8_45,fr8_b3).
body(r_fr8_45,fr8_c3).
body(r_fr8_45,fr8_e1).
head(r_fr8_46,fr7_v3).
body(r_fr8_46,fr4_v2).
body(r_fr8_46,fr1_f2).
body(r_fr8_46,fr8_b3).
body(r_fr8_46,fr8_f1).
head(r_fr8_47,fr8_q1).
body(r_fr8_47,fr8_r2).
head(r_fr8_48,fr8_q1).
body(r_fr8_48,fr8_c3).
body(r_fr8_48,fr8_d1).
body(r_fr8_48,fr8_f2).
body(r_fr8_48,fr8_x1).
head(r_fr8_49,fr8_r2).
body(r_fr8_49,fr10_c2).
body(r_fr8_49,fr8_d2).
body(r_fr8_49,fr8_e2).
body(r_fr8_49,fr8_x1).
head(r_fr8_50,fr8_r2).
body(r_fr8_50,fr8_b3).
body(r_fr8_50,fr8_d2).
body(r_fr8_50,fr8_x1).
head(r_fr8_51,fr8_r2).
body(r_fr8_51,fr8_c1).
head(r_fr8_52,fr8_r2).
head(r_fr8_53,fr1_c1).
body(r_fr8_53,fr8_e1).
head(r_fr8_54,fr1_c1).
body(r_fr8_54,fr8_b3).
body(r_fr8_54,fr8_d1).
body(r_fr8_54,fr8_x1).
head(r_fr8_55,fr1_c1).
body(r_fr8_55,fr4_v2).
body(r_fr8_55,fr8_b2).
body(r_fr8_55,fr8_x1).
head(r_fr8_56,fr1_c1).
body(r_fr8_56,fr8_b3).
body(r_fr8_56,fr8_c3).
body(r_fr8_56,fr8_d1).
body(r_fr8_56,fr8_e1).
body(r_fr8_56,fr8_e2).
body(r_fr8_56,fr8_x1).
head(r_fr8_57,fr1_c1).
head(r_fr8_58,fr8_x1).
body(r_fr8_58,fr10_c2).
body(r_fr8_58,fr8_e1).
body(r_fr8_58,fr8_f1).
head(r_fr8_59,fr8_x1).
body(r_fr8_59,fr4_v2).
body(r_fr8_59,fr8_b2).
body(r_fr8_59,fr8_b3).
body(r_fr8_59,fr8_d2).
head(r_fr8_60,fr8_x1).

assumption(fr9_a1).
assumption(fr6_q3).
assumption(fr7_x1).
assumption(fr9_d1).
assumption(fr9_e1).
assumption(fr4_b3).
assumption(fr4_a3).
assumption(fr9_b2).
assumption(fr9_c2).
assumption(fr9_d2).
assumption(fr9_e2).
assumption(fr9_f2).
assumption(fr4_r3).
assumption(fr9_b3).
assumption(fr9_c3).
contrary(fr9_a1,fr9_s2).
contrary(fr4_a3,fr9_u2).
contrary(fr4_r3,fr9_y2).
contrary(fr6_q3,fr9_x1).
contrary(fr9_b2,fr9_v2).
contrary(fr9_b3,fr4_a3).
contrary(fr7_x1,fr9_f2).
contrary(fr9_c2,fr9_b3).
contrary(fr9_c3,fr9_e1).
contrary(fr9_d1,fr9_q2).
contrary(fr9_d2,fr4_r3).
contrary(fr9_e1,fr8_r2).
contrary(fr9_e2,fr4_b3).
contrary(fr4_b3,fr9_q2).
contrary(fr9_f2,fr9_t1).
head(r_fr9_0,fr9_p1).
body(r_fr9_0,fr9_b2).
body(r_fr9_0,fr9_d2).
body(r_fr9_0,fr4_b3).
body(r_fr9_0,fr9_t1).
head(r_fr9_1,fr9_p1).
body(r_fr9_1,fr9_q2).
body(r_fr9_1,fr9_t2).
body(r_fr9_1,fr9_v2).
body(r_fr9_1,fr3_w2).
head(r_fr9_2,fr9_p1).
body(r_fr9_2,fr9_b2).
body(r_fr9_2,fr9_d1).
head(r_fr9_3,fr9_p1).
body(r_fr9_3,fr7_x1).
body(r_fr9_3,fr9_e2).
body(r_fr9_3,fr9_r1).
body(r_fr9_3,fr9_x2).
head(r_fr9_4,fr9_p1).
body(r_fr9_4,fr9_d2).
body(r_fr9_4,fr9_q2).
body(r_fr9_4,fr9_u1).
body(r_fr9_4,fr9_v2).
body(r_fr9_4,fr9_y1).
head(r_fr9_5,fr9_u2).
body(r_fr9_5,fr9_e2).
body(r_fr9_5,fr9_p2).
body(r_fr9_5,fr6_c2).
body(r_fr9_5,fr9_r1).
body(r_fr9_5,fr9_s2).
body(r_fr9_5,fr9_w1).
head(r_fr9_6,fr9_u2).
body(r_fr9_6,fr4_r3).
body(r_fr9_6,fr9_c3).
head(r_fr9_7,fr9_u2).
body(r_fr9_7,fr9_b3).
body(r_fr9_7,fr7_x1).
body(r_fr9_7,fr9_d2).
body(r_fr9_7,fr9_e2).
body(r_fr9_7,fr4_b3).
head(r_fr9_8,fr9_p2).
body(r_fr9_8,fr4_r3).
body(r_fr9_8,fr9_e1).
body(r_fr9_8,fr9_q3).
body(r_fr9_8,fr9_x2).
body(r_fr9_8,fr9_y1).
head(r_fr9_9,fr9_p2).
body(r_fr9_9,fr6_c2).
body(r_fr9_9,fr9_q3).
body(r_fr9_9,fr2_r1).
body(r_fr9_9,fr9_t1).
head(r_fr9_10,fr9_p2).
body(r_fr9_10,fr9_a1).
body(r_fr9_10,fr6_q3).
body(r_fr9_10,fr9_b2).
head(r_fr9_11,fr9_p2).
body(r_fr9_11,fr4_r3).
body(r_fr9_11,fr9_y1).
head(r_fr9_12,fr2_r1).
body(r_fr9_12,fr9_v2).
body(r_fr9_12,fr9_z2).
head(r_fr9_13,fr2_r1).
body(r_fr9_13,fr7_x1).
body(r_fr9_13,fr9_t2).
body(r_fr9_13,fr9_y1).
body(r_fr9_13,fr9_y2).
body(r_fr9_13,fr9_z1).
head(r_fr9_14,fr6_c2).
body(r_fr9_14,fr9_d2).
body(r_fr9_14,fr9_v2).
body(r_fr9_14,fr9_y2).
body(r_fr9_14,fr9_z1).
head(r_fr9_15,fr6_c2).
body(r_fr9_15,fr9_a1).
body(r_fr9_15,fr9_x2).
body(r_fr9_15,fr9_y2).
head(r_fr9_16,fr6_c2).
body(r_fr9_16,fr9_q3).
body(r_fr9_16,fr9_u1).
head(r_fr9_17,fr9_x2).
body(r_fr9_17,fr9_a1).
body(r_fr9_17,fr4_r3).
body(r_fr9_17,fr7_x1).
body(r_fr9_17,fr9_c2).
body(r_fr9_17,fr9_c3).
body(r_fr9_17,fr9_f2).
head(r_fr9_18,fr9_x2).
body(r_fr9_18,fr9_a1).
body(r_fr9_18,fr7_x1).
body(r_fr9_18,fr9_c2).
body(r_fr9_18,fr4_b3).
body(r_fr9_18,fr9_q1).
body(r_fr9_18,fr3_w2).
head(r_fr9_19,fr9_x2).
body(r_fr9_19,fr6_q3).
body(r_fr9_19,fr9_b2).
body(r_fr9_19,fr9_b3).
body(r_fr9_19,fr9_q2).
body(r_fr9_19,fr9_w1).
head(r_fr9_20,fr9_x2).
body(r_fr9_20,fr9_b2).
head(r_fr9_21,fr9_x2).
body(r_fr9_21,fr9_c3).
head(r_fr9_22,fr9_x1).
body(r_fr9_22,fr7_x1).
body(r_fr9_22,fr9_d2).
head(r_fr9_23,fr9_x1).
body(r_fr9_23,fr9_a1).
body(r_fr9_23,fr9_c2).
body(r_fr9_23,fr9_e2).
body(r_fr9_23,fr9_r2).
body(r_fr9_23,fr9_v2).
body(r_fr9_23,fr9_z1).
head(r_fr9_24,fr9_x1).
body(r_fr9_24,fr9_u1).
head(r_fr9_25,fr9_r1).
body(r_fr9_25,fr9_a1).
body(r_fr9_25,fr9_e2).
body(r_fr9_25,fr9_q2).
body(r_fr9_25,fr9_t1).
head(r_fr9_26,fr9_r1).
body(r_fr9_26,fr9_c3).
body(r_fr9_26,fr9_e2).
body(r_fr9_26,fr9_v1).
body(r_fr9_26,fr3_w2).
body(r_fr9_26,fr9_y2).
body(r_fr9_26,fr9_z2).
head(r_fr9_27,fr9_r1).
body(r_fr9_27,fr9_d2).
head(r_fr9_28,fr9_q3).
body(r_fr9_28,fr9_a1).
body(r_fr9_28,fr9_c3).
body(r_fr9_28,fr9_d1).
head(r_fr9_29,fr9_q3).
head(r_fr9_30,fr9_y2).
body(r_fr9_30,fr4_a3).
body(r_fr9_30,fr4_b3).
body(r_fr9_30,fr9_t2).
body(r_fr9_30,fr9_w1).
head(r_fr9_31,fr9_y2).
body(r_fr9_31,fr6_q3).
head(r_fr9_32,fr9_y2).
body(r_fr9_32,fr7_x1).
head(r_fr9_33,fr9_u1).
body(r_fr9_33,fr6_q3).
body(r_fr9_33,fr9_b2).
body(r_fr9_33,fr7_x1).
body(r_fr9_33,fr9_e1).
body(r_fr9_33,fr4_b3).
head(r_fr9_34,fr9_u1).
body(r_fr9_34,fr7_x1).
body(r_fr9_34,fr9_c2).
body(r_fr9_34,fr9_c3).
body(r_fr9_34,fr9_d2).
body(r_fr9_34,fr9_t1).
head(r_fr9_35,fr9_u1).
head(r_fr9_36,fr9_t2).
body(r_fr9_36,fr9_q2).
body(r_fr9_36,fr8_r2).
head(r_fr9_37,fr9_t2).
body(r_fr9_37,fr9_a1).
body(r_fr9_37,fr9_b3).
body(r_fr9_37,fr9_e2).
body(r_fr9_37,fr9_t1).
body(r_fr9_37,fr9_v1).
head(r_fr9_38,fr9_t2).
body(r_fr9_38,fr9_b3).
body(r_fr9_38,fr7_x1).
body(r_fr9_38,fr9_e1).
body(r_fr9_38,fr4_b3).
head(r_fr9_39,fr9_t2).
body(r_fr9_39,fr9_r2).
body(r_fr9_39,fr9_s2).
body(r_fr9_39,fr3_w2).
body(r_fr9_39,fr9_z1).
head(r_fr9_40,fr9_t2).
body(r_fr9_40,fr9_d2).
body(r_fr9_40,fr4_b3).
head(r_fr9_41,fr9_q1).
body(r_fr9_41,fr9_e1).
body(r_fr9_41,fr3_w2).
body(r_fr9_41,fr9_z1).
head(r_fr9_42,fr9_q1).
body(r_fr9_42,fr9_f2).
body(r_fr9_42,fr9_s2).
body(r_fr9_42,fr9_v2).
body(r_fr9_42,fr9_w1).
body(r_fr9_42,fr9_z2).
head(r_fr9_43,fr9_q1).
body(r_fr9_43,fr4_a3).
body(r_fr9_43,fr9_e1).
body(r_fr9_43,fr9_w1).
body(r_fr9_43,fr3_w2).
body(r_fr9_43,fr9_y1).
head(r_fr9_44,fr9_q1).
body(r_fr9_44,fr9_d1).
body(r_fr9_44,fr9_s2).
body(r_fr9_44,fr9_t1).
body(r_fr9_44,fr9_v1).
body(r_fr9_44,fr9_v2).
head(r_fr9_45,fr9_q1).
body(r_fr9_45,fr4_r3).
body(r_fr9_45,fr9_e1).
body(r_fr9_45,fr9_q2).
body(r_fr9_45,fr9_s2).
body(r_fr9_45,fr9_v1).
body(r_fr9_45,fr9_y1).
head(r_fr9_46,fr9_s2).
body(r_fr9_46,fr7_x1).
body(r_fr9_46,fr9_c2).
body(r_fr9_46,fr9_f2).
head(r_fr9_47,fr9_s2).
body(r_fr9_47,fr9_e1).
body(r_fr9_47,fr9_v2).
body(r_fr9_47,fr9_z1).
head(r_fr9_48,fr9_s2).
head(r_fr9_49,fr9_s2).
body(r_fr9_49,fr9_a1).
body(r_fr9_49,fr4_a3).
body(r_fr9_49,fr4_r3).
body(r_fr9_49,fr9_e1).
body(r_fr9_49,fr9_e2).
body(r_fr9_49,fr9_v1).
head(r_fr9_50,fr9_v1).
body(r_fr9_50,fr4_a3).
body(r_fr9_50,fr7_x1).
body(r_fr9_50,fr9_d2).
body(r_fr9_50,fr9_f2).
head(r_fr9_51,fr9_v1).
body(r_fr9_51,fr9_d1).
body(r_fr9_51,fr9_t1).
body(r_fr9_51,fr9_y1).
body(r_fr9_51,fr9_z2).
head(r_fr9_52,fr3_w2).
body(r_fr9_52,fr9_a1).
body(r_fr9_52,fr4_r3).
head(r_fr9_53,fr3_w2).
body(r_fr9_53,fr9_b2).
body(r_fr9_53,fr7_x1).
body(r_fr9_53,fr9_c2).
body(r_fr9_53,fr4_b3).
body(r_fr9_53,fr9_f2).
head(r_fr9_54,fr9_v2).
body(r_fr9_54,fr9_q2).
head(r_fr9_55,fr9_v2).
body(r_fr9_55,fr9_a1).
body(r_fr9_55,fr9_b2).
body(r_fr9_55,fr9_b3).
body(r_fr9_55,fr7_x1).
body(r_fr9_55,fr9_c2).
body(r_fr9_55,fr8_r2).
head(r_fr9_56,fr9_v2).
body(r_fr9_56,fr9_t1).
body(r_fr9_56,fr9_z2).
head(r_fr9_57,fr9_v2).
head(r_fr9_58,fr9_q2).
body(r_fr9_58,fr9_d1).
head(r_fr9_59,fr9_q2).
body(r_fr9_59,fr9_t1).
body(r_fr9_59,fr9_w1).
head(r_fr9_60,fr9_q2).
body(r_fr9_60,fr9_a1).
body(r_fr9_60,fr6_q3).
body(r_fr9_60,fr9_b3).
body(r_fr9_60,fr9_e1).
head(r_fr9_61,fr9_q2).
head(r_fr9_62,fr9_q2).
body(r_fr9_62,fr9_z2).
head(r_fr9_63,fr9_t1).
body(r_fr9_63,fr4_r3).
head(r_fr9_64,fr9_t1).
head(r_fr9_65,fr9_t1).
body(r_fr9_65,fr9_b3).
body(r_fr9_65,fr9_d1).
body(r_fr9_65,fr8_r2).
body(r_fr9_65,fr9_w1).
body(r_fr9_65,fr9_y1).
body(r_fr9_65,fr9_z1).
head(r_fr9_66,fr9_t1).
body(r_fr9_66,fr4_r3).
body(r_fr9_66,fr6_q3).
head(r_fr9_67,fr9_t1).
body(r_fr9_67,fr9_b2).
body(r_fr9_67,fr9_r2).
body(r_fr9_67,fr8_r2).
body(r_fr9_67,fr9_w1).
body(r_fr9_67,fr9_z1).
head(r_fr9_68,fr9_z1).
body(r_fr9_68,fr9_r2).
body(r_fr9_68,fr8_r2).
body(r_fr9_68,fr9_z2).
head(r_fr9_69,fr9_z1).
body(r_fr9_69,fr7_x1).
head(r_fr9_70,fr9_z1).
body(r_fr9_70,fr9_d2).
body(r_fr9_70,fr9_r2).
head(r_fr9_71,fr9_z1).

assumption(fr10_a1).
assumption(fr10_b1).
assumption(fr10_c2).
assumption(fr10_d1).
assumption(fr9_d1).
assumption(fr10_f1).
assumption(fr8_b3).
assumption(fr4_f1).
assumption(fr10_c2).
assumption(fr10_d2).
assumption(fr8_a2).
assumption(fr10_f2).
assumption(fr8_d2).
assumption(fr10_b3).
assumption(fr10_c3).
contrary(fr10_a1,fr10_q1).
contrary(fr8_b3,fr10_d1).
contrary(fr8_d2,fr8_x1).
contrary(fr10_b1,fr10_c3).
contrary(fr4_f1,fr3_d2).
contrary(fr10_b3,fr10_r3).
contrary(fr10_c2,fr10_y2).
contrary(fr10_c2,fr4_r3).
contrary(fr10_c3,fr10_b1).
contrary(fr10_d1,fr10_s3).
contrary(fr10_d2,fr8_b3).
contrary(fr9_d1,fr4_r3).
contrary(fr8_a2,fr8_b3).
contrary(fr10_f1,fr10_c3).
contrary(fr10_f2,fr1_f2).
head(r_fr10_0,fr10_p1).
body(r_fr10_0,fr10_c2).
body(r_fr10_0,fr10_f1).
head(r_fr10_1,fr10_p1).
head(r_fr10_2,fr10_p1).
body(r_fr10_2,fr10_a1).
body(r_fr10_2,fr10_d1).
body(r_fr10_2,fr1_f2).
body(r_fr10_2,fr10_z1).
head(r_fr10_3,fr3_s2).
body(r_fr10_3,fr10_b3).
head(r_fr10_4,fr3_s2).
body(r_fr10_4,fr8_d2).
body(r_fr10_4,fr10_b1).
body(r_fr10_4,fr10_c3).
body(r_fr10_4,fr10_d2).
body(r_fr10_4,fr10_f1).
body(r_fr10_4,fr10_x1).
head(r_fr10_5,fr3_s2).
body(r_fr10_5,fr4_f1).
body(r_fr10_5,fr10_p4).
body(r_fr10_5,fr10_w3).
head(r_fr10_6,fr3_s2).
body(r_fr10_6,fr10_b3).
body(r_fr10_6,fr10_c2).
body(r_fr10_6,fr10_d2).
body(r_fr10_6,fr9_d1).
head(r_fr10_7,fr3_s2).
body(r_fr10_7,fr10_a1).
body(r_fr10_7,fr10_c2).
body(r_fr10_7,fr10_d1).
body(r_fr10_7,fr10_s3).
body(r_fr10_7,fr10_x1).
body(r_fr10_7,fr10_y2).
head(r_fr10_8,fr10_y3).
body(r_fr10_8,fr10_a1).
body(r_fr10_8,fr10_b3).
head(r_fr10_9,fr10_y3).
body(r_fr10_9,fr10_a1).
body(r_fr10_9,fr10_c3).
body(r_fr10_9,fr9_d1).
head(r_fr10_10,fr10_y3).
head(r_fr10_11,fr10_y3).
body(r_fr10_11,fr8_b3).
body(r_fr10_11,fr10_f1).
body(r_fr10_11,fr10_f2).
head(r_fr10_12,fr10_y3).
body(r_fr10_12,fr9_d1).
body(r_fr10_12,fr10_p4).
body(r_fr10_12,fr10_u2).
head(r_fr10_13,fr10_x2).
head(r_fr10_14,fr10_x2).
body(r_fr10_14,fr8_d2).
body(r_fr10_14,fr10_b1).
body(r_fr10_14,fr10_c3).
head(r_fr10_15,fr10_x2).
body(r_fr10_15,fr10_b3).
body(r_fr10_15,fr10_d1).
head(r_fr10_16,fr10_s3).
body(r_fr10_16,fr8_b3).
body(r_fr10_16,fr10_u3).
body(r_fr10_16,fr10_w3).
head(r_fr10_17,fr10_s3).
head(r_fr10_18,fr10_s3).
body(r_fr10_18,fr8_b3).
body(r_fr10_18,fr10_c2).
body(r_fr10_18,fr9_d1).
body(r_fr10_18,fr10_f2).
head(r_fr10_19,fr10_p2).
body(r_fr10_19,fr4_f1).
body(r_fr10_19,fr1_c3).
body(r_fr10_19,fr10_r3).
body(r_fr10_19,fr10_x2).
body(r_fr10_19,fr10_z1).
body(r_fr10_19,fr10_z2).
head(r_fr10_20,fr10_p2).
body(r_fr10_20,fr10_a1).
body(r_fr10_20,fr10_b1).
body(r_fr10_20,fr10_b3).
body(r_fr10_20,fr10_f1).
body(r_fr10_20,fr3_d2).
body(r_fr10_20,fr10_x2).
head(r_fr10_21,fr10_p2).
body(r_fr10_21,fr10_q2).
body(r_fr10_21,fr10_r3).
body(r_fr10_21,fr3_s2).
head(r_fr10_22,fr10_v1).
head(r_fr10_23,fr10_v1).
body(r_fr10_23,fr8_a2).
body(r_fr10_23,fr10_f2).
body(r_fr10_23,fr10_p1).
body(r_fr10_23,fr10_s1).
body(r_fr10_23,fr10_x3).
head(r_fr10_24,fr10_v1).
body(r_fr10_24,fr10_a1).
body(r_fr10_24,fr10_b1).
body(r_fr10_24,fr10_c2).
body(r_fr10_24,fr10_c3).
body(r_fr10_24,fr9_d1).
body(r_fr10_24,fr10_f1).
head(r_fr10_25,fr10_v1).
body(r_fr10_25,fr10_d2).
body(r_fr10_25,fr3_s2).
head(r_fr10_26,fr10_y1).
head(r_fr10_27,fr10_y1).
body(r_fr10_27,fr8_b3).
body(r_fr10_27,fr4_f1).
body(r_fr10_27,fr10_c2).
body(r_fr10_27,fr8_a2).
body(r_fr10_27,fr10_f2).
head(r_fr10_28,fr10_u2).
head(r_fr10_29,fr10_u2).
body(r_fr10_29,fr8_d2).
body(r_fr10_29,fr10_c2).
body(r_fr10_29,fr3_b2).
body(r_fr10_29,fr10_z3).
head(r_fr10_30,fr10_u2).
body(r_fr10_30,fr10_p2).
body(r_fr10_30,fr10_y3).
head(r_fr10_31,fr10_q1).
body(r_fr10_31,fr8_d2).
body(r_fr10_31,fr9_d1).
body(r_fr10_31,fr8_a2).
body(r_fr10_31,fr10_f1).
body(r_fr10_31,fr10_f2).
head(r_fr10_32,fr10_q1).
body(r_fr10_32,fr10_c2).
body(r_fr10_32,fr10_p3).
body(r_fr10_32,fr10_x1).
head(r_fr10_33,fr10_q1).
body(r_fr10_33,fr10_w1).
head(r_fr10_34,fr10_q1).
body(r_fr10_34,fr10_f1).
body(r_fr10_34,fr10_p4).
body(r_fr10_34,fr3_d2).
body(r_fr10_34,fr1_c3).
body(r_fr10_34,fr10_u2).
head(r_fr10_35,fr10_z2).
body(r_fr10_35,fr1_f2).
head(r_fr10_36,fr10_z2).
body(r_fr10_36,fr10_c2).
body(r_fr10_36,fr10_d2).
body(r_fr10_36,fr8_a2).
body(r_fr10_36,fr10_w1).
head(r_fr10_37,fr10_z2).
body(r_fr10_37,fr8_b3).
body(r_fr10_37,fr10_c2).
body(r_fr10_37,fr8_a2).
head(r_fr10_38,fr10_z2).
body(r_fr10_38,fr9_d1).
body(r_fr10_38,fr10_p1).
body(r_fr10_38,fr1_c3).
body(r_fr10_38,fr3_b2).
body(r_fr10_38,fr3_s2).
head(r_fr10_39,fr10_z2).
body(r_fr10_39,fr10_c2).
body(r_fr10_39,fr10_c3).
body(r_fr10_39,fr10_d1).
body(r_fr10_39,fr8_a2).
body(r_fr10_39,fr10_p2).
body(r_fr10_39,fr10_s1).
head(r_fr10_40,fr8_x1).
body(r_fr10_40,fr4_f1).
body(r_fr10_40,fr10_s1).
head(r_fr10_41,fr8_x1).
body(r_fr10_41,fr10_a1).
body(r_fr10_41,fr8_b3).
body(r_fr10_41,fr8_d2).
body(r_fr10_41,fr10_b1).
body(r_fr10_41,fr4_f1).
body(r_fr10_41,fr10_c2).
head(r_fr10_42,fr10_p3).
body(r_fr10_42,fr8_b3).
body(r_fr10_42,fr10_b3).
body(r_fr10_42,fr10_d1).
head(r_fr10_43,fr10_p3).
head(r_fr10_44,fr10_p3).
body(r_fr10_44,fr10_b3).
body(r_fr10_44,fr10_f2).
head(r_fr10_45,fr4_r3).
body(r_fr10_45,fr8_b3).
body(r_fr10_45,fr4_f1).
body(r_fr10_45,fr10_y2).
head(r_fr10_46,fr4_r3).
body(r_fr10_46,fr10_p1).
body(r_fr10_46,fr10_p3).
body(r_fr10_46,fr10_u3).
body(r_fr10_46,fr10_y1).
head(r_fr10_47,fr4_r3).
body(r_fr10_47,fr10_b1).
body(r_fr10_47,fr8_a2).
body(r_fr10_47,fr10_u3).
body(r_fr10_47,fr10_v3).
body(r_fr10_47,fr10_w3).
body(r_fr10_47,fr10_y1).
head(r_fr10_48,fr4_r3).
body(r_fr10_48,fr10_x1).
head(r_fr10_49,fr4_r3).
body(r_fr10_49,fr10_b1).
body(r_fr10_49,fr10_c2).
body(r_fr10_49,fr10_f1).
head(r_fr10_50,fr10_z1).
body(r_fr10_50,fr10_v3).
body(r_fr10_50,fr10_w3).
body(r_fr10_50,fr10_z3).
head(r_fr10_51,fr10_z1).
body(r_fr10_51,fr10_a1).
body(r_fr10_51,fr8_b3).
body(r_fr10_51,fr10_b1).
body(r_fr10_51,fr10_c2).
body(r_fr10_51,fr10_d1).
head(r_fr10_52,fr10_z3).
body(r_fr10_52,fr10_c2).
body(r_fr10_52,fr10_x3).
head(r_fr10_53,fr10_z3).
body(r_fr10_53,fr10_c2).
body(r_fr10_53,fr8_x1).
body(r_fr10_53,fr10_r3).
body(r_fr10_53,fr3_s2).
body(r_fr10_53,fr10_w1).
head(r_fr10_54,fr10_z3).
head(r_fr10_55,fr10_w2).
body(r_fr10_55,fr10_b1).
body(r_fr10_55,fr4_f1).
body(r_fr10_55,fr10_c3).
body(r_fr10_55,fr9_d1).
head(r_fr10_56,fr10_w2).
body(r_fr10_56,fr10_p3).
head(r_fr10_57,fr10_w2).
head(r_fr10_58,fr10_u3).
body(r_fr10_58,fr10_u2).
body(r_fr10_58,fr4_r3).
body(r_fr10_58,fr10_y2).
body(r_fr10_58,fr10_z3).
head(r_fr10_59,fr10_u3).
body(r_fr10_59,fr10_c2).
body(r_fr10_59,fr10_c3).
body(r_fr10_59,fr10_d1).
body(r_fr10_59,fr8_a2).
body(r_fr10_59,fr10_w1).
body(r_fr10_59,fr10_z1).
head(r_fr10_60,fr10_x3).
body(r_fr10_60,fr10_b1).
body(r_fr10_60,fr8_a2).
body(r_fr10_60,fr10_w2).
body(r_fr10_60,fr10_w3).
head(r_fr10_61,fr10_x3).
head(r_fr10_62,fr10_x3).
body(r_fr10_62,fr10_q1).
body(r_fr10_62,fr10_t3).
body(r_fr10_62,fr10_u2).
body(r_fr10_62,fr10_w2).
head(r_fr10_63,fr10_x3).
body(r_fr10_63,fr8_b3).
body(r_fr10_63,fr10_b3).
body(r_fr10_63,fr10_c2).
head(r_fr10_64,fr10_t3).
body(r_fr10_64,fr10_c3).
head(r_fr10_65,fr10_t3).
body(r_fr10_65,fr10_p3).
body(r_fr10_65,fr10_q1).
body(r_fr10_65,fr10_z2).
head(r_fr10_66,fr10_t3).
body(r_fr10_66,fr4_r3).
body(r_fr10_66,fr10_y2).
head(r_fr10_67,fr10_t3).
head(r_fr10_68,fr10_t3).
body(r_fr10_68,fr10_a1).
body(r_fr10_68,fr10_c2).

