assumption(fr10_a2).
assumption(fr10_a2).
assumption(fr1_c1).
assumption(fr10_a2).
assumption(fr10_a2).
assumption(fr10_a2).
assumption(fr10_a2).
assumption(fr10_a2).
assumption(fr10_a2).
assumption(fr10_a2).
assumption(fr10_a2).
assumption(fr10_a2).
contrary(fr10_a2,fr7_x1).
contrary(fr10_a2,fr7_x1).
contrary(fr10_a2,fr7_x1).
contrary(fr10_a2,fr10_a2).
contrary(fr1_c1,fr10_a2).
contrary(fr10_a2,fr7_x1).
contrary(fr10_a2,fr10_a2).
contrary(fr10_a2,fr7_x1).
contrary(fr10_a2,fr1_u1).
contrary(fr10_a2,fr7_x1).
contrary(fr10_a2,fr7_x1).
contrary(fr10_a2,fr7_x1).
head(r_fr1_0,fr7_x1).
body(r_fr1_0,fr10_a2).
head(r_fr1_1,fr7_x1).
body(r_fr1_1,fr10_a2).
body(r_fr1_1,fr1_c1).
body(r_fr1_1,fr10_a2).
head(r_fr1_2,fr7_x1).
body(r_fr1_2,fr1_c1).
head(r_fr1_3,fr7_x1).
body(r_fr1_3,fr1_c1).
body(r_fr1_3,fr10_a2).
body(r_fr1_3,fr7_x1).
head(r_fr1_4,fr7_x1).
body(r_fr1_4,fr10_a2).
head(r_fr1_5,fr7_x1).
body(r_fr1_5,fr10_a2).
body(r_fr1_5,fr7_x1).
body(r_fr1_5,fr7_x1).
head(r_fr1_6,fr7_x1).
body(r_fr1_6,fr10_a2).
body(r_fr1_6,fr10_a2).
head(r_fr1_7,fr7_x1).
body(r_fr1_7,fr7_x1).
head(r_fr1_8,fr7_x1).
body(r_fr1_8,fr10_a2).
body(r_fr1_8,fr1_u1).
head(r_fr1_9,fr7_x1).
body(r_fr1_9,fr10_a2).
body(r_fr1_9,fr7_x1).
body(r_fr1_9,fr1_u1).
body(r_fr1_9,fr7_x1).
body(r_fr1_9,fr7_x1).
head(r_fr1_10,fr7_x1).
body(r_fr1_10,fr10_a2).
body(r_fr1_10,fr7_x1).
body(r_fr1_10,fr7_x1).
body(r_fr1_10,fr7_x1).
body(r_fr1_10,fr7_x1).
head(r_fr1_11,fr7_x1).
body(r_fr1_11,fr10_a2).
body(r_fr1_11,fr10_a2).
head(r_fr1_12,fr7_x1).
head(r_fr1_13,fr7_x1).
body(r_fr1_13,fr7_x1).
body(r_fr1_13,fr7_x1).
body(r_fr1_13,fr7_x1).
body(r_fr1_13,fr7_x1).
body(r_fr1_13,fr7_x1).
head(r_fr1_14,fr7_x1).
body(r_fr1_14,fr10_a2).
body(r_fr1_14,fr10_a2).
body(r_fr1_14,fr10_a2).
body(r_fr1_14,fr10_a2).
head(r_fr1_15,fr7_x1).
body(r_fr1_15,fr10_a2).
body(r_fr1_15,fr10_a2).
head(r_fr1_16,fr7_x1).
body(r_fr1_16,fr7_x1).
head(r_fr1_17,fr7_x1).
body(r_fr1_17,fr10_a2).
body(r_fr1_17,fr10_a2).
body(r_fr1_17,fr10_a2).
body(r_fr1_17,fr10_a2).
body(r_fr1_17,fr7_x1).
head(r_fr1_18,fr7_x1).
body(r_fr1_18,fr9_y1).
body(r_fr1_18,fr7_x1).
body(r_fr1_18,fr7_x1).
body(r_fr1_18,fr7_x1).
head(r_fr1_19,fr7_x1).
body(r_fr1_19,fr10_a2).
body(r_fr1_19,fr1_c1).
body(r_fr1_19,fr10_a2).
body(r_fr1_19,fr1_u1).
head(r_fr1_20,fr7_x1).
body(r_fr1_20,fr1_c1).
body(r_fr1_20,fr10_a2).
body(r_fr1_20,fr10_a2).
head(r_fr1_21,fr7_x1).
body(r_fr1_21,fr10_a2).
body(r_fr1_21,fr7_x1).
body(r_fr1_21,fr7_x1).
head(r_fr1_22,fr7_x1).
body(r_fr1_22,fr10_a2).
body(r_fr1_22,fr10_a2).
body(r_fr1_22,fr10_a2).
body(r_fr1_22,fr10_a2).
body(r_fr1_22,fr10_a2).
head(r_fr1_23,fr7_x1).
body(r_fr1_23,fr10_a2).
body(r_fr1_23,fr10_a2).
body(r_fr1_23,fr7_x1).
body(r_fr1_23,fr7_x1).
body(r_fr1_23,fr7_x1).
head(r_fr1_24,fr7_x1).
body(r_fr1_24,fr1_c1).
body(r_fr1_24,fr1_u1).
body(r_fr1_24,fr7_x1).
body(r_fr1_24,fr7_x1).
head(r_fr1_25,fr7_x1).
body(r_fr1_25,fr10_a2).
body(r_fr1_25,fr7_x1).
body(r_fr1_25,fr7_x1).
body(r_fr1_25,fr1_u1).
head(r_fr1_26,fr7_x1).
body(r_fr1_26,fr10_a2).
body(r_fr1_26,fr9_y1).
head(r_fr1_27,fr7_x1).
body(r_fr1_27,fr10_a2).
body(r_fr1_27,fr7_x1).
head(r_fr1_28,fr7_x1).
body(r_fr1_28,fr10_a2).
head(r_fr1_29,fr7_x1).
body(r_fr1_29,fr7_x1).
body(r_fr1_29,fr7_x1).
head(r_fr1_30,fr7_x1).
body(r_fr1_30,fr10_a2).
body(r_fr1_30,fr10_a2).
body(r_fr1_30,fr10_a2).
body(r_fr1_30,fr7_x1).
head(r_fr1_31,fr7_x1).
head(r_fr1_32,fr7_x1).
body(r_fr1_32,fr7_x1).
head(r_fr1_33,fr7_x1).
head(r_fr1_34,fr7_x1).
body(r_fr1_34,fr10_a2).
body(r_fr1_34,fr10_a2).
head(r_fr1_35,fr7_x1).
body(r_fr1_35,fr10_a2).
body(r_fr1_35,fr10_a2).
body(r_fr1_35,fr7_x1).
head(r_fr1_36,fr7_x1).
body(r_fr1_36,fr7_x1).
head(r_fr1_37,fr7_x1).
body(r_fr1_37,fr7_x1).
body(r_fr1_37,fr7_x1).
body(r_fr1_37,fr7_x1).
body(r_fr1_37,fr7_x1).
body(r_fr1_37,fr7_x1).
head(r_fr1_38,fr7_x1).
head(r_fr1_39,fr7_x1).
body(r_fr1_39,fr10_a2).
body(r_fr1_39,fr10_a2).
body(r_fr1_39,fr7_x1).
head(r_fr1_40,fr7_x1).
body(r_fr1_40,fr10_a2).
body(r_fr1_40,fr10_a2).
body(r_fr1_40,fr1_c1).
body(r_fr1_40,fr10_a2).
body(r_fr1_40,fr7_x1).
head(r_fr1_41,fr7_x1).
body(r_fr1_41,fr10_a2).
body(r_fr1_41,fr1_c1).
body(r_fr1_41,fr10_a2).
body(r_fr1_41,fr7_x1).
body(r_fr1_41,fr7_x1).
head(r_fr1_42,fr7_x1).
body(r_fr1_42,fr10_a2).
body(r_fr1_42,fr7_x1).
head(r_fr1_43,fr9_y1).
head(r_fr1_44,fr9_y1).
body(r_fr1_44,fr7_x1).
body(r_fr1_44,fr7_x1).
body(r_fr1_44,fr7_x1).
body(r_fr1_44,fr7_x1).
body(r_fr1_44,fr7_x1).
head(r_fr1_45,fr9_y1).
body(r_fr1_45,fr10_a2).
body(r_fr1_45,fr10_a2).
body(r_fr1_45,fr7_x1).
body(r_fr1_45,fr7_x1).
head(r_fr1_46,fr7_x1).
body(r_fr1_46,fr10_a2).
body(r_fr1_46,fr1_c1).
body(r_fr1_46,fr7_x1).
body(r_fr1_46,fr7_x1).
head(r_fr1_47,fr7_x1).
body(r_fr1_47,fr7_x1).
head(r_fr1_48,fr7_x1).
body(r_fr1_48,fr10_a2).
head(r_fr1_49,fr7_x1).
body(r_fr1_49,fr10_a2).
body(r_fr1_49,fr10_a2).
body(r_fr1_49,fr10_a2).
body(r_fr1_49,fr10_a2).
head(r_fr1_50,fr7_x1).
head(r_fr1_51,fr7_x1).
body(r_fr1_51,fr10_a2).
body(r_fr1_51,fr7_x1).
body(r_fr1_51,fr7_x1).
body(r_fr1_51,fr7_x1).

assumption(fr10_a2).
assumption(fr10_a2).
assumption(fr10_a2).
assumption(fr10_a2).
assumption(fr10_a2).
assumption(fr10_a2).
assumption(fr10_a2).
assumption(fr10_a2).
assumption(fr10_a2).
assumption(fr2_d2).
assumption(fr10_a2).
assumption(fr10_a2).
assumption(fr10_a2).
assumption(fr10_a2).
assumption(fr2_c3).
contrary(fr10_a2,fr10_a2).
contrary(fr10_a2,fr10_a2).
contrary(fr10_a2,fr10_a2).
contrary(fr10_a2,fr10_a2).
contrary(fr10_a2,fr7_x1).
contrary(fr10_a2,fr7_x1).
contrary(fr10_a2,fr7_x1).
contrary(fr10_a2,fr10_a2).
contrary(fr2_c3,fr10_a2).
contrary(fr10_a2,fr2_c3).
contrary(fr2_d2,fr7_x1).
contrary(fr10_a2,fr7_x1).
contrary(fr10_a2,fr10_a2).
contrary(fr10_a2,fr7_x1).
contrary(fr10_a2,fr7_x1).
head(r_fr2_0,fr7_x1).
body(r_fr2_0,fr10_a2).
body(r_fr2_0,fr10_a2).
body(r_fr2_0,fr7_x1).
head(r_fr2_1,fr7_x1).
head(r_fr2_2,fr7_x1).
body(r_fr2_2,fr10_a2).
body(r_fr2_2,fr10_a2).
body(r_fr2_2,fr10_a2).
head(r_fr2_3,fr7_x1).
body(r_fr2_3,fr7_x1).
body(r_fr2_3,fr7_x1).
head(r_fr2_4,fr7_x1).
body(r_fr2_4,fr7_x1).
head(r_fr2_5,fr7_x1).
head(r_fr2_6,fr7_x1).
body(r_fr2_6,fr10_a2).
body(r_fr2_6,fr10_a2).
body(r_fr2_6,fr2_d2).
body(r_fr2_6,fr7_x1).
head(r_fr2_7,fr7_x1).
body(r_fr2_7,fr10_a2).
body(r_fr2_7,fr7_x1).
body(r_fr2_7,fr7_x1).
head(r_fr2_8,fr7_x1).
body(r_fr2_8,fr10_a2).
body(r_fr2_8,fr10_a2).
body(r_fr2_8,fr10_a2).
head(r_fr2_9,fr7_x1).
body(r_fr2_9,fr10_a2).
body(r_fr2_9,fr10_a2).
body(r_fr2_9,fr10_a2).
body(r_fr2_9,fr10_a2).
body(r_fr2_9,fr10_a2).
body(r_fr2_9,fr2_c3).
head(r_fr2_10,fr7_x1).
body(r_fr2_10,fr10_a2).
body(r_fr2_10,fr10_a2).
body(r_fr2_10,fr7_x1).
head(r_fr2_11,fr7_x1).
body(r_fr2_11,fr7_x1).
body(r_fr2_11,fr7_x1).
body(r_fr2_11,fr7_x1).
body(r_fr2_11,fr7_x1).
head(r_fr2_12,fr7_x1).
body(r_fr2_12,fr10_a2).
head(r_fr2_13,fr7_x1).
body(r_fr2_13,fr10_a2).
head(r_fr2_14,fr7_x1).
body(r_fr2_14,fr2_d2).
body(r_fr2_14,fr7_x1).
body(r_fr2_14,fr7_x1).
body(r_fr2_14,fr7_x1).
body(r_fr2_14,fr7_x1).
head(r_fr2_15,fr7_x1).
body(r_fr2_15,fr7_x1).
head(r_fr2_16,fr7_x1).
body(r_fr2_16,fr10_a2).
body(r_fr2_16,fr2_c3).
body(r_fr2_16,fr10_a2).
body(r_fr2_16,fr2_d2).
body(r_fr2_16,fr10_a2).
body(r_fr2_16,fr7_x1).
head(r_fr2_17,fr7_x1).
body(r_fr2_17,fr7_x1).
body(r_fr2_17,fr7_x1).
body(r_fr2_17,fr7_x1).
head(r_fr2_18,fr7_x1).
body(r_fr2_18,fr10_a2).
body(r_fr2_18,fr7_x1).
head(r_fr2_19,fr7_x1).
head(r_fr2_20,fr7_x1).
body(r_fr2_20,fr10_a2).
head(r_fr2_21,fr7_x1).
body(r_fr2_21,fr10_a2).
head(r_fr2_22,fr7_x1).
body(r_fr2_22,fr10_a2).
head(r_fr2_23,fr7_x1).
body(r_fr2_23,fr10_a2).
body(r_fr2_23,fr10_a2).
body(r_fr2_23,fr10_a2).
body(r_fr2_23,fr10_a2).
body(r_fr2_23,fr10_a2).
body(r_fr2_23,fr7_x1).
head(r_fr2_24,fr7_x1).
head(r_fr2_25,fr7_x1).
body(r_fr2_25,fr10_a2).
body(r_fr2_25,fr10_a2).
body(r_fr2_25,fr10_a2).
body(r_fr2_25,fr10_a2).
head(r_fr2_26,fr7_x1).
body(r_fr2_26,fr10_a2).
body(r_fr2_26,fr10_a2).
body(r_fr2_26,fr7_x1).
body(r_fr2_26,fr7_x1).
body(r_fr2_26,fr7_x1).
body(r_fr2_26,fr7_x1).
head(r_fr2_27,fr7_x1).
body(r_fr2_27,fr10_a2).
body(r_fr2_27,fr10_a2).
head(r_fr2_28,fr7_x1).
body(r_fr2_28,fr10_a2).
body(r_fr2_28,fr7_x1).
body(r_fr2_28,fr7_x1).
head(r_fr2_29,fr7_x1).
body(r_fr2_29,fr10_a2).
body(r_fr2_29,fr7_x1).
body(r_fr2_29,fr7_x1).
body(r_fr2_29,fr7_x1).
head(r_fr2_30,fr7_x1).
head(r_fr2_31,fr7_x1).
body(r_fr2_31,fr7_x1).
head(r_fr2_32,fr7_x1).
body(r_fr2_32,fr10_a2).
body(r_fr2_32,fr10_a2).
body(r_fr2_32,fr7_x1).
head(r_fr2_33,fr7_x1).
head(r_fr2_34,fr7_x1).
body(r_fr2_34,fr7_x1).
body(r_fr2_34,fr7_x1).
head(r_fr2_35,fr7_x1).
body(r_fr2_35,fr2_d2).
body(r_fr2_35,fr7_x1).
body(r_fr2_35,fr7_x1).
body(r_fr2_35,fr7_x1).
body(r_fr2_35,fr7_x1).
body(r_fr2_35,fr7_x1).
head(r_fr2_36,fr7_x1).
body(r_fr2_36,fr10_a2).
body(r_fr2_36,fr10_a2).
body(r_fr2_36,fr10_a2).
body(r_fr2_36,fr10_a2).
head(r_fr2_37,fr7_x1).
body(r_fr2_37,fr7_x1).
body(r_fr2_37,fr7_x1).
body(r_fr2_37,fr7_x1).
body(r_fr2_37,fr7_x1).
body(r_fr2_37,fr7_x1).
head(r_fr2_38,fr7_x1).
body(r_fr2_38,fr10_a2).
body(r_fr2_38,fr2_c3).
body(r_fr2_38,fr7_x1).
body(r_fr2_38,fr7_x1).
head(r_fr2_39,fr7_x1).
body(r_fr2_39,fr7_x1).
body(r_fr2_39,fr7_x1).
body(r_fr2_39,fr7_x1).
head(r_fr2_40,fr7_x1).
body(r_fr2_40,fr10_a2).
body(r_fr2_40,fr10_a2).
body(r_fr2_40,fr10_a2).
body(r_fr2_40,fr10_a2).
body(r_fr2_40,fr7_x1).
head(r_fr2_41,fr7_x1).
body(r_fr2_41,fr7_x1).
head(r_fr2_42,fr7_x1).
body(r_fr2_42,fr2_c3).
body(r_fr2_42,fr10_a2).
body(r_fr2_42,fr7_x1).
head(r_fr2_43,fr7_x1).
body(r_fr2_43,fr7_x1).
body(r_fr2_43,fr7_x1).
body(r_fr2_43,fr7_x1).
body(r_fr2_43,fr7_x1).
head(r_fr2_44,fr7_x1).
body(r_fr2_44,fr10_a2).
head(r_fr2_45,fr7_x1).
body(r_fr2_45,fr10_a2).
body(r_fr2_45,fr2_d2).
body(r_fr2_45,fr10_a2).
body(r_fr2_45,fr7_x1).
body(r_fr2_45,fr7_x1).
head(r_fr2_46,fr7_x1).
body(r_fr2_46,fr10_a2).
body(r_fr2_46,fr10_a2).
body(r_fr2_46,fr10_a2).
body(r_fr2_46,fr10_a2).
body(r_fr2_46,fr10_a2).
body(r_fr2_46,fr7_x1).
head(r_fr2_47,fr7_x1).
body(r_fr2_47,fr10_a2).
head(r_fr2_48,fr7_x1).
body(r_fr2_48,fr10_a2).
head(r_fr2_49,fr7_x1).
body(r_fr2_49,fr7_x1).
head(r_fr2_50,fr7_x1).
body(r_fr2_50,fr10_a2).
body(r_fr2_50,fr10_a2).
body(r_fr2_50,fr7_x1).
body(r_fr2_50,fr7_x1).
head(r_fr2_51,fr7_x1).
body(r_fr2_51,fr7_x1).
body(r_fr2_51,fr7_x1).

assumption(fr10_a2).
assumption(fr10_a2).
assumption(fr10_a2).
assumption(fr10_a2).
assumption(fr10_a2).
assumption(fr10_a2).
assumption(fr3_a2).
assumption(fr10_a2).
assumption(fr10_a2).
assumption(fr10_a2).
assumption(fr10_a2).
assumption(fr10_a2).
assumption(fr3_a3).
assumption(fr10_a2).
assumption(fr10_a2).
contrary(fr10_a2,fr7_x1).
contrary(fr3_a2,fr10_a2).
contrary(fr3_a3,fr7_x1).
contrary(fr10_a2,fr7_x1).
contrary(fr10_a2,fr10_a2).
contrary(fr10_a2,fr10_a2).
contrary(fr10_a2,fr7_x1).
contrary(fr10_a2,fr7_x1).
contrary(fr10_a2,fr7_x1).
contrary(fr10_a2,fr7_x1).
contrary(fr10_a2,fr7_x1).
contrary(fr10_a2,fr7_x1).
contrary(fr10_a2,fr3_r1).
contrary(fr10_a2,fr7_x1).
contrary(fr10_a2,fr10_a2).
head(r_fr3_0,fr7_x1).
body(r_fr3_0,fr3_a3).
body(r_fr3_0,fr10_a2).
body(r_fr3_0,fr10_a2).
head(r_fr3_1,fr7_x1).
body(r_fr3_1,fr10_a2).
body(r_fr3_1,fr7_x1).
body(r_fr3_1,fr7_x1).
head(r_fr3_2,fr7_x1).
body(r_fr3_2,fr7_x1).
head(r_fr3_3,fr7_x1).
body(r_fr3_3,fr7_x1).
body(r_fr3_3,fr7_x1).
head(r_fr3_4,fr7_x1).
body(r_fr3_4,fr7_x1).
body(r_fr3_4,fr7_x1).
body(r_fr3_4,fr7_x1).
head(r_fr3_5,fr7_x1).
body(r_fr3_5,fr10_a2).
body(r_fr3_5,fr10_a2).
body(r_fr3_5,fr10_a2).
head(r_fr3_6,fr7_x1).
body(r_fr3_6,fr3_a3).
body(r_fr3_6,fr10_a2).
body(r_fr3_6,fr10_a2).
body(r_fr3_6,fr10_a2).
body(r_fr3_6,fr10_a2).
body(r_fr3_6,fr7_x1).
head(r_fr3_7,fr7_x1).
body(r_fr3_7,fr3_a3).
body(r_fr3_7,fr10_a2).
head(r_fr3_8,fr7_x1).
body(r_fr3_8,fr10_a2).
body(r_fr3_8,fr7_x1).
head(r_fr3_9,fr7_x1).
body(r_fr3_9,fr10_a2).
body(r_fr3_9,fr10_a2).
body(r_fr3_9,fr10_a2).
body(r_fr3_9,fr10_a2).
body(r_fr3_9,fr10_a2).
body(r_fr3_9,fr10_a2).
head(r_fr3_10,fr7_x1).
body(r_fr3_10,fr7_x1).
body(r_fr3_10,fr7_x1).
head(r_fr3_11,fr7_x1).
head(r_fr3_12,fr7_x1).
body(r_fr3_12,fr3_a2).
body(r_fr3_12,fr10_a2).
head(r_fr3_13,fr7_x1).
body(r_fr3_13,fr3_a3).
body(r_fr3_13,fr10_a2).
body(r_fr3_13,fr10_a2).
body(r_fr3_13,fr10_a2).
body(r_fr3_13,fr7_x1).
head(r_fr3_14,fr7_x1).
body(r_fr3_14,fr10_a2).
body(r_fr3_14,fr10_a2).
body(r_fr3_14,fr7_x1).
head(r_fr3_15,fr7_x1).
body(r_fr3_15,fr10_a2).
body(r_fr3_15,fr10_a2).
body(r_fr3_15,fr10_a2).
body(r_fr3_15,fr10_a2).
body(r_fr3_15,fr7_x1).
head(r_fr3_16,fr7_x1).
body(r_fr3_16,fr10_a2).
body(r_fr3_16,fr7_x1).
body(r_fr3_16,fr7_x1).
head(r_fr3_17,fr7_x1).
body(r_fr3_17,fr7_x1).
body(r_fr3_17,fr7_x1).
body(r_fr3_17,fr7_x1).
body(r_fr3_17,fr7_x1).
head(r_fr3_18,fr7_x1).
body(r_fr3_18,fr10_a2).
head(r_fr3_19,fr7_x1).
body(r_fr3_19,fr10_a2).
body(r_fr3_19,fr10_a2).
head(r_fr3_20,fr7_x1).
body(r_fr3_20,fr3_r1).
head(r_fr3_21,fr7_x1).
body(r_fr3_21,fr3_a3).
body(r_fr3_21,fr10_a2).
body(r_fr3_21,fr7_x1).
head(r_fr3_22,fr7_x1).
body(r_fr3_22,fr3_r1).
body(r_fr3_22,fr7_x1).
body(r_fr3_22,fr7_x1).
head(r_fr3_23,fr7_x1).
head(r_fr3_24,fr7_x1).
body(r_fr3_24,fr7_x1).
head(r_fr3_25,fr7_x1).
body(r_fr3_25,fr7_x1).
body(r_fr3_25,fr7_x1).
head(r_fr3_26,fr7_x1).
body(r_fr3_26,fr10_a2).
head(r_fr3_27,fr7_x1).
body(r_fr3_27,fr3_a2).
body(r_fr3_27,fr10_a2).
body(r_fr3_27,fr10_a2).
body(r_fr3_27,fr10_a2).
body(r_fr3_27,fr10_a2).
head(r_fr3_28,fr7_x1).
body(r_fr3_28,fr10_a2).
head(r_fr3_29,fr7_x1).
body(r_fr3_29,fr7_x1).
body(r_fr3_29,fr7_x1).
head(r_fr3_30,fr7_x1).
body(r_fr3_30,fr7_x1).
head(r_fr3_31,fr7_x1).
body(r_fr3_31,fr10_a2).
body(r_fr3_31,fr3_a2).
body(r_fr3_31,fr10_a2).
body(r_fr3_31,fr7_x1).
head(r_fr3_32,fr7_x1).
body(r_fr3_32,fr10_a2).
body(r_fr3_32,fr3_a2).
body(r_fr3_32,fr10_a2).
body(r_fr3_32,fr10_a2).
head(r_fr3_33,fr7_x1).
body(r_fr3_33,fr3_a2).
body(r_fr3_33,fr3_a3).
body(r_fr3_33,fr10_a2).
body(r_fr3_33,fr10_a2).
body(r_fr3_33,fr7_x1).
head(r_fr3_34,fr7_x1).
body(r_fr3_34,fr10_a2).
body(r_fr3_34,fr7_x1).
head(r_fr3_35,fr7_x1).
body(r_fr3_35,fr7_x1).
body(r_fr3_35,fr7_x1).
body(r_fr3_35,fr7_x1).
body(r_fr3_35,fr7_x1).
head(r_fr3_36,fr7_x1).
body(r_fr3_36,fr10_a2).
body(r_fr3_36,fr7_x1).
body(r_fr3_36,fr7_x1).
body(r_fr3_36,fr7_x1).
head(r_fr3_37,fr7_x1).
body(r_fr3_37,fr10_a2).
body(r_fr3_37,fr7_x1).
body(r_fr3_37,fr7_x1).
body(r_fr3_37,fr7_x1).
body(r_fr3_37,fr7_x1).
head(r_fr3_38,fr7_x1).
body(r_fr3_38,fr3_r1).
body(r_fr3_38,fr7_x1).
body(r_fr3_38,fr7_x1).
head(r_fr3_39,fr7_x1).
body(r_fr3_39,fr3_a2).
body(r_fr3_39,fr7_x1).
body(r_fr3_39,fr7_x1).
body(r_fr3_39,fr7_x1).
head(r_fr3_40,fr7_x1).
body(r_fr3_40,fr10_a2).
body(r_fr3_40,fr7_x1).
body(r_fr3_40,fr7_x1).
head(r_fr3_41,fr7_x1).
body(r_fr3_41,fr3_a2).
body(r_fr3_41,fr10_a2).
body(r_fr3_41,fr10_a2).
head(r_fr3_42,fr7_x1).
body(r_fr3_42,fr10_a2).
body(r_fr3_42,fr7_x1).
body(r_fr3_42,fr7_x1).
body(r_fr3_42,fr7_x1).
head(r_fr3_43,fr7_x1).
body(r_fr3_43,fr7_x1).
body(r_fr3_43,fr7_x1).
body(r_fr3_43,fr7_x1).
head(r_fr3_44,fr7_x1).
body(r_fr3_44,fr7_x1).
body(r_fr3_44,fr7_x1).
head(r_fr3_45,fr7_x1).
body(r_fr3_45,fr7_x1).
body(r_fr3_45,fr7_x1).
body(r_fr3_45,fr7_x1).
head(r_fr3_46,fr7_x1).
body(r_fr3_46,fr10_a2).
body(r_fr3_46,fr10_a2).
body(r_fr3_46,fr10_a2).
body(r_fr3_46,fr10_a2).
head(r_fr3_47,fr7_x1).
body(r_fr3_47,fr7_x1).
head(r_fr3_48,fr7_x1).
body(r_fr3_48,fr3_a2).
head(r_fr3_49,fr7_x1).
head(r_fr3_50,fr7_x1).
body(r_fr3_50,fr3_a3).
body(r_fr3_50,fr10_a2).
body(r_fr3_50,fr10_a2).
head(r_fr3_51,fr7_x1).
body(r_fr3_51,fr10_a2).
body(r_fr3_51,fr10_a2).
body(r_fr3_51,fr10_a2).
body(r_fr3_51,fr10_a2).
body(r_fr3_51,fr7_x1).
body(r_fr3_51,fr7_x1).
head(r_fr3_52,fr7_x1).
body(r_fr3_52,fr7_x1).
head(r_fr3_53,fr7_x1).
body(r_fr3_53,fr7_x1).
body(r_fr3_53,fr7_x1).
head(r_fr3_54,fr7_x1).
body(r_fr3_54,fr10_a2).
body(r_fr3_54,fr10_a2).
body(r_fr3_54,fr10_a2).
body(r_fr3_54,fr10_a2).
head(r_fr3_55,fr7_x1).
body(r_fr3_55,fr7_x1).
body(r_fr3_55,fr7_x1).
head(r_fr3_56,fr7_x1).
body(r_fr3_56,fr10_a2).
head(r_fr3_57,fr7_x1).
body(r_fr3_57,fr10_a2).
body(r_fr3_57,fr7_x1).
body(r_fr3_57,fr7_x1).
body(r_fr3_57,fr7_x1).
head(r_fr3_58,fr7_x1).
body(r_fr3_58,fr7_x1).
head(r_fr3_59,fr7_x1).
body(r_fr3_59,fr10_a2).
body(r_fr3_59,fr10_a2).
body(r_fr3_59,fr10_a2).
body(r_fr3_59,fr10_a2).
body(r_fr3_59,fr10_a2).
head(r_fr3_60,fr7_x1).
body(r_fr3_60,fr10_a2).
body(r_fr3_60,fr7_x1).
body(r_fr3_60,fr7_x1).
body(r_fr3_60,fr7_x1).
body(r_fr3_60,fr7_x1).
head(r_fr3_61,fr7_x1).
head(r_fr3_62,fr7_x1).
body(r_fr3_62,fr10_a2).
body(r_fr3_62,fr10_a2).
body(r_fr3_62,fr10_a2).
body(r_fr3_62,fr7_x1).
head(r_fr3_63,fr7_x1).
body(r_fr3_63,fr10_a2).
head(r_fr3_64,fr7_x1).
body(r_fr3_64,fr7_x1).
body(r_fr3_64,fr7_x1).
body(r_fr3_64,fr3_r1).
body(r_fr3_64,fr7_x1).
body(r_fr3_64,fr7_x1).
body(r_fr3_64,fr7_x1).
head(r_fr3_65,fr7_x1).
body(r_fr3_65,fr10_a2).
body(r_fr3_65,fr10_a2).
head(r_fr3_66,fr7_x1).
body(r_fr3_66,fr10_a2).
body(r_fr3_66,fr7_x1).
body(r_fr3_66,fr7_x1).
head(r_fr3_67,fr7_x1).
body(r_fr3_67,fr3_a3).
body(r_fr3_67,fr10_a2).
body(r_fr3_67,fr10_a2).
body(r_fr3_67,fr10_a2).
body(r_fr3_67,fr7_x1).
body(r_fr3_67,fr7_x1).
head(r_fr3_68,fr7_x1).
body(r_fr3_68,fr10_a2).
body(r_fr3_68,fr7_x1).
body(r_fr3_68,fr7_x1).
head(r_fr3_69,fr7_x1).
body(r_fr3_69,fr10_a2).
body(r_fr3_69,fr10_a2).
body(r_fr3_69,fr10_a2).
head(r_fr3_70,fr7_x1).
body(r_fr3_70,fr10_a2).
body(r_fr3_70,fr3_a3).
body(r_fr3_70,fr3_r1).
body(r_fr3_70,fr7_x1).
head(r_fr3_71,fr7_x1).
body(r_fr3_71,fr10_a2).
body(r_fr3_71,fr10_a2).
body(r_fr3_71,fr7_x1).
head(r_fr3_72,fr7_x1).
body(r_fr3_72,fr3_a2).
body(r_fr3_72,fr7_x1).
head(r_fr3_73,fr7_x1).
body(r_fr3_73,fr10_a2).
body(r_fr3_73,fr10_a2).
body(r_fr3_73,fr10_a2).
body(r_fr3_73,fr7_x1).
body(r_fr3_73,fr7_x1).
head(r_fr3_74,fr7_x1).
body(r_fr3_74,fr7_x1).
body(r_fr3_74,fr7_x1).
body(r_fr3_74,fr7_x1).
body(r_fr3_74,fr7_x1).
body(r_fr3_74,fr7_x1).
head(r_fr3_75,fr7_x1).
body(r_fr3_75,fr3_a3).
body(r_fr3_75,fr7_x1).
body(r_fr3_75,fr7_x1).
body(r_fr3_75,fr7_x1).
body(r_fr3_75,fr7_x1).
body(r_fr3_75,fr7_x1).
head(r_fr3_76,fr7_x1).
body(r_fr3_76,fr10_a2).
body(r_fr3_76,fr10_a2).
body(r_fr3_76,fr10_a2).
body(r_fr3_76,fr7_x1).
body(r_fr3_76,fr7_x1).
head(r_fr3_77,fr7_x1).
body(r_fr3_77,fr10_a2).
head(r_fr3_78,fr7_x1).
body(r_fr3_78,fr3_a3).
body(r_fr3_78,fr10_a2).
body(r_fr3_78,fr10_a2).
body(r_fr3_78,fr10_a2).
head(r_fr3_79,fr7_x1).
body(r_fr3_79,fr10_a2).
body(r_fr3_79,fr10_a2).
body(r_fr3_79,fr10_a2).
head(r_fr3_80,fr7_x1).
body(r_fr3_80,fr7_x1).
head(r_fr3_81,fr7_x1).
body(r_fr3_81,fr7_x1).
body(r_fr3_81,fr7_x1).
body(r_fr3_81,fr7_x1).
head(r_fr3_82,fr7_x1).
body(r_fr3_82,fr7_x1).
head(r_fr3_83,fr7_x1).
body(r_fr3_83,fr3_a3).
body(r_fr3_83,fr10_a2).
body(r_fr3_83,fr7_x1).
head(r_fr3_84,fr7_x1).
head(r_fr3_85,fr7_x1).
body(r_fr3_85,fr10_a2).
body(r_fr3_85,fr10_a2).
body(r_fr3_85,fr10_a2).
body(r_fr3_85,fr10_a2).
body(r_fr3_85,fr10_a2).
body(r_fr3_85,fr10_a2).
head(r_fr3_86,fr7_x1).
body(r_fr3_86,fr10_a2).
body(r_fr3_86,fr7_x1).
head(r_fr3_87,fr7_x1).
body(r_fr3_87,fr7_x1).
body(r_fr3_87,fr7_x1).
body(r_fr3_87,fr7_x1).
body(r_fr3_87,fr7_x1).
body(r_fr3_87,fr7_x1).
body(r_fr3_87,fr7_x1).
head(r_fr3_88,fr7_x1).
body(r_fr3_88,fr10_a2).
body(r_fr3_88,fr10_a2).
body(r_fr3_88,fr7_x1).
body(r_fr3_88,fr7_x1).
head(r_fr3_89,fr7_x1).
body(r_fr3_89,fr10_a2).
body(r_fr3_89,fr3_r1).
body(r_fr3_89,fr7_x1).
body(r_fr3_89,fr7_x1).
head(r_fr3_90,fr7_x1).
body(r_fr3_90,fr10_a2).
body(r_fr3_90,fr3_a2).
body(r_fr3_90,fr10_a2).
body(r_fr3_90,fr10_a2).
body(r_fr3_90,fr10_a2).
body(r_fr3_90,fr7_x1).
head(r_fr3_91,fr7_x1).
body(r_fr3_91,fr10_a2).
body(r_fr3_91,fr7_x1).
body(r_fr3_91,fr7_x1).
head(r_fr3_92,fr7_x1).
body(r_fr3_92,fr10_a2).
body(r_fr3_92,fr7_x1).
head(r_fr3_93,fr7_x1).
body(r_fr3_93,fr10_a2).
body(r_fr3_93,fr10_a2).
body(r_fr3_93,fr3_r1).
head(r_fr3_94,fr7_x1).
body(r_fr3_94,fr7_x1).
body(r_fr3_94,fr7_x1).
body(r_fr3_94,fr7_x1).
body(r_fr3_94,fr7_x1).
head(r_fr3_95,fr7_x1).
head(r_fr3_96,fr7_x1).
body(r_fr3_96,fr10_a2).
head(r_fr3_97,fr7_x1).
body(r_fr3_97,fr10_a2).
head(r_fr3_98,fr7_x1).
body(r_fr3_98,fr3_a2).
body(r_fr3_98,fr7_x1).
body(r_fr3_98,fr7_x1).
body(r_fr3_98,fr7_x1).
head(r_fr3_99,fr7_x1).
body(r_fr3_99,fr10_a2).
body(r_fr3_99,fr10_a2).
body(r_fr3_99,fr7_x1).
body(r_fr3_99,fr7_x1).
head(r_fr3_100,fr7_x1).
body(r_fr3_100,fr7_x1).
body(r_fr3_100,fr7_x1).
head(r_fr3_101,fr7_x1).
body(r_fr3_101,fr10_a2).
body(r_fr3_101,fr10_a2).
body(r_fr3_101,fr10_a2).
head(r_fr3_102,fr7_x1).
body(r_fr3_102,fr3_a3).
body(r_fr3_102,fr10_a2).
body(r_fr3_102,fr10_a2).
body(r_fr3_102,fr10_a2).
body(r_fr3_102,fr10_a2).
body(r_fr3_102,fr10_a2).
head(r_fr3_103,fr7_x1).
body(r_fr3_103,fr3_a2).
body(r_fr3_103,fr10_a2).
body(r_fr3_103,fr10_a2).
body(r_fr3_103,fr10_a2).
head(r_fr3_104,fr7_x1).
body(r_fr3_104,fr7_x1).
body(r_fr3_104,fr7_x1).
body(r_fr3_104,fr7_x1).
body(r_fr3_104,fr7_x1).
head(r_fr3_105,fr7_x1).
body(r_fr3_105,fr10_a2).
body(r_fr3_105,fr7_x1).
body(r_fr3_105,fr7_x1).
head(r_fr3_106,fr7_x1).
body(r_fr3_106,fr3_a3).
body(r_fr3_106,fr10_a2).
body(r_fr3_106,fr10_a2).
body(r_fr3_106,fr7_x1).
head(r_fr3_107,fr7_x1).
body(r_fr3_107,fr7_x1).
body(r_fr3_107,fr7_x1).
head(r_fr3_108,fr7_x1).
body(r_fr3_108,fr3_a3).
body(r_fr3_108,fr10_a2).
body(r_fr3_108,fr10_a2).
body(r_fr3_108,fr10_a2).
body(r_fr3_108,fr10_a2).
body(r_fr3_108,fr7_x1).
head(r_fr3_109,fr7_x1).
body(r_fr3_109,fr7_x1).
head(r_fr3_110,fr7_x1).
body(r_fr3_110,fr10_a2).
body(r_fr3_110,fr10_a2).
body(r_fr3_110,fr3_r1).
body(r_fr3_110,fr7_x1).
body(r_fr3_110,fr7_x1).
body(r_fr3_110,fr7_x1).
head(r_fr3_111,fr7_x1).
body(r_fr3_111,fr3_a3).
body(r_fr3_111,fr7_x1).
head(r_fr3_112,fr7_x1).
body(r_fr3_112,fr3_a2).
body(r_fr3_112,fr10_a2).
body(r_fr3_112,fr10_a2).
body(r_fr3_112,fr7_x1).
head(r_fr3_113,fr7_x1).
body(r_fr3_113,fr7_x1).
body(r_fr3_113,fr7_x1).
body(r_fr3_113,fr7_x1).
body(r_fr3_113,fr7_x1).
head(r_fr3_114,fr7_x1).
body(r_fr3_114,fr7_x1).
body(r_fr3_114,fr7_x1).
body(r_fr3_114,fr7_x1).
head(r_fr3_115,fr7_x1).
body(r_fr3_115,fr3_a2).
body(r_fr3_115,fr10_a2).
body(r_fr3_115,fr10_a2).
body(r_fr3_115,fr3_r1).
body(r_fr3_115,fr7_x1).
head(r_fr3_116,fr7_x1).
body(r_fr3_116,fr10_a2).
body(r_fr3_116,fr10_a2).
body(r_fr3_116,fr7_x1).
head(r_fr3_117,fr7_x1).
body(r_fr3_117,fr10_a2).
body(r_fr3_117,fr7_x1).
body(r_fr3_117,fr7_x1).
head(r_fr3_118,fr7_x1).
body(r_fr3_118,fr10_a2).
body(r_fr3_118,fr3_a3).
body(r_fr3_118,fr10_a2).
body(r_fr3_118,fr10_a2).
body(r_fr3_118,fr10_a2).
body(r_fr3_118,fr7_x1).
head(r_fr3_119,fr7_x1).
body(r_fr3_119,fr10_a2).
body(r_fr3_119,fr7_x1).
body(r_fr3_119,fr3_r1).
body(r_fr3_119,fr7_x1).
body(r_fr3_119,fr7_x1).
body(r_fr3_119,fr7_x1).
head(r_fr3_120,fr7_x1).
body(r_fr3_120,fr10_a2).
body(r_fr3_120,fr7_x1).
head(r_fr3_121,fr7_x1).
body(r_fr3_121,fr3_a3).
body(r_fr3_121,fr10_a2).
body(r_fr3_121,fr3_r1).
body(r_fr3_121,fr7_x1).
head(r_fr3_122,fr7_x1).
body(r_fr3_122,fr10_a2).
body(r_fr3_122,fr7_x1).
body(r_fr3_122,fr7_x1).
head(r_fr3_123,fr7_x1).
body(r_fr3_123,fr7_x1).
head(r_fr3_124,fr7_x1).
body(r_fr3_124,fr7_x1).
body(r_fr3_124,fr7_x1).
body(r_fr3_124,fr7_x1).
body(r_fr3_124,fr7_x1).
body(r_fr3_124,fr7_x1).
body(r_fr3_124,fr7_x1).
head(r_fr3_125,fr7_x1).
body(r_fr3_125,fr10_a2).
body(r_fr3_125,fr10_a2).
head(r_fr3_126,fr7_x1).
body(r_fr3_126,fr3_a2).
body(r_fr3_126,fr7_x1).
body(r_fr3_126,fr7_x1).
body(r_fr3_126,fr7_x1).
body(r_fr3_126,fr7_x1).
body(r_fr3_126,fr7_x1).
head(r_fr3_127,fr7_x1).
body(r_fr3_127,fr10_a2).
head(r_fr3_128,fr7_x1).
body(r_fr3_128,fr10_a2).
head(r_fr3_129,fr7_x1).
body(r_fr3_129,fr10_a2).
body(r_fr3_129,fr10_a2).
body(r_fr3_129,fr7_x1).
body(r_fr3_129,fr7_x1).
body(r_fr3_129,fr7_x1).
head(r_fr3_130,fr7_x1).
body(r_fr3_130,fr3_a2).
body(r_fr3_130,fr10_a2).
body(r_fr3_130,fr10_a2).
body(r_fr3_130,fr10_a2).
body(r_fr3_130,fr10_a2).
body(r_fr3_130,fr7_x1).
head(r_fr3_131,fr7_x1).
body(r_fr3_131,fr3_r1).
body(r_fr3_131,fr7_x1).
body(r_fr3_131,fr7_x1).
head(r_fr3_132,fr7_x1).
body(r_fr3_132,fr3_a2).
body(r_fr3_132,fr10_a2).
head(r_fr3_133,fr7_x1).
body(r_fr3_133,fr7_x1).
body(r_fr3_133,fr7_x1).
head(r_fr3_134,fr7_x1).
body(r_fr3_134,fr10_a2).
body(r_fr3_134,fr10_a2).
body(r_fr3_134,fr10_a2).
body(r_fr3_134,fr7_x1).
head(r_fr3_135,fr7_x1).
body(r_fr3_135,fr10_a2).
body(r_fr3_135,fr7_x1).
head(r_fr3_136,fr7_x1).
body(r_fr3_136,fr10_a2).
body(r_fr3_136,fr7_x1).
body(r_fr3_136,fr7_x1).
body(r_fr3_136,fr7_x1).
body(r_fr3_136,fr7_x1).
head(r_fr3_137,fr7_x1).
body(r_fr3_137,fr3_a2).
body(r_fr3_137,fr10_a2).
body(r_fr3_137,fr7_x1).
head(r_fr3_138,fr7_x1).
body(r_fr3_138,fr10_a2).
head(r_fr3_139,fr7_x1).
head(r_fr3_140,fr7_x1).
body(r_fr3_140,fr10_a2).
body(r_fr3_140,fr10_a2).
body(r_fr3_140,fr10_a2).
body(r_fr3_140,fr7_x1).
head(r_fr3_141,fr7_x1).
body(r_fr3_141,fr10_a2).
body(r_fr3_141,fr10_a2).
body(r_fr3_141,fr10_a2).
body(r_fr3_141,fr10_a2).
body(r_fr3_141,fr10_a2).
body(r_fr3_141,fr7_x1).
head(r_fr3_142,fr7_x1).
body(r_fr3_142,fr3_a3).
body(r_fr3_142,fr10_a2).
body(r_fr3_142,fr10_a2).
head(r_fr3_143,fr7_x1).
body(r_fr3_143,fr10_a2).
body(r_fr3_143,fr10_a2).
body(r_fr3_143,fr7_x1).
body(r_fr3_143,fr7_x1).
body(r_fr3_143,fr7_x1).
body(r_fr3_143,fr7_x1).
head(r_fr3_144,fr7_x1).
body(r_fr3_144,fr7_x1).
body(r_fr3_144,fr7_x1).
head(r_fr3_145,fr7_x1).
body(r_fr3_145,fr10_a2).
body(r_fr3_145,fr10_a2).
body(r_fr3_145,fr7_x1).
body(r_fr3_145,fr7_x1).
head(r_fr3_146,fr7_x1).
body(r_fr3_146,fr7_x1).
body(r_fr3_146,fr7_x1).
head(r_fr3_147,fr7_x1).
body(r_fr3_147,fr7_x1).
body(r_fr3_147,fr7_x1).
body(r_fr3_147,fr7_x1).
body(r_fr3_147,fr7_x1).
head(r_fr3_148,fr7_x1).
body(r_fr3_148,fr7_x1).
body(r_fr3_148,fr7_x1).
body(r_fr3_148,fr7_x1).
head(r_fr3_149,fr7_x1).
body(r_fr3_149,fr10_a2).
head(r_fr3_150,fr7_x1).
body(r_fr3_150,fr7_x1).
head(r_fr3_151,fr7_x1).
body(r_fr3_151,fr3_a2).
body(r_fr3_151,fr3_a3).
body(r_fr3_151,fr10_a2).
body(r_fr3_151,fr10_a2).
head(r_fr3_152,fr7_x1).
body(r_fr3_152,fr10_a2).
body(r_fr3_152,fr10_a2).
body(r_fr3_152,fr10_a2).
head(r_fr3_153,fr7_x1).
body(r_fr3_153,fr10_a2).
body(r_fr3_153,fr10_a2).
body(r_fr3_153,fr7_x1).
body(r_fr3_153,fr7_x1).
body(r_fr3_153,fr7_x1).
head(r_fr3_154,fr7_x1).
body(r_fr3_154,fr10_a2).
body(r_fr3_154,fr7_x1).
body(r_fr3_154,fr7_x1).
head(r_fr3_155,fr7_x1).
body(r_fr3_155,fr7_x1).
body(r_fr3_155,fr7_x1).
body(r_fr3_155,fr7_x1).
head(r_fr3_156,fr7_x1).
body(r_fr3_156,fr10_a2).
body(r_fr3_156,fr10_a2).
body(r_fr3_156,fr7_x1).
body(r_fr3_156,fr7_x1).
body(r_fr3_156,fr7_x1).
body(r_fr3_156,fr7_x1).
head(r_fr3_157,fr7_x1).
body(r_fr3_157,fr7_x1).
head(r_fr3_158,fr7_x1).
body(r_fr3_158,fr10_a2).
body(r_fr3_158,fr7_x1).
body(r_fr3_158,fr7_x1).
head(r_fr3_159,fr7_x1).
body(r_fr3_159,fr10_a2).
body(r_fr3_159,fr10_a2).
head(r_fr3_160,fr7_x1).
body(r_fr3_160,fr10_a2).
head(r_fr3_161,fr7_x1).
body(r_fr3_161,fr7_x1).
head(r_fr3_162,fr7_x1).
head(r_fr3_163,fr7_x1).
body(r_fr3_163,fr10_a2).
body(r_fr3_163,fr7_x1).
body(r_fr3_163,fr7_x1).
body(r_fr3_163,fr7_x1).
body(r_fr3_163,fr7_x1).
head(r_fr3_164,fr7_x1).
body(r_fr3_164,fr7_x1).
body(r_fr3_164,fr7_x1).
head(r_fr3_165,fr7_x1).
body(r_fr3_165,fr10_a2).
body(r_fr3_165,fr10_a2).
body(r_fr3_165,fr10_a2).
body(r_fr3_165,fr7_x1).
head(r_fr3_166,fr7_x1).
body(r_fr3_166,fr10_a2).
body(r_fr3_166,fr10_a2).
body(r_fr3_166,fr10_a2).
head(r_fr3_167,fr7_x1).
head(r_fr3_168,fr7_x1).
body(r_fr3_168,fr10_a2).
body(r_fr3_168,fr7_x1).
head(r_fr3_169,fr7_x1).
body(r_fr3_169,fr3_r1).
body(r_fr3_169,fr7_x1).
body(r_fr3_169,fr7_x1).
head(r_fr3_170,fr7_x1).
body(r_fr3_170,fr10_a2).
body(r_fr3_170,fr10_a2).
body(r_fr3_170,fr10_a2).
body(r_fr3_170,fr7_x1).
body(r_fr3_170,fr7_x1).
head(r_fr3_171,fr7_x1).
body(r_fr3_171,fr3_a2).
body(r_fr3_171,fr3_a3).
body(r_fr3_171,fr10_a2).
body(r_fr3_171,fr10_a2).
body(r_fr3_171,fr10_a2).
head(r_fr3_172,fr7_x1).
body(r_fr3_172,fr10_a2).
body(r_fr3_172,fr7_x1).
body(r_fr3_172,fr7_x1).
body(r_fr3_172,fr7_x1).
head(r_fr3_173,fr7_x1).
body(r_fr3_173,fr7_x1).
body(r_fr3_173,fr7_x1).
head(r_fr3_174,fr7_x1).
body(r_fr3_174,fr10_a2).
body(r_fr3_174,fr7_x1).
head(r_fr3_175,fr7_x1).
body(r_fr3_175,fr10_a2).
body(r_fr3_175,fr10_a2).
body(r_fr3_175,fr10_a2).
body(r_fr3_175,fr10_a2).
body(r_fr3_175,fr10_a2).
body(r_fr3_175,fr10_a2).
head(r_fr3_176,fr7_x1).
body(r_fr3_176,fr3_a3).
body(r_fr3_176,fr10_a2).
body(r_fr3_176,fr10_a2).
body(r_fr3_176,fr10_a2).
body(r_fr3_176,fr10_a2).
head(r_fr3_177,fr7_x1).
body(r_fr3_177,fr7_x1).
body(r_fr3_177,fr7_x1).
head(r_fr3_178,fr7_x1).
body(r_fr3_178,fr7_x1).
body(r_fr3_178,fr7_x1).
body(r_fr3_178,fr7_x1).
body(r_fr3_178,fr7_x1).
head(r_fr3_179,fr7_x1).
body(r_fr3_179,fr7_x1).
body(r_fr3_179,fr7_x1).
body(r_fr3_179,fr3_r1).
body(r_fr3_179,fr7_x1).
body(r_fr3_179,fr7_x1).
body(r_fr3_179,fr7_x1).
head(r_fr3_180,fr7_x1).
body(r_fr3_180,fr10_a2).
head(r_fr3_181,fr7_x1).
body(r_fr3_181,fr3_a2).
body(r_fr3_181,fr10_a2).
body(r_fr3_181,fr10_a2).
body(r_fr3_181,fr7_x1).
body(r_fr3_181,fr7_x1).
head(r_fr3_182,fr7_x1).
body(r_fr3_182,fr3_a3).
body(r_fr3_182,fr10_a2).
body(r_fr3_182,fr10_a2).
body(r_fr3_182,fr10_a2).
body(r_fr3_182,fr10_a2).
head(r_fr3_183,fr7_x1).
body(r_fr3_183,fr7_x1).
body(r_fr3_183,fr7_x1).
body(r_fr3_183,fr3_r1).
body(r_fr3_183,fr7_x1).
body(r_fr3_183,fr7_x1).
body(r_fr3_183,fr7_x1).
head(r_fr3_184,fr7_x1).
body(r_fr3_184,fr3_a2).
body(r_fr3_184,fr10_a2).
body(r_fr3_184,fr10_a2).
body(r_fr3_184,fr10_a2).
body(r_fr3_184,fr7_x1).
head(r_fr3_185,fr7_x1).
body(r_fr3_185,fr10_a2).
body(r_fr3_185,fr7_x1).
body(r_fr3_185,fr7_x1).
body(r_fr3_185,fr7_x1).
body(r_fr3_185,fr7_x1).
head(r_fr3_186,fr7_x1).
body(r_fr3_186,fr10_a2).
body(r_fr3_186,fr7_x1).
body(r_fr3_186,fr7_x1).
body(r_fr3_186,fr7_x1).
head(r_fr3_187,fr7_x1).
body(r_fr3_187,fr10_a2).
head(r_fr3_188,fr7_x1).
body(r_fr3_188,fr10_a2).
body(r_fr3_188,fr10_a2).
body(r_fr3_188,fr7_x1).
body(r_fr3_188,fr7_x1).
body(r_fr3_188,fr7_x1).
head(r_fr3_189,fr7_x1).
body(r_fr3_189,fr10_a2).
head(r_fr3_190,fr7_x1).
body(r_fr3_190,fr10_a2).
body(r_fr3_190,fr10_a2).
body(r_fr3_190,fr7_x1).
body(r_fr3_190,fr7_x1).
body(r_fr3_190,fr7_x1).
head(r_fr3_191,fr7_x1).
body(r_fr3_191,fr10_a2).
head(r_fr3_192,fr7_x1).
body(r_fr3_192,fr10_a2).
body(r_fr3_192,fr10_a2).
body(r_fr3_192,fr10_a2).
head(r_fr3_193,fr7_x1).
body(r_fr3_193,fr10_a2).
head(r_fr3_194,fr7_x1).
body(r_fr3_194,fr10_a2).
body(r_fr3_194,fr7_x1).
body(r_fr3_194,fr7_x1).
head(r_fr3_195,fr7_x1).
body(r_fr3_195,fr10_a2).
body(r_fr3_195,fr7_x1).
body(r_fr3_195,fr7_x1).
body(r_fr3_195,fr7_x1).
body(r_fr3_195,fr7_x1).
body(r_fr3_195,fr7_x1).
head(r_fr3_196,fr7_x1).
body(r_fr3_196,fr10_a2).
body(r_fr3_196,fr10_a2).
head(r_fr3_197,fr7_x1).
head(r_fr3_198,fr7_x1).
body(r_fr3_198,fr3_a3).
body(r_fr3_198,fr10_a2).
body(r_fr3_198,fr10_a2).
body(r_fr3_198,fr10_a2).
body(r_fr3_198,fr7_x1).
body(r_fr3_198,fr7_x1).
head(r_fr3_199,fr7_x1).
body(r_fr3_199,fr3_a3).
body(r_fr3_199,fr10_a2).
head(r_fr3_200,fr7_x1).
body(r_fr3_200,fr10_a2).
head(r_fr3_201,fr7_x1).
body(r_fr3_201,fr3_a2).
body(r_fr3_201,fr10_a2).
body(r_fr3_201,fr10_a2).
body(r_fr3_201,fr10_a2).
body(r_fr3_201,fr10_a2).
body(r_fr3_201,fr10_a2).
head(r_fr3_202,fr7_x1).
body(r_fr3_202,fr10_a2).
body(r_fr3_202,fr10_a2).
body(r_fr3_202,fr7_x1).
body(r_fr3_202,fr7_x1).
head(r_fr3_203,fr7_x1).
body(r_fr3_203,fr10_a2).
body(r_fr3_203,fr10_a2).
body(r_fr3_203,fr10_a2).
body(r_fr3_203,fr10_a2).
body(r_fr3_203,fr10_a2).
head(r_fr3_204,fr7_x1).
body(r_fr3_204,fr10_a2).
body(r_fr3_204,fr10_a2).
body(r_fr3_204,fr7_x1).
head(r_fr3_205,fr7_x1).
body(r_fr3_205,fr10_a2).
body(r_fr3_205,fr3_a2).
body(r_fr3_205,fr10_a2).
body(r_fr3_205,fr7_x1).
body(r_fr3_205,fr7_x1).
head(r_fr3_206,fr7_x1).
body(r_fr3_206,fr7_x1).
body(r_fr3_206,fr7_x1).
body(r_fr3_206,fr7_x1).
body(r_fr3_206,fr7_x1).
head(r_fr3_207,fr7_x1).
body(r_fr3_207,fr10_a2).
body(r_fr3_207,fr10_a2).
body(r_fr3_207,fr3_r1).
body(r_fr3_207,fr7_x1).
body(r_fr3_207,fr7_x1).
head(r_fr3_208,fr7_x1).
body(r_fr3_208,fr7_x1).
body(r_fr3_208,fr7_x1).
head(r_fr3_209,fr7_x1).
body(r_fr3_209,fr3_a2).
body(r_fr3_209,fr10_a2).
body(r_fr3_209,fr10_a2).
body(r_fr3_209,fr10_a2).
body(r_fr3_209,fr7_x1).
head(r_fr3_210,fr7_x1).
body(r_fr3_210,fr7_x1).
body(r_fr3_210,fr7_x1).
body(r_fr3_210,fr7_x1).
body(r_fr3_210,fr7_x1).
body(r_fr3_210,fr7_x1).
body(r_fr3_210,fr7_x1).
head(r_fr3_211,fr7_x1).
body(r_fr3_211,fr7_x1).
head(r_fr3_212,fr7_x1).
body(r_fr3_212,fr7_x1).
body(r_fr3_212,fr7_x1).
body(r_fr3_212,fr7_x1).
body(r_fr3_212,fr7_x1).
body(r_fr3_212,fr7_x1).
head(r_fr3_213,fr7_x1).
head(r_fr3_214,fr7_x1).
body(r_fr3_214,fr10_a2).
body(r_fr3_214,fr7_x1).
head(r_fr3_215,fr7_x1).
body(r_fr3_215,fr10_a2).
body(r_fr3_215,fr10_a2).
body(r_fr3_215,fr7_x1).
body(r_fr3_215,fr7_x1).
body(r_fr3_215,fr7_x1).
body(r_fr3_215,fr7_x1).
head(r_fr3_216,fr7_x1).
body(r_fr3_216,fr3_a2).
body(r_fr3_216,fr10_a2).
head(r_fr3_217,fr7_x1).
body(r_fr3_217,fr7_x1).
body(r_fr3_217,fr7_x1).
head(r_fr3_218,fr7_x1).
body(r_fr3_218,fr3_a3).
body(r_fr3_218,fr10_a2).
body(r_fr3_218,fr10_a2).
body(r_fr3_218,fr10_a2).
body(r_fr3_218,fr7_x1).
head(r_fr3_219,fr7_x1).
body(r_fr3_219,fr7_x1).
body(r_fr3_219,fr7_x1).
body(r_fr3_219,fr7_x1).
head(r_fr3_220,fr7_x1).
body(r_fr3_220,fr3_a3).
body(r_fr3_220,fr10_a2).
body(r_fr3_220,fr7_x1).
head(r_fr3_221,fr7_x1).
body(r_fr3_221,fr10_a2).
body(r_fr3_221,fr10_a2).
head(r_fr3_222,fr7_x1).
body(r_fr3_222,fr7_x1).
body(r_fr3_222,fr7_x1).
head(r_fr3_223,fr7_x1).
body(r_fr3_223,fr3_a3).
body(r_fr3_223,fr3_r1).
body(r_fr3_223,fr7_x1).
body(r_fr3_223,fr7_x1).
head(r_fr3_224,fr7_x1).
body(r_fr3_224,fr10_a2).
body(r_fr3_224,fr10_a2).
body(r_fr3_224,fr10_a2).
body(r_fr3_224,fr10_a2).
body(r_fr3_224,fr7_x1).
head(r_fr3_225,fr7_x1).
body(r_fr3_225,fr10_a2).
head(r_fr3_226,fr7_x1).
body(r_fr3_226,fr10_a2).
body(r_fr3_226,fr10_a2).
body(r_fr3_226,fr10_a2).
body(r_fr3_226,fr10_a2).
body(r_fr3_226,fr7_x1).
body(r_fr3_226,fr7_x1).
head(r_fr3_227,fr7_x1).
body(r_fr3_227,fr7_x1).
body(r_fr3_227,fr7_x1).
body(r_fr3_227,fr7_x1).
body(r_fr3_227,fr7_x1).
body(r_fr3_227,fr7_x1).
head(r_fr3_228,fr7_x1).
body(r_fr3_228,fr3_a2).
body(r_fr3_228,fr10_a2).
body(r_fr3_228,fr10_a2).
body(r_fr3_228,fr3_r1).
head(r_fr3_229,fr7_x1).
body(r_fr3_229,fr10_a2).
body(r_fr3_229,fr7_x1).
head(r_fr3_230,fr7_x1).
body(r_fr3_230,fr10_a2).
body(r_fr3_230,fr10_a2).
body(r_fr3_230,fr7_x1).
body(r_fr3_230,fr7_x1).
body(r_fr3_230,fr7_x1).
head(r_fr3_231,fr7_x1).
body(r_fr3_231,fr3_a2).
body(r_fr3_231,fr10_a2).
body(r_fr3_231,fr10_a2).
body(r_fr3_231,fr7_x1).
body(r_fr3_231,fr7_x1).
body(r_fr3_231,fr7_x1).
head(r_fr3_232,fr7_x1).
body(r_fr3_232,fr3_a3).
body(r_fr3_232,fr10_a2).
body(r_fr3_232,fr10_a2).
body(r_fr3_232,fr7_x1).
body(r_fr3_232,fr7_x1).
head(r_fr3_233,fr7_x1).
body(r_fr3_233,fr10_a2).
body(r_fr3_233,fr10_a2).
body(r_fr3_233,fr10_a2).
body(r_fr3_233,fr10_a2).
body(r_fr3_233,fr10_a2).
body(r_fr3_233,fr10_a2).
head(r_fr3_234,fr7_x1).
body(r_fr3_234,fr10_a2).
body(r_fr3_234,fr10_a2).
body(r_fr3_234,fr10_a2).
body(r_fr3_234,fr10_a2).
body(r_fr3_234,fr10_a2).
head(r_fr3_235,fr7_x1).
head(r_fr3_236,fr7_x1).
body(r_fr3_236,fr7_x1).
head(r_fr3_237,fr7_x1).
body(r_fr3_237,fr10_a2).
body(r_fr3_237,fr7_x1).
body(r_fr3_237,fr3_r1).
body(r_fr3_237,fr7_x1).
body(r_fr3_237,fr7_x1).
head(r_fr3_238,fr7_x1).
body(r_fr3_238,fr10_a2).
body(r_fr3_238,fr3_r1).
body(r_fr3_238,fr7_x1).
body(r_fr3_238,fr7_x1).
body(r_fr3_238,fr7_x1).
head(r_fr3_239,fr7_x1).
body(r_fr3_239,fr10_a2).
body(r_fr3_239,fr10_a2).
body(r_fr3_239,fr10_a2).
body(r_fr3_239,fr10_a2).
body(r_fr3_239,fr10_a2).
head(r_fr3_240,fr7_x1).
body(r_fr3_240,fr10_a2).
body(r_fr3_240,fr10_a2).
head(r_fr3_241,fr7_x1).
body(r_fr3_241,fr10_a2).
body(r_fr3_241,fr10_a2).
body(r_fr3_241,fr10_a2).
body(r_fr3_241,fr10_a2).
body(r_fr3_241,fr7_x1).
body(r_fr3_241,fr7_x1).
head(r_fr3_242,fr7_x1).
body(r_fr3_242,fr3_a2).
body(r_fr3_242,fr10_a2).
body(r_fr3_242,fr10_a2).
body(r_fr3_242,fr7_x1).
body(r_fr3_242,fr7_x1).
head(r_fr3_243,fr7_x1).
body(r_fr3_243,fr10_a2).
body(r_fr3_243,fr10_a2).
body(r_fr3_243,fr7_x1).
body(r_fr3_243,fr7_x1).
head(r_fr3_244,fr7_x1).
body(r_fr3_244,fr10_a2).
body(r_fr3_244,fr3_r1).
head(r_fr3_245,fr7_x1).
head(r_fr3_246,fr7_x1).
body(r_fr3_246,fr10_a2).
body(r_fr3_246,fr7_x1).
body(r_fr3_246,fr7_x1).
body(r_fr3_246,fr7_x1).
head(r_fr3_247,fr7_x1).
body(r_fr3_247,fr10_a2).
body(r_fr3_247,fr7_x1).
body(r_fr3_247,fr7_x1).
head(r_fr3_248,fr7_x1).
body(r_fr3_248,fr7_x1).
body(r_fr3_248,fr7_x1).
body(r_fr3_248,fr7_x1).
body(r_fr3_248,fr7_x1).
head(r_fr3_249,fr7_x1).
body(r_fr3_249,fr10_a2).
body(r_fr3_249,fr10_a2).
body(r_fr3_249,fr10_a2).
body(r_fr3_249,fr10_a2).
body(r_fr3_249,fr7_x1).
body(r_fr3_249,fr7_x1).
head(r_fr3_250,fr7_x1).
body(r_fr3_250,fr7_x1).
head(r_fr3_251,fr7_x1).
body(r_fr3_251,fr7_x1).
body(r_fr3_251,fr7_x1).
body(r_fr3_251,fr7_x1).
head(r_fr3_252,fr7_x1).
body(r_fr3_252,fr3_a2).
body(r_fr3_252,fr10_a2).
body(r_fr3_252,fr10_a2).
body(r_fr3_252,fr10_a2).
body(r_fr3_252,fr7_x1).
body(r_fr3_252,fr7_x1).
head(r_fr3_253,fr7_x1).
body(r_fr3_253,fr10_a2).
head(r_fr3_254,fr7_x1).
body(r_fr3_254,fr3_a2).
body(r_fr3_254,fr10_a2).
body(r_fr3_254,fr10_a2).
body(r_fr3_254,fr10_a2).
head(r_fr3_255,fr7_x1).
body(r_fr3_255,fr10_a2).
body(r_fr3_255,fr10_a2).
body(r_fr3_255,fr10_a2).
body(r_fr3_255,fr7_x1).
head(r_fr3_256,fr7_x1).
body(r_fr3_256,fr10_a2).
body(r_fr3_256,fr10_a2).
body(r_fr3_256,fr10_a2).
body(r_fr3_256,fr10_a2).
body(r_fr3_256,fr10_a2).
head(r_fr3_257,fr7_x1).
body(r_fr3_257,fr10_a2).
body(r_fr3_257,fr10_a2).
body(r_fr3_257,fr7_x1).
head(r_fr3_258,fr7_x1).
body(r_fr3_258,fr10_a2).
body(r_fr3_258,fr10_a2).
body(r_fr3_258,fr10_a2).
body(r_fr3_258,fr3_r1).
body(r_fr3_258,fr7_x1).
head(r_fr3_259,fr7_x1).
body(r_fr3_259,fr10_a2).
body(r_fr3_259,fr7_x1).
body(r_fr3_259,fr7_x1).
body(r_fr3_259,fr7_x1).
body(r_fr3_259,fr7_x1).
head(r_fr3_260,fr7_x1).
body(r_fr3_260,fr3_a2).
body(r_fr3_260,fr10_a2).
body(r_fr3_260,fr3_r1).
body(r_fr3_260,fr7_x1).
body(r_fr3_260,fr7_x1).
head(r_fr3_261,fr7_x1).
body(r_fr3_261,fr7_x1).
head(r_fr3_262,fr7_x1).
body(r_fr3_262,fr3_a2).
body(r_fr3_262,fr10_a2).
body(r_fr3_262,fr7_x1).
head(r_fr3_263,fr7_x1).
body(r_fr3_263,fr7_x1).
body(r_fr3_263,fr7_x1).
body(r_fr3_263,fr3_r1).
body(r_fr3_263,fr7_x1).
body(r_fr3_263,fr7_x1).
body(r_fr3_263,fr7_x1).
head(r_fr3_264,fr7_x1).
head(r_fr3_265,fr7_x1).
body(r_fr3_265,fr10_a2).
body(r_fr3_265,fr3_a2).
body(r_fr3_265,fr3_a3).
body(r_fr3_265,fr10_a2).
body(r_fr3_265,fr10_a2).
body(r_fr3_265,fr10_a2).
head(r_fr3_266,fr7_x1).
body(r_fr3_266,fr7_x1).
body(r_fr3_266,fr7_x1).
body(r_fr3_266,fr7_x1).
head(r_fr3_267,fr7_x1).
body(r_fr3_267,fr10_a2).
body(r_fr3_267,fr7_x1).
body(r_fr3_267,fr3_r1).
body(r_fr3_267,fr7_x1).
body(r_fr3_267,fr7_x1).
head(r_fr3_268,fr7_x1).
body(r_fr3_268,fr7_x1).
head(r_fr3_269,fr7_x1).
body(r_fr3_269,fr7_x1).
body(r_fr3_269,fr7_x1).
head(r_fr3_270,fr7_x1).
body(r_fr3_270,fr7_x1).
head(r_fr3_271,fr7_x1).
body(r_fr3_271,fr3_a2).
body(r_fr3_271,fr10_a2).
head(r_fr3_272,fr7_x1).
body(r_fr3_272,fr10_a2).
body(r_fr3_272,fr10_a2).
body(r_fr3_272,fr7_x1).
head(r_fr3_273,fr7_x1).
body(r_fr3_273,fr10_a2).
head(r_fr3_274,fr7_x1).
body(r_fr3_274,fr10_a2).
body(r_fr3_274,fr10_a2).
body(r_fr3_274,fr10_a2).
body(r_fr3_274,fr10_a2).
head(r_fr3_275,fr7_x1).
body(r_fr3_275,fr3_a3).
body(r_fr3_275,fr10_a2).
body(r_fr3_275,fr10_a2).
body(r_fr3_275,fr7_x1).
head(r_fr3_276,fr7_x1).
body(r_fr3_276,fr3_a3).
body(r_fr3_276,fr10_a2).
body(r_fr3_276,fr10_a2).
body(r_fr3_276,fr10_a2).
body(r_fr3_276,fr7_x1).
head(r_fr3_277,fr7_x1).
body(r_fr3_277,fr10_a2).
body(r_fr3_277,fr3_r1).
body(r_fr3_277,fr7_x1).
body(r_fr3_277,fr7_x1).
body(r_fr3_277,fr7_x1).
head(r_fr3_278,fr7_x1).
body(r_fr3_278,fr7_x1).
head(r_fr3_279,fr7_x1).
body(r_fr3_279,fr7_x1).
body(r_fr3_279,fr3_r1).
body(r_fr3_279,fr7_x1).
body(r_fr3_279,fr7_x1).
body(r_fr3_279,fr7_x1).
body(r_fr3_279,fr7_x1).
head(r_fr3_280,fr7_x1).
body(r_fr3_280,fr7_x1).
body(r_fr3_280,fr7_x1).
body(r_fr3_280,fr7_x1).
head(r_fr3_281,fr7_x1).
body(r_fr3_281,fr10_a2).
body(r_fr3_281,fr3_r1).
body(r_fr3_281,fr7_x1).
body(r_fr3_281,fr7_x1).
body(r_fr3_281,fr7_x1).
head(r_fr3_282,fr7_x1).
body(r_fr3_282,fr10_a2).
body(r_fr3_282,fr10_a2).
body(r_fr3_282,fr10_a2).
body(r_fr3_282,fr7_x1).
body(r_fr3_282,fr7_x1).
body(r_fr3_282,fr7_x1).
head(r_fr3_283,fr7_x1).
body(r_fr3_283,fr10_a2).
head(r_fr3_284,fr7_x1).
body(r_fr3_284,fr10_a2).
body(r_fr3_284,fr10_a2).
body(r_fr3_284,fr10_a2).
body(r_fr3_284,fr10_a2).
body(r_fr3_284,fr3_r1).
head(r_fr3_285,fr7_x1).
body(r_fr3_285,fr10_a2).
body(r_fr3_285,fr10_a2).
head(r_fr3_286,fr7_x1).
body(r_fr3_286,fr10_a2).
body(r_fr3_286,fr10_a2).
body(r_fr3_286,fr7_x1).
body(r_fr3_286,fr7_x1).
head(r_fr3_287,fr7_x1).
body(r_fr3_287,fr10_a2).
body(r_fr3_287,fr10_a2).
body(r_fr3_287,fr10_a2).
head(r_fr3_288,fr7_x1).
head(r_fr3_289,fr7_x1).
body(r_fr3_289,fr10_a2).
body(r_fr3_289,fr10_a2).
body(r_fr3_289,fr10_a2).
body(r_fr3_289,fr10_a2).
body(r_fr3_289,fr7_x1).
head(r_fr3_290,fr7_x1).
body(r_fr3_290,fr10_a2).
body(r_fr3_290,fr3_a3).
body(r_fr3_290,fr10_a2).
body(r_fr3_290,fr10_a2).
body(r_fr3_290,fr10_a2).
body(r_fr3_290,fr7_x1).
head(r_fr3_291,fr7_x1).
body(r_fr3_291,fr10_a2).
body(r_fr3_291,fr10_a2).
body(r_fr3_291,fr10_a2).
body(r_fr3_291,fr10_a2).
head(r_fr3_292,fr7_x1).
body(r_fr3_292,fr10_a2).
body(r_fr3_292,fr10_a2).
body(r_fr3_292,fr10_a2).
head(r_fr3_293,fr7_x1).
body(r_fr3_293,fr3_a2).
body(r_fr3_293,fr10_a2).
body(r_fr3_293,fr10_a2).
body(r_fr3_293,fr10_a2).
body(r_fr3_293,fr10_a2).
body(r_fr3_293,fr10_a2).
head(r_fr3_294,fr7_x1).
body(r_fr3_294,fr3_a3).
body(r_fr3_294,fr10_a2).
body(r_fr3_294,fr7_x1).
body(r_fr3_294,fr3_r1).
body(r_fr3_294,fr7_x1).
head(r_fr3_295,fr7_x1).
body(r_fr3_295,fr10_a2).
body(r_fr3_295,fr7_x1).
head(r_fr3_296,fr7_x1).
body(r_fr3_296,fr3_a3).
body(r_fr3_296,fr10_a2).
body(r_fr3_296,fr10_a2).
body(r_fr3_296,fr7_x1).
head(r_fr3_297,fr7_x1).
body(r_fr3_297,fr3_a2).
body(r_fr3_297,fr10_a2).
body(r_fr3_297,fr10_a2).
body(r_fr3_297,fr10_a2).
body(r_fr3_297,fr10_a2).
head(r_fr3_298,fr7_x1).
body(r_fr3_298,fr7_x1).
head(r_fr3_299,fr7_x1).
body(r_fr3_299,fr3_a2).
body(r_fr3_299,fr10_a2).
body(r_fr3_299,fr10_a2).
body(r_fr3_299,fr10_a2).
head(r_fr3_300,fr7_x1).
body(r_fr3_300,fr7_x1).
head(r_fr3_301,fr7_x1).
body(r_fr3_301,fr3_a2).
body(r_fr3_301,fr3_a3).
body(r_fr3_301,fr10_a2).
body(r_fr3_301,fr7_x1).
body(r_fr3_301,fr7_x1).
head(r_fr3_302,fr7_x1).
body(r_fr3_302,fr10_a2).
body(r_fr3_302,fr10_a2).
body(r_fr3_302,fr7_x1).
body(r_fr3_302,fr3_r1).
body(r_fr3_302,fr7_x1).
head(r_fr3_303,fr7_x1).
body(r_fr3_303,fr7_x1).
body(r_fr3_303,fr7_x1).
head(r_fr3_304,fr7_x1).
body(r_fr3_304,fr10_a2).
body(r_fr3_304,fr3_a2).
body(r_fr3_304,fr10_a2).
body(r_fr3_304,fr10_a2).
head(r_fr3_305,fr7_x1).
body(r_fr3_305,fr3_a2).
body(r_fr3_305,fr10_a2).
head(r_fr3_306,fr7_x1).
body(r_fr3_306,fr7_x1).
body(r_fr3_306,fr7_x1).
head(r_fr3_307,fr7_x1).
body(r_fr3_307,fr10_a2).
body(r_fr3_307,fr7_x1).
body(r_fr3_307,fr7_x1).
head(r_fr3_308,fr7_x1).
head(r_fr3_309,fr7_x1).
body(r_fr3_309,fr3_a3).
body(r_fr3_309,fr10_a2).
body(r_fr3_309,fr10_a2).
body(r_fr3_309,fr10_a2).
body(r_fr3_309,fr10_a2).
body(r_fr3_309,fr10_a2).
head(r_fr3_310,fr7_x1).
body(r_fr3_310,fr10_a2).
body(r_fr3_310,fr10_a2).
body(r_fr3_310,fr7_x1).
body(r_fr3_310,fr7_x1).
head(r_fr3_311,fr7_x1).
body(r_fr3_311,fr7_x1).
head(r_fr3_312,fr7_x1).
body(r_fr3_312,fr7_x1).
body(r_fr3_312,fr7_x1).
body(r_fr3_312,fr7_x1).
head(r_fr3_313,fr7_x1).
body(r_fr3_313,fr10_a2).
body(r_fr3_313,fr10_a2).
body(r_fr3_313,fr10_a2).
body(r_fr3_313,fr10_a2).
body(r_fr3_313,fr10_a2).
body(r_fr3_313,fr7_x1).
head(r_fr3_314,fr7_x1).
body(r_fr3_314,fr10_a2).
body(r_fr3_314,fr7_x1).
body(r_fr3_314,fr7_x1).
head(r_fr3_315,fr7_x1).
body(r_fr3_315,fr10_a2).
body(r_fr3_315,fr10_a2).
body(r_fr3_315,fr10_a2).
body(r_fr3_315,fr10_a2).
body(r_fr3_315,fr7_x1).
head(r_fr3_316,fr7_x1).
head(r_fr3_317,fr7_x1).
body(r_fr3_317,fr7_x1).
body(r_fr3_317,fr3_r1).
body(r_fr3_317,fr7_x1).
body(r_fr3_317,fr7_x1).
body(r_fr3_317,fr7_x1).
body(r_fr3_317,fr7_x1).
head(r_fr3_318,fr7_x1).
body(r_fr3_318,fr10_a2).
body(r_fr3_318,fr10_a2).
body(r_fr3_318,fr7_x1).
head(r_fr3_319,fr7_x1).
body(r_fr3_319,fr10_a2).
body(r_fr3_319,fr7_x1).
body(r_fr3_319,fr7_x1).
body(r_fr3_319,fr7_x1).
body(r_fr3_319,fr7_x1).
head(r_fr3_320,fr7_x1).
body(r_fr3_320,fr3_a3).
body(r_fr3_320,fr10_a2).
body(r_fr3_320,fr10_a2).
body(r_fr3_320,fr10_a2).
body(r_fr3_320,fr10_a2).
head(r_fr3_321,fr7_x1).
body(r_fr3_321,fr7_x1).
body(r_fr3_321,fr7_x1).
body(r_fr3_321,fr7_x1).
body(r_fr3_321,fr7_x1).
head(r_fr3_322,fr7_x1).
body(r_fr3_322,fr3_a2).
body(r_fr3_322,fr10_a2).
body(r_fr3_322,fr10_a2).
body(r_fr3_322,fr7_x1).
head(r_fr3_323,fr7_x1).
body(r_fr3_323,fr10_a2).
body(r_fr3_323,fr10_a2).
body(r_fr3_323,fr10_a2).
body(r_fr3_323,fr7_x1).
body(r_fr3_323,fr3_r1).
body(r_fr3_323,fr7_x1).
head(r_fr3_324,fr7_x1).
body(r_fr3_324,fr7_x1).
head(r_fr3_325,fr7_x1).
body(r_fr3_325,fr10_a2).
body(r_fr3_325,fr10_a2).
body(r_fr3_325,fr7_x1).
head(r_fr3_326,fr7_x1).
body(r_fr3_326,fr10_a2).
body(r_fr3_326,fr7_x1).
body(r_fr3_326,fr7_x1).
head(r_fr3_327,fr7_x1).
body(r_fr3_327,fr10_a2).
body(r_fr3_327,fr10_a2).
head(r_fr3_328,fr7_x1).
body(r_fr3_328,fr3_r1).
head(r_fr3_329,fr7_x1).
body(r_fr3_329,fr10_a2).
body(r_fr3_329,fr7_x1).
body(r_fr3_329,fr3_r1).
body(r_fr3_329,fr7_x1).
head(r_fr3_330,fr3_r1).
body(r_fr3_330,fr7_x1).
body(r_fr3_330,fr7_x1).
body(r_fr3_330,fr7_x1).
head(r_fr3_331,fr3_r1).
body(r_fr3_331,fr10_a2).
body(r_fr3_331,fr10_a2).
body(r_fr3_331,fr10_a2).
body(r_fr3_331,fr10_a2).
body(r_fr3_331,fr7_x1).
head(r_fr3_332,fr3_r1).
body(r_fr3_332,fr10_a2).
body(r_fr3_332,fr10_a2).
body(r_fr3_332,fr10_a2).
body(r_fr3_332,fr10_a2).
body(r_fr3_332,fr7_x1).
body(r_fr3_332,fr7_x1).
head(r_fr3_333,fr3_r1).
body(r_fr3_333,fr7_x1).
head(r_fr3_334,fr3_r1).
body(r_fr3_334,fr10_a2).
head(r_fr3_335,fr3_r1).
body(r_fr3_335,fr10_a2).
body(r_fr3_335,fr10_a2).
body(r_fr3_335,fr7_x1).
body(r_fr3_335,fr7_x1).
body(r_fr3_335,fr7_x1).
head(r_fr3_336,fr3_r1).
body(r_fr3_336,fr7_x1).
body(r_fr3_336,fr7_x1).
body(r_fr3_336,fr7_x1).
body(r_fr3_336,fr7_x1).
head(r_fr3_337,fr3_r1).
body(r_fr3_337,fr7_x1).
head(r_fr3_338,fr3_r1).
body(r_fr3_338,fr3_a3).
body(r_fr3_338,fr10_a2).
body(r_fr3_338,fr7_x1).
body(r_fr3_338,fr7_x1).
body(r_fr3_338,fr7_x1).
body(r_fr3_338,fr7_x1).
head(r_fr3_339,fr3_r1).
body(r_fr3_339,fr10_a2).
body(r_fr3_339,fr10_a2).
body(r_fr3_339,fr7_x1).
body(r_fr3_339,fr7_x1).
head(r_fr3_340,fr3_r1).
body(r_fr3_340,fr7_x1).
head(r_fr3_341,fr3_r1).
body(r_fr3_341,fr3_a2).
body(r_fr3_341,fr10_a2).
head(r_fr3_342,fr3_r1).
body(r_fr3_342,fr3_a2).
body(r_fr3_342,fr3_a3).
body(r_fr3_342,fr10_a2).
body(r_fr3_342,fr10_a2).
body(r_fr3_342,fr10_a2).
body(r_fr3_342,fr7_x1).
head(r_fr3_343,fr3_r1).
body(r_fr3_343,fr10_a2).
body(r_fr3_343,fr10_a2).
head(r_fr3_344,fr3_r1).
body(r_fr3_344,fr10_a2).
body(r_fr3_344,fr7_x1).
body(r_fr3_344,fr7_x1).
head(r_fr3_345,fr3_r1).
body(r_fr3_345,fr10_a2).
head(r_fr3_346,fr3_r1).
head(r_fr3_347,fr3_r1).
body(r_fr3_347,fr3_a3).
body(r_fr3_347,fr10_a2).
body(r_fr3_347,fr7_x1).
body(r_fr3_347,fr7_x1).
head(r_fr3_348,fr7_x1).
body(r_fr3_348,fr10_a2).
body(r_fr3_348,fr10_a2).
body(r_fr3_348,fr7_x1).
head(r_fr3_349,fr7_x1).
body(r_fr3_349,fr10_a2).
body(r_fr3_349,fr7_x1).
body(r_fr3_349,fr7_x1).
body(r_fr3_349,fr7_x1).
body(r_fr3_349,fr7_x1).
body(r_fr3_349,fr7_x1).
head(r_fr3_350,fr7_x1).
body(r_fr3_350,fr3_a3).
body(r_fr3_350,fr10_a2).
body(r_fr3_350,fr7_x1).
body(r_fr3_350,fr7_x1).
body(r_fr3_350,fr7_x1).
body(r_fr3_350,fr7_x1).
head(r_fr3_351,fr7_x1).
body(r_fr3_351,fr10_a2).
body(r_fr3_351,fr3_a3).
body(r_fr3_351,fr10_a2).
body(r_fr3_351,fr10_a2).
body(r_fr3_351,fr10_a2).
head(r_fr3_352,fr7_x1).
body(r_fr3_352,fr10_a2).
body(r_fr3_352,fr10_a2).
body(r_fr3_352,fr10_a2).
head(r_fr3_353,fr7_x1).
body(r_fr3_353,fr10_a2).
body(r_fr3_353,fr10_a2).
body(r_fr3_353,fr7_x1).
body(r_fr3_353,fr7_x1).
head(r_fr3_354,fr7_x1).
body(r_fr3_354,fr10_a2).
body(r_fr3_354,fr10_a2).
body(r_fr3_354,fr10_a2).
body(r_fr3_354,fr10_a2).
head(r_fr3_355,fr7_x1).
body(r_fr3_355,fr7_x1).
body(r_fr3_355,fr7_x1).
body(r_fr3_355,fr7_x1).
head(r_fr3_356,fr7_x1).
body(r_fr3_356,fr3_a3).
body(r_fr3_356,fr10_a2).
body(r_fr3_356,fr10_a2).
body(r_fr3_356,fr10_a2).
body(r_fr3_356,fr7_x1).
head(r_fr3_357,fr7_x1).
body(r_fr3_357,fr10_a2).
body(r_fr3_357,fr10_a2).
body(r_fr3_357,fr10_a2).
head(r_fr3_358,fr7_x1).
body(r_fr3_358,fr10_a2).
body(r_fr3_358,fr10_a2).
body(r_fr3_358,fr7_x1).
body(r_fr3_358,fr7_x1).
body(r_fr3_358,fr7_x1).
body(r_fr3_358,fr7_x1).
head(r_fr3_359,fr7_x1).
body(r_fr3_359,fr10_a2).
body(r_fr3_359,fr10_a2).
body(r_fr3_359,fr7_x1).
body(r_fr3_359,fr7_x1).
body(r_fr3_359,fr7_x1).
head(r_fr3_360,fr7_x1).
body(r_fr3_360,fr10_a2).
head(r_fr3_361,fr7_x1).
body(r_fr3_361,fr10_a2).
body(r_fr3_361,fr7_x1).
head(r_fr3_362,fr7_x1).
body(r_fr3_362,fr7_x1).
body(r_fr3_362,fr7_x1).
body(r_fr3_362,fr7_x1).
body(r_fr3_362,fr7_x1).
head(r_fr3_363,fr7_x1).
body(r_fr3_363,fr3_a2).
body(r_fr3_363,fr3_a3).
body(r_fr3_363,fr10_a2).
body(r_fr3_363,fr10_a2).
body(r_fr3_363,fr10_a2).
body(r_fr3_363,fr7_x1).
head(r_fr3_364,fr7_x1).
head(r_fr3_365,fr7_x1).
body(r_fr3_365,fr10_a2).
body(r_fr3_365,fr7_x1).
body(r_fr3_365,fr7_x1).

assumption(fr10_a2).
assumption(fr10_a2).
assumption(fr10_a2).
assumption(fr10_a2).
assumption(fr10_a2).
assumption(fr10_a2).
contrary(fr10_a2,fr10_a2).
contrary(fr10_a2,fr7_x1).
contrary(fr10_a2,fr10_a2).
contrary(fr10_a2,fr7_x1).
contrary(fr10_a2,fr7_x1).
contrary(fr10_a2,fr10_a2).
head(r_fr4_0,fr7_x1).
head(r_fr4_1,fr7_x1).
body(r_fr4_1,fr7_x1).
body(r_fr4_1,fr7_x1).
head(r_fr4_2,fr7_x1).
head(r_fr4_3,fr7_x1).
body(r_fr4_3,fr7_x1).
head(r_fr4_4,fr7_x1).
body(r_fr4_4,fr7_x1).
head(r_fr4_5,fr7_x1).
body(r_fr4_5,fr7_x1).
head(r_fr4_6,fr7_x1).
body(r_fr4_6,fr10_a2).
body(r_fr4_6,fr10_a2).
head(r_fr4_7,fr7_x1).
head(r_fr4_8,fr7_x1).
body(r_fr4_8,fr10_a2).
body(r_fr4_8,fr10_a2).
head(r_fr4_9,fr7_x1).
body(r_fr4_9,fr7_x1).
body(r_fr4_9,fr7_x1).
head(r_fr4_10,fr7_x1).
body(r_fr4_10,fr10_a2).
head(r_fr4_11,fr7_x1).
head(r_fr4_12,fr7_x1).
body(r_fr4_12,fr10_a2).
body(r_fr4_12,fr10_a2).
head(r_fr4_13,fr7_x1).
body(r_fr4_13,fr10_a2).
body(r_fr4_13,fr7_x1).
head(r_fr4_14,fr7_x1).
body(r_fr4_14,fr10_a2).
head(r_fr4_15,fr7_x1).
body(r_fr4_15,fr10_a2).

assumption(fr10_a2).
assumption(fr10_a2).
assumption(fr10_a2).
assumption(fr10_a2).
assumption(fr10_a2).
assumption(fr10_a2).
assumption(fr10_a2).
assumption(fr10_a2).
assumption(fr10_a2).
assumption(fr10_a2).
assumption(fr10_a2).
assumption(fr10_a2).
assumption(fr10_a2).
assumption(fr10_a2).
assumption(fr10_a2).
contrary(fr10_a2,fr10_a2).
contrary(fr10_a2,fr10_a2).
contrary(fr10_a2,fr10_a2).
contrary(fr10_a2,fr10_a2).
contrary(fr10_a2,fr7_x1).
contrary(fr10_a2,fr10_a2).
contrary(fr10_a2,fr7_x1).
contrary(fr10_a2,fr7_x1).
contrary(fr10_a2,fr7_x1).
contrary(fr10_a2,fr10_a2).
contrary(fr10_a2,fr7_x1).
contrary(fr10_a2,fr10_a2).
contrary(fr10_a2,fr10_a2).
contrary(fr10_a2,fr7_x1).
contrary(fr10_a2,fr10_a2).
head(r_fr5_0,fr7_x1).
body(r_fr5_0,fr10_a2).
body(r_fr5_0,fr10_a2).
body(r_fr5_0,fr10_a2).
body(r_fr5_0,fr10_a2).
head(r_fr5_1,fr7_x1).
head(r_fr5_2,fr7_x1).
body(r_fr5_2,fr7_x1).
body(r_fr5_2,fr7_x1).
body(r_fr5_2,fr7_x1).
body(r_fr5_2,fr7_x1).
body(r_fr5_2,fr7_x1).
body(r_fr5_2,fr7_x1).
head(r_fr5_3,fr7_x1).
body(r_fr5_3,fr10_a2).
body(r_fr5_3,fr10_a2).
body(r_fr5_3,fr10_a2).
body(r_fr5_3,fr10_a2).
body(r_fr5_3,fr10_a2).
body(r_fr5_3,fr7_x1).
head(r_fr5_4,fr7_x1).
body(r_fr5_4,fr7_x1).
body(r_fr5_4,fr7_x1).
body(r_fr5_4,fr7_x1).
body(r_fr5_4,fr7_x1).
body(r_fr5_4,fr7_x1).
body(r_fr5_4,fr7_x1).
head(r_fr5_5,fr7_x1).
body(r_fr5_5,fr10_a2).
body(r_fr5_5,fr10_a2).
body(r_fr5_5,fr10_a2).
body(r_fr5_5,fr10_a2).
body(r_fr5_5,fr10_a2).
head(r_fr5_6,fr7_x1).
body(r_fr5_6,fr10_a2).
body(r_fr5_6,fr10_a2).
head(r_fr5_7,fr7_x1).
body(r_fr5_7,fr7_x1).
head(r_fr5_8,fr7_x1).
body(r_fr5_8,fr10_a2).
body(r_fr5_8,fr10_a2).
body(r_fr5_8,fr7_x1).
body(r_fr5_8,fr7_x1).
body(r_fr5_8,fr7_x1).
body(r_fr5_8,fr7_x1).
head(r_fr5_9,fr7_x1).
body(r_fr5_9,fr7_x1).
body(r_fr5_9,fr7_x1).
body(r_fr5_9,fr7_x1).
head(r_fr5_10,fr7_x1).
body(r_fr5_10,fr7_x1).
body(r_fr5_10,fr7_x1).
body(r_fr5_10,fr7_x1).
body(r_fr5_10,fr7_x1).
head(r_fr5_11,fr7_x1).
body(r_fr5_11,fr10_a2).
body(r_fr5_11,fr10_a2).
body(r_fr5_11,fr10_a2).
body(r_fr5_11,fr10_a2).
head(r_fr5_12,fr7_x1).
head(r_fr5_13,fr7_x1).
body(r_fr5_13,fr7_x1).
head(r_fr5_14,fr7_x1).
body(r_fr5_14,fr10_a2).
body(r_fr5_14,fr7_x1).
body(r_fr5_14,fr7_x1).
body(r_fr5_14,fr7_x1).
body(r_fr5_14,fr7_x1).
head(r_fr5_15,fr7_x1).
body(r_fr5_15,fr10_a2).
body(r_fr5_15,fr10_a2).
body(r_fr5_15,fr10_a2).
body(r_fr5_15,fr10_a2).
head(r_fr5_16,fr7_x1).
head(r_fr5_17,fr7_x1).
body(r_fr5_17,fr10_a2).
head(r_fr5_18,fr7_x1).
body(r_fr5_18,fr10_a2).
body(r_fr5_18,fr7_x1).
head(r_fr5_19,fr7_x1).
body(r_fr5_19,fr7_x1).
head(r_fr5_20,fr7_x1).
body(r_fr5_20,fr7_x1).
body(r_fr5_20,fr7_x1).
body(r_fr5_20,fr7_x1).
body(r_fr5_20,fr7_x1).
body(r_fr5_20,fr7_x1).
body(r_fr5_20,fr7_x1).
head(r_fr5_21,fr7_x1).
body(r_fr5_21,fr10_a2).
body(r_fr5_21,fr10_a2).
head(r_fr5_22,fr7_x1).
body(r_fr5_22,fr10_a2).
body(r_fr5_22,fr10_a2).
head(r_fr5_23,fr7_x1).
body(r_fr5_23,fr10_a2).
body(r_fr5_23,fr10_a2).
body(r_fr5_23,fr10_a2).
head(r_fr5_24,fr7_x1).
body(r_fr5_24,fr7_x1).
body(r_fr5_24,fr7_x1).
head(r_fr5_25,fr7_x1).
body(r_fr5_25,fr10_a2).
body(r_fr5_25,fr7_x1).
body(r_fr5_25,fr7_x1).
head(r_fr5_26,fr7_x1).
body(r_fr5_26,fr10_a2).
body(r_fr5_26,fr10_a2).
body(r_fr5_26,fr7_x1).
body(r_fr5_26,fr7_x1).
head(r_fr5_27,fr7_x1).
body(r_fr5_27,fr10_a2).
body(r_fr5_27,fr10_a2).
body(r_fr5_27,fr7_x1).
body(r_fr5_27,fr7_x1).
body(r_fr5_27,fr7_x1).
head(r_fr5_28,fr7_x1).
body(r_fr5_28,fr10_a2).
body(r_fr5_28,fr10_a2).
body(r_fr5_28,fr10_a2).
body(r_fr5_28,fr10_a2).
body(r_fr5_28,fr10_a2).
head(r_fr5_29,fr7_x1).
head(r_fr5_30,fr7_x1).
body(r_fr5_30,fr10_a2).
body(r_fr5_30,fr10_a2).
body(r_fr5_30,fr10_a2).
body(r_fr5_30,fr10_a2).
body(r_fr5_30,fr7_x1).
body(r_fr5_30,fr7_x1).
head(r_fr5_31,fr7_x1).
body(r_fr5_31,fr10_a2).
body(r_fr5_31,fr10_a2).
body(r_fr5_31,fr10_a2).
head(r_fr5_32,fr7_x1).
body(r_fr5_32,fr7_x1).
body(r_fr5_32,fr7_x1).
body(r_fr5_32,fr7_x1).
head(r_fr5_33,fr7_x1).
body(r_fr5_33,fr10_a2).
body(r_fr5_33,fr10_a2).
head(r_fr5_34,fr7_x1).
body(r_fr5_34,fr10_a2).
body(r_fr5_34,fr7_x1).
body(r_fr5_34,fr7_x1).
body(r_fr5_34,fr7_x1).
body(r_fr5_34,fr7_x1).
head(r_fr5_35,fr7_x1).
body(r_fr5_35,fr10_a2).
body(r_fr5_35,fr10_a2).
body(r_fr5_35,fr10_a2).
body(r_fr5_35,fr10_a2).
body(r_fr5_35,fr7_x1).
head(r_fr5_36,fr7_x1).
head(r_fr5_37,fr7_x1).
body(r_fr5_37,fr10_a2).
body(r_fr5_37,fr10_a2).
body(r_fr5_37,fr10_a2).
body(r_fr5_37,fr10_a2).
body(r_fr5_37,fr7_x1).
body(r_fr5_37,fr7_x1).
head(r_fr5_38,fr7_x1).
body(r_fr5_38,fr10_a2).
body(r_fr5_38,fr10_a2).
body(r_fr5_38,fr10_a2).
body(r_fr5_38,fr10_a2).
body(r_fr5_38,fr10_a2).
head(r_fr5_39,fr7_x1).
body(r_fr5_39,fr10_a2).
body(r_fr5_39,fr10_a2).
body(r_fr5_39,fr10_a2).
body(r_fr5_39,fr7_x1).
body(r_fr5_39,fr7_x1).
head(r_fr5_40,fr7_x1).
body(r_fr5_40,fr10_a2).
body(r_fr5_40,fr10_a2).
head(r_fr5_41,fr7_x1).
body(r_fr5_41,fr10_a2).
body(r_fr5_41,fr7_x1).
body(r_fr5_41,fr7_x1).
head(r_fr5_42,fr7_x1).
body(r_fr5_42,fr10_a2).
body(r_fr5_42,fr7_x1).
body(r_fr5_42,fr7_x1).
head(r_fr5_43,fr7_x1).
body(r_fr5_43,fr10_a2).
body(r_fr5_43,fr10_a2).
body(r_fr5_43,fr7_x1).
body(r_fr5_43,fr7_x1).
head(r_fr5_44,fr7_x1).
head(r_fr5_45,fr7_x1).
body(r_fr5_45,fr10_a2).
body(r_fr5_45,fr10_a2).
body(r_fr5_45,fr7_x1).
head(r_fr5_46,fr7_x1).
body(r_fr5_46,fr10_a2).
body(r_fr5_46,fr10_a2).
body(r_fr5_46,fr10_a2).
body(r_fr5_46,fr10_a2).
head(r_fr5_47,fr7_x1).
body(r_fr5_47,fr10_a2).
body(r_fr5_47,fr10_a2).
body(r_fr5_47,fr10_a2).
head(r_fr5_48,fr7_x1).
head(r_fr5_49,fr7_x1).
body(r_fr5_49,fr10_a2).
body(r_fr5_49,fr10_a2).
body(r_fr5_49,fr10_a2).
body(r_fr5_49,fr10_a2).
head(r_fr5_50,fr7_x1).
body(r_fr5_50,fr10_a2).
body(r_fr5_50,fr10_a2).
head(r_fr5_51,fr7_x1).
body(r_fr5_51,fr10_a2).

assumption(fr10_a2).
assumption(fr10_a2).
assumption(fr10_a2).
assumption(fr6_d1).
assumption(fr6_e1).
assumption(fr10_a2).
assumption(fr10_a2).
assumption(fr10_a2).
assumption(fr10_a2).
assumption(fr10_a2).
assumption(fr10_a2).
assumption(fr6_f2).
assumption(fr10_a2).
assumption(fr10_a2).
assumption(fr10_a2).
contrary(fr10_a2,fr10_a2).
contrary(fr10_a2,fr10_a2).
contrary(fr10_a2,fr6_t1).
contrary(fr10_a2,fr7_x1).
contrary(fr10_a2,fr7_x1).
contrary(fr10_a2,fr10_a2).
contrary(fr10_a2,fr7_x1).
contrary(fr10_a2,fr7_x1).
contrary(fr10_a2,fr10_a2).
contrary(fr6_d1,fr10_a2).
contrary(fr10_a2,fr7_x1).
contrary(fr6_e1,fr7_x1).
contrary(fr10_a2,fr9_r4).
contrary(fr10_a2,fr10_a2).
contrary(fr6_f2,fr10_a2).
head(r_fr6_0,fr7_x1).
body(r_fr6_0,fr6_d1).
head(r_fr6_1,fr7_x1).
body(r_fr6_1,fr10_a2).
body(r_fr6_1,fr6_f2).
body(r_fr6_1,fr7_x1).
body(r_fr6_1,fr6_r1).
body(r_fr6_1,fr7_x1).
head(r_fr6_2,fr7_x1).
head(r_fr6_3,fr7_x1).
body(r_fr6_3,fr10_a2).
body(r_fr6_3,fr6_d1).
body(r_fr6_3,fr6_e1).
head(r_fr6_4,fr7_x1).
body(r_fr6_4,fr6_y1).
head(r_fr6_5,fr7_x1).
body(r_fr6_5,fr7_x1).
body(r_fr6_5,fr6_y1).
head(r_fr6_6,fr6_r1).
body(r_fr6_6,fr10_a2).
body(r_fr6_6,fr7_x1).
body(r_fr6_6,fr7_x1).
body(r_fr6_6,fr7_x1).
head(r_fr6_7,fr6_r1).
body(r_fr6_7,fr7_x1).
body(r_fr6_7,fr7_x1).
body(r_fr6_7,fr7_x1).
body(r_fr6_7,fr6_t1).
body(r_fr6_7,fr7_x1).
body(r_fr6_7,fr7_x1).
head(r_fr6_8,fr6_r1).
body(r_fr6_8,fr7_x1).
body(r_fr6_8,fr7_x1).
body(r_fr6_8,fr7_x1).
body(r_fr6_8,fr7_x1).
head(r_fr6_9,fr7_x1).
body(r_fr6_9,fr10_a2).
body(r_fr6_9,fr10_a2).
body(r_fr6_9,fr10_a2).
body(r_fr6_9,fr10_a2).
body(r_fr6_9,fr6_e1).
head(r_fr6_10,fr7_x1).
body(r_fr6_10,fr10_a2).
body(r_fr6_10,fr10_a2).
body(r_fr6_10,fr7_x1).
body(r_fr6_10,fr7_x1).
head(r_fr6_11,fr7_x1).
body(r_fr6_11,fr10_a2).
body(r_fr6_11,fr7_x1).
head(r_fr6_12,fr7_x1).
head(r_fr6_13,fr7_x1).
body(r_fr6_13,fr10_a2).
body(r_fr6_13,fr6_f2).
body(r_fr6_13,fr7_x1).
body(r_fr6_13,fr7_x1).
body(r_fr6_13,fr7_x1).
body(r_fr6_13,fr7_x1).
head(r_fr6_14,fr7_x1).
body(r_fr6_14,fr6_f2).
body(r_fr6_14,fr7_x1).
body(r_fr6_14,fr7_x1).
head(r_fr6_15,fr7_x1).
body(r_fr6_15,fr7_x1).
body(r_fr6_15,fr7_x1).
body(r_fr6_15,fr7_x1).
body(r_fr6_15,fr7_x1).
head(r_fr6_16,fr7_x1).
body(r_fr6_16,fr10_a2).
body(r_fr6_16,fr10_a2).
body(r_fr6_16,fr7_x1).
body(r_fr6_16,fr7_x1).
body(r_fr6_16,fr7_x1).
head(r_fr6_17,fr7_x1).
body(r_fr6_17,fr6_d1).
body(r_fr6_17,fr7_x1).
body(r_fr6_17,fr7_x1).
body(r_fr6_17,fr7_x1).
head(r_fr6_18,fr7_x1).
body(r_fr6_18,fr10_a2).
body(r_fr6_18,fr10_a2).
body(r_fr6_18,fr6_f2).
body(r_fr6_18,fr7_x1).
body(r_fr6_18,fr7_x1).
body(r_fr6_18,fr7_x1).
head(r_fr6_19,fr7_x1).
head(r_fr6_20,fr7_x1).
body(r_fr6_20,fr6_r1).
body(r_fr6_20,fr7_x1).
body(r_fr6_20,fr6_y1).
body(r_fr6_20,fr7_x1).
head(r_fr6_21,fr7_x1).
body(r_fr6_21,fr10_a2).
body(r_fr6_21,fr7_x1).
body(r_fr6_21,fr7_x1).
head(r_fr6_22,fr7_x1).
body(r_fr6_22,fr10_a2).
body(r_fr6_22,fr6_d1).
body(r_fr6_22,fr9_r4).
head(r_fr6_23,fr7_x1).
body(r_fr6_23,fr6_t1).
body(r_fr6_23,fr7_x1).
body(r_fr6_23,fr7_x1).
body(r_fr6_23,fr7_x1).
body(r_fr6_23,fr6_y1).
head(r_fr6_24,fr7_x1).
body(r_fr6_24,fr7_x1).
body(r_fr6_24,fr6_t1).
body(r_fr6_24,fr7_x1).
head(r_fr6_25,fr7_x1).
head(r_fr6_26,fr7_x1).
body(r_fr6_26,fr10_a2).
body(r_fr6_26,fr10_a2).
body(r_fr6_26,fr10_a2).
body(r_fr6_26,fr10_a2).
body(r_fr6_26,fr7_x1).
body(r_fr6_26,fr7_x1).
head(r_fr6_27,fr7_x1).
body(r_fr6_27,fr10_a2).
head(r_fr6_28,fr7_x1).
body(r_fr6_28,fr10_a2).
body(r_fr6_28,fr10_a2).
body(r_fr6_28,fr10_a2).
body(r_fr6_28,fr10_a2).
body(r_fr6_28,fr10_a2).
body(r_fr6_28,fr7_x1).
head(r_fr6_29,fr7_x1).
head(r_fr6_30,fr7_x1).
body(r_fr6_30,fr6_f2).
body(r_fr6_30,fr6_r1).
body(r_fr6_30,fr7_x1).
body(r_fr6_30,fr7_x1).
head(r_fr6_31,fr6_y1).
body(r_fr6_31,fr10_a2).
body(r_fr6_31,fr10_a2).
body(r_fr6_31,fr7_x1).
body(r_fr6_31,fr7_x1).
body(r_fr6_31,fr7_x1).
body(r_fr6_31,fr7_x1).
head(r_fr6_32,fr6_y1).
body(r_fr6_32,fr10_a2).
body(r_fr6_32,fr10_a2).
body(r_fr6_32,fr7_x1).
body(r_fr6_32,fr7_x1).
body(r_fr6_32,fr7_x1).
head(r_fr6_33,fr6_t1).
head(r_fr6_34,fr6_t1).
body(r_fr6_34,fr7_x1).
body(r_fr6_34,fr7_x1).
body(r_fr6_34,fr7_x1).
body(r_fr6_34,fr7_x1).
body(r_fr6_34,fr7_x1).
head(r_fr6_35,fr6_t1).
body(r_fr6_35,fr6_f2).
head(r_fr6_36,fr6_t1).
body(r_fr6_36,fr10_a2).
body(r_fr6_36,fr10_a2).
body(r_fr6_36,fr6_e1).
body(r_fr6_36,fr6_f2).
head(r_fr6_37,fr7_x1).
body(r_fr6_37,fr10_a2).
body(r_fr6_37,fr6_d1).
body(r_fr6_37,fr6_e1).
body(r_fr6_37,fr6_r1).
head(r_fr6_38,fr7_x1).
body(r_fr6_38,fr6_f2).
body(r_fr6_38,fr6_y1).
head(r_fr6_39,fr7_x1).
body(r_fr6_39,fr7_x1).
body(r_fr6_39,fr9_r4).
head(r_fr6_40,fr7_x1).
body(r_fr6_40,fr10_a2).
body(r_fr6_40,fr7_x1).
head(r_fr6_41,fr7_x1).
body(r_fr6_41,fr10_a2).
body(r_fr6_41,fr10_a2).
body(r_fr6_41,fr6_e1).
head(r_fr6_42,fr7_x1).
body(r_fr6_42,fr10_a2).
body(r_fr6_42,fr7_x1).
body(r_fr6_42,fr7_x1).
head(r_fr6_43,fr7_x1).
body(r_fr6_43,fr10_a2).
body(r_fr6_43,fr10_a2).
body(r_fr6_43,fr10_a2).
body(r_fr6_43,fr6_e1).
body(r_fr6_43,fr10_a2).
body(r_fr6_43,fr7_x1).
head(r_fr6_44,fr7_x1).
body(r_fr6_44,fr10_a2).
body(r_fr6_44,fr7_x1).
head(r_fr6_45,fr7_x1).
head(r_fr6_46,fr7_x1).
body(r_fr6_46,fr10_a2).
body(r_fr6_46,fr10_a2).
body(r_fr6_46,fr10_a2).
body(r_fr6_46,fr10_a2).
body(r_fr6_46,fr6_d1).
body(r_fr6_46,fr6_t1).
head(r_fr6_47,fr9_r4).
body(r_fr6_47,fr10_a2).
head(r_fr6_48,fr9_r4).
head(r_fr6_49,fr7_x1).
body(r_fr6_49,fr6_r1).
head(r_fr6_50,fr7_x1).
body(r_fr6_50,fr6_t1).
body(r_fr6_50,fr7_x1).
body(r_fr6_50,fr7_x1).
body(r_fr6_50,fr6_y1).
head(r_fr6_51,fr7_x1).
body(r_fr6_51,fr10_a2).
head(r_fr6_52,fr7_x1).
body(r_fr6_52,fr7_x1).
head(r_fr6_53,fr7_x1).
body(r_fr6_53,fr10_a2).
head(r_fr6_54,fr7_x1).
body(r_fr6_54,fr10_a2).
body(r_fr6_54,fr10_a2).
body(r_fr6_54,fr7_x1).
body(r_fr6_54,fr7_x1).
body(r_fr6_54,fr7_x1).
head(r_fr6_55,fr7_x1).
body(r_fr6_55,fr10_a2).
body(r_fr6_55,fr7_x1).
body(r_fr6_55,fr7_x1).
body(r_fr6_55,fr7_x1).
body(r_fr6_55,fr6_y1).
body(r_fr6_55,fr7_x1).
head(r_fr6_56,fr7_x1).
head(r_fr6_57,fr7_x1).
body(r_fr6_57,fr7_x1).
body(r_fr6_57,fr7_x1).
body(r_fr6_57,fr7_x1).
body(r_fr6_57,fr6_t1).
body(r_fr6_57,fr7_x1).
body(r_fr6_57,fr7_x1).
head(r_fr6_58,fr7_x1).
body(r_fr6_58,fr10_a2).
body(r_fr6_58,fr7_x1).
head(r_fr6_59,fr7_x1).
head(r_fr6_60,fr7_x1).
body(r_fr6_60,fr7_x1).
body(r_fr6_60,fr7_x1).
body(r_fr6_60,fr7_x1).
body(r_fr6_60,fr7_x1).
body(r_fr6_60,fr7_x1).
head(r_fr6_61,fr7_x1).
body(r_fr6_61,fr10_a2).
body(r_fr6_61,fr10_a2).
head(r_fr6_62,fr7_x1).
body(r_fr6_62,fr6_d1).
body(r_fr6_62,fr7_x1).
head(r_fr6_63,fr7_x1).
body(r_fr6_63,fr10_a2).
body(r_fr6_63,fr6_d1).
body(r_fr6_63,fr10_a2).
body(r_fr6_63,fr7_x1).
head(r_fr6_64,fr7_x1).
body(r_fr6_64,fr10_a2).
body(r_fr6_64,fr10_a2).
body(r_fr6_64,fr10_a2).
head(r_fr6_65,fr7_x1).
body(r_fr6_65,fr10_a2).
body(r_fr6_65,fr7_x1).
head(r_fr6_66,fr7_x1).
body(r_fr6_66,fr10_a2).
body(r_fr6_66,fr10_a2).
body(r_fr6_66,fr10_a2).
body(r_fr6_66,fr10_a2).
body(r_fr6_66,fr6_e1).
head(r_fr6_67,fr7_x1).
body(r_fr6_67,fr10_a2).
body(r_fr6_67,fr7_x1).
body(r_fr6_67,fr6_t1).
head(r_fr6_68,fr7_x1).
body(r_fr6_68,fr10_a2).
body(r_fr6_68,fr10_a2).
body(r_fr6_68,fr10_a2).
body(r_fr6_68,fr10_a2).
body(r_fr6_68,fr9_r4).

assumption(fr9_a1).
assumption(fr7_b1).
assumption(fr10_a2).
assumption(fr10_a2).
assumption(fr10_a2).
assumption(fr10_a2).
assumption(fr7_a2).
assumption(fr10_a2).
assumption(fr10_a2).
assumption(fr10_a2).
assumption(fr10_a2).
assumption(fr10_a2).
assumption(fr10_a2).
assumption(fr7_b3).
assumption(fr10_a2).
contrary(fr9_a1,fr7_x1).
contrary(fr7_a2,fr7_x1).
contrary(fr10_a2,fr7_u1).
contrary(fr7_b1,fr7_x1).
contrary(fr10_a2,fr7_x1).
contrary(fr7_b3,fr7_y1).
contrary(fr10_a2,fr10_a2).
contrary(fr10_a2,fr9_a1).
contrary(fr10_a2,fr7_x3).
contrary(fr10_a2,fr9_y1).
contrary(fr10_a2,fr7_x1).
contrary(fr10_a2,fr7_x1).
contrary(fr10_a2,fr7_x1).
contrary(fr10_a2,fr7_x1).
contrary(fr10_a2,fr7_p1).
head(r_fr7_0,fr7_x1).
body(r_fr7_0,fr10_a2).
head(r_fr7_1,fr7_x1).
body(r_fr7_1,fr9_a1).
body(r_fr7_1,fr10_a2).
body(r_fr7_1,fr10_a2).
body(r_fr7_1,fr10_a2).
body(r_fr7_1,fr10_a2).
body(r_fr7_1,fr10_a2).
head(r_fr7_2,fr7_x1).
body(r_fr7_2,fr10_a2).
body(r_fr7_2,fr10_a2).
head(r_fr7_3,fr7_x1).
body(r_fr7_3,fr7_b3).
body(r_fr7_3,fr10_a2).
body(r_fr7_3,fr7_x6).
head(r_fr7_4,fr7_x1).
body(r_fr7_4,fr7_x1).
body(r_fr7_4,fr7_x6).
head(r_fr7_5,fr7_x1).
body(r_fr7_5,fr9_a1).
head(r_fr7_6,fr7_x1).
body(r_fr7_6,fr7_x6).
body(r_fr7_6,fr7_x1).
body(r_fr7_6,fr7_z1).
head(r_fr7_7,fr7_x1).
head(r_fr7_8,fr7_p7).
body(r_fr7_8,fr9_a1).
body(r_fr7_8,fr10_a2).
body(r_fr7_8,fr10_a2).
body(r_fr7_8,fr10_a2).
body(r_fr7_8,fr7_w2).
body(r_fr7_8,fr9_y4).
head(r_fr7_9,fr7_p7).
head(r_fr7_10,fr7_p7).
body(r_fr7_10,fr8_p4).
head(r_fr7_11,fr7_x1).
body(r_fr7_11,fr7_b3).
head(r_fr7_12,fr7_x1).
body(r_fr7_12,fr9_a1).
body(r_fr7_12,fr10_a2).
body(r_fr7_12,fr10_a2).
body(r_fr7_12,fr7_p1).
body(r_fr7_12,fr7_t4).
body(r_fr7_12,fr7_z3).
head(r_fr7_13,fr7_x1).
body(r_fr7_13,fr10_a2).
head(r_fr7_14,fr7_x1).
body(r_fr7_14,fr7_t3).
head(r_fr7_15,fr7_p5).
body(r_fr7_15,fr7_x1).
body(r_fr7_15,fr7_u7).
body(r_fr7_15,fr7_w2).
body(r_fr7_15,fr8_q1).
head(r_fr7_16,fr7_p5).
body(r_fr7_16,fr9_a1).
body(r_fr7_16,fr10_a2).
body(r_fr7_16,fr10_a2).
body(r_fr7_16,fr10_a2).
head(r_fr7_17,fr7_p5).
body(r_fr7_17,fr7_b1).
body(r_fr7_17,fr10_a2).
head(r_fr7_18,fr9_p2).
body(r_fr7_18,fr7_r3).
body(r_fr7_18,fr7_t3).
body(r_fr7_18,fr7_u2).
body(r_fr7_18,fr7_w6).
body(r_fr7_18,fr7_x3).
body(r_fr7_18,fr7_z3).
head(r_fr7_19,fr9_p2).
body(r_fr7_19,fr7_x1).
body(r_fr7_19,fr7_s4).
body(r_fr7_19,fr7_x1).
head(r_fr7_20,fr9_p2).
body(r_fr7_20,fr10_a2).
body(r_fr7_20,fr7_t7).
body(r_fr7_20,fr7_w7).
head(r_fr7_21,fr7_v1).
body(r_fr7_21,fr10_a2).
body(r_fr7_21,fr7_x1).
body(r_fr7_21,fr7_z6).
head(r_fr7_22,fr7_v1).
body(r_fr7_22,fr7_x1).
body(r_fr7_22,fr7_u2).
body(r_fr7_22,fr7_z4).
head(r_fr7_23,fr7_v1).
body(r_fr7_23,fr7_x1).
body(r_fr7_23,fr7_x1).
body(r_fr7_23,fr7_z1).
head(r_fr7_24,fr7_v1).
head(r_fr7_25,fr7_v1).
body(r_fr7_25,fr7_b1).
head(r_fr7_26,fr7_y2).
body(r_fr7_26,fr7_b1).
body(r_fr7_26,fr10_a2).
body(r_fr7_26,fr7_r4).
body(r_fr7_26,fr7_x1).
body(r_fr7_26,fr7_x1).
head(r_fr7_27,fr7_y2).
body(r_fr7_27,fr7_x1).
body(r_fr7_27,fr8_w2).
head(r_fr7_28,fr7_x4).
body(r_fr7_28,fr9_a1).
body(r_fr7_28,fr7_p3).
body(r_fr7_28,fr7_x1).
body(r_fr7_28,fr7_x1).
body(r_fr7_28,fr7_v4).
body(r_fr7_28,fr7_x1).
head(r_fr7_29,fr7_x4).
head(r_fr7_30,fr7_x4).
body(r_fr7_30,fr10_a2).
body(r_fr7_30,fr7_r4).
body(r_fr7_30,fr7_t3).
body(r_fr7_30,fr7_x1).
head(r_fr7_31,fr7_u6).
body(r_fr7_31,fr10_a2).
body(r_fr7_31,fr7_x1).
head(r_fr7_32,fr7_u6).
body(r_fr7_32,fr10_a2).
body(r_fr7_32,fr10_a2).
body(r_fr7_32,fr7_x1).
body(r_fr7_32,fr8_p4).
head(r_fr7_33,fr7_x1).
body(r_fr7_33,fr7_b1).
body(r_fr7_33,fr10_a2).
body(r_fr7_33,fr10_a2).
body(r_fr7_33,fr7_t1).
body(r_fr7_33,fr7_u1).
body(r_fr7_33,fr7_x6).
head(r_fr7_34,fr7_x1).
head(r_fr7_35,fr7_z3).
body(r_fr7_35,fr7_b1).
body(r_fr7_35,fr10_a2).
body(r_fr7_35,fr10_a2).
body(r_fr7_35,fr10_a2).
head(r_fr7_36,fr7_z3).
body(r_fr7_36,fr10_a2).
body(r_fr7_36,fr7_q6).
body(r_fr7_36,fr7_x6).
head(r_fr7_37,fr7_z3).
body(r_fr7_37,fr10_a2).
body(r_fr7_37,fr7_x1).
body(r_fr7_37,fr7_t2).
body(r_fr7_37,fr7_v7).
body(r_fr7_37,fr7_x3).
head(r_fr7_38,fr7_z3).
head(r_fr7_39,fr7_z1).
body(r_fr7_39,fr7_b3).
body(r_fr7_39,fr10_a2).
body(r_fr7_39,fr10_a2).
head(r_fr7_40,fr7_z1).
head(r_fr7_41,fr7_z1).
body(r_fr7_41,fr10_a2).
body(r_fr7_41,fr10_a2).
body(r_fr7_41,fr7_x1).
head(r_fr7_42,fr7_z1).
body(r_fr7_42,fr10_a2).
body(r_fr7_42,fr9_y4).
head(r_fr7_43,fr7_w2).
body(r_fr7_43,fr7_p2).
body(r_fr7_43,fr7_q6).
head(r_fr7_44,fr7_w2).
body(r_fr7_44,fr9_a1).
head(r_fr7_45,fr7_w2).
body(r_fr7_45,fr7_x1).
head(r_fr7_46,fr9_y1).
body(r_fr7_46,fr7_x1).
head(r_fr7_47,fr9_y1).
body(r_fr7_47,fr9_a1).
body(r_fr7_47,fr10_a2).
body(r_fr7_47,fr7_w7).
body(r_fr7_47,fr7_x1).
head(r_fr7_48,fr9_y1).
body(r_fr7_48,fr9_a1).
body(r_fr7_48,fr10_a2).
body(r_fr7_48,fr10_a2).
body(r_fr7_48,fr10_a2).
head(r_fr7_49,fr9_y1).
body(r_fr7_49,fr7_a2).
body(r_fr7_49,fr10_a2).
body(r_fr7_49,fr10_a2).
body(r_fr7_49,fr10_a2).
head(r_fr7_50,fr9_y1).
body(r_fr7_50,fr7_x1).
head(r_fr7_51,fr7_w7).
head(r_fr7_52,fr7_w7).
body(r_fr7_52,fr9_a1).
body(r_fr7_52,fr7_p6).
body(r_fr7_52,fr9_r4).
body(r_fr7_52,fr7_x1).
head(r_fr7_53,fr7_w7).
body(r_fr7_53,fr7_a2).
body(r_fr7_53,fr10_a2).
body(r_fr7_53,fr7_b3).
body(r_fr7_53,fr10_a2).
body(r_fr7_53,fr10_a2).
head(r_fr7_54,fr7_x1).
body(r_fr7_54,fr7_x1).
body(r_fr7_54,fr7_u7).
body(r_fr7_54,fr7_x1).
body(r_fr7_54,fr7_z6).
head(r_fr7_55,fr7_x1).
body(r_fr7_55,fr7_p6).
body(r_fr7_55,fr7_x1).
body(r_fr7_55,fr7_x1).
body(r_fr7_55,fr7_z6).
head(r_fr7_56,fr7_x1).
body(r_fr7_56,fr10_a2).
body(r_fr7_56,fr10_a2).
body(r_fr7_56,fr10_a2).
body(r_fr7_56,fr10_a2).
body(r_fr7_56,fr7_p3).
head(r_fr7_57,fr7_x1).
head(r_fr7_58,fr7_x1).
body(r_fr7_58,fr7_v4).
body(r_fr7_58,fr8_q1).
head(r_fr7_59,fr7_x1).
body(r_fr7_59,fr7_z4).
head(r_fr7_60,fr7_x1).
body(r_fr7_60,fr10_a2).
body(r_fr7_60,fr7_p2).
head(r_fr7_61,fr7_r3).
body(r_fr7_61,fr9_a1).
body(r_fr7_61,fr10_a2).
body(r_fr7_61,fr10_a2).
body(r_fr7_61,fr10_a2).
body(r_fr7_61,fr7_p6).
body(r_fr7_61,fr7_u1).
head(r_fr7_62,fr7_r3).
body(r_fr7_62,fr10_a2).
body(r_fr7_62,fr7_t2).
head(r_fr7_63,fr7_r3).
body(r_fr7_63,fr10_a2).
body(r_fr7_63,fr10_a2).
body(r_fr7_63,fr10_a2).
body(r_fr7_63,fr10_a2).
head(r_fr7_64,fr7_r3).
body(r_fr7_64,fr10_a2).
body(r_fr7_64,fr7_q6).
body(r_fr7_64,fr9_r4).
body(r_fr7_64,fr7_u1).
body(r_fr7_64,fr7_x1).
head(r_fr7_65,fr7_t2).
body(r_fr7_65,fr10_a2).
body(r_fr7_65,fr10_a2).
body(r_fr7_65,fr10_a2).
body(r_fr7_65,fr7_s1).
body(r_fr7_65,fr8_p4).
body(r_fr7_65,fr7_u2).
head(r_fr7_66,fr7_t2).

assumption(fr8_a1).
assumption(fr10_a2).
assumption(fr10_a2).
assumption(fr2_c3).
assumption(fr10_a2).
assumption(fr10_a2).
assumption(fr10_a2).
assumption(fr10_a2).
assumption(fr10_a2).
assumption(fr10_a2).
assumption(fr10_a2).
assumption(fr10_a2).
assumption(fr10_a2).
assumption(fr10_a2).
assumption(fr10_a2).
contrary(fr8_a1,fr7_x1).
contrary(fr10_a2,fr7_x1).
contrary(fr10_a2,fr8_x2).
contrary(fr10_a2,fr10_p4).
contrary(fr10_a2,fr8_a1).
contrary(fr10_a2,fr8_v2).
contrary(fr10_a2,fr8_w2).
contrary(fr10_a2,fr10_a2).
contrary(fr10_a2,fr8_a1).
contrary(fr2_c3,fr8_q1).
contrary(fr10_a2,fr10_a2).
contrary(fr10_a2,fr7_x1).
contrary(fr10_a2,fr10_a2).
contrary(fr10_a2,fr10_a2).
contrary(fr10_a2,fr7_x1).
head(r_fr8_0,fr8_v2).
body(r_fr8_0,fr7_x1).
body(r_fr8_0,fr7_x1).
body(r_fr8_0,fr7_x1).
body(r_fr8_0,fr7_x1).
body(r_fr8_0,fr7_x1).
body(r_fr8_0,fr7_x1).
body(r_fr8_0,fr10_p4).
body(r_fr8_0,fr7_x1).
body(r_fr8_0,fr7_x1).
body(r_fr8_0,fr7_x1).
body(r_fr8_0,fr7_x1).
body(r_fr8_0,fr8_x2).
body(r_fr8_0,fr7_x1).
body(r_fr8_0,fr7_x1).
body(r_fr8_0,fr7_x1).
body(r_fr8_0,fr7_x1).
body(r_fr8_0,fr7_x1).
body(r_fr8_0,fr7_x1).
head(r_fr8_1,fr8_v2).
body(r_fr8_1,fr10_a2).
body(r_fr8_1,fr10_a2).
body(r_fr8_1,fr10_a2).
body(r_fr8_1,fr7_x1).
body(r_fr8_1,fr8_p4).
body(r_fr8_1,fr8_q1).
body(r_fr8_1,fr7_x1).
body(r_fr8_1,fr8_r1).
body(r_fr8_1,fr7_x1).
body(r_fr8_1,fr7_x1).
body(r_fr8_1,fr7_x1).
body(r_fr8_1,fr7_x1).
body(r_fr8_1,fr7_x1).
body(r_fr8_1,fr8_w2).
body(r_fr8_1,fr7_x1).
body(r_fr8_1,fr7_x1).
body(r_fr8_1,fr7_x1).
body(r_fr8_1,fr7_x1).
head(r_fr8_2,fr8_v2).
body(r_fr8_2,fr7_x1).
body(r_fr8_2,fr8_q1).
body(r_fr8_2,fr7_x1).
body(r_fr8_2,fr7_x1).
body(r_fr8_2,fr8_r1).
body(r_fr8_2,fr7_x1).
body(r_fr8_2,fr8_s1).
body(r_fr8_2,fr10_p4).
body(r_fr8_2,fr7_x1).
body(r_fr8_2,fr7_x1).
body(r_fr8_2,fr7_x1).
body(r_fr8_2,fr7_x1).
body(r_fr8_2,fr8_x2).
body(r_fr8_2,fr7_x1).
body(r_fr8_2,fr7_x1).
head(r_fr8_3,fr8_w2).
body(r_fr8_3,fr10_a2).
body(r_fr8_3,fr10_a2).
body(r_fr8_3,fr10_a2).
body(r_fr8_3,fr10_a2).
body(r_fr8_3,fr10_a2).
body(r_fr8_3,fr7_x1).
body(r_fr8_3,fr7_x1).
body(r_fr8_3,fr7_x1).
body(r_fr8_3,fr7_x1).
body(r_fr8_3,fr8_r1).
body(r_fr8_3,fr7_x1).
body(r_fr8_3,fr8_s2).
body(r_fr8_3,fr10_p4).
body(r_fr8_3,fr7_x1).
body(r_fr8_3,fr8_x2).
body(r_fr8_3,fr7_x1).
body(r_fr8_3,fr7_x1).
body(r_fr8_3,fr7_x1).
head(r_fr8_4,fr8_w2).
body(r_fr8_4,fr10_a2).
body(r_fr8_4,fr7_x1).
body(r_fr8_4,fr8_r1).
body(r_fr8_4,fr8_s1).
body(r_fr8_4,fr8_s2).
body(r_fr8_4,fr7_x1).
body(r_fr8_4,fr7_x1).
body(r_fr8_4,fr7_x1).
body(r_fr8_4,fr7_x1).
body(r_fr8_4,fr7_x1).
body(r_fr8_4,fr7_x1).
body(r_fr8_4,fr7_x1).
body(r_fr8_4,fr7_x1).
body(r_fr8_4,fr7_x1).
body(r_fr8_4,fr7_x1).
body(r_fr8_4,fr7_x1).
head(r_fr8_5,fr7_x1).
body(r_fr8_5,fr8_p4).
body(r_fr8_5,fr8_q1).
body(r_fr8_5,fr7_x1).
body(r_fr8_5,fr7_x1).
body(r_fr8_5,fr7_x1).
body(r_fr8_5,fr8_r1).
body(r_fr8_5,fr7_x1).
body(r_fr8_5,fr8_s1).
body(r_fr8_5,fr8_s2).
body(r_fr8_5,fr10_p4).
body(r_fr8_5,fr7_x1).
body(r_fr8_5,fr7_x1).
body(r_fr8_5,fr7_x1).
body(r_fr8_5,fr7_x1).
body(r_fr8_5,fr8_x2).
body(r_fr8_5,fr7_x1).
body(r_fr8_5,fr7_x1).
head(r_fr8_6,fr7_x1).
body(r_fr8_6,fr10_a2).
body(r_fr8_6,fr10_a2).
body(r_fr8_6,fr10_a2).
body(r_fr8_6,fr10_a2).
body(r_fr8_6,fr7_x1).
body(r_fr8_6,fr8_q1).
body(r_fr8_6,fr7_x1).
body(r_fr8_6,fr8_r1).
body(r_fr8_6,fr7_x1).
body(r_fr8_6,fr7_x1).
body(r_fr8_6,fr10_p4).
body(r_fr8_6,fr7_x1).
body(r_fr8_6,fr7_x1).
body(r_fr8_6,fr7_x1).
body(r_fr8_6,fr7_x1).
body(r_fr8_6,fr7_x1).
head(r_fr8_7,fr7_x1).
body(r_fr8_7,fr10_a2).
body(r_fr8_7,fr10_a2).
body(r_fr8_7,fr10_a2).
body(r_fr8_7,fr10_a2).
body(r_fr8_7,fr7_x1).
body(r_fr8_7,fr8_p4).
body(r_fr8_7,fr8_s1).
body(r_fr8_7,fr10_p4).
body(r_fr8_7,fr7_x1).
body(r_fr8_7,fr7_x1).
body(r_fr8_7,fr7_x1).
body(r_fr8_7,fr7_x1).
body(r_fr8_7,fr7_x1).
body(r_fr8_7,fr7_x1).
body(r_fr8_7,fr7_x1).
body(r_fr8_7,fr7_x1).
body(r_fr8_7,fr7_x1).
head(r_fr8_8,fr7_x1).
body(r_fr8_8,fr10_a2).
body(r_fr8_8,fr10_a2).
body(r_fr8_8,fr2_c3).
body(r_fr8_8,fr7_x1).
body(r_fr8_8,fr8_q1).
body(r_fr8_8,fr7_x1).
body(r_fr8_8,fr7_x1).
body(r_fr8_8,fr7_x1).
body(r_fr8_8,fr7_x1).
body(r_fr8_8,fr8_s2).
body(r_fr8_8,fr7_x1).
body(r_fr8_8,fr7_x1).
body(r_fr8_8,fr7_x1).
body(r_fr8_8,fr7_x1).
body(r_fr8_8,fr7_x1).
body(r_fr8_8,fr8_x2).
body(r_fr8_8,fr7_x1).
body(r_fr8_8,fr7_x1).
head(r_fr8_9,fr7_x1).
body(r_fr8_9,fr7_x1).
body(r_fr8_9,fr7_x1).
body(r_fr8_9,fr8_r1).
body(r_fr8_9,fr7_x1).
body(r_fr8_9,fr8_s1).
body(r_fr8_9,fr8_s2).
body(r_fr8_9,fr10_p4).
body(r_fr8_9,fr7_x1).
body(r_fr8_9,fr7_x1).
body(r_fr8_9,fr7_x1).
body(r_fr8_9,fr7_x1).
body(r_fr8_9,fr7_x1).
body(r_fr8_9,fr7_x1).
body(r_fr8_9,fr7_x1).
body(r_fr8_9,fr7_x1).
head(r_fr8_10,fr7_x1).
body(r_fr8_10,fr2_c3).
body(r_fr8_10,fr7_x1).
body(r_fr8_10,fr8_p4).
body(r_fr8_10,fr8_q1).
body(r_fr8_10,fr7_x1).
body(r_fr8_10,fr8_s1).
body(r_fr8_10,fr8_s2).
body(r_fr8_10,fr10_p4).
body(r_fr8_10,fr7_x1).
body(r_fr8_10,fr7_x1).
body(r_fr8_10,fr7_x1).
body(r_fr8_10,fr7_x1).
body(r_fr8_10,fr7_x1).
body(r_fr8_10,fr7_x1).
body(r_fr8_10,fr7_x1).
body(r_fr8_10,fr7_x1).
body(r_fr8_10,fr7_x1).
head(r_fr8_11,fr7_x1).
body(r_fr8_11,fr10_a2).
body(r_fr8_11,fr10_a2).
body(r_fr8_11,fr10_a2).
body(r_fr8_11,fr10_a2).
body(r_fr8_11,fr7_x1).
body(r_fr8_11,fr7_x1).
body(r_fr8_11,fr7_x1).
body(r_fr8_11,fr7_x1).
body(r_fr8_11,fr8_s1).
body(r_fr8_11,fr10_p4).
body(r_fr8_11,fr7_x1).
body(r_fr8_11,fr7_x1).
body(r_fr8_11,fr7_x1).
body(r_fr8_11,fr7_x1).
body(r_fr8_11,fr7_x1).
body(r_fr8_11,fr7_x1).
body(r_fr8_11,fr7_x1).
head(r_fr8_12,fr7_x1).
body(r_fr8_12,fr10_a2).
body(r_fr8_12,fr10_a2).
body(r_fr8_12,fr10_a2).
body(r_fr8_12,fr2_c3).
body(r_fr8_12,fr10_a2).
body(r_fr8_12,fr7_x1).
body(r_fr8_12,fr8_p4).
body(r_fr8_12,fr7_x1).
body(r_fr8_12,fr10_p4).
body(r_fr8_12,fr7_x1).
body(r_fr8_12,fr7_x1).
body(r_fr8_12,fr7_x1).
body(r_fr8_12,fr7_x1).
body(r_fr8_12,fr7_x1).
body(r_fr8_12,fr7_x1).
head(r_fr8_13,fr7_x1).
body(r_fr8_13,fr10_a2).
body(r_fr8_13,fr7_x1).
body(r_fr8_13,fr8_p4).
body(r_fr8_13,fr8_r1).
body(r_fr8_13,fr7_x1).
body(r_fr8_13,fr10_p4).
body(r_fr8_13,fr7_x1).
body(r_fr8_13,fr7_x1).
body(r_fr8_13,fr7_x1).
body(r_fr8_13,fr7_x1).
body(r_fr8_13,fr7_x1).
body(r_fr8_13,fr7_x1).
body(r_fr8_13,fr7_x1).
body(r_fr8_13,fr7_x1).
body(r_fr8_13,fr7_x1).
body(r_fr8_13,fr7_x1).
body(r_fr8_13,fr7_x1).
body(r_fr8_13,fr7_x1).
head(r_fr8_14,fr8_s1).
body(r_fr8_14,fr8_a1).
body(r_fr8_14,fr10_a2).
body(r_fr8_14,fr10_a2).
body(r_fr8_14,fr10_a2).
body(r_fr8_14,fr10_a2).
body(r_fr8_14,fr7_x1).
body(r_fr8_14,fr8_s2).
body(r_fr8_14,fr10_p4).
body(r_fr8_14,fr7_x1).
body(r_fr8_14,fr7_x1).
body(r_fr8_14,fr7_x1).
body(r_fr8_14,fr7_x1).
body(r_fr8_14,fr7_x1).
body(r_fr8_14,fr7_x1).
body(r_fr8_14,fr7_x1).
head(r_fr8_15,fr8_s1).
body(r_fr8_15,fr8_p4).
body(r_fr8_15,fr7_x1).
body(r_fr8_15,fr7_x1).
body(r_fr8_15,fr7_x1).
body(r_fr8_15,fr8_r1).
body(r_fr8_15,fr8_s2).
body(r_fr8_15,fr10_p4).
body(r_fr8_15,fr7_x1).
body(r_fr8_15,fr7_x1).
body(r_fr8_15,fr7_x1).
body(r_fr8_15,fr7_x1).
body(r_fr8_15,fr7_x1).
body(r_fr8_15,fr8_x2).
body(r_fr8_15,fr7_x1).
body(r_fr8_15,fr7_x1).
body(r_fr8_15,fr7_x1).
body(r_fr8_15,fr7_x1).
body(r_fr8_15,fr7_x1).
head(r_fr8_16,fr7_x1).
body(r_fr8_16,fr10_a2).
body(r_fr8_16,fr10_a2).
body(r_fr8_16,fr2_c3).
body(r_fr8_16,fr10_a2).
body(r_fr8_16,fr10_a2).
body(r_fr8_16,fr10_a2).
body(r_fr8_16,fr7_x1).
body(r_fr8_16,fr7_x1).
body(r_fr8_16,fr7_x1).
body(r_fr8_16,fr7_x1).
body(r_fr8_16,fr7_x1).
body(r_fr8_16,fr7_x1).
body(r_fr8_16,fr7_x1).
body(r_fr8_16,fr8_x2).
body(r_fr8_16,fr7_x1).
body(r_fr8_16,fr7_x1).
body(r_fr8_16,fr7_x1).
head(r_fr8_17,fr7_x1).
body(r_fr8_17,fr10_a2).
body(r_fr8_17,fr10_a2).
body(r_fr8_17,fr8_p4).
body(r_fr8_17,fr8_q1).
body(r_fr8_17,fr7_x1).
body(r_fr8_17,fr7_x1).
body(r_fr8_17,fr7_x1).
body(r_fr8_17,fr10_p4).
body(r_fr8_17,fr7_x1).
body(r_fr8_17,fr7_x1).
body(r_fr8_17,fr7_x1).
body(r_fr8_17,fr8_x2).
body(r_fr8_17,fr7_x1).
body(r_fr8_17,fr7_x1).
body(r_fr8_17,fr7_x1).
head(r_fr8_18,fr7_x1).
body(r_fr8_18,fr10_a2).
body(r_fr8_18,fr10_a2).
body(r_fr8_18,fr10_a2).
body(r_fr8_18,fr10_a2).
body(r_fr8_18,fr10_a2).
body(r_fr8_18,fr10_a2).
body(r_fr8_18,fr7_x1).
body(r_fr8_18,fr7_x1).
body(r_fr8_18,fr7_x1).
body(r_fr8_18,fr7_x1).
body(r_fr8_18,fr8_s2).
body(r_fr8_18,fr7_x1).
body(r_fr8_18,fr7_x1).
body(r_fr8_18,fr7_x1).
body(r_fr8_18,fr8_x2).
body(r_fr8_18,fr7_x1).
body(r_fr8_18,fr7_x1).
body(r_fr8_18,fr7_x1).
head(r_fr8_19,fr7_x1).
body(r_fr8_19,fr10_a2).
body(r_fr8_19,fr10_a2).
body(r_fr8_19,fr10_a2).
body(r_fr8_19,fr10_a2).
body(r_fr8_19,fr7_x1).
body(r_fr8_19,fr7_x1).
body(r_fr8_19,fr7_x1).
body(r_fr8_19,fr8_r1).
body(r_fr8_19,fr7_x1).
body(r_fr8_19,fr7_x1).
body(r_fr8_19,fr7_x1).
body(r_fr8_19,fr7_x1).
body(r_fr8_19,fr7_x1).
body(r_fr8_19,fr7_x1).
body(r_fr8_19,fr8_x2).
body(r_fr8_19,fr7_x1).
head(r_fr8_20,fr7_x1).
body(r_fr8_20,fr7_x1).
body(r_fr8_20,fr8_q1).
body(r_fr8_20,fr7_x1).
body(r_fr8_20,fr7_x1).
body(r_fr8_20,fr7_x1).
body(r_fr8_20,fr7_x1).
body(r_fr8_20,fr10_p4).
body(r_fr8_20,fr7_x1).
body(r_fr8_20,fr7_x1).
body(r_fr8_20,fr7_x1).
body(r_fr8_20,fr7_x1).
body(r_fr8_20,fr7_x1).
body(r_fr8_20,fr7_x1).
body(r_fr8_20,fr7_x1).
body(r_fr8_20,fr7_x1).
body(r_fr8_20,fr7_x1).
head(r_fr8_21,fr7_x1).
body(r_fr8_21,fr10_a2).
body(r_fr8_21,fr10_a2).
body(r_fr8_21,fr10_a2).
body(r_fr8_21,fr10_a2).
body(r_fr8_21,fr8_q1).
body(r_fr8_21,fr7_x1).
body(r_fr8_21,fr7_x1).
body(r_fr8_21,fr7_x1).
body(r_fr8_21,fr10_p4).
body(r_fr8_21,fr7_x1).
body(r_fr8_21,fr7_x1).
body(r_fr8_21,fr7_x1).
body(r_fr8_21,fr7_x1).
body(r_fr8_21,fr7_x1).
body(r_fr8_21,fr8_x2).
body(r_fr8_21,fr7_x1).
body(r_fr8_21,fr7_x1).
body(r_fr8_21,fr7_x1).
head(r_fr8_22,fr8_q1).
body(r_fr8_22,fr10_a2).
body(r_fr8_22,fr10_a2).
body(r_fr8_22,fr10_a2).
body(r_fr8_22,fr10_a2).
body(r_fr8_22,fr8_p4).
body(r_fr8_22,fr7_x1).
body(r_fr8_22,fr7_x1).
body(r_fr8_22,fr7_x1).
body(r_fr8_22,fr8_s2).
body(r_fr8_22,fr10_p4).
body(r_fr8_22,fr7_x1).
body(r_fr8_22,fr7_x1).
body(r_fr8_22,fr8_x2).
body(r_fr8_22,fr7_x1).
body(r_fr8_22,fr7_x1).
body(r_fr8_22,fr7_x1).
head(r_fr8_23,fr8_q1).
body(r_fr8_23,fr8_a1).
body(r_fr8_23,fr10_a2).
body(r_fr8_23,fr10_a2).
body(r_fr8_23,fr2_c3).
body(r_fr8_23,fr10_a2).
body(r_fr8_23,fr10_a2).
body(r_fr8_23,fr7_x1).
body(r_fr8_23,fr7_x1).
body(r_fr8_23,fr8_r1).
body(r_fr8_23,fr7_x1).
body(r_fr8_23,fr8_s2).
body(r_fr8_23,fr7_x1).
body(r_fr8_23,fr7_x1).
body(r_fr8_23,fr7_x1).
body(r_fr8_23,fr7_x1).
body(r_fr8_23,fr7_x1).
body(r_fr8_23,fr7_x1).
head(r_fr8_24,fr8_q1).
body(r_fr8_24,fr10_a2).
body(r_fr8_24,fr10_a2).
body(r_fr8_24,fr2_c3).
body(r_fr8_24,fr10_a2).
body(r_fr8_24,fr10_a2).
body(r_fr8_24,fr7_x1).
body(r_fr8_24,fr7_x1).
body(r_fr8_24,fr8_r1).
body(r_fr8_24,fr7_x1).
body(r_fr8_24,fr8_s2).
body(r_fr8_24,fr10_p4).
body(r_fr8_24,fr7_x1).
body(r_fr8_24,fr7_x1).
body(r_fr8_24,fr8_x2).
body(r_fr8_24,fr7_x1).
body(r_fr8_24,fr7_x1).
head(r_fr8_25,fr7_x1).
body(r_fr8_25,fr8_a1).
body(r_fr8_25,fr10_a2).
body(r_fr8_25,fr10_a2).
body(r_fr8_25,fr10_a2).
body(r_fr8_25,fr10_a2).
body(r_fr8_25,fr7_x1).
body(r_fr8_25,fr7_x1).
body(r_fr8_25,fr7_x1).
body(r_fr8_25,fr8_r1).
body(r_fr8_25,fr10_p4).
body(r_fr8_25,fr7_x1).
body(r_fr8_25,fr7_x1).
body(r_fr8_25,fr7_x1).
body(r_fr8_25,fr7_x1).
body(r_fr8_25,fr8_x2).
body(r_fr8_25,fr7_x1).
body(r_fr8_25,fr7_x1).
head(r_fr8_26,fr7_x1).
body(r_fr8_26,fr10_a2).
body(r_fr8_26,fr10_a2).
body(r_fr8_26,fr7_x1).
body(r_fr8_26,fr7_x1).
body(r_fr8_26,fr7_x1).
body(r_fr8_26,fr8_s2).
body(r_fr8_26,fr7_x1).
body(r_fr8_26,fr7_x1).
body(r_fr8_26,fr7_x1).
body(r_fr8_26,fr7_x1).
body(r_fr8_26,fr7_x1).
body(r_fr8_26,fr8_x2).
body(r_fr8_26,fr7_x1).
body(r_fr8_26,fr7_x1).
body(r_fr8_26,fr7_x1).
head(r_fr8_27,fr7_x1).
body(r_fr8_27,fr7_x1).
body(r_fr8_27,fr7_x1).
body(r_fr8_27,fr7_x1).
body(r_fr8_27,fr7_x1).
body(r_fr8_27,fr7_x1).
body(r_fr8_27,fr8_s2).
body(r_fr8_27,fr7_x1).
body(r_fr8_27,fr7_x1).
body(r_fr8_27,fr7_x1).
body(r_fr8_27,fr7_x1).
body(r_fr8_27,fr7_x1).
body(r_fr8_27,fr7_x1).
body(r_fr8_27,fr7_x1).
body(r_fr8_27,fr8_x2).
body(r_fr8_27,fr7_x1).
body(r_fr8_27,fr7_x1).
body(r_fr8_27,fr7_x1).
body(r_fr8_27,fr7_x1).
head(r_fr8_28,fr7_x1).
body(r_fr8_28,fr10_a2).
body(r_fr8_28,fr10_a2).
body(r_fr8_28,fr7_x1).
body(r_fr8_28,fr7_x1).
body(r_fr8_28,fr7_x1).
body(r_fr8_28,fr10_p4).
body(r_fr8_28,fr7_x1).
body(r_fr8_28,fr7_x1).
body(r_fr8_28,fr7_x1).
body(r_fr8_28,fr7_x1).
body(r_fr8_28,fr7_x1).
body(r_fr8_28,fr7_x1).
body(r_fr8_28,fr7_x1).
body(r_fr8_28,fr7_x1).
body(r_fr8_28,fr7_x1).
head(r_fr8_29,fr7_x1).
body(r_fr8_29,fr10_a2).
body(r_fr8_29,fr2_c3).
body(r_fr8_29,fr7_x1).
body(r_fr8_29,fr8_p4).
body(r_fr8_29,fr7_x1).
body(r_fr8_29,fr7_x1).
body(r_fr8_29,fr8_r1).
body(r_fr8_29,fr7_x1).
body(r_fr8_29,fr7_x1).
body(r_fr8_29,fr7_x1).
body(r_fr8_29,fr7_x1).
body(r_fr8_29,fr7_x1).
body(r_fr8_29,fr8_x2).
body(r_fr8_29,fr7_x1).
body(r_fr8_29,fr7_x1).
head(r_fr8_30,fr7_x1).
body(r_fr8_30,fr8_a1).
body(r_fr8_30,fr10_a2).
body(r_fr8_30,fr10_a2).
body(r_fr8_30,fr8_r1).
body(r_fr8_30,fr7_x1).
body(r_fr8_30,fr8_s2).
body(r_fr8_30,fr10_p4).
body(r_fr8_30,fr7_x1).
body(r_fr8_30,fr7_x1).
body(r_fr8_30,fr7_x1).
body(r_fr8_30,fr7_x1).
body(r_fr8_30,fr7_x1).
body(r_fr8_30,fr8_x2).
body(r_fr8_30,fr7_x1).
body(r_fr8_30,fr7_x1).
body(r_fr8_30,fr7_x1).
head(r_fr8_31,fr7_x1).
body(r_fr8_31,fr10_a2).
body(r_fr8_31,fr10_a2).
body(r_fr8_31,fr10_a2).
body(r_fr8_31,fr7_x1).
body(r_fr8_31,fr8_p4).
body(r_fr8_31,fr7_x1).
body(r_fr8_31,fr7_x1).
body(r_fr8_31,fr7_x1).
body(r_fr8_31,fr7_x1).
body(r_fr8_31,fr7_x1).
body(r_fr8_31,fr7_x1).
body(r_fr8_31,fr8_x2).
body(r_fr8_31,fr7_x1).
body(r_fr8_31,fr7_x1).
body(r_fr8_31,fr7_x1).
head(r_fr8_32,fr7_x1).
body(r_fr8_32,fr10_a2).
body(r_fr8_32,fr10_a2).
body(r_fr8_32,fr10_a2).
body(r_fr8_32,fr7_x1).
body(r_fr8_32,fr8_p4).
body(r_fr8_32,fr7_x1).
body(r_fr8_32,fr7_x1).
body(r_fr8_32,fr8_s2).
body(r_fr8_32,fr10_p4).
body(r_fr8_32,fr7_x1).
body(r_fr8_32,fr7_x1).
body(r_fr8_32,fr7_x1).
body(r_fr8_32,fr7_x1).
body(r_fr8_32,fr7_x1).
body(r_fr8_32,fr7_x1).
head(r_fr8_33,fr7_x1).
body(r_fr8_33,fr8_a1).
body(r_fr8_33,fr10_a2).
body(r_fr8_33,fr10_a2).
body(r_fr8_33,fr10_a2).
body(r_fr8_33,fr8_p4).
body(r_fr8_33,fr7_x1).
body(r_fr8_33,fr8_r1).
body(r_fr8_33,fr7_x1).
body(r_fr8_33,fr8_s2).
body(r_fr8_33,fr7_x1).
body(r_fr8_33,fr7_x1).
body(r_fr8_33,fr7_x1).
body(r_fr8_33,fr7_x1).
body(r_fr8_33,fr7_x1).
body(r_fr8_33,fr7_x1).
body(r_fr8_33,fr8_x2).
body(r_fr8_33,fr7_x1).
body(r_fr8_33,fr7_x1).
head(r_fr8_34,fr7_x1).
body(r_fr8_34,fr10_a2).
body(r_fr8_34,fr10_a2).
body(r_fr8_34,fr10_a2).
body(r_fr8_34,fr10_a2).
body(r_fr8_34,fr10_a2).
body(r_fr8_34,fr10_a2).
body(r_fr8_34,fr8_p4).
body(r_fr8_34,fr7_x1).
body(r_fr8_34,fr8_r1).
body(r_fr8_34,fr7_x1).
body(r_fr8_34,fr7_x1).
body(r_fr8_34,fr7_x1).
body(r_fr8_34,fr8_x2).
body(r_fr8_34,fr7_x1).
body(r_fr8_34,fr7_x1).
head(r_fr8_35,fr7_x1).
body(r_fr8_35,fr7_x1).
body(r_fr8_35,fr8_p4).
body(r_fr8_35,fr7_x1).
body(r_fr8_35,fr8_r1).
body(r_fr8_35,fr7_x1).
body(r_fr8_35,fr7_x1).
body(r_fr8_35,fr8_s2).
body(r_fr8_35,fr10_p4).
body(r_fr8_35,fr7_x1).
body(r_fr8_35,fr7_x1).
body(r_fr8_35,fr8_x2).
body(r_fr8_35,fr7_x1).
body(r_fr8_35,fr7_x1).
body(r_fr8_35,fr7_x1).
body(r_fr8_35,fr7_x1).
body(r_fr8_35,fr7_x1).
head(r_fr8_36,fr8_p4).
body(r_fr8_36,fr10_a2).
body(r_fr8_36,fr10_a2).
body(r_fr8_36,fr2_c3).
body(r_fr8_36,fr10_a2).
body(r_fr8_36,fr10_a2).
body(r_fr8_36,fr10_a2).
body(r_fr8_36,fr7_x1).
body(r_fr8_36,fr8_r1).
body(r_fr8_36,fr7_x1).
body(r_fr8_36,fr10_p4).
body(r_fr8_36,fr7_x1).
body(r_fr8_36,fr7_x1).
body(r_fr8_36,fr7_x1).
body(r_fr8_36,fr7_x1).
body(r_fr8_36,fr7_x1).
head(r_fr8_37,fr8_p4).
body(r_fr8_37,fr10_a2).
body(r_fr8_37,fr10_a2).
body(r_fr8_37,fr10_a2).
body(r_fr8_37,fr10_a2).
body(r_fr8_37,fr7_x1).
body(r_fr8_37,fr8_r1).
body(r_fr8_37,fr7_x1).
body(r_fr8_37,fr7_x1).
body(r_fr8_37,fr7_x1).
body(r_fr8_37,fr7_x1).
body(r_fr8_37,fr7_x1).
body(r_fr8_37,fr7_x1).
body(r_fr8_37,fr7_x1).
body(r_fr8_37,fr8_x2).
body(r_fr8_37,fr7_x1).
body(r_fr8_37,fr7_x1).
body(r_fr8_37,fr7_x1).
head(r_fr8_38,fr7_x1).
body(r_fr8_38,fr10_a2).
body(r_fr8_38,fr10_a2).
body(r_fr8_38,fr2_c3).
body(r_fr8_38,fr10_a2).
body(r_fr8_38,fr10_a2).
body(r_fr8_38,fr7_x1).
body(r_fr8_38,fr7_x1).
body(r_fr8_38,fr8_r1).
body(r_fr8_38,fr7_x1).
body(r_fr8_38,fr7_x1).
body(r_fr8_38,fr7_x1).
body(r_fr8_38,fr7_x1).
body(r_fr8_38,fr8_x2).
body(r_fr8_38,fr7_x1).
body(r_fr8_38,fr7_x1).
body(r_fr8_38,fr7_x1).
body(r_fr8_38,fr7_x1).
head(r_fr8_39,fr7_x1).
body(r_fr8_39,fr10_a2).
body(r_fr8_39,fr7_x1).
body(r_fr8_39,fr8_r1).
body(r_fr8_39,fr7_x1).
body(r_fr8_39,fr8_s2).
body(r_fr8_39,fr10_p4).
body(r_fr8_39,fr7_x1).
body(r_fr8_39,fr7_x1).
body(r_fr8_39,fr7_x1).
body(r_fr8_39,fr7_x1).
body(r_fr8_39,fr8_x2).
body(r_fr8_39,fr7_x1).
body(r_fr8_39,fr7_x1).
body(r_fr8_39,fr7_x1).
body(r_fr8_39,fr7_x1).
body(r_fr8_39,fr7_x1).
head(r_fr8_40,fr7_x1).
body(r_fr8_40,fr10_a2).
body(r_fr8_40,fr10_a2).
body(r_fr8_40,fr7_x1).
body(r_fr8_40,fr7_x1).
body(r_fr8_40,fr8_r1).
body(r_fr8_40,fr7_x1).
body(r_fr8_40,fr7_x1).
body(r_fr8_40,fr7_x1).
body(r_fr8_40,fr7_x1).
body(r_fr8_40,fr7_x1).
body(r_fr8_40,fr7_x1).
body(r_fr8_40,fr7_x1).
body(r_fr8_40,fr8_x2).
body(r_fr8_40,fr7_x1).
body(r_fr8_40,fr7_x1).
body(r_fr8_40,fr7_x1).
head(r_fr8_41,fr7_x1).
body(r_fr8_41,fr10_a2).
body(r_fr8_41,fr10_a2).
body(r_fr8_41,fr10_a2).
body(r_fr8_41,fr10_a2).
body(r_fr8_41,fr10_a2).
body(r_fr8_41,fr7_x1).
body(r_fr8_41,fr7_x1).
body(r_fr8_41,fr8_s2).
body(r_fr8_41,fr7_x1).
body(r_fr8_41,fr7_x1).
body(r_fr8_41,fr7_x1).
body(r_fr8_41,fr7_x1).
body(r_fr8_41,fr7_x1).
body(r_fr8_41,fr7_x1).
body(r_fr8_41,fr7_x1).
head(r_fr8_42,fr7_x1).
body(r_fr8_42,fr10_a2).
body(r_fr8_42,fr10_a2).
body(r_fr8_42,fr7_x1).
body(r_fr8_42,fr7_x1).
body(r_fr8_42,fr8_r1).
body(r_fr8_42,fr7_x1).
body(r_fr8_42,fr7_x1).
body(r_fr8_42,fr8_s2).
body(r_fr8_42,fr7_x1).
body(r_fr8_42,fr7_x1).
body(r_fr8_42,fr7_x1).
body(r_fr8_42,fr8_x2).
body(r_fr8_42,fr7_x1).
body(r_fr8_42,fr7_x1).
body(r_fr8_42,fr7_x1).
body(r_fr8_42,fr7_x1).
head(r_fr8_43,fr7_x1).
body(r_fr8_43,fr8_a1).
body(r_fr8_43,fr10_a2).
body(r_fr8_43,fr2_c3).
body(r_fr8_43,fr10_a2).
body(r_fr8_43,fr7_x1).
body(r_fr8_43,fr7_x1).
body(r_fr8_43,fr8_r1).
body(r_fr8_43,fr7_x1).
body(r_fr8_43,fr7_x1).
body(r_fr8_43,fr7_x1).
body(r_fr8_43,fr7_x1).
body(r_fr8_43,fr7_x1).
body(r_fr8_43,fr7_x1).
body(r_fr8_43,fr7_x1).
body(r_fr8_43,fr7_x1).
head(r_fr8_44,fr7_x1).
body(r_fr8_44,fr10_a2).
body(r_fr8_44,fr10_a2).
body(r_fr8_44,fr2_c3).
body(r_fr8_44,fr10_a2).
body(r_fr8_44,fr7_x1).
body(r_fr8_44,fr7_x1).
body(r_fr8_44,fr8_r1).
body(r_fr8_44,fr7_x1).
body(r_fr8_44,fr7_x1).
body(r_fr8_44,fr8_s2).
body(r_fr8_44,fr10_p4).
body(r_fr8_44,fr7_x1).
body(r_fr8_44,fr7_x1).
body(r_fr8_44,fr7_x1).
body(r_fr8_44,fr8_x2).
body(r_fr8_44,fr7_x1).
head(r_fr8_45,fr7_x1).
body(r_fr8_45,fr8_a1).
body(r_fr8_45,fr10_a2).
body(r_fr8_45,fr10_a2).
body(r_fr8_45,fr2_c3).
body(r_fr8_45,fr10_a2).
body(r_fr8_45,fr10_a2).
body(r_fr8_45,fr7_x1).
body(r_fr8_45,fr7_x1).
body(r_fr8_45,fr10_p4).
body(r_fr8_45,fr7_x1).
body(r_fr8_45,fr7_x1).
body(r_fr8_45,fr7_x1).
body(r_fr8_45,fr8_x2).
body(r_fr8_45,fr7_x1).
body(r_fr8_45,fr7_x1).
body(r_fr8_45,fr7_x1).
body(r_fr8_45,fr7_x1).
head(r_fr8_46,fr7_x1).
body(r_fr8_46,fr2_c3).
body(r_fr8_46,fr7_x1).
body(r_fr8_46,fr7_x1).
body(r_fr8_46,fr7_x1).
body(r_fr8_46,fr8_r1).
body(r_fr8_46,fr7_x1).
body(r_fr8_46,fr8_s2).
body(r_fr8_46,fr10_p4).
body(r_fr8_46,fr7_x1).
body(r_fr8_46,fr7_x1).
body(r_fr8_46,fr7_x1).
body(r_fr8_46,fr7_x1).
body(r_fr8_46,fr8_x2).
body(r_fr8_46,fr7_x1).
body(r_fr8_46,fr7_x1).
body(r_fr8_46,fr7_x1).
body(r_fr8_46,fr7_x1).
body(r_fr8_46,fr7_x1).
head(r_fr8_47,fr7_x1).
body(r_fr8_47,fr10_a2).
body(r_fr8_47,fr10_a2).
body(r_fr8_47,fr2_c3).
body(r_fr8_47,fr10_a2).
body(r_fr8_47,fr7_x1).
body(r_fr8_47,fr8_r1).
body(r_fr8_47,fr8_s2).
body(r_fr8_47,fr10_p4).
body(r_fr8_47,fr7_x1).
body(r_fr8_47,fr7_x1).
body(r_fr8_47,fr7_x1).
body(r_fr8_47,fr7_x1).
body(r_fr8_47,fr7_x1).
body(r_fr8_47,fr8_x2).
body(r_fr8_47,fr7_x1).
body(r_fr8_47,fr7_x1).
body(r_fr8_47,fr7_x1).
head(r_fr8_48,fr7_x1).
body(r_fr8_48,fr10_a2).
body(r_fr8_48,fr10_a2).
body(r_fr8_48,fr10_a2).
body(r_fr8_48,fr10_a2).
body(r_fr8_48,fr7_x1).
body(r_fr8_48,fr7_x1).
body(r_fr8_48,fr8_r1).
body(r_fr8_48,fr10_p4).
body(r_fr8_48,fr7_x1).
body(r_fr8_48,fr7_x1).
body(r_fr8_48,fr7_x1).
body(r_fr8_48,fr7_x1).
body(r_fr8_48,fr7_x1).
body(r_fr8_48,fr7_x1).
body(r_fr8_48,fr7_x1).
body(r_fr8_48,fr7_x1).
head(r_fr8_49,fr7_x1).
body(r_fr8_49,fr8_a1).
body(r_fr8_49,fr10_a2).
body(r_fr8_49,fr10_a2).
body(r_fr8_49,fr7_x1).
body(r_fr8_49,fr8_r1).
body(r_fr8_49,fr7_x1).
body(r_fr8_49,fr10_p4).
body(r_fr8_49,fr7_x1).
body(r_fr8_49,fr7_x1).
body(r_fr8_49,fr7_x1).
body(r_fr8_49,fr7_x1).
body(r_fr8_49,fr7_x1).
body(r_fr8_49,fr8_x2).
body(r_fr8_49,fr7_x1).
body(r_fr8_49,fr7_x1).
body(r_fr8_49,fr7_x1).
body(r_fr8_49,fr7_x1).
head(r_fr8_50,fr7_x1).
body(r_fr8_50,fr10_a2).
body(r_fr8_50,fr10_a2).
body(r_fr8_50,fr7_x1).
body(r_fr8_50,fr7_x1).
body(r_fr8_50,fr8_r1).
body(r_fr8_50,fr7_x1).
body(r_fr8_50,fr8_s2).
body(r_fr8_50,fr10_p4).
body(r_fr8_50,fr7_x1).
body(r_fr8_50,fr7_x1).
body(r_fr8_50,fr7_x1).
body(r_fr8_50,fr7_x1).
body(r_fr8_50,fr8_x2).
body(r_fr8_50,fr7_x1).
body(r_fr8_50,fr7_x1).
body(r_fr8_50,fr7_x1).
body(r_fr8_50,fr7_x1).
head(r_fr8_51,fr7_x1).
body(r_fr8_51,fr10_a2).
body(r_fr8_51,fr7_x1).
body(r_fr8_51,fr7_x1).
body(r_fr8_51,fr7_x1).
body(r_fr8_51,fr8_r1).
body(r_fr8_51,fr7_x1).
body(r_fr8_51,fr10_p4).
body(r_fr8_51,fr7_x1).
body(r_fr8_51,fr7_x1).
body(r_fr8_51,fr7_x1).
body(r_fr8_51,fr8_x2).
body(r_fr8_51,fr7_x1).
body(r_fr8_51,fr7_x1).
body(r_fr8_51,fr7_x1).
body(r_fr8_51,fr7_x1).
body(r_fr8_51,fr7_x1).
head(r_fr8_52,fr7_x1).
body(r_fr8_52,fr10_a2).
body(r_fr8_52,fr10_a2).
body(r_fr8_52,fr10_a2).
body(r_fr8_52,fr10_a2).
body(r_fr8_52,fr10_a2).
body(r_fr8_52,fr7_x1).
body(r_fr8_52,fr7_x1).
body(r_fr8_52,fr8_r1).
body(r_fr8_52,fr7_x1).
body(r_fr8_52,fr10_p4).
body(r_fr8_52,fr7_x1).
body(r_fr8_52,fr7_x1).
body(r_fr8_52,fr7_x1).
body(r_fr8_52,fr7_x1).
body(r_fr8_52,fr7_x1).
body(r_fr8_52,fr7_x1).
body(r_fr8_52,fr7_x1).
body(r_fr8_52,fr7_x1).
head(r_fr8_53,fr7_x1).
body(r_fr8_53,fr7_x1).
body(r_fr8_53,fr7_x1).
body(r_fr8_53,fr7_x1).
body(r_fr8_53,fr8_r1).
body(r_fr8_53,fr7_x1).
body(r_fr8_53,fr10_p4).
body(r_fr8_53,fr7_x1).
body(r_fr8_53,fr7_x1).
body(r_fr8_53,fr7_x1).
body(r_fr8_53,fr7_x1).
body(r_fr8_53,fr8_x2).
body(r_fr8_53,fr7_x1).
body(r_fr8_53,fr7_x1).
body(r_fr8_53,fr7_x1).
body(r_fr8_53,fr7_x1).
body(r_fr8_53,fr7_x1).
head(r_fr8_54,fr7_x1).
body(r_fr8_54,fr8_a1).
body(r_fr8_54,fr10_a2).
body(r_fr8_54,fr10_a2).
body(r_fr8_54,fr2_c3).
body(r_fr8_54,fr10_a2).
body(r_fr8_54,fr10_a2).
body(r_fr8_54,fr7_x1).
body(r_fr8_54,fr7_x1).
body(r_fr8_54,fr7_x1).
body(r_fr8_54,fr8_s2).
body(r_fr8_54,fr10_p4).
body(r_fr8_54,fr7_x1).
body(r_fr8_54,fr7_x1).
body(r_fr8_54,fr8_x2).
body(r_fr8_54,fr7_x1).
body(r_fr8_54,fr7_x1).
body(r_fr8_54,fr7_x1).
body(r_fr8_54,fr7_x1).
head(r_fr8_55,fr8_x2).
body(r_fr8_55,fr8_a1).
body(r_fr8_55,fr10_a2).
body(r_fr8_55,fr10_a2).
body(r_fr8_55,fr2_c3).
body(r_fr8_55,fr10_a2).
body(r_fr8_55,fr7_x1).
body(r_fr8_55,fr7_x1).
body(r_fr8_55,fr7_x1).
body(r_fr8_55,fr7_x1).
body(r_fr8_55,fr10_p4).
body(r_fr8_55,fr7_x1).
body(r_fr8_55,fr7_x1).
body(r_fr8_55,fr7_x1).
body(r_fr8_55,fr7_x1).
body(r_fr8_55,fr7_x1).
body(r_fr8_55,fr7_x1).
body(r_fr8_55,fr7_x1).
body(r_fr8_55,fr7_x1).
head(r_fr8_56,fr8_x2).
body(r_fr8_56,fr10_a2).
body(r_fr8_56,fr10_a2).
body(r_fr8_56,fr10_a2).
body(r_fr8_56,fr10_a2).
body(r_fr8_56,fr7_x1).
body(r_fr8_56,fr7_x1).
body(r_fr8_56,fr8_r1).
body(r_fr8_56,fr7_x1).
body(r_fr8_56,fr8_s2).
body(r_fr8_56,fr7_x1).
body(r_fr8_56,fr7_x1).
body(r_fr8_56,fr7_x1).
body(r_fr8_56,fr7_x1).
body(r_fr8_56,fr7_x1).
body(r_fr8_56,fr7_x1).
head(r_fr8_57,fr7_x1).
body(r_fr8_57,fr8_a1).
body(r_fr8_57,fr10_a2).
body(r_fr8_57,fr10_a2).
body(r_fr8_57,fr10_a2).
body(r_fr8_57,fr7_x1).
body(r_fr8_57,fr7_x1).
body(r_fr8_57,fr7_x1).
body(r_fr8_57,fr8_r1).
body(r_fr8_57,fr7_x1).
body(r_fr8_57,fr8_s2).
body(r_fr8_57,fr10_p4).
body(r_fr8_57,fr7_x1).
body(r_fr8_57,fr7_x1).
body(r_fr8_57,fr7_x1).
body(r_fr8_57,fr7_x1).
body(r_fr8_57,fr7_x1).
body(r_fr8_57,fr7_x1).
body(r_fr8_57,fr7_x1).
head(r_fr8_58,fr7_x1).
body(r_fr8_58,fr10_a2).
body(r_fr8_58,fr2_c3).
body(r_fr8_58,fr10_a2).
body(r_fr8_58,fr7_x1).
body(r_fr8_58,fr7_x1).
body(r_fr8_58,fr7_x1).
body(r_fr8_58,fr8_r1).
body(r_fr8_58,fr7_x1).
body(r_fr8_58,fr8_s2).
body(r_fr8_58,fr7_x1).
body(r_fr8_58,fr7_x1).
body(r_fr8_58,fr7_x1).
body(r_fr8_58,fr7_x1).
body(r_fr8_58,fr7_x1).
body(r_fr8_58,fr7_x1).
body(r_fr8_58,fr7_x1).
head(r_fr8_59,fr7_x1).
body(r_fr8_59,fr10_a2).
body(r_fr8_59,fr10_a2).
body(r_fr8_59,fr10_a2).
body(r_fr8_59,fr10_a2).
body(r_fr8_59,fr7_x1).
body(r_fr8_59,fr7_x1).
body(r_fr8_59,fr8_r1).
body(r_fr8_59,fr7_x1).
body(r_fr8_59,fr8_s2).
body(r_fr8_59,fr10_p4).
body(r_fr8_59,fr7_x1).
body(r_fr8_59,fr7_x1).
body(r_fr8_59,fr7_x1).
body(r_fr8_59,fr7_x1).
body(r_fr8_59,fr7_x1).
body(r_fr8_59,fr7_x1).
head(r_fr8_60,fr7_x1).
body(r_fr8_60,fr10_a2).
body(r_fr8_60,fr10_a2).
body(r_fr8_60,fr10_a2).
body(r_fr8_60,fr7_x1).
body(r_fr8_60,fr7_x1).
body(r_fr8_60,fr8_r1).
body(r_fr8_60,fr7_x1).
body(r_fr8_60,fr8_s2).
body(r_fr8_60,fr7_x1).
body(r_fr8_60,fr7_x1).
body(r_fr8_60,fr7_x1).
body(r_fr8_60,fr7_x1).
body(r_fr8_60,fr7_x1).
body(r_fr8_60,fr7_x1).
body(r_fr8_60,fr7_x1).
body(r_fr8_60,fr7_x1).
head(r_fr8_61,fr7_x1).
body(r_fr8_61,fr10_a2).
body(r_fr8_61,fr2_c3).
body(r_fr8_61,fr7_x1).
body(r_fr8_61,fr7_x1).
body(r_fr8_61,fr7_x1).
body(r_fr8_61,fr8_r1).
body(r_fr8_61,fr8_s2).
body(r_fr8_61,fr10_p4).
body(r_fr8_61,fr7_x1).
body(r_fr8_61,fr7_x1).
body(r_fr8_61,fr7_x1).
body(r_fr8_61,fr7_x1).
body(r_fr8_61,fr7_x1).
body(r_fr8_61,fr7_x1).
body(r_fr8_61,fr7_x1).
body(r_fr8_61,fr7_x1).
head(r_fr8_62,fr7_x1).
body(r_fr8_62,fr8_a1).
body(r_fr8_62,fr10_a2).
body(r_fr8_62,fr10_a2).
body(r_fr8_62,fr10_a2).
body(r_fr8_62,fr10_a2).
body(r_fr8_62,fr7_x1).
body(r_fr8_62,fr8_r1).
body(r_fr8_62,fr7_x1).
body(r_fr8_62,fr8_s2).
body(r_fr8_62,fr7_x1).
body(r_fr8_62,fr7_x1).
body(r_fr8_62,fr7_x1).
body(r_fr8_62,fr7_x1).
body(r_fr8_62,fr7_x1).
body(r_fr8_62,fr7_x1).
head(r_fr8_63,fr7_x1).
body(r_fr8_63,fr8_a1).
body(r_fr8_63,fr10_a2).
body(r_fr8_63,fr10_a2).
body(r_fr8_63,fr10_a2).
body(r_fr8_63,fr7_x1).
body(r_fr8_63,fr7_x1).
body(r_fr8_63,fr7_x1).
body(r_fr8_63,fr8_r1).
body(r_fr8_63,fr7_x1).
body(r_fr8_63,fr10_p4).
body(r_fr8_63,fr7_x1).
body(r_fr8_63,fr7_x1).
body(r_fr8_63,fr7_x1).
body(r_fr8_63,fr7_x1).
body(r_fr8_63,fr7_x1).

assumption(fr9_a1).
assumption(fr10_a2).
assumption(fr9_c1).
assumption(fr10_a2).
assumption(fr9_e1).
assumption(fr10_a2).
assumption(fr9_a2).
assumption(fr10_a2).
assumption(fr10_a2).
assumption(fr10_a2).
assumption(fr10_a2).
assumption(fr10_a2).
assumption(fr10_a2).
assumption(fr10_a2).
assumption(fr10_a2).
assumption(fr2_c3).
assumption(fr1_c1).
assumption(fr10_a2).
assumption(fr9_a4).
assumption(fr10_a2).
assumption(fr10_a2).
assumption(fr10_a2).
assumption(fr10_a2).
assumption(fr10_a2).
assumption(fr10_a2).
assumption(fr10_a2).
assumption(fr10_a2).
assumption(fr9_d5).
assumption(fr10_a2).
assumption(fr10_a2).
assumption(fr1_c1).
assumption(fr10_a2).
assumption(fr10_a2).
contrary(fr9_a1,fr7_x1).
contrary(fr9_a2,fr9_v4).
contrary(fr10_a2,fr9_v4).
contrary(fr9_a4,fr7_x1).
contrary(fr10_a2,fr7_x1).
contrary(fr1_c1,fr10_a2).
contrary(fr10_a2,fr10_a2).
contrary(fr10_a2,fr7_x1).
contrary(fr10_a2,fr7_x1).
contrary(fr10_a2,fr10_a2).
contrary(fr10_a2,fr9_y1).
contrary(fr10_a2,fr7_x1).
contrary(fr9_c1,fr10_a2).
contrary(fr10_a2,fr10_a2).
contrary(fr10_a2,fr7_x1).
contrary(fr10_a2,fr9_c1).
contrary(fr10_a2,fr7_x1).
contrary(fr10_a2,fr7_x1).
contrary(fr10_a2,fr9_d5).
contrary(fr10_a2,fr9_y4).
contrary(fr2_c3,fr7_x1).
contrary(fr10_a2,fr7_x1).
contrary(fr9_d5,fr2_c3).
contrary(fr9_e1,fr10_a2).
contrary(fr10_a2,fr9_w4).
contrary(fr1_c1,fr9_c1).
contrary(fr10_a2,fr9_x1).
contrary(fr10_a2,fr7_x1).
contrary(fr10_a2,fr9_d5).
contrary(fr10_a2,fr1_u1).
contrary(fr10_a2,fr7_x1).
contrary(fr10_a2,fr7_x1).
contrary(fr10_a2,fr10_a2).
head(r_fr9_0,fr7_x1).
body(r_fr9_0,fr10_a2).
body(r_fr9_0,fr7_x1).
body(r_fr9_0,fr1_u1).
body(r_fr9_0,fr7_x1).
body(r_fr9_0,fr9_t3).
head(r_fr9_1,fr7_x1).
body(r_fr9_1,fr7_x1).
head(r_fr9_2,fr7_x1).
head(r_fr9_3,fr7_x1).
body(r_fr9_3,fr1_c1).
body(r_fr9_3,fr10_a2).
body(r_fr9_3,fr10_a2).
body(r_fr9_3,fr10_a2).
body(r_fr9_3,fr10_a2).
body(r_fr9_3,fr10_a2).
body(r_fr9_3,fr10_a2).
body(r_fr9_3,fr1_u1).
head(r_fr9_4,fr7_x1).
body(r_fr9_4,fr10_a2).
body(r_fr9_4,fr10_a2).
body(r_fr9_4,fr10_a2).
body(r_fr9_4,fr9_e1).
body(r_fr9_4,fr10_a2).
body(r_fr9_4,fr10_a2).
body(r_fr9_4,fr9_p3).
body(r_fr9_4,fr7_x1).
body(r_fr9_4,fr7_x1).
head(r_fr9_5,fr7_x1).
body(r_fr9_5,fr9_c1).
body(r_fr9_5,fr10_a2).
body(r_fr9_5,fr7_x1).
body(r_fr9_5,fr7_x1).
body(r_fr9_5,fr7_x1).
body(r_fr9_5,fr1_u1).
body(r_fr9_5,fr7_x1).
body(r_fr9_5,fr9_y1).
body(r_fr9_5,fr9_y1).
body(r_fr9_5,fr7_x1).
body(r_fr9_5,fr9_z2).
body(r_fr9_5,fr1_u1).
head(r_fr9_6,fr7_x1).
body(r_fr9_6,fr10_a2).
body(r_fr9_6,fr10_a2).
body(r_fr9_6,fr10_a2).
head(r_fr9_7,fr7_x1).
body(r_fr9_7,fr9_a1).
body(r_fr9_7,fr10_a2).
body(r_fr9_7,fr10_a2).
body(r_fr9_7,fr10_a2).
body(r_fr9_7,fr10_a2).
body(r_fr9_7,fr9_d5).
body(r_fr9_7,fr10_a2).
body(r_fr9_7,fr10_a2).
body(r_fr9_7,fr10_a2).
body(r_fr9_7,fr7_x1).
head(r_fr9_8,fr7_x1).
body(r_fr9_8,fr9_a4).
body(r_fr9_8,fr10_a2).
body(r_fr9_8,fr7_x1).
head(r_fr9_9,fr7_x1).
body(r_fr9_9,fr9_a4).
body(r_fr9_9,fr10_a2).
body(r_fr9_9,fr10_a2).
body(r_fr9_9,fr10_a2).
body(r_fr9_9,fr10_a2).
body(r_fr9_9,fr10_a2).
body(r_fr9_9,fr10_a2).
body(r_fr9_9,fr9_e1).
body(r_fr9_9,fr1_c1).
body(r_fr9_9,fr10_a2).
body(r_fr9_9,fr10_a2).
body(r_fr9_9,fr10_a2).
head(r_fr9_10,fr7_x1).
body(r_fr9_10,fr10_a2).
body(r_fr9_10,fr10_a2).
body(r_fr9_10,fr10_a2).
body(r_fr9_10,fr10_a2).
body(r_fr9_10,fr10_a2).
body(r_fr9_10,fr1_u1).
body(r_fr9_10,fr7_x1).
body(r_fr9_10,fr9_t5).
body(r_fr9_10,fr7_x1).
body(r_fr9_10,fr7_x1).
body(r_fr9_10,fr9_x3).
body(r_fr9_10,fr7_x1).
head(r_fr9_11,fr7_x1).
body(r_fr9_11,fr9_a4).
body(r_fr9_11,fr1_u1).
head(r_fr9_12,fr7_x1).
body(r_fr9_12,fr9_e1).
body(r_fr9_12,fr7_x1).
body(r_fr9_12,fr7_x1).
body(r_fr9_12,fr7_x1).
body(r_fr9_12,fr9_x3).
head(r_fr9_13,fr7_x1).
body(r_fr9_13,fr9_a2).
body(r_fr9_13,fr10_a2).
body(r_fr9_13,fr10_a2).
body(r_fr9_13,fr10_a2).
body(r_fr9_13,fr1_c1).
body(r_fr9_13,fr1_u1).
body(r_fr9_13,fr7_x1).
body(r_fr9_13,fr7_x1).
body(r_fr9_13,fr7_x1).
body(r_fr9_13,fr9_u3).
body(r_fr9_13,fr7_x1).
head(r_fr9_14,fr7_x1).
head(r_fr9_15,fr7_x1).
body(r_fr9_15,fr10_a2).
body(r_fr9_15,fr2_c3).
body(r_fr9_15,fr10_a2).
body(r_fr9_15,fr10_a2).
body(r_fr9_15,fr7_x1).
body(r_fr9_15,fr7_x1).
body(r_fr9_15,fr9_t5).
body(r_fr9_15,fr7_x1).
body(r_fr9_15,fr9_x3).
body(r_fr9_15,fr9_y2).
body(r_fr9_15,fr7_x1).
body(r_fr9_15,fr7_x1).
head(r_fr9_16,fr7_x1).
body(r_fr9_16,fr10_a2).
body(r_fr9_16,fr10_a2).
body(r_fr9_16,fr9_e1).
body(r_fr9_16,fr10_a2).
body(r_fr9_16,fr10_a2).
body(r_fr9_16,fr10_a2).
body(r_fr9_16,fr7_x1).
body(r_fr9_16,fr7_x1).
body(r_fr9_16,fr7_x1).
body(r_fr9_16,fr9_t1).
body(r_fr9_16,fr9_t3).
body(r_fr9_16,fr1_u1).
head(r_fr9_17,fr7_x1).
body(r_fr9_17,fr10_a2).
body(r_fr9_17,fr9_c1).
body(r_fr9_17,fr9_e1).
body(r_fr9_17,fr10_a2).
body(r_fr9_17,fr9_p3).
body(r_fr9_17,fr7_x1).
body(r_fr9_17,fr9_q5).
body(r_fr9_17,fr7_x1).
body(r_fr9_17,fr7_x1).
body(r_fr9_17,fr7_x1).
body(r_fr9_17,fr9_y1).
body(r_fr9_17,fr9_y1).
body(r_fr9_17,fr9_y1).
head(r_fr9_18,fr7_x1).
body(r_fr9_18,fr9_a1).
body(r_fr9_18,fr9_d5).
body(r_fr9_18,fr10_a2).
body(r_fr9_18,fr9_p2).
body(r_fr9_18,fr7_x1).
body(r_fr9_18,fr9_r4).
body(r_fr9_18,fr7_x1).
body(r_fr9_18,fr7_x1).
body(r_fr9_18,fr9_t1).
body(r_fr9_18,fr9_y1).
body(r_fr9_18,fr7_x1).
body(r_fr9_18,fr9_y1).
body(r_fr9_18,fr9_z2).
head(r_fr9_19,fr1_u1).
body(r_fr9_19,fr9_p2).
body(r_fr9_19,fr7_x1).
body(r_fr9_19,fr9_t1).
body(r_fr9_19,fr9_w4).
body(r_fr9_19,fr9_x3).
head(r_fr9_20,fr1_u1).
body(r_fr9_20,fr10_a2).
body(r_fr9_20,fr10_a2).
body(r_fr9_20,fr10_a2).
body(r_fr9_20,fr2_c3).
body(r_fr9_20,fr10_a2).
body(r_fr9_20,fr10_a2).
body(r_fr9_20,fr7_x1).
body(r_fr9_20,fr7_x1).
body(r_fr9_20,fr7_x1).
body(r_fr9_20,fr7_x1).
body(r_fr9_20,fr9_t3).
body(r_fr9_20,fr9_u3).
body(r_fr9_20,fr9_v4).
head(r_fr9_21,fr7_x1).
body(r_fr9_21,fr9_e1).
body(r_fr9_21,fr7_x1).
body(r_fr9_21,fr7_x1).
body(r_fr9_21,fr9_x5).
body(r_fr9_21,fr7_x1).
head(r_fr9_22,fr7_x1).
body(r_fr9_22,fr9_a1).
body(r_fr9_22,fr10_a2).
body(r_fr9_22,fr10_a2).
body(r_fr9_22,fr10_a2).
body(r_fr9_22,fr10_a2).
body(r_fr9_22,fr9_p2).
body(r_fr9_22,fr9_p3).
body(r_fr9_22,fr7_x1).
body(r_fr9_22,fr7_x1).
body(r_fr9_22,fr7_x1).
body(r_fr9_22,fr7_x1).
body(r_fr9_22,fr7_x1).
head(r_fr9_23,fr7_x1).
body(r_fr9_23,fr10_a2).
body(r_fr9_23,fr1_c1).
body(r_fr9_23,fr9_r4).
head(r_fr9_24,fr7_x1).
body(r_fr9_24,fr9_a4).
body(r_fr9_24,fr10_a2).
body(r_fr9_24,fr10_a2).
head(r_fr9_25,fr7_x1).
body(r_fr9_25,fr10_a2).
body(r_fr9_25,fr10_a2).
body(r_fr9_25,fr1_u1).
body(r_fr9_25,fr9_p3).
body(r_fr9_25,fr7_x1).
body(r_fr9_25,fr7_x1).
body(r_fr9_25,fr7_x1).
body(r_fr9_25,fr9_t1).
body(r_fr9_25,fr7_x1).
body(r_fr9_25,fr9_w1).
body(r_fr9_25,fr9_x5).
body(r_fr9_25,fr7_x1).
head(r_fr9_26,fr7_x1).
body(r_fr9_26,fr1_u1).
body(r_fr9_26,fr7_x1).
body(r_fr9_26,fr9_t5).
body(r_fr9_26,fr7_x1).
head(r_fr9_27,fr7_x1).
body(r_fr9_27,fr10_a2).
body(r_fr9_27,fr10_a2).
body(r_fr9_27,fr10_a2).
body(r_fr9_27,fr10_a2).
body(r_fr9_27,fr10_a2).
body(r_fr9_27,fr10_a2).
body(r_fr9_27,fr10_a2).
body(r_fr9_27,fr9_q5).
body(r_fr9_27,fr9_v4).
head(r_fr9_28,fr7_x1).
body(r_fr9_28,fr10_a2).
body(r_fr9_28,fr10_a2).
body(r_fr9_28,fr10_a2).
body(r_fr9_28,fr7_x1).
head(r_fr9_29,fr7_x1).
body(r_fr9_29,fr10_a2).
body(r_fr9_29,fr10_a2).
body(r_fr9_29,fr10_a2).
body(r_fr9_29,fr1_u1).
body(r_fr9_29,fr7_x1).
body(r_fr9_29,fr7_x1).
body(r_fr9_29,fr7_x1).
body(r_fr9_29,fr7_x1).
head(r_fr9_30,fr7_x1).
body(r_fr9_30,fr10_a2).
body(r_fr9_30,fr10_a2).
body(r_fr9_30,fr9_e1).
body(r_fr9_30,fr10_a2).
body(r_fr9_30,fr7_x1).
head(r_fr9_31,fr7_x1).
body(r_fr9_31,fr9_a1).
body(r_fr9_31,fr1_c1).
body(r_fr9_31,fr10_a2).
body(r_fr9_31,fr10_a2).
body(r_fr9_31,fr10_a2).
body(r_fr9_31,fr10_a2).
body(r_fr9_31,fr10_a2).
body(r_fr9_31,fr10_a2).
body(r_fr9_31,fr1_u1).
body(r_fr9_31,fr7_x1).
head(r_fr9_32,fr7_x1).
body(r_fr9_32,fr9_a1).
body(r_fr9_32,fr10_a2).
body(r_fr9_32,fr7_x1).
head(r_fr9_33,fr7_x1).
body(r_fr9_33,fr10_a2).
head(r_fr9_34,fr7_x1).
body(r_fr9_34,fr9_a2).
body(r_fr9_34,fr9_e1).
body(r_fr9_34,fr7_x1).
body(r_fr9_34,fr7_x1).
body(r_fr9_34,fr9_t1).
body(r_fr9_34,fr7_x1).
body(r_fr9_34,fr1_u1).
body(r_fr9_34,fr9_w4).
body(r_fr9_34,fr7_x1).
body(r_fr9_34,fr7_x1).
body(r_fr9_34,fr9_y2).
body(r_fr9_34,fr9_y4).
body(r_fr9_34,fr7_x1).
head(r_fr9_35,fr7_x1).
body(r_fr9_35,fr1_c1).
body(r_fr9_35,fr2_c3).
body(r_fr9_35,fr10_a2).
body(r_fr9_35,fr1_u1).
body(r_fr9_35,fr9_p2).
body(r_fr9_35,fr7_x1).
body(r_fr9_35,fr9_y1).
body(r_fr9_35,fr1_u1).
body(r_fr9_35,fr7_x1).
body(r_fr9_35,fr9_z2).
body(r_fr9_35,fr7_x1).
head(r_fr9_36,fr7_x1).
head(r_fr9_37,fr7_x1).
body(r_fr9_37,fr2_c3).
body(r_fr9_37,fr7_x1).
body(r_fr9_37,fr7_x1).
body(r_fr9_37,fr7_x1).
body(r_fr9_37,fr7_x1).
body(r_fr9_37,fr9_u3).
body(r_fr9_37,fr7_x1).
body(r_fr9_37,fr9_x3).
body(r_fr9_37,fr7_x1).
head(r_fr9_38,fr7_x1).
body(r_fr9_38,fr10_a2).
body(r_fr9_38,fr7_x1).
body(r_fr9_38,fr7_x1).
body(r_fr9_38,fr7_x1).
body(r_fr9_38,fr9_z2).
head(r_fr9_39,fr7_x1).
body(r_fr9_39,fr10_a2).
body(r_fr9_39,fr10_a2).
body(r_fr9_39,fr10_a2).
body(r_fr9_39,fr10_a2).
body(r_fr9_39,fr10_a2).
body(r_fr9_39,fr9_t5).
head(r_fr9_40,fr7_x1).
body(r_fr9_40,fr10_a2).
body(r_fr9_40,fr1_c1).
head(r_fr9_41,fr7_x1).
body(r_fr9_41,fr10_a2).
body(r_fr9_41,fr1_c1).
body(r_fr9_41,fr10_a2).
body(r_fr9_41,fr10_a2).
body(r_fr9_41,fr7_x1).
body(r_fr9_41,fr9_t3).
body(r_fr9_41,fr9_t5).
head(r_fr9_42,fr7_x1).
body(r_fr9_42,fr10_a2).
body(r_fr9_42,fr10_a2).
body(r_fr9_42,fr10_a2).
body(r_fr9_42,fr10_a2).
body(r_fr9_42,fr10_a2).
body(r_fr9_42,fr9_x5).
body(r_fr9_42,fr7_x1).
head(r_fr9_43,fr7_x1).
body(r_fr9_43,fr9_a2).
body(r_fr9_43,fr10_a2).
body(r_fr9_43,fr10_a2).
body(r_fr9_43,fr1_c1).
body(r_fr9_43,fr10_a2).
body(r_fr9_43,fr9_c1).
body(r_fr9_43,fr10_a2).
body(r_fr9_43,fr10_a2).
body(r_fr9_43,fr9_q5).
body(r_fr9_43,fr7_x1).
body(r_fr9_43,fr9_t5).
head(r_fr9_44,fr7_x1).
body(r_fr9_44,fr1_u1).
head(r_fr9_45,fr9_u3).
body(r_fr9_45,fr9_a4).
body(r_fr9_45,fr10_a2).
body(r_fr9_45,fr10_a2).
body(r_fr9_45,fr1_c1).
body(r_fr9_45,fr9_p2).
body(r_fr9_45,fr7_x1).
body(r_fr9_45,fr9_y2).
head(r_fr9_46,fr9_u3).
body(r_fr9_46,fr9_a2).
body(r_fr9_46,fr1_c1).
body(r_fr9_46,fr7_x1).
head(r_fr9_47,fr9_u3).
body(r_fr9_47,fr9_a1).
body(r_fr9_47,fr10_a2).
body(r_fr9_47,fr9_c1).
body(r_fr9_47,fr2_c3).
body(r_fr9_47,fr9_d5).
body(r_fr9_47,fr9_e1).
body(r_fr9_47,fr1_c1).
body(r_fr9_47,fr10_a2).
body(r_fr9_47,fr10_a2).
body(r_fr9_47,fr10_a2).
body(r_fr9_47,fr1_u1).
body(r_fr9_47,fr9_t1).
body(r_fr9_47,fr9_v4).
head(r_fr9_48,fr7_x1).
body(r_fr9_48,fr10_a2).
body(r_fr9_48,fr10_a2).
head(r_fr9_49,fr7_x1).
body(r_fr9_49,fr7_x1).
body(r_fr9_49,fr7_x1).
body(r_fr9_49,fr7_x1).
head(r_fr9_50,fr7_x1).
body(r_fr9_50,fr10_a2).
body(r_fr9_50,fr10_a2).
body(r_fr9_50,fr10_a2).
body(r_fr9_50,fr9_e1).
body(r_fr9_50,fr10_a2).
body(r_fr9_50,fr10_a2).
body(r_fr9_50,fr10_a2).
body(r_fr9_50,fr10_a2).
head(r_fr9_51,fr7_x1).
body(r_fr9_51,fr9_a2).
body(r_fr9_51,fr10_a2).
body(r_fr9_51,fr1_u1).
body(r_fr9_51,fr7_x1).
body(r_fr9_51,fr9_y1).
body(r_fr9_51,fr9_y4).
head(r_fr9_52,fr7_x1).
body(r_fr9_52,fr10_a2).
body(r_fr9_52,fr9_p3).
body(r_fr9_52,fr7_x1).
body(r_fr9_52,fr9_q5).
body(r_fr9_52,fr7_x1).
body(r_fr9_52,fr9_r4).
body(r_fr9_52,fr7_x1).
body(r_fr9_52,fr9_y1).
body(r_fr9_52,fr7_x1).
head(r_fr9_53,fr7_x1).
body(r_fr9_53,fr9_p2).
body(r_fr9_53,fr7_x1).
body(r_fr9_53,fr7_x1).
body(r_fr9_53,fr7_x1).
body(r_fr9_53,fr7_x1).
body(r_fr9_53,fr9_y1).
body(r_fr9_53,fr7_x1).
body(r_fr9_53,fr1_u1).
body(r_fr9_53,fr7_x1).
head(r_fr9_54,fr7_x1).
body(r_fr9_54,fr9_a4).
body(r_fr9_54,fr10_a2).
body(r_fr9_54,fr10_a2).
body(r_fr9_54,fr9_c1).
body(r_fr9_54,fr2_c3).
body(r_fr9_54,fr10_a2).
body(r_fr9_54,fr10_a2).
body(r_fr9_54,fr9_w1).
head(r_fr9_55,fr7_x1).
body(r_fr9_55,fr10_a2).
body(r_fr9_55,fr10_a2).
body(r_fr9_55,fr10_a2).
body(r_fr9_55,fr1_u1).
body(r_fr9_55,fr9_r4).
body(r_fr9_55,fr9_y2).
body(r_fr9_55,fr9_y4).
head(r_fr9_56,fr7_x1).
body(r_fr9_56,fr1_c1).
body(r_fr9_56,fr10_a2).
body(r_fr9_56,fr2_c3).
body(r_fr9_56,fr10_a2).
body(r_fr9_56,fr7_x1).
body(r_fr9_56,fr7_x1).
body(r_fr9_56,fr1_u1).
body(r_fr9_56,fr7_x1).
body(r_fr9_56,fr9_x3).
body(r_fr9_56,fr7_x1).
body(r_fr9_56,fr7_x1).
head(r_fr9_57,fr7_x1).
body(r_fr9_57,fr9_a1).
body(r_fr9_57,fr10_a2).
body(r_fr9_57,fr10_a2).
body(r_fr9_57,fr10_a2).
body(r_fr9_57,fr10_a2).
body(r_fr9_57,fr1_u1).
body(r_fr9_57,fr9_p2).
body(r_fr9_57,fr9_p3).
body(r_fr9_57,fr7_x1).
body(r_fr9_57,fr1_u1).
body(r_fr9_57,fr7_x1).
body(r_fr9_57,fr7_x1).
head(r_fr9_58,fr7_x1).
body(r_fr9_58,fr10_a2).
body(r_fr9_58,fr1_u1).
head(r_fr9_59,fr7_x1).
head(r_fr9_60,fr7_x1).
body(r_fr9_60,fr10_a2).
body(r_fr9_60,fr10_a2).
body(r_fr9_60,fr10_a2).
body(r_fr9_60,fr9_d5).
body(r_fr9_60,fr10_a2).
body(r_fr9_60,fr10_a2).
body(r_fr9_60,fr7_x1).
body(r_fr9_60,fr7_x1).
head(r_fr9_61,fr7_x1).
body(r_fr9_61,fr9_a2).
body(r_fr9_61,fr9_a4).
body(r_fr9_61,fr10_a2).
body(r_fr9_61,fr10_a2).
body(r_fr9_61,fr9_c1).
body(r_fr9_61,fr10_a2).
body(r_fr9_61,fr7_x1).
body(r_fr9_61,fr9_y2).
head(r_fr9_62,fr7_x1).
body(r_fr9_62,fr10_a2).
body(r_fr9_62,fr7_x1).
body(r_fr9_62,fr7_x1).
head(r_fr9_63,fr7_x1).
body(r_fr9_63,fr10_a2).
body(r_fr9_63,fr10_a2).
body(r_fr9_63,fr10_a2).
body(r_fr9_63,fr9_e1).
body(r_fr9_63,fr10_a2).
body(r_fr9_63,fr10_a2).
body(r_fr9_63,fr7_x1).
body(r_fr9_63,fr7_x1).
body(r_fr9_63,fr7_x1).
body(r_fr9_63,fr7_x1).
body(r_fr9_63,fr7_x1).
body(r_fr9_63,fr7_x1).
body(r_fr9_63,fr9_x3).
head(r_fr9_64,fr7_x1).
body(r_fr9_64,fr1_c1).
body(r_fr9_64,fr10_a2).
body(r_fr9_64,fr10_a2).
body(r_fr9_64,fr10_a2).
body(r_fr9_64,fr10_a2).
body(r_fr9_64,fr10_a2).
body(r_fr9_64,fr10_a2).
body(r_fr9_64,fr10_a2).
body(r_fr9_64,fr10_a2).
body(r_fr9_64,fr1_u1).
body(r_fr9_64,fr1_u1).
head(r_fr9_65,fr7_x1).
body(r_fr9_65,fr10_a2).
body(r_fr9_65,fr1_u1).
body(r_fr9_65,fr9_p2).
body(r_fr9_65,fr7_x1).
body(r_fr9_65,fr7_x1).
body(r_fr9_65,fr7_x1).
body(r_fr9_65,fr7_x1).
body(r_fr9_65,fr7_x1).
body(r_fr9_65,fr7_x1).
body(r_fr9_65,fr7_x1).
body(r_fr9_65,fr7_x1).
head(r_fr9_66,fr9_t5).
body(r_fr9_66,fr10_a2).
body(r_fr9_66,fr9_c1).
body(r_fr9_66,fr1_c1).
body(r_fr9_66,fr10_a2).
body(r_fr9_66,fr7_x1).
body(r_fr9_66,fr9_t1).
head(r_fr9_67,fr9_t5).
body(r_fr9_67,fr7_x1).
body(r_fr9_67,fr7_x1).
body(r_fr9_67,fr7_x1).
body(r_fr9_67,fr7_x1).
body(r_fr9_67,fr9_t1).
body(r_fr9_67,fr9_y1).
body(r_fr9_67,fr7_x1).
body(r_fr9_67,fr1_u1).
body(r_fr9_67,fr9_x5).
body(r_fr9_67,fr9_y1).
body(r_fr9_67,fr9_y4).
head(r_fr9_68,fr9_t5).
body(r_fr9_68,fr1_c1).
head(r_fr9_69,fr9_t5).
body(r_fr9_69,fr9_c1).
body(r_fr9_69,fr10_a2).
body(r_fr9_69,fr1_c1).
body(r_fr9_69,fr9_y1).
head(r_fr9_70,fr9_t5).
body(r_fr9_70,fr9_x1).
head(r_fr9_71,fr9_t5).
body(r_fr9_71,fr10_a2).
body(r_fr9_71,fr7_x1).
body(r_fr9_71,fr7_x1).
body(r_fr9_71,fr7_x1).
body(r_fr9_71,fr7_x1).
head(r_fr9_72,fr9_t5).
body(r_fr9_72,fr9_a1).
body(r_fr9_72,fr10_a2).
body(r_fr9_72,fr10_a2).
body(r_fr9_72,fr10_a2).
body(r_fr9_72,fr9_d5).
body(r_fr9_72,fr1_c1).
body(r_fr9_72,fr10_a2).
body(r_fr9_72,fr9_t3).
body(r_fr9_72,fr9_x5).
head(r_fr9_73,fr9_y1).
body(r_fr9_73,fr9_d5).
body(r_fr9_73,fr7_x1).
body(r_fr9_73,fr9_y1).
body(r_fr9_73,fr1_u1).
head(r_fr9_74,fr9_y1).
body(r_fr9_74,fr1_c1).
body(r_fr9_74,fr10_a2).
body(r_fr9_74,fr10_a2).
body(r_fr9_74,fr10_a2).
body(r_fr9_74,fr10_a2).
body(r_fr9_74,fr1_u1).
body(r_fr9_74,fr7_x1).
head(r_fr9_75,fr9_y1).
body(r_fr9_75,fr10_a2).
body(r_fr9_75,fr10_a2).
body(r_fr9_75,fr10_a2).
body(r_fr9_75,fr10_a2).
body(r_fr9_75,fr10_a2).
body(r_fr9_75,fr2_c3).
body(r_fr9_75,fr10_a2).
body(r_fr9_75,fr7_x1).
body(r_fr9_75,fr1_u1).
body(r_fr9_75,fr7_x1).
body(r_fr9_75,fr9_v4).
body(r_fr9_75,fr7_x1).
body(r_fr9_75,fr7_x1).
head(r_fr9_76,fr9_x3).
body(r_fr9_76,fr10_a2).
body(r_fr9_76,fr10_a2).
body(r_fr9_76,fr10_a2).
body(r_fr9_76,fr10_a2).
body(r_fr9_76,fr10_a2).
body(r_fr9_76,fr9_d5).
body(r_fr9_76,fr10_a2).
body(r_fr9_76,fr10_a2).
body(r_fr9_76,fr7_x1).
body(r_fr9_76,fr7_x1).
body(r_fr9_76,fr7_x1).
body(r_fr9_76,fr7_x1).
head(r_fr9_77,fr9_x3).
body(r_fr9_77,fr10_a2).
body(r_fr9_77,fr1_c1).
body(r_fr9_77,fr10_a2).
body(r_fr9_77,fr10_a2).
head(r_fr9_78,fr9_x3).
body(r_fr9_78,fr9_a2).
body(r_fr9_78,fr1_u1).
body(r_fr9_78,fr9_y1).
body(r_fr9_78,fr9_y4).
body(r_fr9_78,fr7_x1).
body(r_fr9_78,fr7_x1).
body(r_fr9_78,fr9_z2).
head(r_fr9_79,fr9_x3).
body(r_fr9_79,fr9_e1).
body(r_fr9_79,fr10_a2).
body(r_fr9_79,fr7_x1).
body(r_fr9_79,fr7_x1).
body(r_fr9_79,fr1_u1).
body(r_fr9_79,fr9_x1).
body(r_fr9_79,fr7_x1).
head(r_fr9_80,fr9_x3).
body(r_fr9_80,fr10_a2).
body(r_fr9_80,fr10_a2).
body(r_fr9_80,fr10_a2).
body(r_fr9_80,fr10_a2).
body(r_fr9_80,fr10_a2).
body(r_fr9_80,fr10_a2).
body(r_fr9_80,fr10_a2).
body(r_fr9_80,fr10_a2).
body(r_fr9_80,fr9_y1).
body(r_fr9_80,fr9_w1).
body(r_fr9_80,fr9_z2).
head(r_fr9_81,fr9_x3).
head(r_fr9_82,fr1_u1).
body(r_fr9_82,fr10_a2).
body(r_fr9_82,fr2_c3).
body(r_fr9_82,fr9_p2).
body(r_fr9_82,fr9_q5).
body(r_fr9_82,fr7_x1).
body(r_fr9_82,fr7_x1).
body(r_fr9_82,fr9_w4).
body(r_fr9_82,fr9_y1).
body(r_fr9_82,fr7_x1).
head(r_fr9_83,fr1_u1).
body(r_fr9_83,fr1_u1).
body(r_fr9_83,fr7_x1).
head(r_fr9_84,fr1_u1).
body(r_fr9_84,fr7_x1).
body(r_fr9_84,fr7_x1).
body(r_fr9_84,fr7_x1).
body(r_fr9_84,fr9_y1).
body(r_fr9_84,fr7_x1).
head(r_fr9_85,fr1_u1).
body(r_fr9_85,fr9_a4).
body(r_fr9_85,fr10_a2).
body(r_fr9_85,fr10_a2).
body(r_fr9_85,fr10_a2).
body(r_fr9_85,fr10_a2).
body(r_fr9_85,fr2_c3).
body(r_fr9_85,fr10_a2).
body(r_fr9_85,fr10_a2).
body(r_fr9_85,fr7_x1).
body(r_fr9_85,fr7_x1).
body(r_fr9_85,fr9_w4).
body(r_fr9_85,fr9_y2).
body(r_fr9_85,fr7_x1).
head(r_fr9_86,fr1_u1).
body(r_fr9_86,fr9_a2).
body(r_fr9_86,fr10_a2).
body(r_fr9_86,fr10_a2).
body(r_fr9_86,fr10_a2).
body(r_fr9_86,fr7_x1).
body(r_fr9_86,fr9_t1).
body(r_fr9_86,fr7_x1).
body(r_fr9_86,fr7_x1).
body(r_fr9_86,fr7_x1).
body(r_fr9_86,fr9_x5).
head(r_fr9_87,fr1_u1).
body(r_fr9_87,fr9_a2).
body(r_fr9_87,fr10_a2).
body(r_fr9_87,fr10_a2).
body(r_fr9_87,fr10_a2).
body(r_fr9_87,fr9_e1).
body(r_fr9_87,fr10_a2).
body(r_fr9_87,fr10_a2).
body(r_fr9_87,fr10_a2).
body(r_fr9_87,fr9_p3).
body(r_fr9_87,fr7_x1).
head(r_fr9_88,fr7_x1).
body(r_fr9_88,fr9_a1).
body(r_fr9_88,fr9_a2).
body(r_fr9_88,fr10_a2).
body(r_fr9_88,fr9_a4).
body(r_fr9_88,fr1_c1).
body(r_fr9_88,fr10_a2).
body(r_fr9_88,fr10_a2).
body(r_fr9_88,fr9_c1).
body(r_fr9_88,fr10_a2).
body(r_fr9_88,fr9_e1).
body(r_fr9_88,fr10_a2).
body(r_fr9_88,fr10_a2).
body(r_fr9_88,fr10_a2).
head(r_fr9_89,fr7_x1).
body(r_fr9_89,fr7_x1).
head(r_fr9_90,fr7_x1).
body(r_fr9_90,fr9_a2).
body(r_fr9_90,fr10_a2).
body(r_fr9_90,fr9_y2).
head(r_fr9_91,fr7_x1).
body(r_fr9_91,fr9_a2).
body(r_fr9_91,fr10_a2).
body(r_fr9_91,fr9_a4).
body(r_fr9_91,fr10_a2).
body(r_fr9_91,fr10_a2).
body(r_fr9_91,fr10_a2).
body(r_fr9_91,fr10_a2).
body(r_fr9_91,fr10_a2).
body(r_fr9_91,fr10_a2).
body(r_fr9_91,fr10_a2).
body(r_fr9_91,fr9_w4).
body(r_fr9_91,fr9_y2).
head(r_fr9_92,fr7_x1).
body(r_fr9_92,fr9_a2).
body(r_fr9_92,fr9_a4).
body(r_fr9_92,fr10_a2).
body(r_fr9_92,fr10_a2).
body(r_fr9_92,fr2_c3).
body(r_fr9_92,fr10_a2).
body(r_fr9_92,fr9_d5).
body(r_fr9_92,fr10_a2).
head(r_fr9_93,fr7_x1).
body(r_fr9_93,fr10_a2).
body(r_fr9_93,fr10_a2).
body(r_fr9_93,fr10_a2).
body(r_fr9_93,fr10_a2).
body(r_fr9_93,fr7_x1).
head(r_fr9_94,fr7_x1).
body(r_fr9_94,fr9_a4).
body(r_fr9_94,fr10_a2).
body(r_fr9_94,fr7_x1).
body(r_fr9_94,fr9_w1).
body(r_fr9_94,fr9_w4).
head(r_fr9_95,fr7_x1).
body(r_fr9_95,fr10_a2).
head(r_fr9_96,fr7_x1).
body(r_fr9_96,fr10_a2).
body(r_fr9_96,fr7_x1).
body(r_fr9_96,fr1_u1).
body(r_fr9_96,fr7_x1).
body(r_fr9_96,fr9_x1).
head(r_fr9_97,fr7_x1).
body(r_fr9_97,fr10_a2).
body(r_fr9_97,fr9_e1).
body(r_fr9_97,fr1_u1).
body(r_fr9_97,fr9_x1).
body(r_fr9_97,fr7_x1).
head(r_fr9_98,fr7_x1).
body(r_fr9_98,fr10_a2).
body(r_fr9_98,fr10_a2).
body(r_fr9_98,fr7_x1).
body(r_fr9_98,fr7_x1).
body(r_fr9_98,fr7_x1).
body(r_fr9_98,fr7_x1).
body(r_fr9_98,fr7_x1).
body(r_fr9_98,fr7_x1).
body(r_fr9_98,fr9_w4).
body(r_fr9_98,fr7_x1).
head(r_fr9_99,fr7_x1).
body(r_fr9_99,fr9_w4).
body(r_fr9_99,fr9_x1).
head(r_fr9_100,fr7_x1).
body(r_fr9_100,fr9_a1).
body(r_fr9_100,fr10_a2).
body(r_fr9_100,fr10_a2).
body(r_fr9_100,fr1_c1).
body(r_fr9_100,fr9_r4).
body(r_fr9_100,fr7_x1).
body(r_fr9_100,fr9_v4).
head(r_fr9_101,fr9_w1).
body(r_fr9_101,fr9_a1).
body(r_fr9_101,fr10_a2).
body(r_fr9_101,fr10_a2).
body(r_fr9_101,fr10_a2).
body(r_fr9_101,fr10_a2).
body(r_fr9_101,fr10_a2).
body(r_fr9_101,fr2_c3).
body(r_fr9_101,fr9_d5).
body(r_fr9_101,fr10_a2).
body(r_fr9_101,fr10_a2).
body(r_fr9_101,fr10_a2).
body(r_fr9_101,fr9_t1).
body(r_fr9_101,fr7_x1).
head(r_fr9_102,fr9_w1).
body(r_fr9_102,fr10_a2).
body(r_fr9_102,fr10_a2).
body(r_fr9_102,fr10_a2).
body(r_fr9_102,fr10_a2).
head(r_fr9_103,fr9_w1).
body(r_fr9_103,fr1_u1).
body(r_fr9_103,fr7_x1).
body(r_fr9_103,fr7_x1).
head(r_fr9_104,fr9_w1).
body(r_fr9_104,fr9_p2).
body(r_fr9_104,fr7_x1).
body(r_fr9_104,fr7_x1).
body(r_fr9_104,fr9_v4).
body(r_fr9_104,fr9_y2).
head(r_fr9_105,fr9_w1).
body(r_fr9_105,fr9_a2).
body(r_fr9_105,fr7_x1).
body(r_fr9_105,fr9_x1).
body(r_fr9_105,fr7_x1).
body(r_fr9_105,fr9_y2).
head(r_fr9_106,fr9_w1).
body(r_fr9_106,fr10_a2).
body(r_fr9_106,fr10_a2).
body(r_fr9_106,fr10_a2).
body(r_fr9_106,fr10_a2).
body(r_fr9_106,fr7_x1).
body(r_fr9_106,fr9_r4).
body(r_fr9_106,fr7_x1).
body(r_fr9_106,fr7_x1).
body(r_fr9_106,fr9_y2).
body(r_fr9_106,fr7_x1).
head(r_fr9_107,fr9_w1).
body(r_fr9_107,fr9_a1).
body(r_fr9_107,fr9_a2).
body(r_fr9_107,fr1_c1).
body(r_fr9_107,fr10_a2).
body(r_fr9_107,fr10_a2).
body(r_fr9_107,fr10_a2).
body(r_fr9_107,fr9_d5).
head(r_fr9_108,fr9_w1).
head(r_fr9_109,fr9_v4).
body(r_fr9_109,fr9_a1).
body(r_fr9_109,fr10_a2).
body(r_fr9_109,fr10_a2).
body(r_fr9_109,fr9_c1).
body(r_fr9_109,fr10_a2).
body(r_fr9_109,fr7_x1).
body(r_fr9_109,fr7_x1).
body(r_fr9_109,fr7_x1).
body(r_fr9_109,fr7_x1).
head(r_fr9_110,fr9_v4).
body(r_fr9_110,fr10_a2).
body(r_fr9_110,fr10_a2).
body(r_fr9_110,fr2_c3).
body(r_fr9_110,fr10_a2).
body(r_fr9_110,fr9_x5).
head(r_fr9_111,fr9_v4).
body(r_fr9_111,fr9_a4).
body(r_fr9_111,fr10_a2).
body(r_fr9_111,fr1_c1).
body(r_fr9_111,fr10_a2).
body(r_fr9_111,fr10_a2).
body(r_fr9_111,fr10_a2).
body(r_fr9_111,fr9_c1).
body(r_fr9_111,fr10_a2).
body(r_fr9_111,fr10_a2).
body(r_fr9_111,fr10_a2).
body(r_fr9_111,fr9_e1).
body(r_fr9_111,fr10_a2).
body(r_fr9_111,fr10_a2).
head(r_fr9_112,fr9_v4).
body(r_fr9_112,fr9_a4).
body(r_fr9_112,fr10_a2).
body(r_fr9_112,fr10_a2).
body(r_fr9_112,fr10_a2).
body(r_fr9_112,fr10_a2).
body(r_fr9_112,fr10_a2).
head(r_fr9_113,fr9_v4).
body(r_fr9_113,fr10_a2).
body(r_fr9_113,fr10_a2).
body(r_fr9_113,fr9_e1).
body(r_fr9_113,fr7_x1).
body(r_fr9_113,fr7_x1).
body(r_fr9_113,fr7_x1).
body(r_fr9_113,fr9_t1).
body(r_fr9_113,fr9_x1).
body(r_fr9_113,fr7_x1).
head(r_fr9_114,fr9_v4).
body(r_fr9_114,fr9_e1).
body(r_fr9_114,fr7_x1).
body(r_fr9_114,fr9_t3).
body(r_fr9_114,fr7_x1).
body(r_fr9_114,fr7_x1).
body(r_fr9_114,fr7_x1).
head(r_fr9_115,fr9_v4).
body(r_fr9_115,fr9_a4).
body(r_fr9_115,fr10_a2).
body(r_fr9_115,fr10_a2).
body(r_fr9_115,fr9_c1).
body(r_fr9_115,fr10_a2).
body(r_fr9_115,fr10_a2).
body(r_fr9_115,fr10_a2).
body(r_fr9_115,fr9_q5).
body(r_fr9_115,fr7_x1).
body(r_fr9_115,fr9_y1).
body(r_fr9_115,fr7_x1).
body(r_fr9_115,fr9_y2).
body(r_fr9_115,fr7_x1).
head(r_fr9_116,fr9_v4).
body(r_fr9_116,fr1_c1).
body(r_fr9_116,fr10_a2).
body(r_fr9_116,fr2_c3).
body(r_fr9_116,fr10_a2).
body(r_fr9_116,fr10_a2).
body(r_fr9_116,fr10_a2).
body(r_fr9_116,fr10_a2).
body(r_fr9_116,fr7_x1).
body(r_fr9_116,fr7_x1).
head(r_fr9_117,fr7_x1).
body(r_fr9_117,fr10_a2).
body(r_fr9_117,fr10_a2).
body(r_fr9_117,fr9_p2).
body(r_fr9_117,fr7_x1).
body(r_fr9_117,fr9_r4).
body(r_fr9_117,fr7_x1).
body(r_fr9_117,fr9_t1).
body(r_fr9_117,fr9_y1).
body(r_fr9_117,fr9_y1).
body(r_fr9_117,fr9_y4).
head(r_fr9_118,fr7_x1).
body(r_fr9_118,fr1_c1).
head(r_fr9_119,fr7_x1).
body(r_fr9_119,fr10_a2).
body(r_fr9_119,fr9_p3).
body(r_fr9_119,fr7_x1).
body(r_fr9_119,fr7_x1).
body(r_fr9_119,fr9_t3).
body(r_fr9_119,fr7_x1).
body(r_fr9_119,fr9_x1).
body(r_fr9_119,fr7_x1).
body(r_fr9_119,fr9_x5).
body(r_fr9_119,fr9_y1).
head(r_fr9_120,fr7_x1).
head(r_fr9_121,fr7_x1).
body(r_fr9_121,fr7_x1).
body(r_fr9_121,fr7_x1).
body(r_fr9_121,fr1_u1).
body(r_fr9_121,fr9_x1).
body(r_fr9_121,fr9_z2).
head(r_fr9_122,fr7_x1).
body(r_fr9_122,fr9_a1).
body(r_fr9_122,fr10_a2).
body(r_fr9_122,fr10_a2).
body(r_fr9_122,fr10_a2).
head(r_fr9_123,fr7_x1).
body(r_fr9_123,fr9_a1).
body(r_fr9_123,fr10_a2).
body(r_fr9_123,fr10_a2).
body(r_fr9_123,fr10_a2).
body(r_fr9_123,fr10_a2).
body(r_fr9_123,fr10_a2).
body(r_fr9_123,fr10_a2).
body(r_fr9_123,fr10_a2).
body(r_fr9_123,fr10_a2).
body(r_fr9_123,fr10_a2).
body(r_fr9_123,fr10_a2).
body(r_fr9_123,fr9_y2).
head(r_fr9_124,fr7_x1).
body(r_fr9_124,fr9_a2).
body(r_fr9_124,fr7_x1).
head(r_fr9_125,fr7_x1).
body(r_fr9_125,fr10_a2).
body(r_fr9_125,fr1_u1).
body(r_fr9_125,fr9_p2).
body(r_fr9_125,fr7_x1).
body(r_fr9_125,fr7_x1).
body(r_fr9_125,fr9_t1).
body(r_fr9_125,fr7_x1).
body(r_fr9_125,fr7_x1).
head(r_fr9_126,fr7_x1).
body(r_fr9_126,fr10_a2).
body(r_fr9_126,fr2_c3).
body(r_fr9_126,fr10_a2).
body(r_fr9_126,fr7_x1).
body(r_fr9_126,fr9_w4).
body(r_fr9_126,fr7_x1).
body(r_fr9_126,fr7_x1).
head(r_fr9_127,fr7_x1).
body(r_fr9_127,fr10_a2).
body(r_fr9_127,fr9_e1).
body(r_fr9_127,fr10_a2).
body(r_fr9_127,fr7_x1).
head(r_fr9_128,fr7_x1).
body(r_fr9_128,fr9_a1).
body(r_fr9_128,fr10_a2).
body(r_fr9_128,fr10_a2).
body(r_fr9_128,fr10_a2).
body(r_fr9_128,fr10_a2).
body(r_fr9_128,fr1_u1).
body(r_fr9_128,fr7_x1).
body(r_fr9_128,fr9_q5).
body(r_fr9_128,fr9_t3).
body(r_fr9_128,fr9_x1).
body(r_fr9_128,fr9_z2).
head(r_fr9_129,fr7_x1).
body(r_fr9_129,fr10_a2).
body(r_fr9_129,fr10_a2).
body(r_fr9_129,fr1_c1).
body(r_fr9_129,fr10_a2).
body(r_fr9_129,fr9_c1).
body(r_fr9_129,fr10_a2).
body(r_fr9_129,fr10_a2).
body(r_fr9_129,fr10_a2).
body(r_fr9_129,fr10_a2).
head(r_fr9_130,fr7_x1).
body(r_fr9_130,fr10_a2).
body(r_fr9_130,fr10_a2).
head(r_fr9_131,fr7_x1).
body(r_fr9_131,fr10_a2).
body(r_fr9_131,fr10_a2).
body(r_fr9_131,fr10_a2).
body(r_fr9_131,fr9_t1).
head(r_fr9_132,fr7_x1).
body(r_fr9_132,fr9_a1).
body(r_fr9_132,fr9_a4).
body(r_fr9_132,fr10_a2).
body(r_fr9_132,fr9_c1).
body(r_fr9_132,fr10_a2).
body(r_fr9_132,fr10_a2).
body(r_fr9_132,fr10_a2).
body(r_fr9_132,fr9_q5).
body(r_fr9_132,fr9_t3).
body(r_fr9_132,fr9_w4).
body(r_fr9_132,fr9_y2).
body(r_fr9_132,fr9_y4).
body(r_fr9_132,fr7_x1).
head(r_fr9_133,fr7_x1).
body(r_fr9_133,fr9_a4).
body(r_fr9_133,fr1_c1).
body(r_fr9_133,fr10_a2).
body(r_fr9_133,fr7_x1).
body(r_fr9_133,fr7_x1).
head(r_fr9_134,fr7_x1).
body(r_fr9_134,fr10_a2).
body(r_fr9_134,fr10_a2).
body(r_fr9_134,fr10_a2).
body(r_fr9_134,fr2_c3).
body(r_fr9_134,fr10_a2).
body(r_fr9_134,fr9_p3).
body(r_fr9_134,fr7_x1).
head(r_fr9_135,fr7_x1).
body(r_fr9_135,fr10_a2).
body(r_fr9_135,fr10_a2).
body(r_fr9_135,fr10_a2).
body(r_fr9_135,fr1_u1).
body(r_fr9_135,fr9_t1).
body(r_fr9_135,fr7_x1).
head(r_fr9_136,fr7_x1).
body(r_fr9_136,fr9_c1).
body(r_fr9_136,fr10_a2).
body(r_fr9_136,fr7_x1).
body(r_fr9_136,fr9_q5).
body(r_fr9_136,fr9_r4).
body(r_fr9_136,fr1_u1).
body(r_fr9_136,fr9_t1).
body(r_fr9_136,fr7_x1).
body(r_fr9_136,fr9_y1).
body(r_fr9_136,fr9_w4).
body(r_fr9_136,fr7_x1).
body(r_fr9_136,fr9_y4).
body(r_fr9_136,fr9_z2).
head(r_fr9_137,fr7_x1).
head(r_fr9_138,fr7_x1).
body(r_fr9_138,fr10_a2).
body(r_fr9_138,fr10_a2).
head(r_fr9_139,fr7_x1).
body(r_fr9_139,fr10_a2).
body(r_fr9_139,fr7_x1).
head(r_fr9_140,fr7_x1).
body(r_fr9_140,fr10_a2).
body(r_fr9_140,fr10_a2).
body(r_fr9_140,fr10_a2).
body(r_fr9_140,fr10_a2).
body(r_fr9_140,fr10_a2).
body(r_fr9_140,fr10_a2).
body(r_fr9_140,fr10_a2).
body(r_fr9_140,fr10_a2).
body(r_fr9_140,fr7_x1).
head(r_fr9_141,fr7_x1).
body(r_fr9_141,fr10_a2).
body(r_fr9_141,fr10_a2).
body(r_fr9_141,fr10_a2).
body(r_fr9_141,fr10_a2).
body(r_fr9_141,fr9_e1).
body(r_fr9_141,fr10_a2).
body(r_fr9_141,fr1_c1).
body(r_fr9_141,fr10_a2).
body(r_fr9_141,fr10_a2).
body(r_fr9_141,fr10_a2).
body(r_fr9_141,fr10_a2).
body(r_fr9_141,fr9_y1).
head(r_fr9_142,fr9_p2).
body(r_fr9_142,fr1_u1).
body(r_fr9_142,fr9_p3).
body(r_fr9_142,fr1_u1).
body(r_fr9_142,fr7_x1).
head(r_fr9_143,fr9_p2).
body(r_fr9_143,fr10_a2).
body(r_fr9_143,fr10_a2).
head(r_fr9_144,fr9_p2).
body(r_fr9_144,fr10_a2).
body(r_fr9_144,fr10_a2).
body(r_fr9_144,fr9_p3).
body(r_fr9_144,fr9_q5).
body(r_fr9_144,fr7_x1).
body(r_fr9_144,fr7_x1).
body(r_fr9_144,fr7_x1).
body(r_fr9_144,fr7_x1).
body(r_fr9_144,fr9_t3).
body(r_fr9_144,fr9_y1).
head(r_fr9_145,fr7_x1).
body(r_fr9_145,fr7_x1).
body(r_fr9_145,fr7_x1).
body(r_fr9_145,fr9_r4).
body(r_fr9_145,fr7_x1).
body(r_fr9_145,fr7_x1).
body(r_fr9_145,fr9_t1).
body(r_fr9_145,fr9_t3).
body(r_fr9_145,fr7_x1).
body(r_fr9_145,fr7_x1).
body(r_fr9_145,fr9_x1).
body(r_fr9_145,fr9_y4).
head(r_fr9_146,fr7_x1).
body(r_fr9_146,fr9_c1).
body(r_fr9_146,fr10_a2).
body(r_fr9_146,fr7_x1).
body(r_fr9_146,fr9_x5).
head(r_fr9_147,fr7_x1).
body(r_fr9_147,fr9_p3).
body(r_fr9_147,fr7_x1).
body(r_fr9_147,fr7_x1).
body(r_fr9_147,fr1_u1).
body(r_fr9_147,fr7_x1).
body(r_fr9_147,fr7_x1).
body(r_fr9_147,fr7_x1).
body(r_fr9_147,fr9_y1).
body(r_fr9_147,fr9_z2).
head(r_fr9_148,fr7_x1).
body(r_fr9_148,fr1_c1).
body(r_fr9_148,fr10_a2).
body(r_fr9_148,fr10_a2).
body(r_fr9_148,fr10_a2).
body(r_fr9_148,fr10_a2).
body(r_fr9_148,fr10_a2).
body(r_fr9_148,fr10_a2).
body(r_fr9_148,fr10_a2).
head(r_fr9_149,fr7_x1).
body(r_fr9_149,fr7_x1).
head(r_fr9_150,fr7_x1).
body(r_fr9_150,fr9_a1).
body(r_fr9_150,fr9_a2).
body(r_fr9_150,fr9_a4).
body(r_fr9_150,fr10_a2).
body(r_fr9_150,fr2_c3).
body(r_fr9_150,fr10_a2).
body(r_fr9_150,fr10_a2).
head(r_fr9_151,fr7_x1).
body(r_fr9_151,fr2_c3).
body(r_fr9_151,fr10_a2).
body(r_fr9_151,fr7_x1).
body(r_fr9_151,fr7_x1).
body(r_fr9_151,fr9_q5).
body(r_fr9_151,fr1_u1).
body(r_fr9_151,fr9_x1).
body(r_fr9_151,fr9_x5).
body(r_fr9_151,fr9_y2).
body(r_fr9_151,fr9_y1).
body(r_fr9_151,fr9_z2).
head(r_fr9_152,fr7_x1).
body(r_fr9_152,fr10_a2).
body(r_fr9_152,fr10_a2).
body(r_fr9_152,fr9_e1).
body(r_fr9_152,fr1_c1).
body(r_fr9_152,fr10_a2).
body(r_fr9_152,fr10_a2).
head(r_fr9_153,fr7_x1).
body(r_fr9_153,fr9_a2).
body(r_fr9_153,fr10_a2).
body(r_fr9_153,fr10_a2).
body(r_fr9_153,fr10_a2).
body(r_fr9_153,fr10_a2).
body(r_fr9_153,fr9_d5).
body(r_fr9_153,fr9_e1).
body(r_fr9_153,fr10_a2).
body(r_fr9_153,fr10_a2).
body(r_fr9_153,fr10_a2).
body(r_fr9_153,fr10_a2).
head(r_fr9_154,fr9_p3).
body(r_fr9_154,fr10_a2).
body(r_fr9_154,fr7_x1).
body(r_fr9_154,fr9_t1).
body(r_fr9_154,fr7_x1).
body(r_fr9_154,fr7_x1).
body(r_fr9_154,fr9_x5).
body(r_fr9_154,fr9_y4).
head(r_fr9_155,fr9_p3).
body(r_fr9_155,fr10_a2).
body(r_fr9_155,fr7_x1).
body(r_fr9_155,fr7_x1).
body(r_fr9_155,fr7_x1).
body(r_fr9_155,fr7_x1).
body(r_fr9_155,fr7_x1).
body(r_fr9_155,fr9_x5).
head(r_fr9_156,fr9_p3).
body(r_fr9_156,fr1_c1).
body(r_fr9_156,fr10_a2).
body(r_fr9_156,fr7_x1).
head(r_fr9_157,fr9_p3).
body(r_fr9_157,fr10_a2).
body(r_fr9_157,fr9_q5).
body(r_fr9_157,fr1_u1).
body(r_fr9_157,fr7_x1).
body(r_fr9_157,fr9_x1).
body(r_fr9_157,fr9_x5).
body(r_fr9_157,fr9_y1).
body(r_fr9_157,fr9_z2).
head(r_fr9_158,fr9_p3).
body(r_fr9_158,fr9_a4).
body(r_fr9_158,fr10_a2).
body(r_fr9_158,fr10_a2).
body(r_fr9_158,fr10_a2).
body(r_fr9_158,fr10_a2).
body(r_fr9_158,fr10_a2).
body(r_fr9_158,fr7_x1).
body(r_fr9_158,fr9_r4).
body(r_fr9_158,fr7_x1).
head(r_fr9_159,fr7_x1).
body(r_fr9_159,fr9_a2).
body(r_fr9_159,fr1_c1).
body(r_fr9_159,fr10_a2).
body(r_fr9_159,fr10_a2).
body(r_fr9_159,fr10_a2).
body(r_fr9_159,fr10_a2).
body(r_fr9_159,fr10_a2).
body(r_fr9_159,fr10_a2).
body(r_fr9_159,fr1_c1).
body(r_fr9_159,fr10_a2).
body(r_fr9_159,fr10_a2).
head(r_fr9_160,fr7_x1).
body(r_fr9_160,fr10_a2).
body(r_fr9_160,fr10_a2).
body(r_fr9_160,fr9_d5).
body(r_fr9_160,fr7_x1).
head(r_fr9_161,fr7_x1).
body(r_fr9_161,fr10_a2).
body(r_fr9_161,fr10_a2).
body(r_fr9_161,fr1_c1).
body(r_fr9_161,fr7_x1).
head(r_fr9_162,fr9_y4).
body(r_fr9_162,fr10_a2).
body(r_fr9_162,fr10_a2).
body(r_fr9_162,fr7_x1).
body(r_fr9_162,fr7_x1).
head(r_fr9_163,fr9_y4).
body(r_fr9_163,fr10_a2).
head(r_fr9_164,fr9_y4).
body(r_fr9_164,fr9_a4).
body(r_fr9_164,fr10_a2).
body(r_fr9_164,fr9_q5).
body(r_fr9_164,fr9_r4).
body(r_fr9_164,fr1_u1).
body(r_fr9_164,fr7_x1).
body(r_fr9_164,fr7_x1).
body(r_fr9_164,fr7_x1).
body(r_fr9_164,fr9_w4).
body(r_fr9_164,fr7_x1).
body(r_fr9_164,fr7_x1).
head(r_fr9_165,fr9_z2).
body(r_fr9_165,fr10_a2).
body(r_fr9_165,fr2_c3).
body(r_fr9_165,fr7_x1).
body(r_fr9_165,fr7_x1).
head(r_fr9_166,fr9_z2).
body(r_fr9_166,fr9_a4).
body(r_fr9_166,fr10_a2).
body(r_fr9_166,fr7_x1).
body(r_fr9_166,fr7_x1).
body(r_fr9_166,fr9_r4).
body(r_fr9_166,fr1_u1).
body(r_fr9_166,fr7_x1).
body(r_fr9_166,fr9_w4).
body(r_fr9_166,fr9_y2).
head(r_fr9_167,fr9_z2).
body(r_fr9_167,fr1_c1).
body(r_fr9_167,fr7_x1).
head(r_fr9_168,fr9_z2).
body(r_fr9_168,fr7_x1).
head(r_fr9_169,fr9_z2).
body(r_fr9_169,fr10_a2).
body(r_fr9_169,fr10_a2).
body(r_fr9_169,fr7_x1).
head(r_fr9_170,fr9_z2).
head(r_fr9_171,fr9_z2).
body(r_fr9_171,fr10_a2).
body(r_fr9_171,fr10_a2).
body(r_fr9_171,fr10_a2).
body(r_fr9_171,fr10_a2).
body(r_fr9_171,fr10_a2).
body(r_fr9_171,fr10_a2).
body(r_fr9_171,fr7_x1).
body(r_fr9_171,fr7_x1).
body(r_fr9_171,fr7_x1).
body(r_fr9_171,fr7_x1).
body(r_fr9_171,fr9_x1).
body(r_fr9_171,fr9_x5).
head(r_fr9_172,fr9_z2).
body(r_fr9_172,fr9_a4).
body(r_fr9_172,fr10_a2).
body(r_fr9_172,fr10_a2).
body(r_fr9_172,fr10_a2).
body(r_fr9_172,fr2_c3).
body(r_fr9_172,fr9_e1).
body(r_fr9_172,fr10_a2).
body(r_fr9_172,fr1_u1).
body(r_fr9_172,fr7_x1).
body(r_fr9_172,fr9_y1).
body(r_fr9_172,fr9_x1).
body(r_fr9_172,fr9_x5).
head(r_fr9_173,fr9_z2).
body(r_fr9_173,fr10_a2).
body(r_fr9_173,fr7_x1).
body(r_fr9_173,fr9_t1).
body(r_fr9_173,fr9_t3).
head(r_fr9_174,fr9_z2).
body(r_fr9_174,fr10_a2).
body(r_fr9_174,fr2_c3).
body(r_fr9_174,fr9_d5).
head(r_fr9_175,fr7_x1).
body(r_fr9_175,fr9_a1).
body(r_fr9_175,fr10_a2).
body(r_fr9_175,fr10_a2).
body(r_fr9_175,fr1_u1).
body(r_fr9_175,fr7_x1).
body(r_fr9_175,fr7_x1).
body(r_fr9_175,fr9_r4).
body(r_fr9_175,fr7_x1).
body(r_fr9_175,fr7_x1).
body(r_fr9_175,fr7_x1).
body(r_fr9_175,fr9_y2).
head(r_fr9_176,fr7_x1).
body(r_fr9_176,fr10_a2).
body(r_fr9_176,fr9_e1).
body(r_fr9_176,fr10_a2).
head(r_fr9_177,fr9_q5).
body(r_fr9_177,fr7_x1).
body(r_fr9_177,fr9_r4).
body(r_fr9_177,fr7_x1).
head(r_fr9_178,fr9_q5).
body(r_fr9_178,fr10_a2).
body(r_fr9_178,fr1_c1).
body(r_fr9_178,fr10_a2).
body(r_fr9_178,fr10_a2).
body(r_fr9_178,fr10_a2).
head(r_fr9_179,fr9_q5).
body(r_fr9_179,fr9_y2).
head(r_fr9_180,fr9_q5).
body(r_fr9_180,fr7_x1).
head(r_fr9_181,fr9_q5).
body(r_fr9_181,fr10_a2).
head(r_fr9_182,fr9_q5).
body(r_fr9_182,fr10_a2).
body(r_fr9_182,fr10_a2).
body(r_fr9_182,fr9_c1).
body(r_fr9_182,fr10_a2).
body(r_fr9_182,fr10_a2).
body(r_fr9_182,fr9_e1).
body(r_fr9_182,fr7_x1).
head(r_fr9_183,fr9_q5).
body(r_fr9_183,fr9_a1).
body(r_fr9_183,fr10_a2).
body(r_fr9_183,fr10_a2).
body(r_fr9_183,fr10_a2).
body(r_fr9_183,fr10_a2).
body(r_fr9_183,fr10_a2).
body(r_fr9_183,fr7_x1).
body(r_fr9_183,fr7_x1).
body(r_fr9_183,fr7_x1).
body(r_fr9_183,fr7_x1).
body(r_fr9_183,fr9_w4).
body(r_fr9_183,fr7_x1).
body(r_fr9_183,fr9_x5).
head(r_fr9_184,fr9_q5).
body(r_fr9_184,fr9_r4).
body(r_fr9_184,fr9_y2).
body(r_fr9_184,fr9_y1).
head(r_fr9_185,fr9_q5).
body(r_fr9_185,fr9_e1).
body(r_fr9_185,fr9_t1).
body(r_fr9_185,fr7_x1).
body(r_fr9_185,fr9_x1).
body(r_fr9_185,fr9_y2).
head(r_fr9_186,fr9_q5).
body(r_fr9_186,fr9_r4).
head(r_fr9_187,fr9_q5).
body(r_fr9_187,fr9_r4).
body(r_fr9_187,fr9_y1).
head(r_fr9_188,fr7_x1).
body(r_fr9_188,fr9_a4).
body(r_fr9_188,fr10_a2).
body(r_fr9_188,fr10_a2).
body(r_fr9_188,fr10_a2).
body(r_fr9_188,fr9_c1).
body(r_fr9_188,fr10_a2).
body(r_fr9_188,fr10_a2).
body(r_fr9_188,fr2_c3).
body(r_fr9_188,fr9_d5).
body(r_fr9_188,fr10_a2).
body(r_fr9_188,fr10_a2).
head(r_fr9_189,fr7_x1).
body(r_fr9_189,fr10_a2).
body(r_fr9_189,fr1_c1).
body(r_fr9_189,fr10_a2).
body(r_fr9_189,fr9_c1).
body(r_fr9_189,fr10_a2).
body(r_fr9_189,fr2_c3).
body(r_fr9_189,fr10_a2).
body(r_fr9_189,fr7_x1).
body(r_fr9_189,fr9_r4).
body(r_fr9_189,fr7_x1).
body(r_fr9_189,fr9_y1).
head(r_fr9_190,fr7_x1).
body(r_fr9_190,fr1_c1).
body(r_fr9_190,fr7_x1).
head(r_fr9_191,fr7_x1).
body(r_fr9_191,fr9_a2).
body(r_fr9_191,fr1_c1).
body(r_fr9_191,fr10_a2).
body(r_fr9_191,fr10_a2).
body(r_fr9_191,fr2_c3).
body(r_fr9_191,fr10_a2).
body(r_fr9_191,fr9_d5).
body(r_fr9_191,fr9_e1).
body(r_fr9_191,fr1_u1).
body(r_fr9_191,fr9_y1).
head(r_fr9_192,fr7_x1).
body(r_fr9_192,fr9_a4).
body(r_fr9_192,fr7_x1).
body(r_fr9_192,fr7_x1).
body(r_fr9_192,fr9_x1).
body(r_fr9_192,fr7_x1).
head(r_fr9_193,fr7_x1).
body(r_fr9_193,fr1_u1).
body(r_fr9_193,fr9_y1).
head(r_fr9_194,fr9_w4).
body(r_fr9_194,fr10_a2).
body(r_fr9_194,fr10_a2).
head(r_fr9_195,fr9_w4).
body(r_fr9_195,fr2_c3).
body(r_fr9_195,fr10_a2).
body(r_fr9_195,fr1_u1).
body(r_fr9_195,fr7_x1).
body(r_fr9_195,fr1_u1).
body(r_fr9_195,fr7_x1).
head(r_fr9_196,fr9_w4).
body(r_fr9_196,fr10_a2).
body(r_fr9_196,fr9_a4).
body(r_fr9_196,fr10_a2).
body(r_fr9_196,fr10_a2).
body(r_fr9_196,fr10_a2).
body(r_fr9_196,fr7_x1).
head(r_fr9_197,fr7_x1).
body(r_fr9_197,fr7_x1).
body(r_fr9_197,fr7_x1).
body(r_fr9_197,fr7_x1).
body(r_fr9_197,fr7_x1).
head(r_fr9_198,fr7_x1).
body(r_fr9_198,fr9_a2).
body(r_fr9_198,fr10_a2).
body(r_fr9_198,fr10_a2).
body(r_fr9_198,fr2_c3).
body(r_fr9_198,fr10_a2).
body(r_fr9_198,fr9_t3).
head(r_fr9_199,fr7_x1).
body(r_fr9_199,fr9_e1).
head(r_fr9_200,fr7_x1).
body(r_fr9_200,fr10_a2).
body(r_fr9_200,fr10_a2).
body(r_fr9_200,fr7_x1).
head(r_fr9_201,fr7_x1).
body(r_fr9_201,fr9_a4).
head(r_fr9_202,fr7_x1).
body(r_fr9_202,fr7_x1).
head(r_fr9_203,fr7_x1).
body(r_fr9_203,fr9_a4).
body(r_fr9_203,fr10_a2).
body(r_fr9_203,fr10_a2).
body(r_fr9_203,fr10_a2).
body(r_fr9_203,fr9_d5).
body(r_fr9_203,fr10_a2).
body(r_fr9_203,fr10_a2).
body(r_fr9_203,fr9_t3).
body(r_fr9_203,fr9_x1).
body(r_fr9_203,fr9_x5).
body(r_fr9_203,fr9_y2).
head(r_fr9_204,fr7_x1).
body(r_fr9_204,fr10_a2).
body(r_fr9_204,fr1_u1).
body(r_fr9_204,fr7_x1).
body(r_fr9_204,fr7_x1).
body(r_fr9_204,fr9_r4).
body(r_fr9_204,fr7_x1).
body(r_fr9_204,fr9_x1).
head(r_fr9_205,fr7_x1).
body(r_fr9_205,fr10_a2).
body(r_fr9_205,fr1_u1).
body(r_fr9_205,fr1_u1).
body(r_fr9_205,fr7_x1).
body(r_fr9_205,fr7_x1).
body(r_fr9_205,fr9_t1).
body(r_fr9_205,fr7_x1).
body(r_fr9_205,fr7_x1).
body(r_fr9_205,fr9_y1).
body(r_fr9_205,fr9_x1).
body(r_fr9_205,fr9_y2).
head(r_fr9_206,fr7_x1).
body(r_fr9_206,fr10_a2).
body(r_fr9_206,fr10_a2).
body(r_fr9_206,fr9_c1).
body(r_fr9_206,fr10_a2).
body(r_fr9_206,fr10_a2).
body(r_fr9_206,fr10_a2).
body(r_fr9_206,fr10_a2).
body(r_fr9_206,fr1_c1).
body(r_fr9_206,fr10_a2).
body(r_fr9_206,fr10_a2).
head(r_fr9_207,fr7_x1).
head(r_fr9_208,fr7_x1).
body(r_fr9_208,fr10_a2).
body(r_fr9_208,fr10_a2).
body(r_fr9_208,fr10_a2).
body(r_fr9_208,fr9_t1).
body(r_fr9_208,fr9_x5).
head(r_fr9_209,fr7_x1).
body(r_fr9_209,fr9_c1).
body(r_fr9_209,fr10_a2).
body(r_fr9_209,fr2_c3).
body(r_fr9_209,fr7_x1).
body(r_fr9_209,fr7_x1).
body(r_fr9_209,fr7_x1).
body(r_fr9_209,fr7_x1).
body(r_fr9_209,fr7_x1).
body(r_fr9_209,fr9_x1).
body(r_fr9_209,fr7_x1).
body(r_fr9_209,fr9_x5).
body(r_fr9_209,fr9_y1).
head(r_fr9_210,fr7_x1).
body(r_fr9_210,fr1_c1).
body(r_fr9_210,fr10_a2).
body(r_fr9_210,fr10_a2).
head(r_fr9_211,fr7_x1).
body(r_fr9_211,fr10_a2).
body(r_fr9_211,fr10_a2).
body(r_fr9_211,fr9_d5).
body(r_fr9_211,fr1_u1).
body(r_fr9_211,fr7_x1).
body(r_fr9_211,fr7_x1).
body(r_fr9_211,fr7_x1).
body(r_fr9_211,fr7_x1).
body(r_fr9_211,fr9_t1).
body(r_fr9_211,fr9_y1).
body(r_fr9_211,fr9_x1).
body(r_fr9_211,fr9_y1).
body(r_fr9_211,fr7_x1).
head(r_fr9_212,fr9_y2).
body(r_fr9_212,fr9_a2).
body(r_fr9_212,fr10_a2).
body(r_fr9_212,fr10_a2).
body(r_fr9_212,fr10_a2).
body(r_fr9_212,fr10_a2).
body(r_fr9_212,fr10_a2).
body(r_fr9_212,fr7_x1).
body(r_fr9_212,fr9_x1).
head(r_fr9_213,fr9_y2).
body(r_fr9_213,fr10_a2).
body(r_fr9_213,fr10_a2).
body(r_fr9_213,fr10_a2).
body(r_fr9_213,fr1_u1).
body(r_fr9_213,fr7_x1).
body(r_fr9_213,fr9_t3).
body(r_fr9_213,fr7_x1).
head(r_fr9_214,fr9_y2).
body(r_fr9_214,fr10_a2).
body(r_fr9_214,fr9_e1).
body(r_fr9_214,fr10_a2).
body(r_fr9_214,fr10_a2).
body(r_fr9_214,fr10_a2).
body(r_fr9_214,fr7_x1).
body(r_fr9_214,fr7_x1).
body(r_fr9_214,fr7_x1).
body(r_fr9_214,fr7_x1).
body(r_fr9_214,fr7_x1).
body(r_fr9_214,fr9_y1).
body(r_fr9_214,fr7_x1).
head(r_fr9_215,fr9_y2).
body(r_fr9_215,fr9_a2).
body(r_fr9_215,fr10_a2).
body(r_fr9_215,fr10_a2).
body(r_fr9_215,fr2_c3).
body(r_fr9_215,fr1_u1).
body(r_fr9_215,fr7_x1).
body(r_fr9_215,fr9_t1).
body(r_fr9_215,fr9_t3).
body(r_fr9_215,fr9_y1).
body(r_fr9_215,fr7_x1).
body(r_fr9_215,fr9_x5).
body(r_fr9_215,fr9_y1).
head(r_fr9_216,fr7_x1).
body(r_fr9_216,fr10_a2).
body(r_fr9_216,fr10_a2).
body(r_fr9_216,fr10_a2).
body(r_fr9_216,fr10_a2).
body(r_fr9_216,fr10_a2).
body(r_fr9_216,fr10_a2).
body(r_fr9_216,fr1_u1).
body(r_fr9_216,fr7_x1).
body(r_fr9_216,fr1_u1).
body(r_fr9_216,fr9_t3).
body(r_fr9_216,fr7_x1).
head(r_fr9_217,fr7_x1).
body(r_fr9_217,fr9_y1).
body(r_fr9_217,fr9_x1).
body(r_fr9_217,fr9_y1).
head(r_fr9_218,fr7_x1).
body(r_fr9_218,fr9_x1).
head(r_fr9_219,fr7_x1).
body(r_fr9_219,fr7_x1).
head(r_fr9_220,fr7_x1).
body(r_fr9_220,fr10_a2).
body(r_fr9_220,fr10_a2).
body(r_fr9_220,fr10_a2).
body(r_fr9_220,fr9_c1).
body(r_fr9_220,fr10_a2).
body(r_fr9_220,fr10_a2).
body(r_fr9_220,fr10_a2).
body(r_fr9_220,fr1_u1).
body(r_fr9_220,fr7_x1).
body(r_fr9_220,fr9_x1).
head(r_fr9_221,fr7_x1).
body(r_fr9_221,fr1_u1).
body(r_fr9_221,fr7_x1).
body(r_fr9_221,fr7_x1).
body(r_fr9_221,fr7_x1).
body(r_fr9_221,fr7_x1).
body(r_fr9_221,fr9_y1).
body(r_fr9_221,fr7_x1).
body(r_fr9_221,fr9_x1).
body(r_fr9_221,fr9_x5).
body(r_fr9_221,fr9_y1).
head(r_fr9_222,fr7_x1).
body(r_fr9_222,fr10_a2).
body(r_fr9_222,fr10_a2).
body(r_fr9_222,fr7_x1).
head(r_fr9_223,fr7_x1).
body(r_fr9_223,fr10_a2).
body(r_fr9_223,fr10_a2).
body(r_fr9_223,fr10_a2).
body(r_fr9_223,fr10_a2).
body(r_fr9_223,fr9_d5).
body(r_fr9_223,fr9_e1).
body(r_fr9_223,fr10_a2).
body(r_fr9_223,fr10_a2).
body(r_fr9_223,fr10_a2).
body(r_fr9_223,fr1_u1).
body(r_fr9_223,fr9_t3).
body(r_fr9_223,fr7_x1).
head(r_fr9_224,fr7_x1).
body(r_fr9_224,fr9_a1).
body(r_fr9_224,fr10_a2).
body(r_fr9_224,fr10_a2).
body(r_fr9_224,fr10_a2).
body(r_fr9_224,fr7_x1).
body(r_fr9_224,fr7_x1).
head(r_fr9_225,fr7_x1).
body(r_fr9_225,fr10_a2).
body(r_fr9_225,fr7_x1).
body(r_fr9_225,fr9_y1).
head(r_fr9_226,fr7_x1).
body(r_fr9_226,fr10_a2).
body(r_fr9_226,fr2_c3).
head(r_fr9_227,fr7_x1).
body(r_fr9_227,fr7_x1).
body(r_fr9_227,fr7_x1).
body(r_fr9_227,fr7_x1).
body(r_fr9_227,fr9_r4).
body(r_fr9_227,fr7_x1).
body(r_fr9_227,fr7_x1).
body(r_fr9_227,fr9_t3).
body(r_fr9_227,fr9_y1).
body(r_fr9_227,fr7_x1).
body(r_fr9_227,fr9_y1).
head(r_fr9_228,fr7_x1).
body(r_fr9_228,fr9_d5).
body(r_fr9_228,fr1_u1).
body(r_fr9_228,fr7_x1).
body(r_fr9_228,fr7_x1).
body(r_fr9_228,fr7_x1).
body(r_fr9_228,fr9_t3).
body(r_fr9_228,fr9_y1).
body(r_fr9_228,fr9_x1).
body(r_fr9_228,fr9_x5).
head(r_fr9_229,fr7_x1).
head(r_fr9_230,fr9_t1).
body(r_fr9_230,fr10_a2).
body(r_fr9_230,fr10_a2).
body(r_fr9_230,fr10_a2).
body(r_fr9_230,fr10_a2).
body(r_fr9_230,fr10_a2).
body(r_fr9_230,fr2_c3).
body(r_fr9_230,fr7_x1).
body(r_fr9_230,fr7_x1).
body(r_fr9_230,fr9_y1).
body(r_fr9_230,fr9_x1).
body(r_fr9_230,fr9_y1).
body(r_fr9_230,fr7_x1).
head(r_fr9_231,fr9_t1).
body(r_fr9_231,fr1_u1).
body(r_fr9_231,fr7_x1).
body(r_fr9_231,fr7_x1).
body(r_fr9_231,fr9_r4).
body(r_fr9_231,fr7_x1).
body(r_fr9_231,fr7_x1).
body(r_fr9_231,fr7_x1).
body(r_fr9_231,fr9_t3).
body(r_fr9_231,fr7_x1).
body(r_fr9_231,fr9_y1).
body(r_fr9_231,fr9_x5).
body(r_fr9_231,fr9_y1).
head(r_fr9_232,fr9_t1).
body(r_fr9_232,fr7_x1).
head(r_fr9_233,fr9_t1).
body(r_fr9_233,fr7_x1).
head(r_fr9_234,fr9_t1).
body(r_fr9_234,fr10_a2).
body(r_fr9_234,fr10_a2).
body(r_fr9_234,fr10_a2).
body(r_fr9_234,fr7_x1).
body(r_fr9_234,fr7_x1).
body(r_fr9_234,fr1_u1).
body(r_fr9_234,fr9_t3).
head(r_fr9_235,fr9_t1).
body(r_fr9_235,fr10_a2).
head(r_fr9_236,fr9_t1).
body(r_fr9_236,fr9_a4).
body(r_fr9_236,fr10_a2).
body(r_fr9_236,fr2_c3).
body(r_fr9_236,fr10_a2).
body(r_fr9_236,fr7_x1).
body(r_fr9_236,fr7_x1).
body(r_fr9_236,fr7_x1).
body(r_fr9_236,fr7_x1).
body(r_fr9_236,fr9_t3).
body(r_fr9_236,fr9_y1).
body(r_fr9_236,fr9_x1).
body(r_fr9_236,fr9_x5).
head(r_fr9_237,fr9_t1).
body(r_fr9_237,fr9_a2).
body(r_fr9_237,fr9_a4).
body(r_fr9_237,fr10_a2).
body(r_fr9_237,fr10_a2).
body(r_fr9_237,fr10_a2).
body(r_fr9_237,fr9_d5).
body(r_fr9_237,fr10_a2).
body(r_fr9_237,fr7_x1).
body(r_fr9_237,fr9_x1).
body(r_fr9_237,fr9_y1).
head(r_fr9_238,fr7_x1).
body(r_fr9_238,fr10_a2).
body(r_fr9_238,fr7_x1).
body(r_fr9_238,fr7_x1).
body(r_fr9_238,fr9_y1).
body(r_fr9_238,fr9_x1).
body(r_fr9_238,fr7_x1).
head(r_fr9_239,fr7_x1).
body(r_fr9_239,fr10_a2).
body(r_fr9_239,fr10_a2).
body(r_fr9_239,fr10_a2).
body(r_fr9_239,fr10_a2).
body(r_fr9_239,fr1_u1).
body(r_fr9_239,fr7_x1).
body(r_fr9_239,fr9_r4).
body(r_fr9_239,fr7_x1).
body(r_fr9_239,fr7_x1).
body(r_fr9_239,fr7_x1).
body(r_fr9_239,fr7_x1).
body(r_fr9_239,fr9_x5).
body(r_fr9_239,fr7_x1).
head(r_fr9_240,fr7_x1).
body(r_fr9_240,fr9_a1).
body(r_fr9_240,fr10_a2).
body(r_fr9_240,fr10_a2).
body(r_fr9_240,fr10_a2).
body(r_fr9_240,fr9_c1).
body(r_fr9_240,fr10_a2).
body(r_fr9_240,fr10_a2).
body(r_fr9_240,fr2_c3).
body(r_fr9_240,fr10_a2).
body(r_fr9_240,fr9_d5).
body(r_fr9_240,fr10_a2).
body(r_fr9_240,fr10_a2).
body(r_fr9_240,fr7_x1).
head(r_fr9_241,fr7_x1).
body(r_fr9_241,fr10_a2).
body(r_fr9_241,fr10_a2).
body(r_fr9_241,fr10_a2).
body(r_fr9_241,fr1_u1).
body(r_fr9_241,fr9_r4).
body(r_fr9_241,fr7_x1).
body(r_fr9_241,fr7_x1).
body(r_fr9_241,fr7_x1).
body(r_fr9_241,fr9_y1).
body(r_fr9_241,fr7_x1).
body(r_fr9_241,fr9_x1).
body(r_fr9_241,fr9_x5).
body(r_fr9_241,fr7_x1).
head(r_fr9_242,fr7_x1).
body(r_fr9_242,fr10_a2).
body(r_fr9_242,fr10_a2).
body(r_fr9_242,fr9_e1).
body(r_fr9_242,fr1_u1).
body(r_fr9_242,fr7_x1).
body(r_fr9_242,fr9_y1).
body(r_fr9_242,fr7_x1).
head(r_fr9_243,fr7_x1).
body(r_fr9_243,fr10_a2).
body(r_fr9_243,fr10_a2).
body(r_fr9_243,fr7_x1).
body(r_fr9_243,fr9_r4).
body(r_fr9_243,fr1_u1).
body(r_fr9_243,fr7_x1).
body(r_fr9_243,fr9_x1).
body(r_fr9_243,fr9_x5).
body(r_fr9_243,fr9_y1).
head(r_fr9_244,fr7_x1).
body(r_fr9_244,fr10_a2).
head(r_fr9_245,fr7_x1).
body(r_fr9_245,fr9_a1).
body(r_fr9_245,fr10_a2).
body(r_fr9_245,fr10_a2).
body(r_fr9_245,fr9_c1).
body(r_fr9_245,fr10_a2).
body(r_fr9_245,fr1_c1).
body(r_fr9_245,fr10_a2).
body(r_fr9_245,fr7_x1).
body(r_fr9_245,fr1_u1).
body(r_fr9_245,fr7_x1).
body(r_fr9_245,fr9_y1).
body(r_fr9_245,fr7_x1).
body(r_fr9_245,fr9_y1).
head(r_fr9_246,fr9_y1).
body(r_fr9_246,fr10_a2).
body(r_fr9_246,fr10_a2).
body(r_fr9_246,fr1_u1).
body(r_fr9_246,fr9_y1).
body(r_fr9_246,fr7_x1).
head(r_fr9_247,fr9_y1).
body(r_fr9_247,fr9_a4).
body(r_fr9_247,fr10_a2).
body(r_fr9_247,fr10_a2).
body(r_fr9_247,fr9_c1).
body(r_fr9_247,fr10_a2).
body(r_fr9_247,fr10_a2).
body(r_fr9_247,fr2_c3).
body(r_fr9_247,fr10_a2).
body(r_fr9_247,fr1_u1).
body(r_fr9_247,fr7_x1).
body(r_fr9_247,fr7_x1).
body(r_fr9_247,fr7_x1).
body(r_fr9_247,fr9_x5).
head(r_fr9_248,fr9_y1).
body(r_fr9_248,fr9_a2).
body(r_fr9_248,fr10_a2).
body(r_fr9_248,fr10_a2).
body(r_fr9_248,fr10_a2).
body(r_fr9_248,fr10_a2).
body(r_fr9_248,fr10_a2).
body(r_fr9_248,fr10_a2).
body(r_fr9_248,fr9_e1).
body(r_fr9_248,fr10_a2).
body(r_fr9_248,fr10_a2).
body(r_fr9_248,fr7_x1).
head(r_fr9_249,fr7_x1).
body(r_fr9_249,fr10_a2).
body(r_fr9_249,fr10_a2).
body(r_fr9_249,fr10_a2).
body(r_fr9_249,fr7_x1).
head(r_fr9_250,fr7_x1).
body(r_fr9_250,fr9_e1).
body(r_fr9_250,fr10_a2).
body(r_fr9_250,fr9_r4).
body(r_fr9_250,fr7_x1).
head(r_fr9_251,fr7_x1).
head(r_fr9_252,fr7_x1).
body(r_fr9_252,fr7_x1).
head(r_fr9_253,fr7_x1).
body(r_fr9_253,fr10_a2).
body(r_fr9_253,fr9_d5).
body(r_fr9_253,fr9_r4).
body(r_fr9_253,fr7_x1).
body(r_fr9_253,fr9_t3).
body(r_fr9_253,fr7_x1).
body(r_fr9_253,fr7_x1).
head(r_fr9_254,fr7_x1).
body(r_fr9_254,fr1_c1).
body(r_fr9_254,fr10_a2).
body(r_fr9_254,fr9_c1).
body(r_fr9_254,fr10_a2).
body(r_fr9_254,fr10_a2).
body(r_fr9_254,fr1_u1).
body(r_fr9_254,fr9_r4).
body(r_fr9_254,fr7_x1).
body(r_fr9_254,fr7_x1).
body(r_fr9_254,fr9_x5).
head(r_fr9_255,fr9_x5).
body(r_fr9_255,fr9_a2).
body(r_fr9_255,fr10_a2).
body(r_fr9_255,fr9_a4).
body(r_fr9_255,fr10_a2).
body(r_fr9_255,fr10_a2).
body(r_fr9_255,fr10_a2).
body(r_fr9_255,fr10_a2).
body(r_fr9_255,fr9_d5).
body(r_fr9_255,fr10_a2).
body(r_fr9_255,fr10_a2).
body(r_fr9_255,fr10_a2).
body(r_fr9_255,fr1_u1).
body(r_fr9_255,fr7_x1).
head(r_fr9_256,fr9_x5).
body(r_fr9_256,fr9_a4).
body(r_fr9_256,fr10_a2).
body(r_fr9_256,fr10_a2).
body(r_fr9_256,fr10_a2).
body(r_fr9_256,fr7_x1).
body(r_fr9_256,fr7_x1).
body(r_fr9_256,fr9_x1).
body(r_fr9_256,fr7_x1).
head(r_fr9_257,fr9_x5).
body(r_fr9_257,fr9_a4).
body(r_fr9_257,fr10_a2).
body(r_fr9_257,fr10_a2).
body(r_fr9_257,fr9_c1).
body(r_fr9_257,fr10_a2).
body(r_fr9_257,fr9_e1).
body(r_fr9_257,fr1_c1).
body(r_fr9_257,fr10_a2).
body(r_fr9_257,fr10_a2).
body(r_fr9_257,fr10_a2).
body(r_fr9_257,fr10_a2).
body(r_fr9_257,fr10_a2).
body(r_fr9_257,fr1_u1).
head(r_fr9_258,fr9_x5).
body(r_fr9_258,fr1_u1).
body(r_fr9_258,fr9_y1).
head(r_fr9_259,fr9_x5).
head(r_fr9_260,fr9_r4).
body(r_fr9_260,fr10_a2).
body(r_fr9_260,fr1_u1).
body(r_fr9_260,fr7_x1).
body(r_fr9_260,fr7_x1).
head(r_fr9_261,fr9_r4).
body(r_fr9_261,fr9_a1).
body(r_fr9_261,fr1_c1).
body(r_fr9_261,fr10_a2).
body(r_fr9_261,fr10_a2).
body(r_fr9_261,fr10_a2).
body(r_fr9_261,fr10_a2).
body(r_fr9_261,fr1_c1).
body(r_fr9_261,fr10_a2).
body(r_fr9_261,fr10_a2).
body(r_fr9_261,fr10_a2).
body(r_fr9_261,fr7_x1).
head(r_fr9_262,fr9_r4).
body(r_fr9_262,fr10_a2).
head(r_fr9_263,fr9_r4).
body(r_fr9_263,fr2_c3).
body(r_fr9_263,fr1_u1).
body(r_fr9_263,fr7_x1).
body(r_fr9_263,fr7_x1).
body(r_fr9_263,fr7_x1).
body(r_fr9_263,fr7_x1).
body(r_fr9_263,fr7_x1).
head(r_fr9_264,fr9_r4).
body(r_fr9_264,fr10_a2).
body(r_fr9_264,fr10_a2).
body(r_fr9_264,fr10_a2).
body(r_fr9_264,fr10_a2).
body(r_fr9_264,fr10_a2).
body(r_fr9_264,fr10_a2).
body(r_fr9_264,fr10_a2).
body(r_fr9_264,fr10_a2).
body(r_fr9_264,fr7_x1).
head(r_fr9_265,fr9_r4).
head(r_fr9_266,fr9_r4).
body(r_fr9_266,fr10_a2).
body(r_fr9_266,fr1_u1).
body(r_fr9_266,fr7_x1).
head(r_fr9_267,fr9_r4).
body(r_fr9_267,fr10_a2).
body(r_fr9_267,fr10_a2).
body(r_fr9_267,fr2_c3).
body(r_fr9_267,fr9_d5).
body(r_fr9_267,fr10_a2).
head(r_fr9_268,fr9_r4).
body(r_fr9_268,fr10_a2).
body(r_fr9_268,fr9_d5).
body(r_fr9_268,fr9_e1).
body(r_fr9_268,fr10_a2).
body(r_fr9_268,fr10_a2).
body(r_fr9_268,fr10_a2).
head(r_fr9_269,fr9_r4).
body(r_fr9_269,fr10_a2).
body(r_fr9_269,fr10_a2).
body(r_fr9_269,fr9_e1).
body(r_fr9_269,fr10_a2).
body(r_fr9_269,fr1_u1).
body(r_fr9_269,fr1_u1).
body(r_fr9_269,fr7_x1).
body(r_fr9_269,fr7_x1).
body(r_fr9_269,fr9_t3).
body(r_fr9_269,fr7_x1).
body(r_fr9_269,fr7_x1).
body(r_fr9_269,fr9_x1).
body(r_fr9_269,fr7_x1).

assumption(fr10_a2).
assumption(fr10_b1).
assumption(fr10_c1).
assumption(fr10_a2).
assumption(fr10_e1).
assumption(fr10_a2).
assumption(fr10_a2).
assumption(fr10_b2).
assumption(fr10_c2).
assumption(fr10_a2).
assumption(fr10_a2).
assumption(fr10_f2).
assumption(fr10_a3).
assumption(fr10_b3).
assumption(fr10_a2).
assumption(fr10_a2).
assumption(fr10_a2).
assumption(fr2_d2).
assumption(fr10_a4).
assumption(fr10_b4).
assumption(fr10_a2).
assumption(fr10_a2).
assumption(fr10_a2).
assumption(fr10_a2).
assumption(fr10_a2).
assumption(fr10_a2).
assumption(fr10_a2).
assumption(fr10_d5).
assumption(fr10_a2).
assumption(fr10_f5).
assumption(fr10_a6).
assumption(fr10_a2).
assumption(fr9_e1).
contrary(fr10_a2,fr9_t5).
contrary(fr10_a2,fr10_a2).
contrary(fr10_a3,fr9_y2).
contrary(fr10_a4,fr10_z1).
contrary(fr10_a2,fr10_p1).
contrary(fr10_a6,fr7_x1).
contrary(fr10_b1,fr10_p4).
contrary(fr10_b2,fr10_q2).
contrary(fr10_b3,fr10_y2).
contrary(fr10_b4,fr10_v1).
contrary(fr10_a2,fr10_s3).
contrary(fr10_a2,fr7_x1).
contrary(fr10_c1,fr7_x1).
contrary(fr10_c2,fr7_x1).
contrary(fr10_a2,fr10_a2).
contrary(fr10_a2,fr10_x5).
contrary(fr10_a2,fr10_a2).
contrary(fr9_e1,fr10_a2).
contrary(fr10_a2,fr10_a2).
contrary(fr10_a2,fr9_y1).
contrary(fr10_a2,fr9_w1).
contrary(fr10_a2,fr7_x1).
contrary(fr10_d5,fr9_t3).
contrary(fr10_e1,fr10_a2).
contrary(fr10_a2,fr7_x1).
contrary(fr10_a2,fr10_a2).
contrary(fr10_a2,fr10_s3).
contrary(fr10_a2,fr10_z2).
contrary(fr10_a2,fr7_x1).
contrary(fr10_f2,fr7_x1).
contrary(fr2_d2,fr10_q2).
contrary(fr10_a2,fr9_p2).
contrary(fr10_f5,fr10_a2).
head(r_fr10_0,fr10_q1).
body(r_fr10_0,fr10_b4).
body(r_fr10_0,fr7_x1).
body(r_fr10_0,fr10_y2).
head(r_fr10_1,fr10_q1).
body(r_fr10_1,fr10_c1).
body(r_fr10_1,fr10_z1).
head(r_fr10_2,fr10_q1).
body(r_fr10_2,fr10_a2).
head(r_fr10_3,fr10_q1).
body(r_fr10_3,fr10_b3).
body(r_fr10_3,fr10_b4).
body(r_fr10_3,fr10_a2).
body(r_fr10_3,fr10_r5).
body(r_fr10_3,fr10_v2).
head(r_fr10_4,fr10_q1).
body(r_fr10_4,fr10_a2).
body(r_fr10_4,fr10_a2).
body(r_fr10_4,fr10_a2).
head(r_fr10_5,fr10_q1).
body(r_fr10_5,fr10_a2).
body(r_fr10_5,fr10_a2).
body(r_fr10_5,fr10_c1).
body(r_fr10_5,fr10_a2).
body(r_fr10_5,fr10_p4).
head(r_fr10_6,fr7_x1).
body(r_fr10_6,fr10_u1).
body(r_fr10_6,fr7_t4).
body(r_fr10_6,fr9_y2).
body(r_fr10_6,fr10_y2).
head(r_fr10_7,fr7_x1).
body(r_fr10_7,fr10_a2).
body(r_fr10_7,fr10_a2).
body(r_fr10_7,fr10_b3).
body(r_fr10_7,fr10_a2).
body(r_fr10_7,fr10_e1).
body(r_fr10_7,fr10_a2).
body(r_fr10_7,fr10_x3).
body(r_fr10_7,fr10_y2).
head(r_fr10_8,fr7_x1).
body(r_fr10_8,fr10_a4).
body(r_fr10_8,fr10_a6).
body(r_fr10_8,fr10_a2).
body(r_fr10_8,fr10_f2).
head(r_fr10_9,fr7_x1).
body(r_fr10_9,fr10_a2).
body(r_fr10_9,fr7_x1).
head(r_fr10_10,fr10_v3).
body(r_fr10_10,fr10_b1).
body(r_fr10_10,fr10_a2).
body(r_fr10_10,fr7_x1).
body(r_fr10_10,fr10_s3).
body(r_fr10_10,fr7_x1).
body(r_fr10_10,fr10_u1).
body(r_fr10_10,fr7_t4).
body(r_fr10_10,fr10_v2).
body(r_fr10_10,fr10_y2).
body(r_fr10_10,fr10_y3).
body(r_fr10_10,fr9_y1).
head(r_fr10_11,fr10_v3).
body(r_fr10_11,fr10_a2).
body(r_fr10_11,fr10_c2).
body(r_fr10_11,fr10_a2).
body(r_fr10_11,fr10_a2).
body(r_fr10_11,fr9_e1).
body(r_fr10_11,fr10_a2).
body(r_fr10_11,fr10_a2).
body(r_fr10_11,fr10_f2).
body(r_fr10_11,fr10_v1).
head(r_fr10_12,fr10_v3).
body(r_fr10_12,fr10_a4).
body(r_fr10_12,fr10_b2).
body(r_fr10_12,fr10_a2).
body(r_fr10_12,fr10_c1).
body(r_fr10_12,fr10_c2).
body(r_fr10_12,fr10_a2).
body(r_fr10_12,fr10_a2).
body(r_fr10_12,fr10_d5).
body(r_fr10_12,fr10_a2).
body(r_fr10_12,fr10_a2).
body(r_fr10_12,fr10_f2).
head(r_fr10_13,fr10_v3).
body(r_fr10_13,fr10_a2).
body(r_fr10_13,fr10_a2).
body(r_fr10_13,fr10_c2).
body(r_fr10_13,fr10_a2).
body(r_fr10_13,fr10_f5).
body(r_fr10_13,fr7_x1).
body(r_fr10_13,fr7_t4).
head(r_fr10_14,fr10_v3).
body(r_fr10_14,fr10_a2).
body(r_fr10_14,fr10_a2).
body(r_fr10_14,fr7_x1).
head(r_fr10_15,fr10_v3).
body(r_fr10_15,fr10_a2).
head(r_fr10_16,fr10_v3).
body(r_fr10_16,fr9_e1).
body(r_fr10_16,fr2_d2).
body(r_fr10_16,fr7_x1).
body(r_fr10_16,fr7_x1).
body(r_fr10_16,fr7_x1).
body(r_fr10_16,fr7_x1).
body(r_fr10_16,fr10_v1).
body(r_fr10_16,fr7_x1).
body(r_fr10_16,fr10_z2).
body(r_fr10_16,fr7_x1).
head(r_fr10_17,fr10_v3).
body(r_fr10_17,fr10_a2).
body(r_fr10_17,fr10_a3).
body(r_fr10_17,fr10_b4).
body(r_fr10_17,fr10_a2).
body(r_fr10_17,fr10_c1).
body(r_fr10_17,fr10_a2).
body(r_fr10_17,fr10_d5).
body(r_fr10_17,fr10_a2).
body(r_fr10_17,fr10_s4).
head(r_fr10_18,fr10_v3).
body(r_fr10_18,fr10_a2).
body(r_fr10_18,fr10_p4).
body(r_fr10_18,fr7_x1).
body(r_fr10_18,fr10_q2).
body(r_fr10_18,fr10_s4).
body(r_fr10_18,fr10_x5).
head(r_fr10_19,fr10_t4).
body(r_fr10_19,fr10_a2).
body(r_fr10_19,fr10_p1).
body(r_fr10_19,fr10_q2).
body(r_fr10_19,fr7_x1).
body(r_fr10_19,fr7_x1).
body(r_fr10_19,fr10_p4).
body(r_fr10_19,fr10_y3).
head(r_fr10_20,fr10_t4).
body(r_fr10_20,fr10_a2).
body(r_fr10_20,fr10_p1).
body(r_fr10_20,fr10_p4).
body(r_fr10_20,fr10_s4).
body(r_fr10_20,fr10_t1).
body(r_fr10_20,fr7_x1).
body(r_fr10_20,fr7_x1).
body(r_fr10_20,fr9_y2).
body(r_fr10_20,fr7_x1).
head(r_fr10_21,fr10_t4).
head(r_fr10_22,fr10_t4).
body(r_fr10_22,fr10_a2).
body(r_fr10_22,fr10_a3).
body(r_fr10_22,fr10_b3).
body(r_fr10_22,fr10_a2).
body(r_fr10_22,fr10_a2).
body(r_fr10_22,fr10_a2).
body(r_fr10_22,fr10_a2).
head(r_fr10_23,fr7_x1).
body(r_fr10_23,fr10_b2).
body(r_fr10_23,fr10_u4).
head(r_fr10_24,fr7_x1).
body(r_fr10_24,fr10_a2).
body(r_fr10_24,fr7_x1).
body(r_fr10_24,fr10_s4).
body(r_fr10_24,fr7_x1).
head(r_fr10_25,fr7_x1).
body(r_fr10_25,fr7_x1).
head(r_fr10_26,fr7_x1).
head(r_fr10_27,fr7_x1).
body(r_fr10_27,fr10_q2).
head(r_fr10_28,fr7_x1).
body(r_fr10_28,fr10_a2).
body(r_fr10_28,fr10_a2).
body(r_fr10_28,fr10_a2).
head(r_fr10_29,fr7_x1).
body(r_fr10_29,fr10_a2).
body(r_fr10_29,fr10_a2).
body(r_fr10_29,fr10_f5).
body(r_fr10_29,fr10_x3).
head(r_fr10_30,fr7_x1).
body(r_fr10_30,fr10_b1).
body(r_fr10_30,fr10_b2).
body(r_fr10_30,fr10_a2).
body(r_fr10_30,fr7_x1).
body(r_fr10_30,fr9_t3).
body(r_fr10_30,fr7_x1).
head(r_fr10_31,fr7_x1).
body(r_fr10_31,fr10_c1).
body(r_fr10_31,fr10_q1).
body(r_fr10_31,fr10_s1).
body(r_fr10_31,fr10_u3).
body(r_fr10_31,fr10_u4).
body(r_fr10_31,fr7_t4).
body(r_fr10_31,fr7_x1).
body(r_fr10_31,fr10_x3).
body(r_fr10_31,fr10_y2).
head(r_fr10_32,fr10_s5).
body(r_fr10_32,fr10_c1).
body(r_fr10_32,fr10_d5).
body(r_fr10_32,fr10_a2).
body(r_fr10_32,fr10_f5).
body(r_fr10_32,fr7_x1).
body(r_fr10_32,fr7_x1).
body(r_fr10_32,fr10_y2).
body(r_fr10_32,fr10_y4).
body(r_fr10_32,fr7_x1).
body(r_fr10_32,fr7_x1).
body(r_fr10_32,fr9_y1).
head(r_fr10_33,fr10_s5).
body(r_fr10_33,fr7_x1).
head(r_fr10_34,fr10_s5).
body(r_fr10_34,fr10_a2).
body(r_fr10_34,fr10_q1).
body(r_fr10_34,fr10_x3).
head(r_fr10_35,fr10_s5).
body(r_fr10_35,fr10_a3).
body(r_fr10_35,fr10_a4).
body(r_fr10_35,fr10_b1).
body(r_fr10_35,fr10_a2).
body(r_fr10_35,fr10_a2).
body(r_fr10_35,fr10_a2).
body(r_fr10_35,fr10_a2).
body(r_fr10_35,fr10_a2).
body(r_fr10_35,fr10_f5).
head(r_fr10_36,fr10_s5).
body(r_fr10_36,fr10_a2).
body(r_fr10_36,fr7_x1).
body(r_fr10_36,fr7_x1).
body(r_fr10_36,fr10_v1).
head(r_fr10_37,fr10_s5).
body(r_fr10_37,fr10_p1).
body(r_fr10_37,fr10_r5).
body(r_fr10_37,fr10_t4).
body(r_fr10_37,fr10_v1).
body(r_fr10_37,fr10_v2).
body(r_fr10_37,fr10_v4).
body(r_fr10_37,fr7_x1).
body(r_fr10_37,fr7_x1).
body(r_fr10_37,fr7_x1).
head(r_fr10_38,fr10_s5).
body(r_fr10_38,fr10_a6).
body(r_fr10_38,fr9_e1).
body(r_fr10_38,fr10_a2).
body(r_fr10_38,fr2_d2).
body(r_fr10_38,fr7_x1).
body(r_fr10_38,fr10_y4).
head(r_fr10_39,fr10_s5).
body(r_fr10_39,fr10_d5).
body(r_fr10_39,fr10_t1).
body(r_fr10_39,fr7_x1).
head(r_fr10_40,fr10_s5).
body(r_fr10_40,fr10_q2).
body(r_fr10_40,fr10_u1).
body(r_fr10_40,fr10_u3).
body(r_fr10_40,fr10_v3).
body(r_fr10_40,fr7_x1).
body(r_fr10_40,fr7_x1).
head(r_fr10_41,fr10_s5).
body(r_fr10_41,fr10_b4).
body(r_fr10_41,fr10_a2).
body(r_fr10_41,fr10_p1).
body(r_fr10_41,fr7_x1).
body(r_fr10_41,fr10_s1).
body(r_fr10_41,fr7_x1).
body(r_fr10_41,fr9_t5).
head(r_fr10_42,fr10_s5).
body(r_fr10_42,fr10_a2).
body(r_fr10_42,fr10_b1).
body(r_fr10_42,fr10_b3).
body(r_fr10_42,fr10_a2).
body(r_fr10_42,fr10_c1).
body(r_fr10_42,fr10_c2).
body(r_fr10_42,fr10_a2).
body(r_fr10_42,fr10_a2).
body(r_fr10_42,fr10_a2).
body(r_fr10_42,fr10_a2).
body(r_fr10_42,fr10_a2).
body(r_fr10_42,fr10_f5).
body(r_fr10_42,fr10_w1).
head(r_fr10_43,fr7_x1).
body(r_fr10_43,fr10_a2).
body(r_fr10_43,fr10_d5).
body(r_fr10_43,fr10_e1).
body(r_fr10_43,fr7_x1).
body(r_fr10_43,fr7_x1).
head(r_fr10_44,fr7_x1).
body(r_fr10_44,fr10_a3).
body(r_fr10_44,fr10_a2).
body(r_fr10_44,fr10_c1).
body(r_fr10_44,fr10_c2).
body(r_fr10_44,fr10_a2).
body(r_fr10_44,fr9_e1).
body(r_fr10_44,fr10_a2).
body(r_fr10_44,fr10_a2).
body(r_fr10_44,fr10_a2).
body(r_fr10_44,fr10_f5).
body(r_fr10_44,fr10_x3).
head(r_fr10_45,fr7_x1).
body(r_fr10_45,fr9_e1).
body(r_fr10_45,fr7_x1).
body(r_fr10_45,fr7_x1).
body(r_fr10_45,fr10_t4).
body(r_fr10_45,fr7_x1).
head(r_fr10_46,fr7_x1).
body(r_fr10_46,fr9_e1).
body(r_fr10_46,fr10_a2).
head(r_fr10_47,fr7_x1).
body(r_fr10_47,fr10_a2).
body(r_fr10_47,fr10_a2).
body(r_fr10_47,fr10_d5).
body(r_fr10_47,fr10_a2).
body(r_fr10_47,fr9_t3).
body(r_fr10_47,fr10_t1).
body(r_fr10_47,fr7_x1).
body(r_fr10_47,fr10_x3).
body(r_fr10_47,fr10_y4).
body(r_fr10_47,fr7_x1).
body(r_fr10_47,fr7_x1).
head(r_fr10_48,fr7_x1).
body(r_fr10_48,fr10_a2).
body(r_fr10_48,fr10_q1).
body(r_fr10_48,fr7_t4).
body(r_fr10_48,fr10_x5).
head(r_fr10_49,fr7_x1).
body(r_fr10_49,fr9_e1).
body(r_fr10_49,fr10_a2).
head(r_fr10_50,fr7_x1).
body(r_fr10_50,fr10_a2).
body(r_fr10_50,fr10_a2).
body(r_fr10_50,fr7_x1).
body(r_fr10_50,fr9_w1).
body(r_fr10_50,fr10_z2).
head(r_fr10_51,fr7_x1).
body(r_fr10_51,fr10_a2).
body(r_fr10_51,fr10_a2).
body(r_fr10_51,fr10_d5).
body(r_fr10_51,fr7_x1).
head(r_fr10_52,fr7_x1).
body(r_fr10_52,fr10_a2).
body(r_fr10_52,fr10_b2).
body(r_fr10_52,fr9_p2).
body(r_fr10_52,fr10_t1).
body(r_fr10_52,fr9_w1).
body(r_fr10_52,fr7_x1).
body(r_fr10_52,fr7_x1).
body(r_fr10_52,fr7_x1).
body(r_fr10_52,fr7_x1).
head(r_fr10_53,fr7_x1).
body(r_fr10_53,fr10_a3).
body(r_fr10_53,fr10_a4).
body(r_fr10_53,fr10_b1).
body(r_fr10_53,fr10_b3).
body(r_fr10_53,fr10_a2).
body(r_fr10_53,fr10_a2).
body(r_fr10_53,fr10_a2).
body(r_fr10_53,fr10_e1).
body(r_fr10_53,fr10_a2).
body(r_fr10_53,fr9_y1).
head(r_fr10_54,fr7_x1).
body(r_fr10_54,fr10_a4).
body(r_fr10_54,fr10_a2).
body(r_fr10_54,fr10_a6).
body(r_fr10_54,fr10_b3).
body(r_fr10_54,fr10_a2).
body(r_fr10_54,fr10_a2).
body(r_fr10_54,fr9_e1).
body(r_fr10_54,fr10_a2).
body(r_fr10_54,fr10_a2).
body(r_fr10_54,fr10_a2).
body(r_fr10_54,fr10_f5).
head(r_fr10_55,fr10_v2).
body(r_fr10_55,fr9_p2).
body(r_fr10_55,fr9_t3).
body(r_fr10_55,fr10_s5).
body(r_fr10_55,fr7_x1).
body(r_fr10_55,fr7_x1).
body(r_fr10_55,fr10_u3).
body(r_fr10_55,fr7_t4).
body(r_fr10_55,fr10_v1).
body(r_fr10_55,fr9_y2).
body(r_fr10_55,fr7_x1).
body(r_fr10_55,fr7_x1).
body(r_fr10_55,fr9_t5).
head(r_fr10_56,fr10_v2).
head(r_fr10_57,fr10_v2).
body(r_fr10_57,fr10_x5).
head(r_fr10_58,fr10_v2).
body(r_fr10_58,fr10_a6).
body(r_fr10_58,fr10_c1).
head(r_fr10_59,fr10_v2).
body(r_fr10_59,fr10_a2).
body(r_fr10_59,fr10_a6).
body(r_fr10_59,fr10_b1).
body(r_fr10_59,fr10_c1).
body(r_fr10_59,fr9_e1).
body(r_fr10_59,fr10_a2).
body(r_fr10_59,fr10_a2).
body(r_fr10_59,fr10_a2).
body(r_fr10_59,fr10_a2).
body(r_fr10_59,fr7_x1).
body(r_fr10_59,fr7_x1).
body(r_fr10_59,fr7_x1).
head(r_fr10_60,fr9_t5).
body(r_fr10_60,fr10_a2).
body(r_fr10_60,fr10_c2).
body(r_fr10_60,fr10_a2).
body(r_fr10_60,fr10_a2).
body(r_fr10_60,fr10_a2).
body(r_fr10_60,fr10_a2).
body(r_fr10_60,fr10_f2).
body(r_fr10_60,fr10_a2).
body(r_fr10_60,fr10_f5).
body(r_fr10_60,fr10_t4).
body(r_fr10_60,fr10_u4).
body(r_fr10_60,fr7_x1).
head(r_fr10_61,fr9_t5).
body(r_fr10_61,fr10_a4).
body(r_fr10_61,fr10_b2).
body(r_fr10_61,fr10_a2).
body(r_fr10_61,fr10_a2).
body(r_fr10_61,fr10_a2).
body(r_fr10_61,fr10_e1).
body(r_fr10_61,fr10_a2).
body(r_fr10_61,fr10_a2).
body(r_fr10_61,fr10_a2).
body(r_fr10_61,fr7_x1).
body(r_fr10_61,fr10_w1).
body(r_fr10_61,fr7_x1).
body(r_fr10_61,fr10_y4).
head(r_fr10_62,fr9_t5).
body(r_fr10_62,fr10_a2).
body(r_fr10_62,fr10_a2).
body(r_fr10_62,fr10_a2).
body(r_fr10_62,fr10_a2).
body(r_fr10_62,fr10_a2).
body(r_fr10_62,fr10_r5).
body(r_fr10_62,fr7_x1).
body(r_fr10_62,fr10_z2).
head(r_fr10_63,fr9_t5).
body(r_fr10_63,fr10_f5).
body(r_fr10_63,fr9_w1).
head(r_fr10_64,fr9_t5).
body(r_fr10_64,fr10_a4).
body(r_fr10_64,fr10_a2).
body(r_fr10_64,fr10_a2).
body(r_fr10_64,fr9_e1).
body(r_fr10_64,fr10_a2).
body(r_fr10_64,fr10_a2).
body(r_fr10_64,fr10_a2).
body(r_fr10_64,fr10_a2).
body(r_fr10_64,fr10_a2).
body(r_fr10_64,fr10_f5).
body(r_fr10_64,fr10_s4).
body(r_fr10_64,fr10_u3).
head(r_fr10_65,fr9_t5).
body(r_fr10_65,fr10_b1).
body(r_fr10_65,fr10_a2).
body(r_fr10_65,fr10_a2).
body(r_fr10_65,fr10_a2).
body(r_fr10_65,fr10_f2).
body(r_fr10_65,fr10_a2).
body(r_fr10_65,fr9_p2).
body(r_fr10_65,fr7_x1).
body(r_fr10_65,fr10_w1).
body(r_fr10_65,fr7_x1).
head(r_fr10_66,fr10_w1).
body(r_fr10_66,fr10_a2).
body(r_fr10_66,fr9_e1).
body(r_fr10_66,fr10_a2).
body(r_fr10_66,fr10_a2).
body(r_fr10_66,fr10_s1).
body(r_fr10_66,fr7_x1).
body(r_fr10_66,fr7_x1).
head(r_fr10_67,fr10_w1).
body(r_fr10_67,fr10_c1).
body(r_fr10_67,fr10_f2).
body(r_fr10_67,fr10_f5).
body(r_fr10_67,fr10_p1).
body(r_fr10_67,fr10_p4).
body(r_fr10_67,fr10_u1).
body(r_fr10_67,fr10_y3).
body(r_fr10_67,fr10_z2).
head(r_fr10_68,fr10_s4).
body(r_fr10_68,fr7_x1).
body(r_fr10_68,fr7_x1).
body(r_fr10_68,fr7_x1).
head(r_fr10_69,fr10_s4).
body(r_fr10_69,fr10_a2).
body(r_fr10_69,fr10_a3).
body(r_fr10_69,fr10_p4).
body(r_fr10_69,fr7_x1).
body(r_fr10_69,fr10_s5).
body(r_fr10_69,fr7_x1).
body(r_fr10_69,fr7_x1).
body(r_fr10_69,fr7_x1).
head(r_fr10_70,fr10_y4).
body(r_fr10_70,fr10_a2).
body(r_fr10_70,fr10_a3).
body(r_fr10_70,fr10_b3).
body(r_fr10_70,fr10_a2).
body(r_fr10_70,fr9_e1).
body(r_fr10_70,fr10_a2).
body(r_fr10_70,fr10_d5).
body(r_fr10_70,fr10_a2).
body(r_fr10_70,fr7_x1).
body(r_fr10_70,fr10_u1).
body(r_fr10_70,fr7_x1).
body(r_fr10_70,fr7_x1).
head(r_fr10_71,fr10_y4).
body(r_fr10_71,fr10_c1).
body(r_fr10_71,fr10_a2).
head(r_fr10_72,fr10_y4).
body(r_fr10_72,fr7_x1).
body(r_fr10_72,fr7_x1).
body(r_fr10_72,fr10_s3).
body(r_fr10_72,fr10_t4).
body(r_fr10_72,fr10_u1).
body(r_fr10_72,fr10_v3).
body(r_fr10_72,fr9_y2).
body(r_fr10_72,fr7_x1).
body(r_fr10_72,fr7_x1).
body(r_fr10_72,fr7_x1).
body(r_fr10_72,fr10_x3).
body(r_fr10_72,fr7_x1).
body(r_fr10_72,fr10_z2).
head(r_fr10_73,fr10_y4).
body(r_fr10_73,fr10_a2).
body(r_fr10_73,fr10_a3).
body(r_fr10_73,fr10_a6).
body(r_fr10_73,fr10_c2).
body(r_fr10_73,fr10_d5).
body(r_fr10_73,fr10_a2).
body(r_fr10_73,fr2_d2).
body(r_fr10_73,fr10_u4).
head(r_fr10_74,fr10_y4).
body(r_fr10_74,fr10_p4).
body(r_fr10_74,fr7_x1).
body(r_fr10_74,fr10_s5).
body(r_fr10_74,fr10_t1).
body(r_fr10_74,fr7_x1).
body(r_fr10_74,fr10_t4).
body(r_fr10_74,fr9_y2).
body(r_fr10_74,fr10_x5).
head(r_fr10_75,fr10_y4).
body(r_fr10_75,fr10_a2).
body(r_fr10_75,fr10_d5).
body(r_fr10_75,fr10_a2).
body(r_fr10_75,fr10_a2).
body(r_fr10_75,fr10_f5).
body(r_fr10_75,fr10_p1).
body(r_fr10_75,fr7_x1).
body(r_fr10_75,fr7_x1).
body(r_fr10_75,fr10_s1).
body(r_fr10_75,fr10_s5).
body(r_fr10_75,fr7_x1).
body(r_fr10_75,fr10_v4).
body(r_fr10_75,fr10_w1).
head(r_fr10_76,fr7_x1).
body(r_fr10_76,fr10_a3).
body(r_fr10_76,fr10_a2).
body(r_fr10_76,fr10_a2).
body(r_fr10_76,fr2_d2).
body(r_fr10_76,fr10_q2).
body(r_fr10_76,fr7_x1).
body(r_fr10_76,fr7_x1).
body(r_fr10_76,fr9_w1).
body(r_fr10_76,fr10_w1).
body(r_fr10_76,fr9_y2).
body(r_fr10_76,fr10_x3).
body(r_fr10_76,fr7_x1).
body(r_fr10_76,fr10_z2).
head(r_fr10_77,fr7_x1).
body(r_fr10_77,fr10_a2).
body(r_fr10_77,fr10_a3).
body(r_fr10_77,fr10_a4).
body(r_fr10_77,fr10_b2).
body(r_fr10_77,fr10_a2).
body(r_fr10_77,fr10_c2).
body(r_fr10_77,fr10_a2).
body(r_fr10_77,fr10_a2).
body(r_fr10_77,fr10_s1).
body(r_fr10_77,fr7_x1).
body(r_fr10_77,fr7_x1).
body(r_fr10_77,fr7_x1).
head(r_fr10_78,fr7_x1).
body(r_fr10_78,fr10_a2).
body(r_fr10_78,fr10_c2).
body(r_fr10_78,fr10_a2).
body(r_fr10_78,fr10_a2).
body(r_fr10_78,fr10_a2).
body(r_fr10_78,fr2_d2).
body(r_fr10_78,fr7_x1).
body(r_fr10_78,fr10_u3).
body(r_fr10_78,fr9_y2).
body(r_fr10_78,fr7_x1).
body(r_fr10_78,fr9_t5).
head(r_fr10_79,fr7_x1).
body(r_fr10_79,fr10_u3).
body(r_fr10_79,fr7_t4).
body(r_fr10_79,fr7_x1).
body(r_fr10_79,fr7_x1).
body(r_fr10_79,fr10_x3).
body(r_fr10_79,fr10_y2).
head(r_fr10_80,fr7_x1).
body(r_fr10_80,fr10_a2).
head(r_fr10_81,fr7_x1).
body(r_fr10_81,fr10_a2).
body(r_fr10_81,fr10_b1).
body(r_fr10_81,fr10_b3).
body(r_fr10_81,fr10_a2).
body(r_fr10_81,fr10_a2).
body(r_fr10_81,fr10_c1).
body(r_fr10_81,fr10_c2).
body(r_fr10_81,fr10_e1).
body(r_fr10_81,fr10_a2).
body(r_fr10_81,fr10_u3).
body(r_fr10_81,fr10_v3).
head(r_fr10_82,fr7_x1).
head(r_fr10_83,fr7_x1).
body(r_fr10_83,fr7_x1).
body(r_fr10_83,fr7_x1).
body(r_fr10_83,fr7_x1).
body(r_fr10_83,fr10_x5).
body(r_fr10_83,fr9_y1).
head(r_fr10_84,fr7_x1).
body(r_fr10_84,fr10_a4).
body(r_fr10_84,fr10_b1).
body(r_fr10_84,fr10_a2).
body(r_fr10_84,fr10_c1).
body(r_fr10_84,fr10_a2).
body(r_fr10_84,fr10_a2).
body(r_fr10_84,fr10_a2).
body(r_fr10_84,fr10_s1).
body(r_fr10_84,fr7_x1).
body(r_fr10_84,fr10_u4).
body(r_fr10_84,fr10_x3).
body(r_fr10_84,fr10_x5).
body(r_fr10_84,fr10_z1).
head(r_fr10_85,fr7_x1).
body(r_fr10_85,fr10_a2).
body(r_fr10_85,fr10_a2).
body(r_fr10_85,fr10_c2).
body(r_fr10_85,fr10_a2).
body(r_fr10_85,fr10_a2).
body(r_fr10_85,fr10_d5).
body(r_fr10_85,fr10_a2).
body(r_fr10_85,fr10_a2).
body(r_fr10_85,fr10_a2).
body(r_fr10_85,fr7_x1).
body(r_fr10_85,fr7_x1).
body(r_fr10_85,fr10_y3).
body(r_fr10_85,fr10_z1).
head(r_fr10_86,fr10_x5).
body(r_fr10_86,fr10_a2).
body(r_fr10_86,fr10_a2).
body(r_fr10_86,fr10_a2).
body(r_fr10_86,fr10_p4).
body(r_fr10_86,fr10_r5).
body(r_fr10_86,fr7_x1).
body(r_fr10_86,fr7_x1).
body(r_fr10_86,fr10_u1).
body(r_fr10_86,fr10_v2).
body(r_fr10_86,fr7_x1).
body(r_fr10_86,fr10_y4).
head(r_fr10_87,fr10_x5).
body(r_fr10_87,fr10_a3).
body(r_fr10_87,fr10_a4).
body(r_fr10_87,fr10_a6).
body(r_fr10_87,fr10_b3).
body(r_fr10_87,fr10_b4).
body(r_fr10_87,fr10_a2).
body(r_fr10_87,fr10_a2).
body(r_fr10_87,fr9_e1).
body(r_fr10_87,fr10_a2).
body(r_fr10_87,fr10_a2).
head(r_fr10_88,fr10_x5).
body(r_fr10_88,fr10_a2).
body(r_fr10_88,fr10_a2).
body(r_fr10_88,fr10_b3).
body(r_fr10_88,fr10_b4).
body(r_fr10_88,fr10_c2).
body(r_fr10_88,fr10_a2).
body(r_fr10_88,fr10_a2).
body(r_fr10_88,fr10_a2).
body(r_fr10_88,fr10_a2).
head(r_fr10_89,fr10_x5).
body(r_fr10_89,fr10_a2).
body(r_fr10_89,fr10_a2).
body(r_fr10_89,fr2_d2).
head(r_fr10_90,fr10_x5).
body(r_fr10_90,fr10_a2).
body(r_fr10_90,fr10_a2).
body(r_fr10_90,fr10_d5).
body(r_fr10_90,fr10_f2).
body(r_fr10_90,fr7_x1).
body(r_fr10_90,fr7_x1).
body(r_fr10_90,fr10_s4).
body(r_fr10_90,fr7_x1).
body(r_fr10_90,fr10_v3).
body(r_fr10_90,fr9_w1).
body(r_fr10_90,fr10_w1).
body(r_fr10_90,fr10_y4).
body(r_fr10_90,fr10_z2).
head(r_fr10_91,fr10_x5).
body(r_fr10_91,fr10_f2).
head(r_fr10_92,fr10_x5).
body(r_fr10_92,fr10_a3).
head(r_fr10_93,fr10_x5).
head(r_fr10_94,fr10_x5).
body(r_fr10_94,fr10_a3).
body(r_fr10_94,fr7_x1).
head(r_fr10_95,fr10_u1).
body(r_fr10_95,fr10_a2).
body(r_fr10_95,fr10_a6).
body(r_fr10_95,fr10_b2).
body(r_fr10_95,fr10_a2).
body(r_fr10_95,fr10_a2).
body(r_fr10_95,fr10_y3).
head(r_fr10_96,fr10_u1).
body(r_fr10_96,fr10_d5).
body(r_fr10_96,fr10_f5).
body(r_fr10_96,fr10_p4).
head(r_fr10_97,fr10_u1).
body(r_fr10_97,fr10_a2).
head(r_fr10_98,fr10_u1).
body(r_fr10_98,fr10_a2).
body(r_fr10_98,fr10_a2).
body(r_fr10_98,fr9_e1).
body(r_fr10_98,fr10_a2).
body(r_fr10_98,fr10_a2).
body(r_fr10_98,fr10_a2).
body(r_fr10_98,fr9_p2).
body(r_fr10_98,fr7_x1).
head(r_fr10_99,fr10_z2).
body(r_fr10_99,fr10_a3).
body(r_fr10_99,fr10_a2).
body(r_fr10_99,fr10_a2).
body(r_fr10_99,fr10_a2).
body(r_fr10_99,fr10_p4).
body(r_fr10_99,fr10_s3).
body(r_fr10_99,fr10_v2).
body(r_fr10_99,fr7_x1).
body(r_fr10_99,fr7_x1).
head(r_fr10_100,fr10_z2).
body(r_fr10_100,fr10_a2).
body(r_fr10_100,fr10_b1).
body(r_fr10_100,fr10_a2).
body(r_fr10_100,fr10_a2).
body(r_fr10_100,fr10_a2).
body(r_fr10_100,fr10_a2).
body(r_fr10_100,fr10_f2).
head(r_fr10_101,fr10_z2).
body(r_fr10_101,fr10_q1).
body(r_fr10_101,fr7_x1).
body(r_fr10_101,fr7_x1).
body(r_fr10_101,fr9_y1).
head(r_fr10_102,fr10_z2).
body(r_fr10_102,fr10_b3).
body(r_fr10_102,fr10_c1).
body(r_fr10_102,fr10_a2).
body(r_fr10_102,fr10_a2).
body(r_fr10_102,fr10_f5).
body(r_fr10_102,fr10_s4).
body(r_fr10_102,fr10_v3).
body(r_fr10_102,fr7_x1).
head(r_fr10_103,fr10_z2).
body(r_fr10_103,fr10_a2).
body(r_fr10_103,fr7_x1).
body(r_fr10_103,fr7_x1).
body(r_fr10_103,fr10_y2).
head(r_fr10_104,fr10_z2).
head(r_fr10_105,fr10_v4).
body(r_fr10_105,fr10_a2).
body(r_fr10_105,fr7_x1).
body(r_fr10_105,fr7_x1).
body(r_fr10_105,fr9_t3).
body(r_fr10_105,fr10_s5).
body(r_fr10_105,fr10_x5).
body(r_fr10_105,fr7_x1).
head(r_fr10_106,fr10_v4).
body(r_fr10_106,fr10_a2).
body(r_fr10_106,fr10_a2).
body(r_fr10_106,fr10_c1).
body(r_fr10_106,fr7_x1).
body(r_fr10_106,fr10_v3).
body(r_fr10_106,fr9_w1).
body(r_fr10_106,fr7_x1).
body(r_fr10_106,fr7_x1).
head(r_fr10_107,fr10_v4).
body(r_fr10_107,fr10_a2).
body(r_fr10_107,fr10_f2).
body(r_fr10_107,fr10_p1).
body(r_fr10_107,fr7_x1).
body(r_fr10_107,fr10_t4).
body(r_fr10_107,fr10_u3).
head(r_fr10_108,fr10_v4).
body(r_fr10_108,fr9_e1).
body(r_fr10_108,fr10_a2).
body(r_fr10_108,fr9_t3).
body(r_fr10_108,fr7_x1).
body(r_fr10_108,fr10_s1).
body(r_fr10_108,fr10_s5).
body(r_fr10_108,fr10_u3).
body(r_fr10_108,fr7_t4).
body(r_fr10_108,fr9_w1).
body(r_fr10_108,fr7_x1).
body(r_fr10_108,fr10_x3).
body(r_fr10_108,fr10_x5).
head(r_fr10_109,fr10_v4).
head(r_fr10_110,fr10_v4).
body(r_fr10_110,fr2_d2).
head(r_fr10_111,fr7_x1).
body(r_fr10_111,fr9_t5).
head(r_fr10_112,fr7_x1).
body(r_fr10_112,fr10_a2).
head(r_fr10_113,fr7_x1).
body(r_fr10_113,fr10_a2).
body(r_fr10_113,fr10_a4).
body(r_fr10_113,fr10_a6).
body(r_fr10_113,fr10_b2).
body(r_fr10_113,fr10_b3).
body(r_fr10_113,fr10_a2).
body(r_fr10_113,fr10_a2).
body(r_fr10_113,fr10_a2).
body(r_fr10_113,fr10_a2).
body(r_fr10_113,fr10_a2).
body(r_fr10_113,fr10_f2).
body(r_fr10_113,fr7_x1).
body(r_fr10_113,fr9_w1).
head(r_fr10_114,fr7_x1).
body(r_fr10_114,fr10_a6).
body(r_fr10_114,fr10_a2).
body(r_fr10_114,fr10_c2).
body(r_fr10_114,fr10_a2).
body(r_fr10_114,fr10_a2).
body(r_fr10_114,fr10_e1).
body(r_fr10_114,fr10_a2).
body(r_fr10_114,fr2_d2).
body(r_fr10_114,fr10_v1).
body(r_fr10_114,fr10_y4).
head(r_fr10_115,fr7_x1).
body(r_fr10_115,fr10_a4).
body(r_fr10_115,fr10_b4).
body(r_fr10_115,fr7_x1).
head(r_fr10_116,fr7_x1).
body(r_fr10_116,fr10_b1).
body(r_fr10_116,fr10_a2).
body(r_fr10_116,fr10_a2).
body(r_fr10_116,fr10_a2).
body(r_fr10_116,fr10_a2).
body(r_fr10_116,fr9_p2).
body(r_fr10_116,fr7_x1).
body(r_fr10_116,fr7_x1).
body(r_fr10_116,fr10_r5).
body(r_fr10_116,fr10_s4).
body(r_fr10_116,fr10_u1).
body(r_fr10_116,fr7_t4).
body(r_fr10_116,fr10_v4).
head(r_fr10_117,fr7_x1).
body(r_fr10_117,fr10_a2).
body(r_fr10_117,fr10_c1).
body(r_fr10_117,fr10_p1).
body(r_fr10_117,fr7_x1).
body(r_fr10_117,fr10_s5).
body(r_fr10_117,fr10_v1).
body(r_fr10_117,fr7_x1).
body(r_fr10_117,fr7_x1).
body(r_fr10_117,fr10_y3).
body(r_fr10_117,fr7_x1).
head(r_fr10_118,fr7_x1).
body(r_fr10_118,fr7_x1).
body(r_fr10_118,fr9_t3).
body(r_fr10_118,fr10_v1).
body(r_fr10_118,fr10_v4).
body(r_fr10_118,fr9_w1).
body(r_fr10_118,fr7_x1).
head(r_fr10_119,fr10_p4).
body(r_fr10_119,fr10_a2).
body(r_fr10_119,fr10_a2).
body(r_fr10_119,fr10_r5).
body(r_fr10_119,fr7_x1).
body(r_fr10_119,fr7_t4).
body(r_fr10_119,fr10_v2).
body(r_fr10_119,fr10_z2).
head(r_fr10_120,fr10_p4).
body(r_fr10_120,fr10_b1).
body(r_fr10_120,fr10_a2).
body(r_fr10_120,fr10_c1).
body(r_fr10_120,fr10_a2).
body(r_fr10_120,fr10_a2).
body(r_fr10_120,fr10_p1).
body(r_fr10_120,fr10_t1).
body(r_fr10_120,fr7_x1).
body(r_fr10_120,fr10_z1).
body(r_fr10_120,fr7_x1).
head(r_fr10_121,fr10_p4).
body(r_fr10_121,fr10_a6).
body(r_fr10_121,fr10_b3).
body(r_fr10_121,fr10_a2).
body(r_fr10_121,fr10_c2).
body(r_fr10_121,fr10_a2).
body(r_fr10_121,fr10_d5).
body(r_fr10_121,fr10_e1).
body(r_fr10_121,fr10_a2).
body(r_fr10_121,fr2_d2).
body(r_fr10_121,fr10_a2).
body(r_fr10_121,fr10_f5).
body(r_fr10_121,fr10_w1).
body(r_fr10_121,fr7_x1).
head(r_fr10_122,fr10_p4).
body(r_fr10_122,fr10_a2).
body(r_fr10_122,fr10_a3).
body(r_fr10_122,fr10_b3).
body(r_fr10_122,fr10_a2).
body(r_fr10_122,fr10_a2).
body(r_fr10_122,fr10_f5).
head(r_fr10_123,fr10_p4).
body(r_fr10_123,fr10_a4).
body(r_fr10_123,fr10_a2).
body(r_fr10_123,fr10_a2).
body(r_fr10_123,fr10_a2).
body(r_fr10_123,fr10_e1).
body(r_fr10_123,fr10_a2).
head(r_fr10_124,fr10_p4).
body(r_fr10_124,fr10_b3).
body(r_fr10_124,fr10_a2).
head(r_fr10_125,fr10_p4).
body(r_fr10_125,fr10_a2).
body(r_fr10_125,fr10_b2).
body(r_fr10_125,fr10_a2).
body(r_fr10_125,fr10_e1).
body(r_fr10_125,fr10_a2).
body(r_fr10_125,fr10_q2).
body(r_fr10_125,fr10_s4).
body(r_fr10_125,fr10_t4).
body(r_fr10_125,fr7_x1).
body(r_fr10_125,fr10_v4).
body(r_fr10_125,fr7_x1).
head(r_fr10_126,fr10_p4).
body(r_fr10_126,fr10_a2).
head(r_fr10_127,fr10_p4).
head(r_fr10_128,fr10_p4).
body(r_fr10_128,fr10_b3).
body(r_fr10_128,fr10_c1).
body(r_fr10_128,fr10_a2).
body(r_fr10_128,fr10_d5).
body(r_fr10_128,fr10_e1).
body(r_fr10_128,fr10_a2).
body(r_fr10_128,fr9_p2).
body(r_fr10_128,fr7_x1).
body(r_fr10_128,fr7_x1).
body(r_fr10_128,fr7_x1).
body(r_fr10_128,fr10_z2).
body(r_fr10_128,fr7_x1).
head(r_fr10_129,fr10_p4).
body(r_fr10_129,fr10_b1).
body(r_fr10_129,fr10_c2).
body(r_fr10_129,fr10_a2).
body(r_fr10_129,fr10_a2).
body(r_fr10_129,fr7_x1).
head(r_fr10_130,fr10_t1).
body(r_fr10_130,fr10_a4).
body(r_fr10_130,fr10_a2).
head(r_fr10_131,fr10_t1).
body(r_fr10_131,fr10_a4).
body(r_fr10_131,fr10_a2).
body(r_fr10_131,fr10_a6).
body(r_fr10_131,fr10_b4).
body(r_fr10_131,fr10_a2).
body(r_fr10_131,fr10_e1).
body(r_fr10_131,fr10_a2).
body(r_fr10_131,fr10_a2).
body(r_fr10_131,fr10_f2).
body(r_fr10_131,fr10_f5).
body(r_fr10_131,fr7_x1).
body(r_fr10_131,fr10_v2).
body(r_fr10_131,fr7_x1).
head(r_fr10_132,fr10_t1).
body(r_fr10_132,fr10_a3).
body(r_fr10_132,fr10_e1).
body(r_fr10_132,fr10_y2).
head(r_fr10_133,fr10_t1).
body(r_fr10_133,fr10_a4).
body(r_fr10_133,fr10_a2).
body(r_fr10_133,fr9_p2).
head(r_fr10_134,fr10_t1).
head(r_fr10_135,fr10_t1).
body(r_fr10_135,fr10_a4).
body(r_fr10_135,fr10_b4).
body(r_fr10_135,fr10_a2).
body(r_fr10_135,fr10_a2).
body(r_fr10_135,fr10_c2).
body(r_fr10_135,fr10_a2).
body(r_fr10_135,fr10_a2).
body(r_fr10_135,fr10_d5).
body(r_fr10_135,fr2_d2).
body(r_fr10_135,fr10_f5).
head(r_fr10_136,fr10_s3).
body(r_fr10_136,fr10_a3).
body(r_fr10_136,fr10_a2).
body(r_fr10_136,fr10_p4).
body(r_fr10_136,fr7_t4).
body(r_fr10_136,fr10_v3).
body(r_fr10_136,fr7_x1).
head(r_fr10_137,fr10_s3).
body(r_fr10_137,fr10_b1).
body(r_fr10_137,fr10_b2).
body(r_fr10_137,fr10_b3).
body(r_fr10_137,fr10_b4).
body(r_fr10_137,fr10_c1).
body(r_fr10_137,fr10_a2).
body(r_fr10_137,fr10_a2).
body(r_fr10_137,fr10_a2).
body(r_fr10_137,fr10_f2).
body(r_fr10_137,fr10_f5).
head(r_fr10_138,fr10_s3).
body(r_fr10_138,fr10_a2).
body(r_fr10_138,fr10_b2).
body(r_fr10_138,fr10_b4).
body(r_fr10_138,fr10_a2).
body(r_fr10_138,fr10_a2).
body(r_fr10_138,fr10_c1).
body(r_fr10_138,fr10_a2).
body(r_fr10_138,fr10_a2).
body(r_fr10_138,fr7_x1).
body(r_fr10_138,fr7_x1).
body(r_fr10_138,fr10_u4).
body(r_fr10_138,fr9_y1).
head(r_fr10_139,fr10_s3).
body(r_fr10_139,fr10_a2).
body(r_fr10_139,fr10_a2).
body(r_fr10_139,fr10_d5).
body(r_fr10_139,fr10_e1).
body(r_fr10_139,fr10_a2).
head(r_fr10_140,fr10_s3).
body(r_fr10_140,fr10_c1).
body(r_fr10_140,fr10_a2).
body(r_fr10_140,fr9_e1).
body(r_fr10_140,fr10_a2).
body(r_fr10_140,fr10_a2).
body(r_fr10_140,fr10_a2).
body(r_fr10_140,fr10_f5).
body(r_fr10_140,fr7_x1).
head(r_fr10_141,fr10_s3).
body(r_fr10_141,fr10_a2).
body(r_fr10_141,fr2_d2).
body(r_fr10_141,fr7_x1).
body(r_fr10_141,fr10_t4).
body(r_fr10_141,fr10_z1).
head(r_fr10_142,fr10_s3).
body(r_fr10_142,fr10_a4).
body(r_fr10_142,fr10_a6).
body(r_fr10_142,fr10_b4).
body(r_fr10_142,fr10_a2).
body(r_fr10_142,fr10_a2).
body(r_fr10_142,fr10_a2).
head(r_fr10_143,fr10_s3).
body(r_fr10_143,fr10_a4).
body(r_fr10_143,fr9_e1).
body(r_fr10_143,fr10_a2).
body(r_fr10_143,fr7_x1).
body(r_fr10_143,fr10_s1).
body(r_fr10_143,fr10_y3).
head(r_fr10_144,fr10_s3).
body(r_fr10_144,fr10_a3).
body(r_fr10_144,fr10_a6).
body(r_fr10_144,fr10_a2).
body(r_fr10_144,fr10_a2).
body(r_fr10_144,fr10_a2).
body(r_fr10_144,fr10_a2).
body(r_fr10_144,fr10_a2).
body(r_fr10_144,fr10_a2).
body(r_fr10_144,fr10_f2).
body(r_fr10_144,fr10_r5).
body(r_fr10_144,fr10_t1).
body(r_fr10_144,fr7_x1).
head(r_fr10_145,fr10_x3).
body(r_fr10_145,fr10_a2).
body(r_fr10_145,fr10_a2).
body(r_fr10_145,fr10_b1).
body(r_fr10_145,fr10_b2).
body(r_fr10_145,fr10_a2).
body(r_fr10_145,fr10_a2).
body(r_fr10_145,fr10_a2).
body(r_fr10_145,fr7_x1).
body(r_fr10_145,fr7_x1).
body(r_fr10_145,fr10_w1).
body(r_fr10_145,fr7_x1).
body(r_fr10_145,fr7_x1).
head(r_fr10_146,fr10_x3).
body(r_fr10_146,fr10_a2).
body(r_fr10_146,fr10_a4).
body(r_fr10_146,fr10_b3).
body(r_fr10_146,fr10_a2).
body(r_fr10_146,fr10_a2).
body(r_fr10_146,fr10_a2).
body(r_fr10_146,fr10_e1).
body(r_fr10_146,fr10_a2).
body(r_fr10_146,fr10_f2).
body(r_fr10_146,fr10_r5).
body(r_fr10_146,fr10_y3).
head(r_fr10_147,fr10_x3).
body(r_fr10_147,fr10_a2).
body(r_fr10_147,fr10_a2).
body(r_fr10_147,fr10_q1).
body(r_fr10_147,fr9_t3).
body(r_fr10_147,fr10_s4).
body(r_fr10_147,fr10_u1).
body(r_fr10_147,fr10_u3).
body(r_fr10_147,fr10_v2).
body(r_fr10_147,fr10_v3).
body(r_fr10_147,fr10_v4).
body(r_fr10_147,fr10_w1).
body(r_fr10_147,fr7_x1).
head(r_fr10_148,fr10_x3).
body(r_fr10_148,fr10_a3).
body(r_fr10_148,fr10_b3).
body(r_fr10_148,fr9_e1).
body(r_fr10_148,fr10_a2).
body(r_fr10_148,fr10_t1).
body(r_fr10_148,fr10_t4).
body(r_fr10_148,fr10_v3).
body(r_fr10_148,fr7_x1).
body(r_fr10_148,fr7_x1).
head(r_fr10_149,fr7_t4).
body(r_fr10_149,fr7_x1).
body(r_fr10_149,fr10_s5).
body(r_fr10_149,fr7_x1).
head(r_fr10_150,fr7_t4).
body(r_fr10_150,fr10_b2).
body(r_fr10_150,fr10_a2).
body(r_fr10_150,fr10_a2).
body(r_fr10_150,fr10_s3).
body(r_fr10_150,fr10_x5).
body(r_fr10_150,fr7_x1).
body(r_fr10_150,fr10_z1).
head(r_fr10_151,fr7_t4).
body(r_fr10_151,fr10_a6).
body(r_fr10_151,fr10_b2).
body(r_fr10_151,fr10_a2).
body(r_fr10_151,fr10_f2).
body(r_fr10_151,fr10_q1).
body(r_fr10_151,fr9_t3).
body(r_fr10_151,fr7_x1).
head(r_fr10_152,fr7_t4).
body(r_fr10_152,fr10_a6).
body(r_fr10_152,fr10_b1).
body(r_fr10_152,fr10_b4).
body(r_fr10_152,fr10_a2).
body(r_fr10_152,fr10_c1).
body(r_fr10_152,fr9_e1).
body(r_fr10_152,fr10_a2).
body(r_fr10_152,fr10_a2).
body(r_fr10_152,fr10_a2).
body(r_fr10_152,fr10_a2).
body(r_fr10_152,fr10_f2).
body(r_fr10_152,fr10_f5).
body(r_fr10_152,fr9_t3).
head(r_fr10_153,fr7_x1).
body(r_fr10_153,fr10_r5).
head(r_fr10_154,fr7_x1).
body(r_fr10_154,fr10_b2).
body(r_fr10_154,fr10_c1).
body(r_fr10_154,fr9_p2).
body(r_fr10_154,fr7_x1).
body(r_fr10_154,fr10_t1).
body(r_fr10_154,fr7_x1).
body(r_fr10_154,fr7_x1).
body(r_fr10_154,fr7_x1).
body(r_fr10_154,fr7_x1).
body(r_fr10_154,fr7_x1).
body(r_fr10_154,fr10_y4).
body(r_fr10_154,fr9_y1).
head(r_fr10_155,fr7_x1).
body(r_fr10_155,fr10_a2).
body(r_fr10_155,fr10_a2).
body(r_fr10_155,fr10_b4).
body(r_fr10_155,fr10_e1).
body(r_fr10_155,fr2_d2).
body(r_fr10_155,fr7_x1).
body(r_fr10_155,fr7_x1).
body(r_fr10_155,fr7_x1).
body(r_fr10_155,fr7_x1).
body(r_fr10_155,fr9_t5).
head(r_fr10_156,fr7_x1).
body(r_fr10_156,fr10_a3).
body(r_fr10_156,fr10_a4).
body(r_fr10_156,fr10_c1).
body(r_fr10_156,fr10_a2).
body(r_fr10_156,fr10_a2).
body(r_fr10_156,fr10_a2).
body(r_fr10_156,fr10_a2).
body(r_fr10_156,fr10_a2).
body(r_fr10_156,fr10_a2).
body(r_fr10_156,fr10_f5).
body(r_fr10_156,fr7_x1).
body(r_fr10_156,fr10_w1).
body(r_fr10_156,fr7_x1).
head(r_fr10_157,fr7_x1).
body(r_fr10_157,fr10_a2).
body(r_fr10_157,fr10_a2).
body(r_fr10_157,fr10_b1).
body(r_fr10_157,fr10_b2).
body(r_fr10_157,fr10_a2).
body(r_fr10_157,fr10_a2).
body(r_fr10_157,fr10_a2).
body(r_fr10_157,fr10_a2).
body(r_fr10_157,fr10_a2).
body(r_fr10_157,fr10_a2).
head(r_fr10_158,fr9_y1).
body(r_fr10_158,fr10_a4).
body(r_fr10_158,fr10_a2).
body(r_fr10_158,fr10_a2).
body(r_fr10_158,fr2_d2).
head(r_fr10_159,fr9_y1).
body(r_fr10_159,fr10_b1).
body(r_fr10_159,fr10_a2).
body(r_fr10_159,fr10_a2).
body(r_fr10_159,fr10_a2).
body(r_fr10_159,fr10_a2).
body(r_fr10_159,fr10_e1).
body(r_fr10_159,fr10_a2).
head(r_fr10_160,fr9_y1).
body(r_fr10_160,fr10_a2).
body(r_fr10_160,fr10_a2).
body(r_fr10_160,fr10_a6).
body(r_fr10_160,fr10_a2).
body(r_fr10_160,fr10_c2).
body(r_fr10_160,fr10_a2).
body(r_fr10_160,fr9_e1).
body(r_fr10_160,fr10_e1).
body(r_fr10_160,fr10_a2).
body(r_fr10_160,fr2_d2).
body(r_fr10_160,fr10_f5).
body(r_fr10_160,fr10_s3).
head(r_fr10_161,fr9_y1).
body(r_fr10_161,fr10_a2).
body(r_fr10_161,fr10_a6).
body(r_fr10_161,fr10_a2).
body(r_fr10_161,fr10_a2).
body(r_fr10_161,fr10_a2).
body(r_fr10_161,fr10_d5).
body(r_fr10_161,fr10_a2).
body(r_fr10_161,fr10_a2).
body(r_fr10_161,fr7_x1).
body(r_fr10_161,fr10_s1).
body(r_fr10_161,fr7_x1).
head(r_fr10_162,fr9_y1).
body(r_fr10_162,fr10_a2).
body(r_fr10_162,fr10_a2).
body(r_fr10_162,fr7_x1).
body(r_fr10_162,fr7_x1).
body(r_fr10_162,fr7_x1).
head(r_fr10_163,fr9_y1).
body(r_fr10_163,fr10_a6).
body(r_fr10_163,fr10_b3).
body(r_fr10_163,fr10_a2).
body(r_fr10_163,fr10_a2).
body(r_fr10_163,fr10_w1).
head(r_fr10_164,fr9_y1).
head(r_fr10_165,fr9_y1).
body(r_fr10_165,fr10_b2).
body(r_fr10_165,fr7_x1).
head(r_fr10_166,fr9_y1).
body(r_fr10_166,fr10_a2).
body(r_fr10_166,fr10_c2).
body(r_fr10_166,fr10_a2).
body(r_fr10_166,fr10_a2).
body(r_fr10_166,fr10_a2).
body(r_fr10_166,fr10_f2).
body(r_fr10_166,fr10_a2).
head(r_fr10_167,fr9_y1).
body(r_fr10_167,fr10_a6).
body(r_fr10_167,fr10_b2).
body(r_fr10_167,fr10_a2).
body(r_fr10_167,fr7_x1).
body(r_fr10_167,fr10_u3).
body(r_fr10_167,fr10_v1).
body(r_fr10_167,fr10_y3).
body(r_fr10_167,fr10_z1).
body(r_fr10_167,fr10_z2).
body(r_fr10_167,fr7_x1).
head(r_fr10_168,fr10_u4).
body(r_fr10_168,fr10_a2).
head(r_fr10_169,fr10_u4).
body(r_fr10_169,fr10_a2).
body(r_fr10_169,fr2_d2).
body(r_fr10_169,fr10_t1).
head(r_fr10_170,fr10_u4).
body(r_fr10_170,fr10_b4).
body(r_fr10_170,fr10_a2).
body(r_fr10_170,fr10_d5).
body(r_fr10_170,fr10_p1).
body(r_fr10_170,fr9_p2).
body(r_fr10_170,fr10_s3).
body(r_fr10_170,fr10_t4).
body(r_fr10_170,fr10_v1).
body(r_fr10_170,fr9_y2).
body(r_fr10_170,fr7_x1).
body(r_fr10_170,fr7_x1).
head(r_fr10_171,fr10_q2).
body(r_fr10_171,fr10_a4).
body(r_fr10_171,fr10_b1).
body(r_fr10_171,fr10_a2).
body(r_fr10_171,fr10_a2).
body(r_fr10_171,fr10_a2).
body(r_fr10_171,fr10_f2).
body(r_fr10_171,fr10_a2).
body(r_fr10_171,fr10_p1).
body(r_fr10_171,fr10_t1).
body(r_fr10_171,fr10_u4).
body(r_fr10_171,fr10_z1).
head(r_fr10_172,fr10_q2).
body(r_fr10_172,fr10_v4).
head(r_fr10_173,fr10_q2).
head(r_fr10_174,fr10_q2).
body(r_fr10_174,fr10_a2).
body(r_fr10_174,fr10_a3).
body(r_fr10_174,fr10_a2).
body(r_fr10_174,fr10_e1).
body(r_fr10_174,fr9_t3).
body(r_fr10_174,fr10_w1).
body(r_fr10_174,fr10_z2).
head(r_fr10_175,fr10_q2).
body(r_fr10_175,fr10_a2).
body(r_fr10_175,fr10_a6).
body(r_fr10_175,fr10_b3).
body(r_fr10_175,fr10_a2).
body(r_fr10_175,fr10_a2).
body(r_fr10_175,fr10_a2).
body(r_fr10_175,fr10_a2).
body(r_fr10_175,fr2_d2).
body(r_fr10_175,fr7_x1).
body(r_fr10_175,fr10_u1).
body(r_fr10_175,fr10_y2).
head(r_fr10_176,fr10_q2).
body(r_fr10_176,fr9_e1).
body(r_fr10_176,fr7_x1).
head(r_fr10_177,fr10_q2).
body(r_fr10_177,fr10_a2).
body(r_fr10_177,fr10_p1).
body(r_fr10_177,fr7_x1).
body(r_fr10_177,fr7_x1).
body(r_fr10_177,fr7_x1).
body(r_fr10_177,fr10_s4).
body(r_fr10_177,fr7_x1).
body(r_fr10_177,fr10_v2).
body(r_fr10_177,fr10_x3).
body(r_fr10_177,fr7_x1).
head(r_fr10_178,fr10_q2).
body(r_fr10_178,fr10_a2).
body(r_fr10_178,fr10_a2).
body(r_fr10_178,fr2_d2).
body(r_fr10_178,fr10_s5).
body(r_fr10_178,fr10_v2).
body(r_fr10_178,fr7_x1).
head(r_fr10_179,fr10_q2).
body(r_fr10_179,fr2_d2).
body(r_fr10_179,fr10_p4).
body(r_fr10_179,fr10_p4).
body(r_fr10_179,fr10_v2).
body(r_fr10_179,fr7_x1).
body(r_fr10_179,fr7_x1).
body(r_fr10_179,fr7_x1).
body(r_fr10_179,fr10_z1).
head(r_fr10_180,fr10_q2).
body(r_fr10_180,fr10_a4).
body(r_fr10_180,fr10_a6).
body(r_fr10_180,fr10_b1).
body(r_fr10_180,fr10_a2).
body(r_fr10_180,fr10_a2).
body(r_fr10_180,fr10_a2).
body(r_fr10_180,fr10_a2).
body(r_fr10_180,fr10_a2).
body(r_fr10_180,fr9_t3).
body(r_fr10_180,fr10_u4).
body(r_fr10_180,fr7_t4).
body(r_fr10_180,fr7_x1).
body(r_fr10_180,fr10_x3).
head(r_fr10_181,fr10_q2).
body(r_fr10_181,fr10_a2).
body(r_fr10_181,fr10_f2).
body(r_fr10_181,fr10_f5).
head(r_fr10_182,fr7_x1).
body(r_fr10_182,fr10_d5).
body(r_fr10_182,fr7_x1).
body(r_fr10_182,fr10_t4).
body(r_fr10_182,fr10_u4).
body(r_fr10_182,fr10_v1).
body(r_fr10_182,fr7_x1).
body(r_fr10_182,fr10_y4).
body(r_fr10_182,fr10_z1).
head(r_fr10_183,fr7_x1).
body(r_fr10_183,fr10_a2).
body(r_fr10_183,fr10_b2).
body(r_fr10_183,fr10_f2).
body(r_fr10_183,fr7_x1).
body(r_fr10_183,fr10_s5).
body(r_fr10_183,fr7_x1).
body(r_fr10_183,fr10_v4).
body(r_fr10_183,fr10_z2).
head(r_fr10_184,fr7_x1).
body(r_fr10_184,fr10_a4).
body(r_fr10_184,fr10_b1).
body(r_fr10_184,fr10_c1).
body(r_fr10_184,fr10_a2).
body(r_fr10_184,fr10_a2).
body(r_fr10_184,fr10_q2).
body(r_fr10_184,fr7_x1).
body(r_fr10_184,fr10_x3).
head(r_fr10_185,fr7_x1).
body(r_fr10_185,fr10_a3).
body(r_fr10_185,fr10_a6).
body(r_fr10_185,fr10_b3).
body(r_fr10_185,fr10_c1).
body(r_fr10_185,fr10_a2).
body(r_fr10_185,fr9_e1).
body(r_fr10_185,fr10_a2).
body(r_fr10_185,fr10_d5).
body(r_fr10_185,fr10_e1).
body(r_fr10_185,fr10_f2).
body(r_fr10_185,fr10_a2).
body(r_fr10_185,fr10_s1).
body(r_fr10_185,fr7_x1).
head(r_fr10_186,fr7_x1).
body(r_fr10_186,fr10_a6).
body(r_fr10_186,fr10_a2).
body(r_fr10_186,fr7_x1).
head(r_fr10_187,fr7_x1).
head(r_fr10_188,fr7_x1).
body(r_fr10_188,fr10_b4).
body(r_fr10_188,fr10_d5).
body(r_fr10_188,fr10_a2).
body(r_fr10_188,fr10_f5).
body(r_fr10_188,fr7_x1).
body(r_fr10_188,fr10_t1).
body(r_fr10_188,fr10_t4).
body(r_fr10_188,fr7_x1).
body(r_fr10_188,fr10_u1).
head(r_fr10_189,fr10_z1).
body(r_fr10_189,fr10_a2).
body(r_fr10_189,fr10_a3).
body(r_fr10_189,fr10_a6).
body(r_fr10_189,fr10_b1).
body(r_fr10_189,fr10_c1).
body(r_fr10_189,fr10_c2).
body(r_fr10_189,fr10_a2).
body(r_fr10_189,fr10_a2).
body(r_fr10_189,fr10_a2).
body(r_fr10_189,fr10_a2).
body(r_fr10_189,fr2_d2).
body(r_fr10_189,fr7_x1).
body(r_fr10_189,fr10_z2).
head(r_fr10_190,fr10_z1).
body(r_fr10_190,fr10_d5).
body(r_fr10_190,fr10_a2).
body(r_fr10_190,fr7_x1).
body(r_fr10_190,fr10_p4).
body(r_fr10_190,fr7_x1).
body(r_fr10_190,fr10_u1).
body(r_fr10_190,fr10_u3).
body(r_fr10_190,fr10_u4).
body(r_fr10_190,fr10_w1).
body(r_fr10_190,fr10_x3).
head(r_fr10_191,fr10_z1).
body(r_fr10_191,fr10_a2).
body(r_fr10_191,fr10_a3).
body(r_fr10_191,fr10_a6).
body(r_fr10_191,fr10_c2).
body(r_fr10_191,fr10_a2).
body(r_fr10_191,fr2_d2).
body(r_fr10_191,fr9_p2).
body(r_fr10_191,fr7_x1).
head(r_fr10_192,fr10_z1).
body(r_fr10_192,fr10_p1).
body(r_fr10_192,fr10_p4).
body(r_fr10_192,fr9_t3).
body(r_fr10_192,fr7_x1).
body(r_fr10_192,fr10_v3).
body(r_fr10_192,fr9_y2).
body(r_fr10_192,fr10_y2).
head(r_fr10_193,fr10_z1).
body(r_fr10_193,fr10_a2).
body(r_fr10_193,fr10_a2).
body(r_fr10_193,fr10_f2).
body(r_fr10_193,fr9_p2).
body(r_fr10_193,fr7_x1).
body(r_fr10_193,fr10_p4).
body(r_fr10_193,fr10_t1).
body(r_fr10_193,fr10_u1).
body(r_fr10_193,fr10_v4).
body(r_fr10_193,fr7_x1).
head(r_fr10_194,fr10_z1).
body(r_fr10_194,fr10_p1).
body(r_fr10_194,fr10_p4).
body(r_fr10_194,fr7_x1).
body(r_fr10_194,fr10_p4).
body(r_fr10_194,fr7_x1).
body(r_fr10_194,fr7_x1).
body(r_fr10_194,fr10_w1).
body(r_fr10_194,fr9_y2).
body(r_fr10_194,fr7_x1).
body(r_fr10_194,fr10_y3).
body(r_fr10_194,fr10_y4).
head(r_fr10_195,fr10_z1).
body(r_fr10_195,fr10_a2).
body(r_fr10_195,fr10_q2).
body(r_fr10_195,fr10_t4).
body(r_fr10_195,fr10_x3).
head(r_fr10_196,fr10_z1).
body(r_fr10_196,fr9_e1).
body(r_fr10_196,fr10_a2).
body(r_fr10_196,fr10_f2).
body(r_fr10_196,fr10_t1).
body(r_fr10_196,fr7_x1).
body(r_fr10_196,fr10_u1).
body(r_fr10_196,fr10_v3).
body(r_fr10_196,fr9_y1).
head(r_fr10_197,fr9_p2).
body(r_fr10_197,fr10_a2).
head(r_fr10_198,fr9_p2).
body(r_fr10_198,fr10_s5).
body(r_fr10_198,fr9_w1).
body(r_fr10_198,fr9_y2).
body(r_fr10_198,fr10_x5).
body(r_fr10_198,fr7_x1).
body(r_fr10_198,fr10_y3).
head(r_fr10_199,fr9_p2).
body(r_fr10_199,fr10_a2).
body(r_fr10_199,fr7_x1).
body(r_fr10_199,fr7_x1).
body(r_fr10_199,fr10_p4).
body(r_fr10_199,fr7_x1).
body(r_fr10_199,fr10_v2).
body(r_fr10_199,fr7_x1).
body(r_fr10_199,fr10_x5).
body(r_fr10_199,fr7_x1).
body(r_fr10_199,fr10_z2).
head(r_fr10_200,fr9_p2).
body(r_fr10_200,fr10_a2).
body(r_fr10_200,fr10_c1).
body(r_fr10_200,fr10_a2).
body(r_fr10_200,fr10_a2).
body(r_fr10_200,fr10_d5).
body(r_fr10_200,fr10_a2).
body(r_fr10_200,fr10_a2).
body(r_fr10_200,fr10_a2).
body(r_fr10_200,fr10_a2).
body(r_fr10_200,fr10_t4).
head(r_fr10_201,fr9_p2).
body(r_fr10_201,fr10_a4).
body(r_fr10_201,fr10_c2).
body(r_fr10_201,fr10_a2).
body(r_fr10_201,fr10_a2).
body(r_fr10_201,fr10_a2).
body(r_fr10_201,fr10_a2).
body(r_fr10_201,fr10_y2).
head(r_fr10_202,fr9_p2).
body(r_fr10_202,fr10_a3).
body(r_fr10_202,fr10_a4).
body(r_fr10_202,fr10_b3).
body(r_fr10_202,fr10_b4).
body(r_fr10_202,fr10_a2).
body(r_fr10_202,fr10_a2).
body(r_fr10_202,fr7_x1).
body(r_fr10_202,fr7_x1).
body(r_fr10_202,fr7_x1).
body(r_fr10_202,fr7_x1).
body(r_fr10_202,fr7_x1).
body(r_fr10_202,fr10_y2).
body(r_fr10_202,fr7_x1).
head(r_fr10_203,fr9_p2).
body(r_fr10_203,fr10_a6).
body(r_fr10_203,fr2_d2).
body(r_fr10_203,fr10_s5).
body(r_fr10_203,fr10_t1).
body(r_fr10_203,fr9_w1).
body(r_fr10_203,fr7_x1).
head(r_fr10_204,fr9_p2).
body(r_fr10_204,fr7_x1).
body(r_fr10_204,fr10_q1).
body(r_fr10_204,fr10_p4).
body(r_fr10_204,fr10_s4).
body(r_fr10_204,fr10_s5).
body(r_fr10_204,fr7_x1).
body(r_fr10_204,fr10_t4).
body(r_fr10_204,fr7_x1).
body(r_fr10_204,fr10_v1).
body(r_fr10_204,fr7_x1).
body(r_fr10_204,fr7_x1).
body(r_fr10_204,fr10_z2).
body(r_fr10_204,fr7_x1).
head(r_fr10_205,fr9_p2).
body(r_fr10_205,fr10_a2).
body(r_fr10_205,fr10_b1).
body(r_fr10_205,fr10_b3).
body(r_fr10_205,fr10_a2).
body(r_fr10_205,fr10_c1).
body(r_fr10_205,fr10_a2).
body(r_fr10_205,fr10_a2).
body(r_fr10_205,fr10_a2).
body(r_fr10_205,fr10_q1).
head(r_fr10_206,fr9_p2).
body(r_fr10_206,fr10_a2).
body(r_fr10_206,fr10_a4).
body(r_fr10_206,fr10_b1).
body(r_fr10_206,fr10_b4).
body(r_fr10_206,fr10_a2).
body(r_fr10_206,fr10_c2).
body(r_fr10_206,fr10_a2).
body(r_fr10_206,fr10_a2).
body(r_fr10_206,fr10_e1).
body(r_fr10_206,fr10_a2).
body(r_fr10_206,fr10_f5).
body(r_fr10_206,fr10_t4).
head(r_fr10_207,fr7_x1).
body(r_fr10_207,fr10_c1).
body(r_fr10_207,fr9_p2).
body(r_fr10_207,fr10_q2).
head(r_fr10_208,fr7_x1).
body(r_fr10_208,fr10_a3).
body(r_fr10_208,fr10_a2).
body(r_fr10_208,fr10_e1).
body(r_fr10_208,fr10_a2).
body(r_fr10_208,fr10_f5).
head(r_fr10_209,fr7_x1).
body(r_fr10_209,fr10_p1).
body(r_fr10_209,fr10_q1).
body(r_fr10_209,fr7_x1).
body(r_fr10_209,fr10_r5).
body(r_fr10_209,fr10_u4).
body(r_fr10_209,fr7_t4).
body(r_fr10_209,fr10_v4).
body(r_fr10_209,fr9_y2).
body(r_fr10_209,fr10_x5).
body(r_fr10_209,fr10_z2).
head(r_fr10_210,fr7_x1).
body(r_fr10_210,fr10_p1).
body(r_fr10_210,fr10_q2).
body(r_fr10_210,fr7_x1).
body(r_fr10_210,fr10_s4).
body(r_fr10_210,fr7_x1).
body(r_fr10_210,fr10_t4).
body(r_fr10_210,fr7_x1).
body(r_fr10_210,fr7_t4).
body(r_fr10_210,fr10_v3).
body(r_fr10_210,fr9_w1).
body(r_fr10_210,fr9_y2).
body(r_fr10_210,fr7_x1).
body(r_fr10_210,fr10_y2).
head(r_fr10_211,fr7_x1).
body(r_fr10_211,fr10_a4).
body(r_fr10_211,fr10_c1).
body(r_fr10_211,fr10_f5).
body(r_fr10_211,fr7_x1).
body(r_fr10_211,fr10_x3).
head(r_fr10_212,fr9_y2).
body(r_fr10_212,fr10_a2).
body(r_fr10_212,fr10_b1).
body(r_fr10_212,fr10_b3).
body(r_fr10_212,fr10_a2).
body(r_fr10_212,fr10_a2).
body(r_fr10_212,fr10_p4).
body(r_fr10_212,fr7_x1).
body(r_fr10_212,fr10_s4).
body(r_fr10_212,fr7_x1).
body(r_fr10_212,fr10_x5).
head(r_fr10_213,fr9_y2).
body(r_fr10_213,fr10_a2).
body(r_fr10_213,fr10_a2).
body(r_fr10_213,fr9_p2).
body(r_fr10_213,fr7_x1).
body(r_fr10_213,fr10_z2).
body(r_fr10_213,fr9_y1).
head(r_fr10_214,fr9_y2).
body(r_fr10_214,fr10_p1).
body(r_fr10_214,fr10_t4).
body(r_fr10_214,fr7_t4).
body(r_fr10_214,fr10_v2).
body(r_fr10_214,fr7_x1).
body(r_fr10_214,fr10_z1).
head(r_fr10_215,fr9_y2).
body(r_fr10_215,fr10_a3).
body(r_fr10_215,fr10_a6).
body(r_fr10_215,fr10_b2).
body(r_fr10_215,fr10_a2).
body(r_fr10_215,fr10_a2).
body(r_fr10_215,fr10_a2).
body(r_fr10_215,fr10_a2).
body(r_fr10_215,fr9_e1).
body(r_fr10_215,fr10_d5).
body(r_fr10_215,fr10_f2).
body(r_fr10_215,fr2_d2).
body(r_fr10_215,fr7_x1).
head(r_fr10_216,fr9_y2).
body(r_fr10_216,fr10_a2).
body(r_fr10_216,fr10_b1).
body(r_fr10_216,fr10_b3).
body(r_fr10_216,fr10_c1).
body(r_fr10_216,fr10_c2).
body(r_fr10_216,fr10_d5).
body(r_fr10_216,fr10_a2).
body(r_fr10_216,fr10_a2).
head(r_fr10_217,fr9_y2).
body(r_fr10_217,fr10_c1).
head(r_fr10_218,fr9_y2).
body(r_fr10_218,fr10_a3).
body(r_fr10_218,fr10_a4).
body(r_fr10_218,fr10_a2).
body(r_fr10_218,fr10_a2).
head(r_fr10_219,fr9_y2).
body(r_fr10_219,fr10_a2).
body(r_fr10_219,fr10_a2).
body(r_fr10_219,fr7_x1).
body(r_fr10_219,fr10_s4).
body(r_fr10_219,fr7_x1).
head(r_fr10_220,fr9_y2).
body(r_fr10_220,fr10_a2).
body(r_fr10_220,fr7_x1).
body(r_fr10_220,fr9_t3).
body(r_fr10_220,fr7_x1).
body(r_fr10_220,fr10_p4).
body(r_fr10_220,fr7_x1).
body(r_fr10_220,fr10_r5).
body(r_fr10_220,fr10_t4).
body(r_fr10_220,fr7_x1).
body(r_fr10_220,fr7_x1).
head(r_fr10_221,fr9_y2).
body(r_fr10_221,fr10_a2).
body(r_fr10_221,fr10_b2).
body(r_fr10_221,fr10_c1).
body(r_fr10_221,fr10_q2).
body(r_fr10_221,fr10_s4).
body(r_fr10_221,fr7_x1).
body(r_fr10_221,fr9_w1).
body(r_fr10_221,fr10_x3).
head(r_fr10_222,fr7_x1).
body(r_fr10_222,fr10_y3).
head(r_fr10_223,fr7_x1).
body(r_fr10_223,fr7_x1).
body(r_fr10_223,fr9_t3).
body(r_fr10_223,fr10_p4).
body(r_fr10_223,fr10_u1).
body(r_fr10_223,fr7_t4).
body(r_fr10_223,fr10_w1).
body(r_fr10_223,fr7_x1).
body(r_fr10_223,fr10_x5).
body(r_fr10_223,fr10_z1).
head(r_fr10_224,fr7_x1).
body(r_fr10_224,fr10_a2).
body(r_fr10_224,fr10_a6).
body(r_fr10_224,fr10_d5).
body(r_fr10_224,fr10_a2).
body(r_fr10_224,fr2_d2).
body(r_fr10_224,fr7_x1).
body(r_fr10_224,fr7_x1).
body(r_fr10_224,fr7_x1).
body(r_fr10_224,fr7_x1).
body(r_fr10_224,fr10_u3).
body(r_fr10_224,fr7_t4).
body(r_fr10_224,fr10_w1).
head(r_fr10_225,fr9_w1).
body(r_fr10_225,fr10_a2).
body(r_fr10_225,fr10_b2).
body(r_fr10_225,fr10_c1).
body(r_fr10_225,fr10_a2).
body(r_fr10_225,fr10_a2).
body(r_fr10_225,fr10_a2).
body(r_fr10_225,fr10_f2).
body(r_fr10_225,fr2_d2).
body(r_fr10_225,fr10_a2).
body(r_fr10_225,fr10_p1).
body(r_fr10_225,fr10_s5).
body(r_fr10_225,fr10_x5).
head(r_fr10_226,fr9_w1).
body(r_fr10_226,fr10_p1).
body(r_fr10_226,fr10_p4).
body(r_fr10_226,fr7_x1).
body(r_fr10_226,fr10_s1).
body(r_fr10_226,fr10_t1).
body(r_fr10_226,fr10_u1).
body(r_fr10_226,fr7_x1).
body(r_fr10_226,fr7_x1).
body(r_fr10_226,fr7_x1).
head(r_fr10_227,fr10_p1).
body(r_fr10_227,fr10_a2).
body(r_fr10_227,fr10_p4).
body(r_fr10_227,fr10_q1).
body(r_fr10_227,fr9_t3).
body(r_fr10_227,fr10_s3).
body(r_fr10_227,fr10_s4).
body(r_fr10_227,fr7_x1).
body(r_fr10_227,fr10_u1).
body(r_fr10_227,fr10_v3).
body(r_fr10_227,fr10_x5).
body(r_fr10_227,fr10_y4).
body(r_fr10_227,fr10_z2).
body(r_fr10_227,fr7_x1).
head(r_fr10_228,fr10_p1).
body(r_fr10_228,fr10_p4).
body(r_fr10_228,fr10_u1).
body(r_fr10_228,fr7_x1).
head(r_fr10_229,fr10_p1).
head(r_fr10_230,fr10_p1).
body(r_fr10_230,fr7_x1).
body(r_fr10_230,fr7_x1).
head(r_fr10_231,fr10_p1).
body(r_fr10_231,fr10_a2).
body(r_fr10_231,fr10_a3).
body(r_fr10_231,fr10_a2).
body(r_fr10_231,fr7_x1).
body(r_fr10_231,fr10_q1).
body(r_fr10_231,fr7_x1).
body(r_fr10_231,fr7_x1).
body(r_fr10_231,fr7_x1).
body(r_fr10_231,fr7_x1).
body(r_fr10_231,fr7_t4).
body(r_fr10_231,fr9_y2).
body(r_fr10_231,fr10_y2).
body(r_fr10_231,fr10_y4).
head(r_fr10_232,fr10_p1).
body(r_fr10_232,fr10_a2).
body(r_fr10_232,fr10_a2).
body(r_fr10_232,fr10_c2).
body(r_fr10_232,fr10_f5).
body(r_fr10_232,fr10_q2).
body(r_fr10_232,fr10_s5).
body(r_fr10_232,fr7_x1).
body(r_fr10_232,fr7_x1).
body(r_fr10_232,fr10_y3).
head(r_fr10_233,fr10_p1).
body(r_fr10_233,fr10_a6).
body(r_fr10_233,fr10_b2).
body(r_fr10_233,fr10_b4).
body(r_fr10_233,fr10_d5).
body(r_fr10_233,fr9_p2).
body(r_fr10_233,fr10_q1).
body(r_fr10_233,fr10_p4).
body(r_fr10_233,fr7_x1).
body(r_fr10_233,fr7_x1).
body(r_fr10_233,fr10_u4).
head(r_fr10_234,fr10_p1).
body(r_fr10_234,fr10_a2).
body(r_fr10_234,fr10_a2).
body(r_fr10_234,fr7_x1).
body(r_fr10_234,fr10_p4).
body(r_fr10_234,fr7_x1).
body(r_fr10_234,fr10_u1).
body(r_fr10_234,fr7_x1).
body(r_fr10_234,fr7_x1).
body(r_fr10_234,fr7_x1).
head(r_fr10_235,fr10_p1).
body(r_fr10_235,fr10_b3).
body(r_fr10_235,fr10_a2).
body(r_fr10_235,fr10_a2).
body(r_fr10_235,fr10_q1).
body(r_fr10_235,fr10_q2).
body(r_fr10_235,fr7_x1).
body(r_fr10_235,fr7_x1).
body(r_fr10_235,fr10_v1).
body(r_fr10_235,fr10_v2).
body(r_fr10_235,fr9_w1).
head(r_fr10_236,fr10_p1).
body(r_fr10_236,fr10_z2).
head(r_fr10_237,fr7_x1).
body(r_fr10_237,fr10_a2).
body(r_fr10_237,fr10_b2).
body(r_fr10_237,fr10_a2).
body(r_fr10_237,fr10_a2).
body(r_fr10_237,fr10_a2).
body(r_fr10_237,fr10_a2).
body(r_fr10_237,fr10_a2).
body(r_fr10_237,fr10_e1).
body(r_fr10_237,fr10_f5).
head(r_fr10_238,fr7_x1).
body(r_fr10_238,fr9_p2).
body(r_fr10_238,fr10_q2).
body(r_fr10_238,fr10_z1).
head(r_fr10_239,fr7_x1).
body(r_fr10_239,fr10_a2).
body(r_fr10_239,fr10_f5).
body(r_fr10_239,fr10_q2).
head(r_fr10_240,fr7_x1).
body(r_fr10_240,fr7_x1).
head(r_fr10_241,fr7_x1).
body(r_fr10_241,fr10_b1).
body(r_fr10_241,fr10_p1).
body(r_fr10_241,fr10_q1).
body(r_fr10_241,fr7_x1).
body(r_fr10_241,fr9_w1).
body(r_fr10_241,fr7_x1).
body(r_fr10_241,fr7_x1).
head(r_fr10_242,fr7_x1).
body(r_fr10_242,fr10_a2).
body(r_fr10_242,fr10_a2).
body(r_fr10_242,fr10_v3).
head(r_fr10_243,fr7_x1).
body(r_fr10_243,fr10_a2).
head(r_fr10_244,fr7_x1).
body(r_fr10_244,fr10_b1).
body(r_fr10_244,fr10_f2).
body(r_fr10_244,fr10_v3).
head(r_fr10_245,fr7_x1).
body(r_fr10_245,fr10_p1).
body(r_fr10_245,fr7_x1).
body(r_fr10_245,fr9_t3).
body(r_fr10_245,fr10_t4).
body(r_fr10_245,fr10_x3).
body(r_fr10_245,fr7_x1).
head(r_fr10_246,fr7_x1).
body(r_fr10_246,fr10_a2).
body(r_fr10_246,fr9_p2).
body(r_fr10_246,fr10_v4).
body(r_fr10_246,fr10_w1).
head(r_fr10_247,fr7_x1).
body(r_fr10_247,fr10_a2).
body(r_fr10_247,fr10_a4).
body(r_fr10_247,fr10_b2).
body(r_fr10_247,fr10_a2).
body(r_fr10_247,fr10_c1).
body(r_fr10_247,fr10_c2).
body(r_fr10_247,fr10_a2).
body(r_fr10_247,fr10_a2).
body(r_fr10_247,fr9_e1).
body(r_fr10_247,fr10_a2).
body(r_fr10_247,fr10_a2).
body(r_fr10_247,fr10_f5).
body(r_fr10_247,fr10_x5).
head(r_fr10_248,fr10_y2).
body(r_fr10_248,fr10_a6).
body(r_fr10_248,fr10_a2).
body(r_fr10_248,fr10_a2).
body(r_fr10_248,fr9_p2).
body(r_fr10_248,fr7_x1).
body(r_fr10_248,fr10_p4).
body(r_fr10_248,fr7_x1).
head(r_fr10_249,fr10_y2).
body(r_fr10_249,fr10_a2).
body(r_fr10_249,fr7_x1).
body(r_fr10_249,fr9_y1).
head(r_fr10_250,fr10_p4).
body(r_fr10_250,fr10_a2).
body(r_fr10_250,fr10_a6).
body(r_fr10_250,fr10_f5).
body(r_fr10_250,fr7_x1).
body(r_fr10_250,fr10_s3).
body(r_fr10_250,fr10_s5).
body(r_fr10_250,fr10_u3).
body(r_fr10_250,fr7_x1).
body(r_fr10_250,fr10_y3).
body(r_fr10_250,fr7_x1).
body(r_fr10_250,fr10_z2).
body(r_fr10_250,fr7_x1).
head(r_fr10_251,fr10_p4).
body(r_fr10_251,fr7_x1).
head(r_fr10_252,fr10_p4).
body(r_fr10_252,fr10_a3).
body(r_fr10_252,fr10_a2).
body(r_fr10_252,fr10_a2).
body(r_fr10_252,fr10_a2).
body(r_fr10_252,fr10_a2).
body(r_fr10_252,fr10_a2).
body(r_fr10_252,fr7_x1).
body(r_fr10_252,fr7_x1).
head(r_fr10_253,fr10_p4).
body(r_fr10_253,fr9_t3).
head(r_fr10_254,fr10_p4).
body(r_fr10_254,fr7_x1).
body(r_fr10_254,fr10_q2).
body(r_fr10_254,fr9_t3).
body(r_fr10_254,fr7_x1).
body(r_fr10_254,fr7_x1).
body(r_fr10_254,fr7_x1).
body(r_fr10_254,fr10_t4).
body(r_fr10_254,fr10_v1).
body(r_fr10_254,fr10_v3).
body(r_fr10_254,fr9_y2).
body(r_fr10_254,fr10_y3).
body(r_fr10_254,fr7_x1).
body(r_fr10_254,fr10_z2).
head(r_fr10_255,fr10_p4).
body(r_fr10_255,fr10_b2).
body(r_fr10_255,fr10_c1).
body(r_fr10_255,fr10_a2).
body(r_fr10_255,fr10_a2).
body(r_fr10_255,fr7_x1).
body(r_fr10_255,fr10_u3).
body(r_fr10_255,fr9_w1).
body(r_fr10_255,fr10_w1).
body(r_fr10_255,fr10_y2).
body(r_fr10_255,fr7_x1).
head(r_fr10_256,fr10_p4).
body(r_fr10_256,fr10_p1).
body(r_fr10_256,fr7_x1).
body(r_fr10_256,fr10_x5).
body(r_fr10_256,fr10_z1).
head(r_fr10_257,fr10_p4).
body(r_fr10_257,fr10_p4).
body(r_fr10_257,fr7_x1).
body(r_fr10_257,fr9_t3).
body(r_fr10_257,fr7_x1).
body(r_fr10_257,fr10_s5).
body(r_fr10_257,fr10_t1).
body(r_fr10_257,fr7_x1).
body(r_fr10_257,fr7_t4).
body(r_fr10_257,fr10_v1).
body(r_fr10_257,fr9_w1).
body(r_fr10_257,fr7_x1).
body(r_fr10_257,fr10_x3).
head(r_fr10_258,fr10_p4).
head(r_fr10_259,fr10_p4).
body(r_fr10_259,fr10_a2).
body(r_fr10_259,fr10_q1).
body(r_fr10_259,fr7_x1).
body(r_fr10_259,fr10_t4).
body(r_fr10_259,fr7_x1).
body(r_fr10_259,fr10_v3).
body(r_fr10_259,fr7_x1).
body(r_fr10_259,fr10_y3).
body(r_fr10_259,fr10_z1).
body(r_fr10_259,fr10_z2).
body(r_fr10_259,fr7_x1).
head(r_fr10_260,fr10_r5).
head(r_fr10_261,fr10_r5).
body(r_fr10_261,fr10_a2).
body(r_fr10_261,fr10_a6).
body(r_fr10_261,fr10_c2).
body(r_fr10_261,fr10_a2).
body(r_fr10_261,fr10_d5).
body(r_fr10_261,fr10_e1).
body(r_fr10_261,fr10_q2).
body(r_fr10_261,fr7_x1).
head(r_fr10_262,fr10_r5).
body(r_fr10_262,fr10_c2).
body(r_fr10_262,fr10_a2).
body(r_fr10_262,fr10_p4).
body(r_fr10_262,fr10_s1).
body(r_fr10_262,fr10_t4).
body(r_fr10_262,fr10_v2).
body(r_fr10_262,fr7_x1).
body(r_fr10_262,fr10_x3).
body(r_fr10_262,fr10_y3).
head(r_fr10_263,fr7_x1).
body(r_fr10_263,fr10_a2).
body(r_fr10_263,fr10_a2).
body(r_fr10_263,fr10_v4).
body(r_fr10_263,fr7_x1).
head(r_fr10_264,fr7_x1).
body(r_fr10_264,fr10_a3).
body(r_fr10_264,fr10_a4).
body(r_fr10_264,fr10_a6).
body(r_fr10_264,fr10_b1).
body(r_fr10_264,fr10_a2).
body(r_fr10_264,fr10_a2).
body(r_fr10_264,fr10_a2).
body(r_fr10_264,fr10_a2).
body(r_fr10_264,fr10_a2).

