assumption(fr1_a1).
assumption(fr1_b1).
assumption(fr13_f2).
assumption(fr1_d1).
assumption(fr1_e1).
assumption(fr9_b4).
assumption(fr13_f2).
assumption(fr20_b2).
assumption(fr20_b2).
assumption(fr1_d2).
assumption(fr13_f2).
assumption(fr14_d2).
assumption(fr1_a3).
assumption(fr1_b3).
assumption(fr1_c3).
contrary(fr1_a1,fr1_v3).
contrary(fr13_f2,fr23_y2).
contrary(fr1_a3,fr1_v2).
contrary(fr1_b1,fr1_a3).
contrary(fr20_b2,fr1_b1).
contrary(fr1_b3,fr22_p2).
contrary(fr13_f2,fr1_z1).
contrary(fr20_b2,fr1_s2).
contrary(fr1_c3,fr14_d2).
contrary(fr1_d1,fr1_p2).
contrary(fr1_d2,fr1_a3).
contrary(fr1_e1,fr23_y2).
contrary(fr13_f2,fr16_p2).
contrary(fr9_b4,fr23_y2).
contrary(fr14_d2,fr22_p2).
head(r_fr1_0,fr16_u3).
body(r_fr1_0,fr13_f2).
body(r_fr1_0,fr1_a3).
body(r_fr1_0,fr20_b2).
body(r_fr1_0,fr22_p2).
body(r_fr1_0,fr1_q2).
body(r_fr1_0,fr1_q3).
body(r_fr1_0,fr1_r1).
body(r_fr1_0,fr1_u3).
body(r_fr1_0,fr1_v2).
body(r_fr1_0,fr1_v3).
body(r_fr1_0,fr22_p2).
body(r_fr1_0,fr23_y2).
body(r_fr1_0,fr1_z3).
head(r_fr1_1,fr16_u3).
body(r_fr1_1,fr1_d1).
body(r_fr1_1,fr9_b4).
body(r_fr1_1,fr22_p2).
body(r_fr1_1,fr1_p4).
body(r_fr1_1,fr1_q1).
body(r_fr1_1,fr23_y2).
body(r_fr1_1,fr16_s3).
body(r_fr1_1,fr1_v2).
body(r_fr1_1,fr1_w1).
body(r_fr1_1,fr9_t5).
body(r_fr1_1,fr1_x1).
body(r_fr1_1,fr1_x2).
body(r_fr1_1,fr1_z1).
body(r_fr1_1,fr23_y2).
body(r_fr1_1,fr1_z3).
head(r_fr1_2,fr16_u3).
body(r_fr1_2,fr13_f2).
body(r_fr1_2,fr1_d1).
body(r_fr1_2,fr22_p2).
body(r_fr1_2,fr1_p2).
body(r_fr1_2,fr13_z1).
body(r_fr1_2,fr1_p4).
body(r_fr1_2,fr1_q2).
body(r_fr1_2,fr1_q3).
body(r_fr1_2,fr23_y2).
body(r_fr1_2,fr1_r3).
body(r_fr1_2,fr1_s2).
body(r_fr1_2,fr1_v2).
body(r_fr1_2,fr1_v3).
body(r_fr1_2,fr1_w1).
body(r_fr1_2,fr1_w2).
head(r_fr1_3,fr16_u3).
body(r_fr1_3,fr1_c3).
body(r_fr1_3,fr9_b4).
body(r_fr1_3,fr22_p2).
body(r_fr1_3,fr1_p2).
body(r_fr1_3,fr1_p4).
body(r_fr1_3,fr1_q3).
body(r_fr1_3,fr23_y2).
body(r_fr1_3,fr23_y2).
body(r_fr1_3,fr1_u1).
body(r_fr1_3,fr16_p2).
body(r_fr1_3,fr1_v2).
body(r_fr1_3,fr1_w1).
body(r_fr1_3,fr1_w2).
body(r_fr1_3,fr1_y3).
head(r_fr1_4,fr16_u3).
body(r_fr1_4,fr1_a1).
body(r_fr1_4,fr13_f2).
body(r_fr1_4,fr13_f2).
body(r_fr1_4,fr13_f2).
body(r_fr1_4,fr14_d2).
body(r_fr1_4,fr23_y2).
body(r_fr1_4,fr1_r3).
body(r_fr1_4,fr16_s3).
body(r_fr1_4,fr23_y2).
body(r_fr1_4,fr1_u3).
body(r_fr1_4,fr1_v2).
body(r_fr1_4,fr1_w1).
body(r_fr1_4,fr1_w2).
body(r_fr1_4,fr22_p2).
head(r_fr1_5,fr1_z1).
body(r_fr1_5,fr1_a1).
body(r_fr1_5,fr1_a3).
body(r_fr1_5,fr1_c3).
body(r_fr1_5,fr1_e1).
body(r_fr1_5,fr13_f2).
body(r_fr1_5,fr22_p2).
body(r_fr1_5,fr13_z1).
body(r_fr1_5,fr1_p4).
body(r_fr1_5,fr23_y2).
body(r_fr1_5,fr16_s3).
body(r_fr1_5,fr1_u1).
body(r_fr1_5,fr16_p2).
body(r_fr1_5,fr23_y2).
head(r_fr1_6,fr1_z1).
body(r_fr1_6,fr1_b1).
body(r_fr1_6,fr22_p2).
body(r_fr1_6,fr1_p2).
body(r_fr1_6,fr23_y2).
body(r_fr1_6,fr23_y2).
body(r_fr1_6,fr1_r3).
body(r_fr1_6,fr23_y2).
body(r_fr1_6,fr23_y2).
body(r_fr1_6,fr16_s3).
body(r_fr1_6,fr23_y2).
body(r_fr1_6,fr1_v3).
body(r_fr1_6,fr1_x2).
body(r_fr1_6,fr22_p2).
head(r_fr1_7,fr1_z1).
body(r_fr1_7,fr1_d2).
body(r_fr1_7,fr9_b4).
body(r_fr1_7,fr1_q1).
body(r_fr1_7,fr23_y2).
body(r_fr1_7,fr16_s3).
body(r_fr1_7,fr1_v2).
body(r_fr1_7,fr1_v3).
body(r_fr1_7,fr1_w1).
body(r_fr1_7,fr1_x1).
body(r_fr1_7,fr22_p2).
body(r_fr1_7,fr22_p2).
body(r_fr1_7,fr1_y3).
body(r_fr1_7,fr1_z3).
head(r_fr1_8,fr1_z1).
body(r_fr1_8,fr1_a1).
body(r_fr1_8,fr1_c3).
body(r_fr1_8,fr1_d2).
body(r_fr1_8,fr1_e1).
body(r_fr1_8,fr1_q1).
body(r_fr1_8,fr23_y2).
body(r_fr1_8,fr1_s3).
body(r_fr1_8,fr23_y2).
body(r_fr1_8,fr16_s3).
body(r_fr1_8,fr1_v3).
body(r_fr1_8,fr1_w1).
body(r_fr1_8,fr1_w2).
body(r_fr1_8,fr1_x2).
body(r_fr1_8,fr16_u3).
head(r_fr1_9,fr1_z1).
body(r_fr1_9,fr13_f2).
body(r_fr1_9,fr1_p4).
body(r_fr1_9,fr1_q1).
body(r_fr1_9,fr1_r1).
body(r_fr1_9,fr23_y2).
body(r_fr1_9,fr1_s3).
body(r_fr1_9,fr23_y2).
body(r_fr1_9,fr16_p2).
body(r_fr1_9,fr1_v2).
body(r_fr1_9,fr1_w2).
body(r_fr1_9,fr1_x1).
body(r_fr1_9,fr1_x2).
head(r_fr1_10,fr1_r1).
body(r_fr1_10,fr1_p2).
body(r_fr1_10,fr13_z1).
body(r_fr1_10,fr1_q1).
body(r_fr1_10,fr1_q3).
body(r_fr1_10,fr23_y2).
body(r_fr1_10,fr23_y2).
body(r_fr1_10,fr1_s2).
body(r_fr1_10,fr1_u1).
body(r_fr1_10,fr1_u3).
body(r_fr1_10,fr1_y3).
body(r_fr1_10,fr1_z1).
body(r_fr1_10,fr23_y2).
head(r_fr1_11,fr1_r1).
body(r_fr1_11,fr1_b3).
body(r_fr1_11,fr13_f2).
body(r_fr1_11,fr22_p2).
body(r_fr1_11,fr1_q1).
body(r_fr1_11,fr1_q2).
body(r_fr1_11,fr1_q3).
body(r_fr1_11,fr1_s2).
body(r_fr1_11,fr23_y2).
body(r_fr1_11,fr16_s3).
body(r_fr1_11,fr1_v2).
body(r_fr1_11,fr1_v3).
body(r_fr1_11,fr9_t5).
body(r_fr1_11,fr1_x2).
body(r_fr1_11,fr16_u3).
head(r_fr1_12,fr1_r1).
body(r_fr1_12,fr1_d2).
body(r_fr1_12,fr1_q1).
body(r_fr1_12,fr23_y2).
body(r_fr1_12,fr23_y2).
body(r_fr1_12,fr1_s3).
body(r_fr1_12,fr1_u1).
body(r_fr1_12,fr23_y2).
body(r_fr1_12,fr1_u3).
body(r_fr1_12,fr1_v3).
body(r_fr1_12,fr9_t5).
body(r_fr1_12,fr1_x1).
body(r_fr1_12,fr1_x2).
body(r_fr1_12,fr1_z3).
head(r_fr1_13,fr1_x1).
body(r_fr1_13,fr20_b2).
body(r_fr1_13,fr1_p2).
body(r_fr1_13,fr13_z1).
body(r_fr1_13,fr1_q1).
body(r_fr1_13,fr1_q3).
body(r_fr1_13,fr23_y2).
body(r_fr1_13,fr1_r3).
body(r_fr1_13,fr23_y2).
body(r_fr1_13,fr16_p2).
body(r_fr1_13,fr1_w1).
body(r_fr1_13,fr22_p2).
body(r_fr1_13,fr22_p2).
body(r_fr1_13,fr1_z3).
head(r_fr1_14,fr1_x1).
body(r_fr1_14,fr1_a1).
body(r_fr1_14,fr1_b3).
body(r_fr1_14,fr13_f2).
body(r_fr1_14,fr22_p2).
body(r_fr1_14,fr1_p2).
body(r_fr1_14,fr1_q1).
body(r_fr1_14,fr1_r1).
body(r_fr1_14,fr23_y2).
body(r_fr1_14,fr1_r3).
body(r_fr1_14,fr1_s2).
body(r_fr1_14,fr1_s3).
body(r_fr1_14,fr1_u3).
body(r_fr1_14,fr16_p2).
body(r_fr1_14,fr1_v3).
body(r_fr1_14,fr1_z3).
head(r_fr1_15,fr23_y2).
body(r_fr1_15,fr1_b3).
body(r_fr1_15,fr20_b2).
body(r_fr1_15,fr1_c3).
body(r_fr1_15,fr1_e1).
body(r_fr1_15,fr13_f2).
body(r_fr1_15,fr14_d2).
body(r_fr1_15,fr1_q1).
body(r_fr1_15,fr1_q2).
body(r_fr1_15,fr1_q3).
body(r_fr1_15,fr1_s2).
body(r_fr1_15,fr1_s3).
body(r_fr1_15,fr1_u1).
body(r_fr1_15,fr1_v3).
body(r_fr1_15,fr1_y3).
head(r_fr1_16,fr23_y2).
body(r_fr1_16,fr1_a1).
body(r_fr1_16,fr1_a3).
body(r_fr1_16,fr1_c3).
body(r_fr1_16,fr13_f2).
body(r_fr1_16,fr22_p2).
body(r_fr1_16,fr1_p2).
body(r_fr1_16,fr13_z1).
body(r_fr1_16,fr1_p4).
body(r_fr1_16,fr23_y2).
body(r_fr1_16,fr16_s3).
body(r_fr1_16,fr1_u3).
body(r_fr1_16,fr1_x2).
body(r_fr1_16,fr22_p2).
body(r_fr1_16,fr1_z1).
body(r_fr1_16,fr1_z3).
head(r_fr1_17,fr23_y2).
body(r_fr1_17,fr1_a1).
body(r_fr1_17,fr1_a3).
body(r_fr1_17,fr1_c3).
body(r_fr1_17,fr1_e1).
body(r_fr1_17,fr13_f2).
body(r_fr1_17,fr14_d2).
body(r_fr1_17,fr1_p4).
body(r_fr1_17,fr1_q1).
body(r_fr1_17,fr23_y2).
body(r_fr1_17,fr1_r1).
body(r_fr1_17,fr23_y2).
body(r_fr1_17,fr1_z1).
head(r_fr1_18,fr23_y2).
body(r_fr1_18,fr1_e1).
body(r_fr1_18,fr1_p2).
body(r_fr1_18,fr13_z1).
body(r_fr1_18,fr1_q3).
body(r_fr1_18,fr1_r1).
body(r_fr1_18,fr23_y2).
body(r_fr1_18,fr23_y2).
body(r_fr1_18,fr1_v2).
body(r_fr1_18,fr1_v3).
body(r_fr1_18,fr1_w2).
body(r_fr1_18,fr9_t5).
body(r_fr1_18,fr1_x2).
head(r_fr1_19,fr1_z3).
body(r_fr1_19,fr1_a1).
body(r_fr1_19,fr1_b3).
body(r_fr1_19,fr13_f2).
body(r_fr1_19,fr1_d1).
body(r_fr1_19,fr1_e1).
body(r_fr1_19,fr13_f2).
body(r_fr1_19,fr22_p2).
body(r_fr1_19,fr1_r1).
body(r_fr1_19,fr23_y2).
body(r_fr1_19,fr1_u1).
body(r_fr1_19,fr1_w2).
body(r_fr1_19,fr1_y3).
head(r_fr1_20,fr1_z3).
body(r_fr1_20,fr1_p2).
body(r_fr1_20,fr1_p4).
body(r_fr1_20,fr1_q1).
body(r_fr1_20,fr1_q2).
body(r_fr1_20,fr23_y2).
body(r_fr1_20,fr1_r1).
body(r_fr1_20,fr1_r3).
body(r_fr1_20,fr23_y2).
body(r_fr1_20,fr23_y2).
body(r_fr1_20,fr16_s3).
body(r_fr1_20,fr1_u1).
body(r_fr1_20,fr1_u3).
body(r_fr1_20,fr1_x1).
body(r_fr1_20,fr16_u3).
body(r_fr1_20,fr22_p2).
head(r_fr1_21,fr1_z3).
body(r_fr1_21,fr22_p2).
body(r_fr1_21,fr13_z1).
body(r_fr1_21,fr1_q1).
body(r_fr1_21,fr1_q2).
body(r_fr1_21,fr1_r1).
body(r_fr1_21,fr23_y2).
body(r_fr1_21,fr23_y2).
body(r_fr1_21,fr16_p2).
body(r_fr1_21,fr1_v3).
body(r_fr1_21,fr1_x1).
body(r_fr1_21,fr1_x2).
body(r_fr1_21,fr16_u3).
head(r_fr1_22,fr1_z3).
body(r_fr1_22,fr1_b3).
body(r_fr1_22,fr1_d2).
body(r_fr1_22,fr1_q1).
body(r_fr1_22,fr23_y2).
body(r_fr1_22,fr16_s3).
body(r_fr1_22,fr1_u1).
body(r_fr1_22,fr1_u3).
body(r_fr1_22,fr16_p2).
body(r_fr1_22,fr1_w1).
body(r_fr1_22,fr22_p2).
body(r_fr1_22,fr1_y3).
body(r_fr1_22,fr1_z1).
head(r_fr1_23,fr1_q1).
body(r_fr1_23,fr1_a1).
body(r_fr1_23,fr1_a3).
body(r_fr1_23,fr1_b1).
body(r_fr1_23,fr20_b2).
body(r_fr1_23,fr1_e1).
body(r_fr1_23,fr1_q2).
body(r_fr1_23,fr23_y2).
body(r_fr1_23,fr16_s3).
body(r_fr1_23,fr1_v3).
body(r_fr1_23,fr1_w1).
body(r_fr1_23,fr16_u3).
body(r_fr1_23,fr22_p2).
body(r_fr1_23,fr1_y3).
body(r_fr1_23,fr1_z1).
body(r_fr1_23,fr1_z3).
head(r_fr1_24,fr1_q1).
body(r_fr1_24,fr1_a1).
body(r_fr1_24,fr20_b2).
body(r_fr1_24,fr13_f2).
body(r_fr1_24,fr1_e1).
body(r_fr1_24,fr13_f2).
body(r_fr1_24,fr14_d2).
body(r_fr1_24,fr1_r3).
body(r_fr1_24,fr1_u3).
body(r_fr1_24,fr1_v3).
body(r_fr1_24,fr1_w1).
body(r_fr1_24,fr16_u3).
body(r_fr1_24,fr1_y3).
head(r_fr1_25,fr1_q1).
body(r_fr1_25,fr1_b3).
body(r_fr1_25,fr14_d2).
body(r_fr1_25,fr22_p2).
body(r_fr1_25,fr1_p2).
body(r_fr1_25,fr13_z1).
body(r_fr1_25,fr1_p4).
body(r_fr1_25,fr1_q2).
body(r_fr1_25,fr23_y2).
body(r_fr1_25,fr1_s2).
body(r_fr1_25,fr16_s3).
body(r_fr1_25,fr1_v2).
body(r_fr1_25,fr9_t5).
body(r_fr1_25,fr16_u3).
head(r_fr1_26,fr1_q1).
body(r_fr1_26,fr13_f2).
body(r_fr1_26,fr14_d2).
body(r_fr1_26,fr13_z1).
body(r_fr1_26,fr1_p4).
body(r_fr1_26,fr1_q2).
body(r_fr1_26,fr23_y2).
body(r_fr1_26,fr1_r3).
body(r_fr1_26,fr23_y2).
body(r_fr1_26,fr1_u3).
body(r_fr1_26,fr16_p2).
body(r_fr1_26,fr1_v2).
body(r_fr1_26,fr1_x1).
body(r_fr1_26,fr23_y2).
head(r_fr1_27,fr1_q1).
body(r_fr1_27,fr1_b3).
body(r_fr1_27,fr13_f2).
body(r_fr1_27,fr1_d1).
body(r_fr1_27,fr1_d2).
body(r_fr1_27,fr13_f2).
body(r_fr1_27,fr9_b4).
body(r_fr1_27,fr23_y2).
body(r_fr1_27,fr23_y2).
body(r_fr1_27,fr1_u3).
body(r_fr1_27,fr16_p2).
body(r_fr1_27,fr22_p2).
body(r_fr1_27,fr23_y2).
head(r_fr1_28,fr1_s3).
body(r_fr1_28,fr13_f2).
body(r_fr1_28,fr1_b1).
body(r_fr1_28,fr20_b2).
body(r_fr1_28,fr1_p2).
body(r_fr1_28,fr13_z1).
body(r_fr1_28,fr1_q1).
body(r_fr1_28,fr1_q3).
body(r_fr1_28,fr23_y2).
body(r_fr1_28,fr1_s2).
body(r_fr1_28,fr23_y2).
body(r_fr1_28,fr1_v2).
body(r_fr1_28,fr1_x2).
body(r_fr1_28,fr22_p2).
body(r_fr1_28,fr23_y2).
head(r_fr1_29,fr1_s3).
body(r_fr1_29,fr1_c3).
body(r_fr1_29,fr13_z1).
body(r_fr1_29,fr1_p4).
body(r_fr1_29,fr1_q2).
body(r_fr1_29,fr1_r1).
body(r_fr1_29,fr1_r3).
body(r_fr1_29,fr1_s2).
body(r_fr1_29,fr16_s3).
body(r_fr1_29,fr1_u1).
body(r_fr1_29,fr16_p2).
body(r_fr1_29,fr1_v2).
body(r_fr1_29,fr1_x1).
body(r_fr1_29,fr22_p2).
body(r_fr1_29,fr22_p2).
body(r_fr1_29,fr23_y2).
head(r_fr1_30,fr1_s3).
body(r_fr1_30,fr1_b1).
body(r_fr1_30,fr20_b2).
body(r_fr1_30,fr22_p2).
body(r_fr1_30,fr23_y2).
body(r_fr1_30,fr1_r3).
body(r_fr1_30,fr23_y2).
body(r_fr1_30,fr1_s2).
body(r_fr1_30,fr16_p2).
body(r_fr1_30,fr1_v3).
body(r_fr1_30,fr9_t5).
body(r_fr1_30,fr22_p2).
body(r_fr1_30,fr1_y3).
body(r_fr1_30,fr1_z1).
body(r_fr1_30,fr23_y2).
body(r_fr1_30,fr1_z3).
head(r_fr1_31,fr23_y2).
body(r_fr1_31,fr1_a3).
body(r_fr1_31,fr1_b1).
body(r_fr1_31,fr1_b3).
body(r_fr1_31,fr22_p2).
body(r_fr1_31,fr1_p2).
body(r_fr1_31,fr1_q3).
body(r_fr1_31,fr1_r3).
body(r_fr1_31,fr23_y2).
body(r_fr1_31,fr1_v2).
body(r_fr1_31,fr1_x1).
body(r_fr1_31,fr22_p2).
body(r_fr1_31,fr1_z3).
head(r_fr1_32,fr23_y2).
body(r_fr1_32,fr1_a1).
body(r_fr1_32,fr13_f2).
body(r_fr1_32,fr20_b2).
body(r_fr1_32,fr9_b4).
body(r_fr1_32,fr14_d2).
body(r_fr1_32,fr1_p2).
body(r_fr1_32,fr1_q3).
body(r_fr1_32,fr1_s3).
body(r_fr1_32,fr1_v2).
body(r_fr1_32,fr16_u3).
body(r_fr1_32,fr22_p2).
body(r_fr1_32,fr1_y3).
body(r_fr1_32,fr23_y2).
head(r_fr1_33,fr23_y2).
body(r_fr1_33,fr1_a1).
body(r_fr1_33,fr13_f2).
body(r_fr1_33,fr1_q1).
body(r_fr1_33,fr1_q3).
body(r_fr1_33,fr23_y2).
body(r_fr1_33,fr1_r3).
body(r_fr1_33,fr23_y2).
body(r_fr1_33,fr23_y2).
body(r_fr1_33,fr23_y2).
body(r_fr1_33,fr1_w2).
body(r_fr1_33,fr9_t5).
body(r_fr1_33,fr1_x1).
body(r_fr1_33,fr22_p2).
body(r_fr1_33,fr1_z1).
head(r_fr1_34,fr16_p2).
body(r_fr1_34,fr1_b1).
body(r_fr1_34,fr1_c3).
body(r_fr1_34,fr22_p2).
body(r_fr1_34,fr1_p2).
body(r_fr1_34,fr1_q3).
body(r_fr1_34,fr23_y2).
body(r_fr1_34,fr23_y2).
body(r_fr1_34,fr16_s3).
body(r_fr1_34,fr1_v3).
body(r_fr1_34,fr9_t5).
body(r_fr1_34,fr23_y2).
body(r_fr1_34,fr1_z3).
head(r_fr1_35,fr16_p2).
body(r_fr1_35,fr1_d1).
body(r_fr1_35,fr1_p4).
body(r_fr1_35,fr23_y2).
body(r_fr1_35,fr1_s2).
body(r_fr1_35,fr1_s3).
body(r_fr1_35,fr23_y2).
body(r_fr1_35,fr1_v2).
body(r_fr1_35,fr1_v3).
body(r_fr1_35,fr1_x2).
body(r_fr1_35,fr16_u3).
body(r_fr1_35,fr22_p2).
body(r_fr1_35,fr23_y2).
head(r_fr1_36,fr1_u3).
body(r_fr1_36,fr1_b3).
body(r_fr1_36,fr1_q1).
body(r_fr1_36,fr1_q2).
body(r_fr1_36,fr1_q3).
body(r_fr1_36,fr23_y2).
body(r_fr1_36,fr1_r1).
body(r_fr1_36,fr1_s2).
body(r_fr1_36,fr23_y2).
body(r_fr1_36,fr16_s3).
body(r_fr1_36,fr16_p2).
body(r_fr1_36,fr1_v2).
body(r_fr1_36,fr1_x2).
body(r_fr1_36,fr22_p2).
body(r_fr1_36,fr1_z1).
body(r_fr1_36,fr23_y2).
head(r_fr1_37,fr1_u3).
body(r_fr1_37,fr1_a3).
body(r_fr1_37,fr1_b3).
body(r_fr1_37,fr1_c3).
body(r_fr1_37,fr1_e1).
body(r_fr1_37,fr14_d2).
body(r_fr1_37,fr1_p2).
body(r_fr1_37,fr1_q1).
body(r_fr1_37,fr1_r3).
body(r_fr1_37,fr23_y2).
body(r_fr1_37,fr16_s3).
body(r_fr1_37,fr1_u1).
body(r_fr1_37,fr1_v2).
body(r_fr1_37,fr1_v3).
body(r_fr1_37,fr1_x1).
body(r_fr1_37,fr23_y2).
head(r_fr1_38,fr1_u3).
body(r_fr1_38,fr20_b2).
body(r_fr1_38,fr1_b3).
body(r_fr1_38,fr13_f2).
body(r_fr1_38,fr13_z1).
body(r_fr1_38,fr1_q3).
body(r_fr1_38,fr23_y2).
body(r_fr1_38,fr1_r1).
body(r_fr1_38,fr1_s2).
body(r_fr1_38,fr23_y2).
body(r_fr1_38,fr16_p2).
body(r_fr1_38,fr1_v2).
body(r_fr1_38,fr9_t5).
body(r_fr1_38,fr1_x2).
body(r_fr1_38,fr1_y3).
body(r_fr1_38,fr1_z3).
head(r_fr1_39,fr23_y2).
body(r_fr1_39,fr13_f2).
body(r_fr1_39,fr1_d2).
body(r_fr1_39,fr1_e1).
body(r_fr1_39,fr13_f2).
body(r_fr1_39,fr22_p2).
body(r_fr1_39,fr1_r3).
body(r_fr1_39,fr23_y2).
body(r_fr1_39,fr23_y2).
body(r_fr1_39,fr23_y2).
body(r_fr1_39,fr1_v3).
body(r_fr1_39,fr1_w1).
body(r_fr1_39,fr1_w2).
body(r_fr1_39,fr1_z3).
head(r_fr1_40,fr23_y2).
body(r_fr1_40,fr1_b1).
body(r_fr1_40,fr13_f2).
body(r_fr1_40,fr1_d2).
body(r_fr1_40,fr1_e1).
body(r_fr1_40,fr13_z1).
body(r_fr1_40,fr1_q1).
body(r_fr1_40,fr1_q3).
body(r_fr1_40,fr1_s2).
body(r_fr1_40,fr1_s3).
body(r_fr1_40,fr23_y2).
body(r_fr1_40,fr16_s3).
body(r_fr1_40,fr1_v3).
body(r_fr1_40,fr1_w1).
body(r_fr1_40,fr1_y3).
body(r_fr1_40,fr1_z3).
head(r_fr1_41,fr23_y2).
body(r_fr1_41,fr1_b3).
body(r_fr1_41,fr1_q2).
body(r_fr1_41,fr1_q3).
body(r_fr1_41,fr1_r1).
body(r_fr1_41,fr23_y2).
body(r_fr1_41,fr16_p2).
body(r_fr1_41,fr1_v2).
body(r_fr1_41,fr1_v3).
body(r_fr1_41,fr1_w2).
body(r_fr1_41,fr1_x1).
body(r_fr1_41,fr1_x2).
body(r_fr1_41,fr16_u3).
body(r_fr1_41,fr22_p2).
body(r_fr1_41,fr22_p2).
body(r_fr1_41,fr1_z3).
head(r_fr1_42,fr23_y2).
body(r_fr1_42,fr13_f2).
body(r_fr1_42,fr1_b1).
body(r_fr1_42,fr13_f2).
body(r_fr1_42,fr20_b2).
body(r_fr1_42,fr1_d2).
body(r_fr1_42,fr9_b4).
body(r_fr1_42,fr22_p2).
body(r_fr1_42,fr23_y2).
body(r_fr1_42,fr23_y2).
body(r_fr1_42,fr23_y2).
body(r_fr1_42,fr1_v3).
body(r_fr1_42,fr9_t5).
body(r_fr1_42,fr22_p2).
body(r_fr1_42,fr1_z3).
head(r_fr1_43,fr22_p2).
body(r_fr1_43,fr20_b2).
body(r_fr1_43,fr1_c3).
body(r_fr1_43,fr1_d1).
body(r_fr1_43,fr1_d2).
body(r_fr1_43,fr22_p2).
body(r_fr1_43,fr13_z1).
body(r_fr1_43,fr1_q3).
body(r_fr1_43,fr1_s2).
body(r_fr1_43,fr23_y2).
body(r_fr1_43,fr1_v2).
body(r_fr1_43,fr1_w1).
body(r_fr1_43,fr9_t5).
body(r_fr1_43,fr16_u3).
body(r_fr1_43,fr22_p2).
body(r_fr1_43,fr1_y3).
head(r_fr1_44,fr22_p2).
body(r_fr1_44,fr1_b1).
body(r_fr1_44,fr1_b3).
body(r_fr1_44,fr13_f2).
body(r_fr1_44,fr20_b2).
body(r_fr1_44,fr1_d1).
body(r_fr1_44,fr13_z1).
body(r_fr1_44,fr1_p4).
body(r_fr1_44,fr1_q3).
body(r_fr1_44,fr23_y2).
body(r_fr1_44,fr16_s3).
body(r_fr1_44,fr1_u1).
body(r_fr1_44,fr1_u3).
body(r_fr1_44,fr1_w2).
body(r_fr1_44,fr1_x1).
head(r_fr1_45,fr9_t5).
body(r_fr1_45,fr13_f2).
body(r_fr1_45,fr1_d1).
body(r_fr1_45,fr1_e1).
body(r_fr1_45,fr1_p2).
body(r_fr1_45,fr13_z1).
body(r_fr1_45,fr1_p4).
body(r_fr1_45,fr1_u1).
body(r_fr1_45,fr16_p2).
body(r_fr1_45,fr1_w2).
body(r_fr1_45,fr16_u3).
body(r_fr1_45,fr22_p2).
body(r_fr1_45,fr23_y2).
head(r_fr1_46,fr9_t5).
body(r_fr1_46,fr13_f2).
body(r_fr1_46,fr1_b1).
body(r_fr1_46,fr20_b2).
body(r_fr1_46,fr1_d2).
body(r_fr1_46,fr13_f2).
body(r_fr1_46,fr14_d2).
body(r_fr1_46,fr13_z1).
body(r_fr1_46,fr1_p4).
body(r_fr1_46,fr1_q3).
body(r_fr1_46,fr1_r1).
body(r_fr1_46,fr23_y2).
body(r_fr1_46,fr16_s3).
body(r_fr1_46,fr1_v2).
head(r_fr1_47,fr9_t5).
body(r_fr1_47,fr13_z1).
body(r_fr1_47,fr1_q1).
body(r_fr1_47,fr1_q2).
body(r_fr1_47,fr1_s2).
body(r_fr1_47,fr1_u1).
body(r_fr1_47,fr1_u3).
body(r_fr1_47,fr16_p2).
body(r_fr1_47,fr1_v2).
body(r_fr1_47,fr1_x2).
body(r_fr1_47,fr22_p2).
body(r_fr1_47,fr1_y3).
body(r_fr1_47,fr23_y2).
head(r_fr1_48,fr1_x2).
body(r_fr1_48,fr13_z1).
body(r_fr1_48,fr1_p4).
body(r_fr1_48,fr1_q2).
body(r_fr1_48,fr1_s2).
body(r_fr1_48,fr1_s3).
body(r_fr1_48,fr23_y2).
body(r_fr1_48,fr23_y2).
body(r_fr1_48,fr1_u1).
body(r_fr1_48,fr23_y2).
body(r_fr1_48,fr1_v2).
body(r_fr1_48,fr1_v3).
body(r_fr1_48,fr22_p2).
head(r_fr1_49,fr1_x2).
body(r_fr1_49,fr1_a1).
body(r_fr1_49,fr13_f2).
body(r_fr1_49,fr20_b2).
body(r_fr1_49,fr1_b3).
body(r_fr1_49,fr20_b2).
body(r_fr1_49,fr1_q1).
body(r_fr1_49,fr1_r1).
body(r_fr1_49,fr23_y2).
body(r_fr1_49,fr1_w2).
body(r_fr1_49,fr9_t5).
body(r_fr1_49,fr22_p2).
body(r_fr1_49,fr1_y3).
body(r_fr1_49,fr23_y2).
head(r_fr1_50,fr1_x2).
body(r_fr1_50,fr13_f2).
body(r_fr1_50,fr1_b1).
body(r_fr1_50,fr1_e1).
body(r_fr1_50,fr13_f2).
body(r_fr1_50,fr22_p2).
body(r_fr1_50,fr13_z1).
body(r_fr1_50,fr23_y2).
body(r_fr1_50,fr1_u1).
body(r_fr1_50,fr23_y2).
body(r_fr1_50,fr1_u3).
body(r_fr1_50,fr1_v2).
body(r_fr1_50,fr1_x1).
body(r_fr1_50,fr16_u3).
body(r_fr1_50,fr22_p2).
head(r_fr1_51,fr1_y3).
body(r_fr1_51,fr1_b1).
body(r_fr1_51,fr22_p2).
body(r_fr1_51,fr1_p2).
body(r_fr1_51,fr23_y2).
body(r_fr1_51,fr1_s3).
body(r_fr1_51,fr23_y2).
body(r_fr1_51,fr1_u1).
body(r_fr1_51,fr23_y2).
body(r_fr1_51,fr16_p2).
body(r_fr1_51,fr1_x1).
body(r_fr1_51,fr16_u3).
body(r_fr1_51,fr22_p2).
body(r_fr1_51,fr1_z1).
head(r_fr1_52,fr1_y3).
body(r_fr1_52,fr1_d1).
body(r_fr1_52,fr1_d2).
body(r_fr1_52,fr1_p4).
body(r_fr1_52,fr1_q2).
body(r_fr1_52,fr1_r1).
body(r_fr1_52,fr23_y2).
body(r_fr1_52,fr1_u1).
body(r_fr1_52,fr9_t5).
body(r_fr1_52,fr1_x2).
body(r_fr1_52,fr22_p2).
body(r_fr1_52,fr22_p2).
body(r_fr1_52,fr1_z1).
body(r_fr1_52,fr1_z3).
head(r_fr1_53,fr1_y3).
body(r_fr1_53,fr22_p2).
body(r_fr1_53,fr1_p4).
body(r_fr1_53,fr1_q2).
body(r_fr1_53,fr1_q3).
body(r_fr1_53,fr1_r1).
body(r_fr1_53,fr23_y2).
body(r_fr1_53,fr1_u1).
body(r_fr1_53,fr1_v2).
body(r_fr1_53,fr1_v3).
body(r_fr1_53,fr1_x1).
body(r_fr1_53,fr1_x2).
body(r_fr1_53,fr22_p2).
body(r_fr1_53,fr1_z3).
head(r_fr1_54,fr1_y3).
body(r_fr1_54,fr13_f2).
body(r_fr1_54,fr1_a3).
body(r_fr1_54,fr1_b3).
body(r_fr1_54,fr13_f2).
body(r_fr1_54,fr9_b4).
body(r_fr1_54,fr1_p4).
body(r_fr1_54,fr1_q2).
body(r_fr1_54,fr1_q3).
body(r_fr1_54,fr23_y2).
body(r_fr1_54,fr1_u1).
body(r_fr1_54,fr16_p2).
body(r_fr1_54,fr1_x1).
body(r_fr1_54,fr16_u3).
head(r_fr1_55,fr23_y2).
body(r_fr1_55,fr13_f2).
body(r_fr1_55,fr1_a3).
body(r_fr1_55,fr20_b2).
body(r_fr1_55,fr1_d1).
body(r_fr1_55,fr13_f2).
body(r_fr1_55,fr14_d2).
body(r_fr1_55,fr13_z1).
body(r_fr1_55,fr1_q1).
body(r_fr1_55,fr1_r1).
body(r_fr1_55,fr23_y2).
body(r_fr1_55,fr1_u1).
body(r_fr1_55,fr23_y2).
body(r_fr1_55,fr1_u3).
body(r_fr1_55,fr1_w2).
body(r_fr1_55,fr16_u3).
head(r_fr1_56,fr23_y2).
body(r_fr1_56,fr22_p2).
body(r_fr1_56,fr1_p4).
body(r_fr1_56,fr1_q1).
body(r_fr1_56,fr1_r1).
body(r_fr1_56,fr23_y2).
body(r_fr1_56,fr23_y2).
body(r_fr1_56,fr1_u1).
body(r_fr1_56,fr1_v3).
body(r_fr1_56,fr1_w1).
body(r_fr1_56,fr1_x1).
body(r_fr1_56,fr1_x2).
body(r_fr1_56,fr22_p2).
body(r_fr1_56,fr1_z1).
head(r_fr1_57,fr23_y2).
body(r_fr1_57,fr20_b2).
body(r_fr1_57,fr1_b3).
body(r_fr1_57,fr1_c3).
body(r_fr1_57,fr1_d1).
body(r_fr1_57,fr9_b4).
body(r_fr1_57,fr1_q1).
body(r_fr1_57,fr23_y2).
body(r_fr1_57,fr1_r3).
body(r_fr1_57,fr16_s3).
body(r_fr1_57,fr1_v3).
body(r_fr1_57,fr1_y3).
body(r_fr1_57,fr1_z3).
head(r_fr1_58,fr23_y2).
body(r_fr1_58,fr1_b1).
body(r_fr1_58,fr20_b2).
body(r_fr1_58,fr13_f2).
body(r_fr1_58,fr22_p2).
body(r_fr1_58,fr1_p4).
body(r_fr1_58,fr1_r1).
body(r_fr1_58,fr23_y2).
body(r_fr1_58,fr16_s3).
body(r_fr1_58,fr1_u1).
body(r_fr1_58,fr1_v2).
body(r_fr1_58,fr22_p2).
body(r_fr1_58,fr1_y3).
body(r_fr1_58,fr1_z1).
head(r_fr1_59,fr1_w1).
body(r_fr1_59,fr1_a3).
body(r_fr1_59,fr1_b1).
body(r_fr1_59,fr20_b2).
body(r_fr1_59,fr1_b3).
body(r_fr1_59,fr1_d2).
body(r_fr1_59,fr1_e1).
body(r_fr1_59,fr1_p4).
body(r_fr1_59,fr23_y2).
body(r_fr1_59,fr1_r3).
body(r_fr1_59,fr23_y2).
body(r_fr1_59,fr1_u1).
body(r_fr1_59,fr1_u3).
body(r_fr1_59,fr1_v3).
body(r_fr1_59,fr1_y3).
body(r_fr1_59,fr1_z1).
head(r_fr1_60,fr1_w1).
body(r_fr1_60,fr20_b2).
body(r_fr1_60,fr1_b3).
body(r_fr1_60,fr20_b2).
body(r_fr1_60,fr1_e1).
body(r_fr1_60,fr1_p4).
body(r_fr1_60,fr1_q3).
body(r_fr1_60,fr1_s2).
body(r_fr1_60,fr1_s3).
body(r_fr1_60,fr16_s3).
body(r_fr1_60,fr1_u3).
body(r_fr1_60,fr16_p2).
body(r_fr1_60,fr16_u3).
body(r_fr1_60,fr1_z1).
head(r_fr1_61,fr23_y2).
body(r_fr1_61,fr1_b3).
body(r_fr1_61,fr13_f2).
body(r_fr1_61,fr20_b2).
body(r_fr1_61,fr13_z1).
body(r_fr1_61,fr1_q1).
body(r_fr1_61,fr1_r1).
body(r_fr1_61,fr1_r3).
body(r_fr1_61,fr23_y2).
body(r_fr1_61,fr1_u1).
body(r_fr1_61,fr16_p2).
body(r_fr1_61,fr1_v3).
body(r_fr1_61,fr1_w2).
body(r_fr1_61,fr1_x1).
body(r_fr1_61,fr22_p2).
body(r_fr1_61,fr1_y3).
head(r_fr1_62,fr23_y2).
body(r_fr1_62,fr1_a1).
body(r_fr1_62,fr13_f2).
body(r_fr1_62,fr1_c3).
body(r_fr1_62,fr1_d1).
body(r_fr1_62,fr1_e1).
body(r_fr1_62,fr1_r1).
body(r_fr1_62,fr1_r3).
body(r_fr1_62,fr1_s3).
body(r_fr1_62,fr23_y2).
body(r_fr1_62,fr16_s3).
body(r_fr1_62,fr23_y2).
body(r_fr1_62,fr1_x1).
body(r_fr1_62,fr1_z1).
head(r_fr1_63,fr23_y2).
body(r_fr1_63,fr1_a1).
body(r_fr1_63,fr1_a3).
body(r_fr1_63,fr1_d1).
body(r_fr1_63,fr1_e1).
body(r_fr1_63,fr13_f2).
body(r_fr1_63,fr9_b4).
body(r_fr1_63,fr22_p2).
body(r_fr1_63,fr1_q2).
body(r_fr1_63,fr23_y2).
body(r_fr1_63,fr1_u1).
body(r_fr1_63,fr23_y2).
body(r_fr1_63,fr16_p2).
body(r_fr1_63,fr23_y2).
head(r_fr1_64,fr23_y2).
body(r_fr1_64,fr1_b3).
body(r_fr1_64,fr1_q2).
body(r_fr1_64,fr1_s2).
body(r_fr1_64,fr23_y2).
body(r_fr1_64,fr23_y2).
body(r_fr1_64,fr16_s3).
body(r_fr1_64,fr16_p2).
body(r_fr1_64,fr1_v2).
body(r_fr1_64,fr1_v3).
body(r_fr1_64,fr9_t5).
body(r_fr1_64,fr1_x1).
body(r_fr1_64,fr22_p2).
head(r_fr1_65,fr23_y2).
body(r_fr1_65,fr13_f2).
body(r_fr1_65,fr1_d1).
body(r_fr1_65,fr1_e1).
body(r_fr1_65,fr14_d2).
body(r_fr1_65,fr1_q1).
body(r_fr1_65,fr1_q2).
body(r_fr1_65,fr1_r1).
body(r_fr1_65,fr23_y2).
body(r_fr1_65,fr23_y2).
body(r_fr1_65,fr1_u1).
body(r_fr1_65,fr23_y2).
body(r_fr1_65,fr9_t5).
body(r_fr1_65,fr1_x2).
body(r_fr1_65,fr16_u3).
head(r_fr1_66,fr1_u1).
body(r_fr1_66,fr1_a1).
body(r_fr1_66,fr1_b1).
body(r_fr1_66,fr1_c3).
body(r_fr1_66,fr1_d1).
body(r_fr1_66,fr14_d2).
body(r_fr1_66,fr1_q1).
body(r_fr1_66,fr1_q3).
body(r_fr1_66,fr1_s2).
body(r_fr1_66,fr1_s3).
body(r_fr1_66,fr23_y2).
body(r_fr1_66,fr1_x1).
body(r_fr1_66,fr16_u3).
body(r_fr1_66,fr22_p2).
body(r_fr1_66,fr1_z1).
body(r_fr1_66,fr1_z3).
head(r_fr1_67,fr1_u1).
body(r_fr1_67,fr1_a3).
body(r_fr1_67,fr13_f2).
body(r_fr1_67,fr1_d1).
body(r_fr1_67,fr13_f2).
body(r_fr1_67,fr1_p4).
body(r_fr1_67,fr1_q1).
body(r_fr1_67,fr1_q3).
body(r_fr1_67,fr1_r1).
body(r_fr1_67,fr23_y2).
body(r_fr1_67,fr16_s3).
body(r_fr1_67,fr23_y2).
body(r_fr1_67,fr1_v3).
body(r_fr1_67,fr16_u3).
body(r_fr1_67,fr22_p2).
head(r_fr1_68,fr1_u1).
body(r_fr1_68,fr20_b2).
body(r_fr1_68,fr22_p2).
body(r_fr1_68,fr1_p4).
body(r_fr1_68,fr23_y2).
body(r_fr1_68,fr1_s3).
body(r_fr1_68,fr16_s3).
body(r_fr1_68,fr1_u3).
body(r_fr1_68,fr1_v3).
body(r_fr1_68,fr1_w1).
body(r_fr1_68,fr1_x1).
body(r_fr1_68,fr22_p2).
body(r_fr1_68,fr22_p2).
body(r_fr1_68,fr1_y3).
head(r_fr1_69,fr1_u1).
body(r_fr1_69,fr20_b2).
body(r_fr1_69,fr1_q1).
body(r_fr1_69,fr1_q2).
body(r_fr1_69,fr23_y2).
body(r_fr1_69,fr1_r1).
body(r_fr1_69,fr23_y2).
body(r_fr1_69,fr16_s3).
body(r_fr1_69,fr23_y2).
body(r_fr1_69,fr16_p2).
body(r_fr1_69,fr9_t5).
body(r_fr1_69,fr1_x1).
body(r_fr1_69,fr22_p2).
body(r_fr1_69,fr1_z1).
body(r_fr1_69,fr23_y2).
head(r_fr1_70,fr1_u1).
body(r_fr1_70,fr22_p2).
body(r_fr1_70,fr1_q1).
body(r_fr1_70,fr23_y2).
body(r_fr1_70,fr23_y2).
body(r_fr1_70,fr23_y2).
body(r_fr1_70,fr1_s2).
body(r_fr1_70,fr16_s3).
body(r_fr1_70,fr1_u3).
body(r_fr1_70,fr1_v2).
body(r_fr1_70,fr9_t5).
body(r_fr1_70,fr1_x1).
body(r_fr1_70,fr1_y3).
body(r_fr1_70,fr23_y2).

assumption(fr13_f2).
assumption(fr13_f2).
assumption(fr13_f2).
assumption(fr13_f2).
assumption(fr14_c1).
assumption(fr17_e2).
assumption(fr14_d2).
assumption(fr20_b2).
assumption(fr17_c2).
contrary(fr13_f2,fr14_c1).
contrary(fr14_d2,fr13_z1).
contrary(fr13_f2,fr14_c1).
contrary(fr20_b2,fr17_e2).
contrary(fr13_f2,fr13_z1).
contrary(fr17_c2,fr13_z1).
contrary(fr13_f2,fr23_y2).
contrary(fr14_c1,fr13_f2).
contrary(fr17_e2,fr13_f2).
head(r_fr2_0,fr12_z1).
body(r_fr2_0,fr23_v1).
body(r_fr2_0,fr23_y2).
head(r_fr2_1,fr12_z1).
head(r_fr2_2,fr12_z1).
body(r_fr2_2,fr7_r1).
body(r_fr2_2,fr13_z1).
body(r_fr2_2,fr23_y2).
head(r_fr2_3,fr2_q2).
body(r_fr2_3,fr13_f2).
body(r_fr2_3,fr14_c1).
head(r_fr2_4,fr2_q2).
body(r_fr2_4,fr20_b2).
body(r_fr2_4,fr4_s2).
body(r_fr2_4,fr23_y2).
head(r_fr2_5,fr23_y2).
body(r_fr2_5,fr13_f2).
body(r_fr2_5,fr23_v1).
body(r_fr2_5,fr17_t1).
head(r_fr2_6,fr23_y2).
body(r_fr2_6,fr13_f2).
body(r_fr2_6,fr20_b2).
body(r_fr2_6,fr4_s2).
head(r_fr2_7,fr23_y2).
body(r_fr2_7,fr13_z1).
body(r_fr2_7,fr13_z1).
body(r_fr2_7,fr23_y2).
head(r_fr2_8,fr23_y2).
body(r_fr2_8,fr13_z1).
body(r_fr2_8,fr17_t1).
head(r_fr2_9,fr23_y2).
body(r_fr2_9,fr13_f2).
body(r_fr2_9,fr23_v1).
body(r_fr2_9,fr23_y2).
head(r_fr2_10,fr13_z1).
body(r_fr2_10,fr13_f2).
head(r_fr2_11,fr13_z1).
body(r_fr2_11,fr23_v1).
head(r_fr2_12,fr12_t1).
body(r_fr2_12,fr14_d2).
body(r_fr2_12,fr4_s2).
body(r_fr2_12,fr23_y2).
head(r_fr2_13,fr12_t1).
body(r_fr2_13,fr20_b2).
head(r_fr2_14,fr23_v1).
body(r_fr2_14,fr4_s2).
head(r_fr2_15,fr23_v1).
body(r_fr2_15,fr2_q2).
head(r_fr2_16,fr23_v1).
head(r_fr2_17,fr23_y2).
body(r_fr2_17,fr13_f2).
head(r_fr2_18,fr23_y2).
body(r_fr2_18,fr22_p2).
head(r_fr2_19,fr22_p2).
body(r_fr2_19,fr2_q2).
body(r_fr2_19,fr17_t1).
head(r_fr2_20,fr22_p2).
body(r_fr2_20,fr13_f2).
body(r_fr2_20,fr17_c2).
head(r_fr2_21,fr22_p2).
body(r_fr2_21,fr14_d2).
body(r_fr2_21,fr14_c1).
body(r_fr2_21,fr17_e2).
head(r_fr2_22,fr2_q2).
body(r_fr2_22,fr13_f2).
body(r_fr2_22,fr20_b2).
head(r_fr2_23,fr2_q2).
body(r_fr2_23,fr7_r1).
head(r_fr2_24,fr7_r1).
body(r_fr2_24,fr13_f2).
body(r_fr2_24,fr13_z1).
body(r_fr2_24,fr17_t1).
head(r_fr2_25,fr7_r1).
body(r_fr2_25,fr4_s2).
head(r_fr2_26,fr7_r1).
body(r_fr2_26,fr4_s2).
body(r_fr2_26,fr17_t1).
head(r_fr2_27,fr4_s2).
body(r_fr2_27,fr13_z1).
body(r_fr2_27,fr17_t1).
head(r_fr2_28,fr4_s2).
body(r_fr2_28,fr13_f2).
head(r_fr2_29,fr4_s2).
body(r_fr2_29,fr13_z1).

assumption(fr3_a1).
assumption(fr13_f2).
assumption(fr13_a2).
assumption(fr3_d1).
assumption(fr13_e1).
assumption(fr13_f2).
assumption(fr3_a2).
assumption(fr3_b2).
assumption(fr7_a3).
assumption(fr17_a2).
assumption(fr3_e2).
assumption(fr3_f2).
assumption(fr3_a3).
assumption(fr3_b3).
assumption(fr3_c3).
contrary(fr3_a1,fr23_y2).
contrary(fr3_a2,fr8_u1).
contrary(fr3_a3,fr8_u1).
contrary(fr13_f2,fr22_p2).
contrary(fr3_b2,fr3_r3).
contrary(fr3_b3,fr23_y2).
contrary(fr13_a2,fr3_a3).
contrary(fr7_a3,fr15_y1).
contrary(fr3_c3,fr2_q2).
contrary(fr3_d1,fr3_u2).
contrary(fr17_a2,fr13_z1).
contrary(fr13_e1,fr13_z1).
contrary(fr3_e2,fr3_u2).
contrary(fr13_f2,fr3_r3).
contrary(fr3_f2,fr22_p2).
head(r_fr3_0,fr3_x2).
body(r_fr3_0,fr3_d1).
head(r_fr3_1,fr3_x2).
body(r_fr3_1,fr13_f2).
body(r_fr3_1,fr3_b2).
body(r_fr3_1,fr3_e2).
body(r_fr3_1,fr16_s3).
body(r_fr3_1,fr22_p2).
body(r_fr3_1,fr23_y2).
head(r_fr3_2,fr3_x2).
body(r_fr3_2,fr20_r3).
body(r_fr3_2,fr3_v2).
head(r_fr3_3,fr3_x2).
head(r_fr3_4,fr3_x2).
body(r_fr3_4,fr3_a3).
body(r_fr3_4,fr13_f2).
body(r_fr3_4,fr3_q1).
head(r_fr3_5,fr3_x2).
body(r_fr3_5,fr3_a2).
body(r_fr3_5,fr3_b2).
body(r_fr3_5,fr17_a2).
body(r_fr3_5,fr13_e1).
body(r_fr3_5,fr3_e2).
body(r_fr3_5,fr25_q2).
head(r_fr3_6,fr3_x2).
body(r_fr3_6,fr3_a1).
body(r_fr3_6,fr13_e1).
body(r_fr3_6,fr23_y2).
head(r_fr3_7,fr3_x2).
body(r_fr3_7,fr3_a2).
body(r_fr3_7,fr3_c3).
body(r_fr3_7,fr23_y2).
body(r_fr3_7,fr20_r3).
head(r_fr3_8,fr3_x2).
body(r_fr3_8,fr13_e1).
body(r_fr3_8,fr3_q3).
body(r_fr3_8,fr16_u3).
head(r_fr3_9,fr3_x2).
body(r_fr3_9,fr13_a2).
body(r_fr3_9,fr3_d1).
body(r_fr3_9,fr3_e2).
body(r_fr3_9,fr15_y1).
head(r_fr3_10,fr3_x2).
body(r_fr3_10,fr3_b3).
body(r_fr3_10,fr13_f2).
head(r_fr3_11,fr3_x2).
body(r_fr3_11,fr13_f2).
body(r_fr3_11,fr3_q1).
body(r_fr3_11,fr25_q2).
head(r_fr3_12,fr3_x2).
body(r_fr3_12,fr25_q2).
head(r_fr3_13,fr3_x2).
body(r_fr3_13,fr3_a1).
body(r_fr3_13,fr3_d1).
body(r_fr3_13,fr3_e2).
head(r_fr3_14,fr3_x2).
body(r_fr3_14,fr16_u3).
head(r_fr3_15,fr3_x2).
body(r_fr3_15,fr22_p2).
body(r_fr3_15,fr16_u3).
head(r_fr3_16,fr3_x2).
body(r_fr3_16,fr3_d1).
body(r_fr3_16,fr3_e2).
body(r_fr3_16,fr16_s3).
body(r_fr3_16,fr23_y2).
body(r_fr3_16,fr3_q3).
body(r_fr3_16,fr25_q2).
head(r_fr3_17,fr3_x2).
body(r_fr3_17,fr13_a2).
head(r_fr3_18,fr3_x2).
body(r_fr3_18,fr3_e2).
body(r_fr3_18,fr12_x3).
head(r_fr3_19,fr3_x2).
body(r_fr3_19,fr3_a1).
body(r_fr3_19,fr3_e2).
body(r_fr3_19,fr3_v2).
head(r_fr3_20,fr3_x2).
body(r_fr3_20,fr3_b3).
body(r_fr3_20,fr13_e1).
body(r_fr3_20,fr8_u1).
head(r_fr3_21,fr23_y2).
body(r_fr3_21,fr23_y2).
body(r_fr3_21,fr3_u2).
body(r_fr3_21,fr16_u3).
head(r_fr3_22,fr23_y2).
body(r_fr3_22,fr3_a3).
body(r_fr3_22,fr13_a2).
body(r_fr3_22,fr3_d1).
body(r_fr3_22,fr23_y2).
head(r_fr3_23,fr23_y2).
body(r_fr3_23,fr2_q2).
body(r_fr3_23,fr3_v2).
body(r_fr3_23,fr16_u3).
body(r_fr3_23,fr22_p2).
head(r_fr3_24,fr23_y2).
body(r_fr3_24,fr13_a2).
body(r_fr3_24,fr3_d1).
body(r_fr3_24,fr17_a2).
body(r_fr3_24,fr13_e1).
head(r_fr3_25,fr23_y2).
body(r_fr3_25,fr3_a1).
body(r_fr3_25,fr3_a3).
body(r_fr3_25,fr3_e2).
body(r_fr3_25,fr25_q2).
body(r_fr3_25,fr15_y1).
body(r_fr3_25,fr3_z2).
head(r_fr3_26,fr23_y2).
body(r_fr3_26,fr20_r3).
head(r_fr3_27,fr23_y2).
body(r_fr3_27,fr13_f2).
body(r_fr3_27,fr13_a2).
body(r_fr3_27,fr7_a3).
body(r_fr3_27,fr3_c3).
body(r_fr3_27,fr3_d1).
head(r_fr3_28,fr23_y2).
body(r_fr3_28,fr3_a2).
body(r_fr3_28,fr13_e1).
body(r_fr3_28,fr3_f2).
head(r_fr3_29,fr23_y2).
body(r_fr3_29,fr3_a1).
body(r_fr3_29,fr3_b2).
body(r_fr3_29,fr3_c3).
body(r_fr3_29,fr23_y2).
head(r_fr3_30,fr23_y2).
body(r_fr3_30,fr3_r3).
head(r_fr3_31,fr23_y2).
head(r_fr3_32,fr23_y2).
body(r_fr3_32,fr13_f2).
body(r_fr3_32,fr3_d1).
body(r_fr3_32,fr3_v2).
head(r_fr3_33,fr23_y2).
body(r_fr3_33,fr3_b3).
head(r_fr3_34,fr23_y2).
body(r_fr3_34,fr3_a2).
body(r_fr3_34,fr3_d1).
body(r_fr3_34,fr23_y2).
body(r_fr3_34,fr3_z2).
head(r_fr3_35,fr23_y2).
body(r_fr3_35,fr3_b3).
body(r_fr3_35,fr3_c3).
body(r_fr3_35,fr13_e1).
body(r_fr3_35,fr3_f2).
body(r_fr3_35,fr3_u2).
head(r_fr3_36,fr23_y2).
body(r_fr3_36,fr3_a2).
body(r_fr3_36,fr3_b3).
body(r_fr3_36,fr13_a2).
head(r_fr3_37,fr23_y2).
body(r_fr3_37,fr3_a1).
body(r_fr3_37,fr13_f2).
body(r_fr3_37,fr7_a3).
body(r_fr3_37,fr3_d1).
body(r_fr3_37,fr3_f2).
body(r_fr3_37,fr3_v2).
head(r_fr3_38,fr23_y2).
body(r_fr3_38,fr3_a2).
body(r_fr3_38,fr3_a3).
body(r_fr3_38,fr13_a2).
body(r_fr3_38,fr3_c3).
body(r_fr3_38,fr3_d1).
head(r_fr3_39,fr23_y2).
body(r_fr3_39,fr3_b3).
body(r_fr3_39,fr13_f2).
head(r_fr3_40,fr23_y2).
body(r_fr3_40,fr13_a2).
body(r_fr3_40,fr20_r3).
head(r_fr3_41,fr13_z1).
body(r_fr3_41,fr3_a3).
body(r_fr3_41,fr3_b2).
body(r_fr3_41,fr3_c3).
body(r_fr3_41,fr13_f2).
body(r_fr3_41,fr20_r3).
head(r_fr3_42,fr13_z1).
body(r_fr3_42,fr3_r3).
body(r_fr3_42,fr3_u2).
head(r_fr3_43,fr13_z1).
body(r_fr3_43,fr3_e2).
body(r_fr3_43,fr13_f2).
body(r_fr3_43,fr25_q2).
body(r_fr3_43,fr3_v2).
head(r_fr3_44,fr13_z1).
body(r_fr3_44,fr3_b3).
body(r_fr3_44,fr23_y2).
head(r_fr3_45,fr13_z1).
body(r_fr3_45,fr23_y2).
body(r_fr3_45,fr2_q2).
body(r_fr3_45,fr23_y2).
body(r_fr3_45,fr22_p2).
head(r_fr3_46,fr13_z1).
body(r_fr3_46,fr3_a1).
body(r_fr3_46,fr22_p2).
body(r_fr3_46,fr16_u3).
body(r_fr3_46,fr15_y1).
head(r_fr3_47,fr13_z1).
body(r_fr3_47,fr23_y2).
body(r_fr3_47,fr3_q3).
body(r_fr3_47,fr2_q2).
head(r_fr3_48,fr13_z1).
body(r_fr3_48,fr23_y2).
body(r_fr3_48,fr3_r3).
body(r_fr3_48,fr20_r3).
body(r_fr3_48,fr3_u2).
body(r_fr3_48,fr23_y2).
body(r_fr3_48,fr3_z2).
head(r_fr3_49,fr13_z1).
body(r_fr3_49,fr13_e1).
body(r_fr3_49,fr13_f2).
body(r_fr3_49,fr16_u3).
head(r_fr3_50,fr13_z1).
body(r_fr3_50,fr3_a1).
body(r_fr3_50,fr13_f2).
body(r_fr3_50,fr13_a2).
body(r_fr3_50,fr13_f2).
body(r_fr3_50,fr12_x3).
head(r_fr3_51,fr13_z1).
body(r_fr3_51,fr3_r3).
body(r_fr3_51,fr2_q2).
head(r_fr3_52,fr13_z1).
body(r_fr3_52,fr13_f2).
body(r_fr3_52,fr3_b2).
body(r_fr3_52,fr7_a3).
body(r_fr3_52,fr3_e2).
body(r_fr3_52,fr12_x3).
head(r_fr3_53,fr13_z1).
body(r_fr3_53,fr3_f2).
body(r_fr3_53,fr13_z1).
body(r_fr3_53,fr12_x3).
body(r_fr3_53,fr2_q2).
head(r_fr3_54,fr13_z1).
body(r_fr3_54,fr3_f2).
body(r_fr3_54,fr16_s3).
body(r_fr3_54,fr8_u1).
body(r_fr3_54,fr3_u2).
body(r_fr3_54,fr2_q2).
head(r_fr3_55,fr13_z1).
body(r_fr3_55,fr3_a2).
body(r_fr3_55,fr3_v2).
body(r_fr3_55,fr15_y1).
head(r_fr3_56,fr13_z1).
body(r_fr3_56,fr13_e1).
body(r_fr3_56,fr3_f2).
body(r_fr3_56,fr22_p2).
head(r_fr3_57,fr13_z1).
body(r_fr3_57,fr3_b3).
body(r_fr3_57,fr13_e1).
body(r_fr3_57,fr8_u1).
body(r_fr3_57,fr3_q3).
body(r_fr3_57,fr22_p2).
body(r_fr3_57,fr15_y1).
head(r_fr3_58,fr13_z1).
body(r_fr3_58,fr3_a1).
body(r_fr3_58,fr23_y2).
head(r_fr3_59,fr13_z1).
body(r_fr3_59,fr3_b3).
body(r_fr3_59,fr3_q3).
head(r_fr3_60,fr13_z1).
body(r_fr3_60,fr3_a1).
body(r_fr3_60,fr3_a3).
body(r_fr3_60,fr13_f2).
body(r_fr3_60,fr7_a3).
head(r_fr3_61,fr13_z1).
head(r_fr3_62,fr13_z1).
body(r_fr3_62,fr23_y2).
head(r_fr3_63,fr13_z1).
body(r_fr3_63,fr3_a1).
body(r_fr3_63,fr3_e2).
body(r_fr3_63,fr3_f2).
body(r_fr3_63,fr3_q3).
body(r_fr3_63,fr22_p2).
body(r_fr3_63,fr3_z2).
head(r_fr3_64,fr23_y2).
body(r_fr3_64,fr22_p2).
head(r_fr3_65,fr23_y2).
body(r_fr3_65,fr3_a1).
body(r_fr3_65,fr13_f2).
body(r_fr3_65,fr7_a3).
body(r_fr3_65,fr13_f2).
head(r_fr3_66,fr23_y2).
body(r_fr3_66,fr3_a2).
body(r_fr3_66,fr23_y2).
head(r_fr3_67,fr23_y2).
body(r_fr3_67,fr3_a3).
body(r_fr3_67,fr7_a3).
body(r_fr3_67,fr13_f2).
body(r_fr3_67,fr3_q3).
head(r_fr3_68,fr23_y2).
body(r_fr3_68,fr3_a2).
body(r_fr3_68,fr3_a3).
body(r_fr3_68,fr3_b3).
body(r_fr3_68,fr3_e2).
body(r_fr3_68,fr15_y1).
head(r_fr3_69,fr23_y2).
body(r_fr3_69,fr3_a1).
body(r_fr3_69,fr3_b2).
body(r_fr3_69,fr3_b3).
head(r_fr3_70,fr23_y2).
body(r_fr3_70,fr3_a1).
body(r_fr3_70,fr13_f2).
body(r_fr3_70,fr13_z1).
body(r_fr3_70,fr3_r3).
body(r_fr3_70,fr23_y2).
body(r_fr3_70,fr22_p2).
head(r_fr3_71,fr23_y2).
body(r_fr3_71,fr3_d1).
body(r_fr3_71,fr17_a2).
body(r_fr3_71,fr13_e1).
body(r_fr3_71,fr3_r3).
body(r_fr3_71,fr16_u3).
head(r_fr3_72,fr23_y2).
body(r_fr3_72,fr3_q3).
head(r_fr3_73,fr23_y2).
body(r_fr3_73,fr3_a1).
body(r_fr3_73,fr13_f2).
body(r_fr3_73,fr13_f2).
body(r_fr3_73,fr25_q2).
body(r_fr3_73,fr3_v2).
head(r_fr3_74,fr23_y2).
head(r_fr3_75,fr23_y2).
body(r_fr3_75,fr13_f2).
head(r_fr3_76,fr23_y2).
body(r_fr3_76,fr3_a1).
body(r_fr3_76,fr23_y2).
body(r_fr3_76,fr3_q1).
body(r_fr3_76,fr12_x3).
body(r_fr3_76,fr3_v2).
head(r_fr3_77,fr23_y2).
body(r_fr3_77,fr3_a1).
head(r_fr3_78,fr23_y2).
body(r_fr3_78,fr3_a1).
body(r_fr3_78,fr17_a2).
body(r_fr3_78,fr13_f2).
body(r_fr3_78,fr3_f2).
head(r_fr3_79,fr23_y2).
body(r_fr3_79,fr3_a2).
body(r_fr3_79,fr13_f2).
body(r_fr3_79,fr13_f2).
body(r_fr3_79,fr12_x3).
head(r_fr3_80,fr23_y2).
body(r_fr3_80,fr3_e2).
body(r_fr3_80,fr3_f2).
head(r_fr3_81,fr23_y2).
body(r_fr3_81,fr3_b2).
body(r_fr3_81,fr3_q1).
body(r_fr3_81,fr25_q2).
body(r_fr3_81,fr3_r3).
body(r_fr3_81,fr3_u2).
body(r_fr3_81,fr16_u3).
head(r_fr3_82,fr23_y2).
body(r_fr3_82,fr3_u2).
head(r_fr3_83,fr23_y2).
body(r_fr3_83,fr3_a2).
body(r_fr3_83,fr3_b2).
body(r_fr3_83,fr7_a3).
body(r_fr3_83,fr3_f2).
body(r_fr3_83,fr3_r3).
body(r_fr3_83,fr22_p2).
head(r_fr3_84,fr23_y2).
body(r_fr3_84,fr3_e2).
body(r_fr3_84,fr22_p2).
body(r_fr3_84,fr2_q2).
head(r_fr3_85,fr23_y2).
body(r_fr3_85,fr12_x3).
head(r_fr3_86,fr23_y2).
body(r_fr3_86,fr23_y2).
head(r_fr3_87,fr20_r3).
body(r_fr3_87,fr13_a2).
body(r_fr3_87,fr17_a2).
body(r_fr3_87,fr3_q1).
body(r_fr3_87,fr8_u1).
body(r_fr3_87,fr22_p2).
body(r_fr3_87,fr12_x3).
head(r_fr3_88,fr20_r3).
body(r_fr3_88,fr3_a1).
body(r_fr3_88,fr13_f2).
body(r_fr3_88,fr3_b3).
body(r_fr3_88,fr3_c3).
head(r_fr3_89,fr20_r3).
body(r_fr3_89,fr13_e1).
head(r_fr3_90,fr20_r3).
body(r_fr3_90,fr7_a3).
body(r_fr3_90,fr3_v2).
body(r_fr3_90,fr15_y1).
head(r_fr3_91,fr20_r3).
body(r_fr3_91,fr23_y2).
body(r_fr3_91,fr3_q1).
body(r_fr3_91,fr8_u1).
body(r_fr3_91,fr13_z1).
body(r_fr3_91,fr25_q2).
body(r_fr3_91,fr23_y2).
head(r_fr3_92,fr20_r3).
body(r_fr3_92,fr3_a1).
body(r_fr3_92,fr13_e1).
body(r_fr3_92,fr3_f2).
body(r_fr3_92,fr22_p2).
body(r_fr3_92,fr15_y1).
head(r_fr3_93,fr20_r3).
body(r_fr3_93,fr3_a2).
body(r_fr3_93,fr3_a3).
head(r_fr3_94,fr20_r3).
head(r_fr3_95,fr20_r3).
body(r_fr3_95,fr22_p2).
head(r_fr3_96,fr20_r3).
body(r_fr3_96,fr7_a3).
body(r_fr3_96,fr3_d1).
body(r_fr3_96,fr17_a2).
body(r_fr3_96,fr13_e1).
head(r_fr3_97,fr20_r3).
body(r_fr3_97,fr7_a3).
body(r_fr3_97,fr23_y2).
body(r_fr3_97,fr25_q2).
body(r_fr3_97,fr3_z2).
head(r_fr3_98,fr20_r3).
body(r_fr3_98,fr3_c3).
head(r_fr3_99,fr20_r3).
body(r_fr3_99,fr3_c3).
body(r_fr3_99,fr3_d1).
body(r_fr3_99,fr16_u3).
body(r_fr3_99,fr23_y2).
head(r_fr3_100,fr20_r3).
body(r_fr3_100,fr3_a1).
body(r_fr3_100,fr3_b2).
body(r_fr3_100,fr3_f2).
body(r_fr3_100,fr23_y2).
head(r_fr3_101,fr20_r3).
body(r_fr3_101,fr3_b2).
body(r_fr3_101,fr3_f2).
head(r_fr3_102,fr20_r3).
body(r_fr3_102,fr3_c3).
body(r_fr3_102,fr3_f2).
body(r_fr3_102,fr25_q2).
head(r_fr3_103,fr20_r3).
body(r_fr3_103,fr3_b2).
body(r_fr3_103,fr13_a2).
head(r_fr3_104,fr20_r3).
body(r_fr3_104,fr3_q3).
body(r_fr3_104,fr13_z1).
head(r_fr3_105,fr20_r3).
body(r_fr3_105,fr3_a1).
body(r_fr3_105,fr3_e2).
body(r_fr3_105,fr3_f2).
body(r_fr3_105,fr25_q2).
body(r_fr3_105,fr23_y2).
head(r_fr3_106,fr20_r3).
body(r_fr3_106,fr13_e1).
body(r_fr3_106,fr23_y2).
body(r_fr3_106,fr23_y2).
body(r_fr3_106,fr3_q1).
body(r_fr3_106,fr8_u1).
body(r_fr3_106,fr13_z1).
head(r_fr3_107,fr3_r3).
body(r_fr3_107,fr3_b3).
body(r_fr3_107,fr16_s3).
body(r_fr3_107,fr23_y2).
body(r_fr3_107,fr8_u1).
body(r_fr3_107,fr13_z1).
body(r_fr3_107,fr22_p2).
head(r_fr3_108,fr3_r3).
body(r_fr3_108,fr23_y2).
head(r_fr3_109,fr3_r3).
body(r_fr3_109,fr3_a1).
body(r_fr3_109,fr13_a2).
head(r_fr3_110,fr3_r3).
body(r_fr3_110,fr3_b2).
body(r_fr3_110,fr13_a2).
body(r_fr3_110,fr13_e1).
body(r_fr3_110,fr3_e2).
body(r_fr3_110,fr13_f2).
body(r_fr3_110,fr3_z2).
head(r_fr3_111,fr3_r3).
body(r_fr3_111,fr3_u2).
head(r_fr3_112,fr3_r3).
body(r_fr3_112,fr8_u1).
body(r_fr3_112,fr2_q2).
body(r_fr3_112,fr15_y1).
head(r_fr3_113,fr3_r3).
body(r_fr3_113,fr3_a3).
body(r_fr3_113,fr3_f2).
head(r_fr3_114,fr3_r3).
body(r_fr3_114,fr13_f2).
body(r_fr3_114,fr3_b3).
body(r_fr3_114,fr3_z2).
head(r_fr3_115,fr3_r3).
body(r_fr3_115,fr3_a1).
body(r_fr3_115,fr3_a3).
body(r_fr3_115,fr13_a2).
body(r_fr3_115,fr22_p2).
head(r_fr3_116,fr3_r3).
body(r_fr3_116,fr3_b2).
body(r_fr3_116,fr7_a3).
head(r_fr3_117,fr3_r3).
body(r_fr3_117,fr3_a1).
body(r_fr3_117,fr13_e1).
head(r_fr3_118,fr3_r3).
head(r_fr3_119,fr3_r3).
body(r_fr3_119,fr3_b3).
body(r_fr3_119,fr23_y2).
body(r_fr3_119,fr3_u2).
body(r_fr3_119,fr22_p2).
head(r_fr3_120,fr3_r3).
body(r_fr3_120,fr3_d1).
head(r_fr3_121,fr3_r3).
body(r_fr3_121,fr3_a2).
body(r_fr3_121,fr3_c3).
body(r_fr3_121,fr3_e2).
body(r_fr3_121,fr3_q1).
body(r_fr3_121,fr15_y1).
head(r_fr3_122,fr3_r3).
body(r_fr3_122,fr13_f2).
body(r_fr3_122,fr3_c3).
body(r_fr3_122,fr3_f2).
body(r_fr3_122,fr8_u1).
body(r_fr3_122,fr13_z1).
body(r_fr3_122,fr12_x3).
head(r_fr3_123,fr3_r3).
body(r_fr3_123,fr3_d1).
body(r_fr3_123,fr3_q3).
head(r_fr3_124,fr3_r3).
body(r_fr3_124,fr13_f2).
body(r_fr3_124,fr16_s3).
body(r_fr3_124,fr8_u1).
body(r_fr3_124,fr3_u2).
head(r_fr3_125,fr3_r3).
body(r_fr3_125,fr15_y1).
head(r_fr3_126,fr3_r3).
body(r_fr3_126,fr13_f2).
body(r_fr3_126,fr3_v2).
head(r_fr3_127,fr3_r3).
body(r_fr3_127,fr3_a1).
body(r_fr3_127,fr3_b3).
body(r_fr3_127,fr3_c3).
body(r_fr3_127,fr13_f2).
body(r_fr3_127,fr3_q3).
body(r_fr3_127,fr3_z2).
head(r_fr3_128,fr3_q1).
body(r_fr3_128,fr3_q3).
head(r_fr3_129,fr3_q1).
body(r_fr3_129,fr3_d1).
body(r_fr3_129,fr17_a2).
body(r_fr3_129,fr3_f2).
head(r_fr3_130,fr3_q1).
body(r_fr3_130,fr13_a2).
body(r_fr3_130,fr3_e2).
body(r_fr3_130,fr13_z1).
body(r_fr3_130,fr3_z2).
head(r_fr3_131,fr3_q1).
body(r_fr3_131,fr3_a1).
body(r_fr3_131,fr3_a3).
body(r_fr3_131,fr3_b2).
body(r_fr3_131,fr3_e2).
head(r_fr3_132,fr3_q1).
body(r_fr3_132,fr3_a1).
body(r_fr3_132,fr16_s3).
body(r_fr3_132,fr3_q3).
body(r_fr3_132,fr3_u2).
body(r_fr3_132,fr23_y2).
head(r_fr3_133,fr3_q1).
body(r_fr3_133,fr3_a3).
body(r_fr3_133,fr3_b3).
body(r_fr3_133,fr3_f2).
head(r_fr3_134,fr3_q1).
body(r_fr3_134,fr3_a3).
body(r_fr3_134,fr25_q2).
head(r_fr3_135,fr3_q1).
body(r_fr3_135,fr13_a2).
body(r_fr3_135,fr13_f2).
body(r_fr3_135,fr23_y2).
body(r_fr3_135,fr3_u2).
head(r_fr3_136,fr3_q1).
body(r_fr3_136,fr3_a3).
body(r_fr3_136,fr2_q2).
head(r_fr3_137,fr3_q1).
body(r_fr3_137,fr3_a1).
body(r_fr3_137,fr13_a2).
body(r_fr3_137,fr7_a3).
body(r_fr3_137,fr3_f2).
body(r_fr3_137,fr12_x3).
body(r_fr3_137,fr22_p2).
head(r_fr3_138,fr3_q1).
body(r_fr3_138,fr3_a2).
body(r_fr3_138,fr3_v2).
body(r_fr3_138,fr23_y2).
head(r_fr3_139,fr3_q1).
body(r_fr3_139,fr22_p2).
body(r_fr3_139,fr12_x3).
head(r_fr3_140,fr3_q1).
body(r_fr3_140,fr13_f2).
body(r_fr3_140,fr3_c3).
body(r_fr3_140,fr17_a2).
body(r_fr3_140,fr3_e2).
body(r_fr3_140,fr3_f2).
head(r_fr3_141,fr3_q1).
body(r_fr3_141,fr13_f2).
head(r_fr3_142,fr3_q1).
body(r_fr3_142,fr8_u1).
body(r_fr3_142,fr3_u2).
body(r_fr3_142,fr23_y2).
body(r_fr3_142,fr15_y1).
head(r_fr3_143,fr3_q1).
body(r_fr3_143,fr3_f2).
head(r_fr3_144,fr3_q1).
body(r_fr3_144,fr8_u1).
body(r_fr3_144,fr3_q3).
body(r_fr3_144,fr22_p2).
body(r_fr3_144,fr23_y2).
body(r_fr3_144,fr3_z2).
head(r_fr3_145,fr3_q1).
body(r_fr3_145,fr3_u2).
head(r_fr3_146,fr3_q1).
body(r_fr3_146,fr3_a3).
body(r_fr3_146,fr3_c3).
body(r_fr3_146,fr13_f2).
body(r_fr3_146,fr3_f2).
head(r_fr3_147,fr3_q1).
head(r_fr3_148,fr3_q1).
body(r_fr3_148,fr3_a1).
body(r_fr3_148,fr13_e1).
body(r_fr3_148,fr23_y2).
body(r_fr3_148,fr3_q3).
head(r_fr3_149,fr16_u3).
body(r_fr3_149,fr25_q2).
head(r_fr3_150,fr16_u3).
body(r_fr3_150,fr13_f2).
body(r_fr3_150,fr23_y2).
body(r_fr3_150,fr23_y2).
head(r_fr3_151,fr16_u3).
body(r_fr3_151,fr3_a3).
body(r_fr3_151,fr7_a3).
body(r_fr3_151,fr3_v2).
head(r_fr3_152,fr16_u3).
body(r_fr3_152,fr3_a1).
body(r_fr3_152,fr3_a3).
body(r_fr3_152,fr13_f2).
body(r_fr3_152,fr3_d1).
body(r_fr3_152,fr3_f2).
head(r_fr3_153,fr16_u3).
body(r_fr3_153,fr3_a2).
body(r_fr3_153,fr3_a3).
body(r_fr3_153,fr3_b2).
body(r_fr3_153,fr3_d1).
body(r_fr3_153,fr3_f2).
head(r_fr3_154,fr16_u3).
body(r_fr3_154,fr3_a2).
body(r_fr3_154,fr3_v2).
body(r_fr3_154,fr3_z2).
head(r_fr3_155,fr16_u3).
head(r_fr3_156,fr16_u3).
body(r_fr3_156,fr8_u1).
body(r_fr3_156,fr3_u2).
body(r_fr3_156,fr15_y1).
head(r_fr3_157,fr16_u3).
body(r_fr3_157,fr16_s3).
body(r_fr3_157,fr23_y2).
body(r_fr3_157,fr22_p2).
body(r_fr3_157,fr22_p2).
body(r_fr3_157,fr3_v2).
body(r_fr3_157,fr15_y1).
head(r_fr3_158,fr16_u3).
body(r_fr3_158,fr3_a2).
body(r_fr3_158,fr7_a3).
head(r_fr3_159,fr16_u3).
body(r_fr3_159,fr3_a2).
body(r_fr3_159,fr3_c3).
body(r_fr3_159,fr3_d1).
body(r_fr3_159,fr13_e1).
body(r_fr3_159,fr3_u2).
head(r_fr3_160,fr16_u3).
body(r_fr3_160,fr23_y2).
body(r_fr3_160,fr3_q3).
body(r_fr3_160,fr25_q2).
body(r_fr3_160,fr2_q2).
body(r_fr3_160,fr3_v2).
head(r_fr3_161,fr16_u3).
body(r_fr3_161,fr3_b3).
body(r_fr3_161,fr7_a3).
body(r_fr3_161,fr13_e1).
head(r_fr3_162,fr16_u3).
body(r_fr3_162,fr3_a1).
head(r_fr3_163,fr16_u3).
body(r_fr3_163,fr3_a1).
body(r_fr3_163,fr3_b3).
body(r_fr3_163,fr17_a2).
body(r_fr3_163,fr13_e1).
body(r_fr3_163,fr23_y2).
body(r_fr3_163,fr3_v2).
head(r_fr3_164,fr16_u3).
body(r_fr3_164,fr3_b3).
body(r_fr3_164,fr3_e2).
body(r_fr3_164,fr25_q2).
head(r_fr3_165,fr16_u3).
body(r_fr3_165,fr3_a2).
body(r_fr3_165,fr3_a3).
body(r_fr3_165,fr13_f2).
body(r_fr3_165,fr13_e1).
body(r_fr3_165,fr3_f2).
head(r_fr3_166,fr16_u3).
body(r_fr3_166,fr23_y2).
body(r_fr3_166,fr3_z2).
head(r_fr3_167,fr16_u3).
body(r_fr3_167,fr13_f2).
head(r_fr3_168,fr16_u3).
body(r_fr3_168,fr3_b2).
body(r_fr3_168,fr7_a3).
body(r_fr3_168,fr3_c3).
body(r_fr3_168,fr13_f2).
body(r_fr3_168,fr15_y1).
head(r_fr3_169,fr16_u3).
body(r_fr3_169,fr17_a2).
head(r_fr3_170,fr22_p2).
body(r_fr3_170,fr8_u1).
body(r_fr3_170,fr13_z1).
body(r_fr3_170,fr25_q2).
body(r_fr3_170,fr22_p2).
body(r_fr3_170,fr3_v2).
body(r_fr3_170,fr22_p2).
head(r_fr3_171,fr22_p2).
body(r_fr3_171,fr3_a3).
body(r_fr3_171,fr16_s3).
body(r_fr3_171,fr23_y2).
body(r_fr3_171,fr12_x3).
body(r_fr3_171,fr3_v2).
body(r_fr3_171,fr3_z2).
head(r_fr3_172,fr22_p2).
body(r_fr3_172,fr3_a1).
body(r_fr3_172,fr13_f2).
body(r_fr3_172,fr12_x3).
body(r_fr3_172,fr23_y2).
head(r_fr3_173,fr22_p2).
body(r_fr3_173,fr23_y2).
body(r_fr3_173,fr23_y2).
body(r_fr3_173,fr3_z2).
head(r_fr3_174,fr22_p2).
body(r_fr3_174,fr13_z1).
head(r_fr3_175,fr22_p2).
body(r_fr3_175,fr3_a1).
body(r_fr3_175,fr13_f2).
body(r_fr3_175,fr3_d1).
body(r_fr3_175,fr23_y2).
body(r_fr3_175,fr13_z1).
body(r_fr3_175,fr2_q2).
head(r_fr3_176,fr22_p2).
body(r_fr3_176,fr3_a3).
body(r_fr3_176,fr13_e1).
body(r_fr3_176,fr3_f2).
head(r_fr3_177,fr22_p2).
body(r_fr3_177,fr13_a2).
body(r_fr3_177,fr25_q2).
body(r_fr3_177,fr22_p2).
head(r_fr3_178,fr22_p2).
body(r_fr3_178,fr3_a1).
body(r_fr3_178,fr3_f2).
body(r_fr3_178,fr23_y2).
body(r_fr3_178,fr13_z1).
body(r_fr3_178,fr2_q2).
body(r_fr3_178,fr22_p2).
head(r_fr3_179,fr22_p2).
body(r_fr3_179,fr16_s3).
body(r_fr3_179,fr23_y2).
body(r_fr3_179,fr3_q3).
body(r_fr3_179,fr12_x3).
body(r_fr3_179,fr3_v2).
body(r_fr3_179,fr3_z2).
head(r_fr3_180,fr22_p2).
body(r_fr3_180,fr17_a2).
body(r_fr3_180,fr3_e2).
body(r_fr3_180,fr13_f2).
body(r_fr3_180,fr3_u2).
head(r_fr3_181,fr22_p2).
body(r_fr3_181,fr13_e1).
head(r_fr3_182,fr22_p2).
body(r_fr3_182,fr3_b2).
body(r_fr3_182,fr3_c3).
body(r_fr3_182,fr23_y2).
body(r_fr3_182,fr2_q2).
head(r_fr3_183,fr22_p2).
body(r_fr3_183,fr2_q2).
head(r_fr3_184,fr22_p2).
body(r_fr3_184,fr3_a1).
body(r_fr3_184,fr3_c3).
body(r_fr3_184,fr3_e2).
head(r_fr3_185,fr22_p2).
body(r_fr3_185,fr3_b2).
body(r_fr3_185,fr3_b3).
body(r_fr3_185,fr17_a2).
body(r_fr3_185,fr3_f2).
head(r_fr3_186,fr22_p2).
body(r_fr3_186,fr3_a2).
body(r_fr3_186,fr12_x3).
head(r_fr3_187,fr22_p2).
body(r_fr3_187,fr3_a2).
head(r_fr3_188,fr22_p2).
body(r_fr3_188,fr13_f2).
head(r_fr3_189,fr22_p2).
body(r_fr3_189,fr13_a2).
body(r_fr3_189,fr3_d1).
body(r_fr3_189,fr23_y2).
head(r_fr3_190,fr22_p2).
body(r_fr3_190,fr23_y2).
body(r_fr3_190,fr25_q2).
body(r_fr3_190,fr3_v2).
body(r_fr3_190,fr3_z2).
head(r_fr3_191,fr22_p2).
body(r_fr3_191,fr22_p2).
body(r_fr3_191,fr15_y1).
head(r_fr3_192,fr22_p2).
head(r_fr3_193,fr3_v2).
body(r_fr3_193,fr13_f2).
body(r_fr3_193,fr3_b3).
body(r_fr3_193,fr3_c3).
body(r_fr3_193,fr17_a2).
body(r_fr3_193,fr3_f2).
body(r_fr3_193,fr2_q2).
head(r_fr3_194,fr3_v2).
body(r_fr3_194,fr3_a3).
body(r_fr3_194,fr13_f2).
body(r_fr3_194,fr23_y2).
body(r_fr3_194,fr23_y2).
body(r_fr3_194,fr13_z1).
head(r_fr3_195,fr3_v2).
body(r_fr3_195,fr7_a3).
body(r_fr3_195,fr3_c3).
body(r_fr3_195,fr13_z1).
head(r_fr3_196,fr3_v2).
body(r_fr3_196,fr3_a1).
body(r_fr3_196,fr13_a2).
head(r_fr3_197,fr3_v2).
body(r_fr3_197,fr3_a2).
body(r_fr3_197,fr3_a3).
body(r_fr3_197,fr3_c3).
body(r_fr3_197,fr17_a2).
body(r_fr3_197,fr13_e1).
body(r_fr3_197,fr13_f2).
head(r_fr3_198,fr3_v2).
body(r_fr3_198,fr8_u1).
body(r_fr3_198,fr3_q3).
body(r_fr3_198,fr13_z1).
head(r_fr3_199,fr3_v2).
body(r_fr3_199,fr3_a2).
body(r_fr3_199,fr25_q2).
body(r_fr3_199,fr23_y2).
head(r_fr3_200,fr3_v2).
body(r_fr3_200,fr23_y2).
body(r_fr3_200,fr8_u1).
body(r_fr3_200,fr3_q3).
body(r_fr3_200,fr12_x3).
body(r_fr3_200,fr22_p2).
head(r_fr3_201,fr3_v2).
body(r_fr3_201,fr3_b3).
body(r_fr3_201,fr13_a2).
head(r_fr3_202,fr3_v2).
body(r_fr3_202,fr3_u2).
head(r_fr3_203,fr3_v2).
body(r_fr3_203,fr13_f2).
body(r_fr3_203,fr13_a2).
body(r_fr3_203,fr13_e1).
body(r_fr3_203,fr3_e2).
head(r_fr3_204,fr3_v2).
body(r_fr3_204,fr3_a1).
body(r_fr3_204,fr13_f2).
body(r_fr3_204,fr3_d1).
body(r_fr3_204,fr13_f2).
head(r_fr3_205,fr3_v2).
body(r_fr3_205,fr7_a3).
body(r_fr3_205,fr3_c3).
body(r_fr3_205,fr16_s3).
body(r_fr3_205,fr13_z1).
body(r_fr3_205,fr3_u2).
head(r_fr3_206,fr3_v2).
body(r_fr3_206,fr2_q2).
head(r_fr3_207,fr3_v2).
body(r_fr3_207,fr3_a1).
body(r_fr3_207,fr13_z1).
body(r_fr3_207,fr25_q2).
body(r_fr3_207,fr22_p2).
body(r_fr3_207,fr22_p2).
head(r_fr3_208,fr3_v2).
body(r_fr3_208,fr3_a1).
body(r_fr3_208,fr13_e1).
body(r_fr3_208,fr13_z1).
body(r_fr3_208,fr12_x3).
body(r_fr3_208,fr2_q2).
body(r_fr3_208,fr15_y1).
head(r_fr3_209,fr3_v2).
body(r_fr3_209,fr3_b3).
body(r_fr3_209,fr3_q3).
body(r_fr3_209,fr12_x3).
head(r_fr3_210,fr3_v2).
body(r_fr3_210,fr3_a1).
body(r_fr3_210,fr3_a2).
body(r_fr3_210,fr13_f2).
body(r_fr3_210,fr3_b2).
head(r_fr3_211,fr3_v2).
body(r_fr3_211,fr3_a2).
head(r_fr3_212,fr3_v2).
head(r_fr3_213,fr3_v2).
body(r_fr3_213,fr3_a2).
body(r_fr3_213,fr3_a3).
body(r_fr3_213,fr7_a3).
body(r_fr3_213,fr3_c3).
body(r_fr3_213,fr3_e2).
body(r_fr3_213,fr3_f2).
head(r_fr3_214,fr23_y2).
body(r_fr3_214,fr3_b3).
head(r_fr3_215,fr23_y2).
body(r_fr3_215,fr3_a2).
body(r_fr3_215,fr3_e2).
head(r_fr3_216,fr23_y2).
body(r_fr3_216,fr3_a2).
body(r_fr3_216,fr3_b2).
body(r_fr3_216,fr3_d1).
body(r_fr3_216,fr17_a2).
body(r_fr3_216,fr13_e1).
head(r_fr3_217,fr23_y2).
body(r_fr3_217,fr3_d1).
head(r_fr3_218,fr23_y2).
body(r_fr3_218,fr3_b2).
body(r_fr3_218,fr13_a2).
body(r_fr3_218,fr3_c3).
head(r_fr3_219,fr23_y2).
body(r_fr3_219,fr3_a1).
body(r_fr3_219,fr3_a2).
body(r_fr3_219,fr3_a3).
body(r_fr3_219,fr17_a2).
body(r_fr3_219,fr13_f2).
body(r_fr3_219,fr22_p2).
head(r_fr3_220,fr23_y2).
body(r_fr3_220,fr13_e1).
head(r_fr3_221,fr23_y2).
body(r_fr3_221,fr3_a2).
body(r_fr3_221,fr3_a3).
body(r_fr3_221,fr13_f2).
head(r_fr3_222,fr23_y2).
body(r_fr3_222,fr3_a1).
body(r_fr3_222,fr3_c3).
head(r_fr3_223,fr23_y2).
body(r_fr3_223,fr3_a3).
body(r_fr3_223,fr13_f2).
body(r_fr3_223,fr3_f2).
head(r_fr3_224,fr23_y2).
body(r_fr3_224,fr23_y2).
body(r_fr3_224,fr3_q3).
body(r_fr3_224,fr3_u2).
body(r_fr3_224,fr2_q2).
body(r_fr3_224,fr23_y2).
head(r_fr3_225,fr23_y2).
body(r_fr3_225,fr3_a1).
head(r_fr3_226,fr23_y2).
body(r_fr3_226,fr22_p2).
head(r_fr3_227,fr23_y2).
body(r_fr3_227,fr3_c3).
body(r_fr3_227,fr17_a2).
head(r_fr3_228,fr23_y2).
body(r_fr3_228,fr3_a1).
body(r_fr3_228,fr3_b3).
body(r_fr3_228,fr3_c3).
body(r_fr3_228,fr8_u1).
body(r_fr3_228,fr22_p2).
head(r_fr3_229,fr23_y2).
body(r_fr3_229,fr3_u2).
head(r_fr3_230,fr23_y2).
body(r_fr3_230,fr3_f2).
head(r_fr3_231,fr23_y2).
head(r_fr3_232,fr23_y2).
body(r_fr3_232,fr2_q2).
head(r_fr3_233,fr23_y2).
body(r_fr3_233,fr23_y2).
body(r_fr3_233,fr3_q3).
body(r_fr3_233,fr22_p2).
body(r_fr3_233,fr3_z2).
head(r_fr3_234,fr3_z2).
body(r_fr3_234,fr3_b2).
body(r_fr3_234,fr3_e2).
body(r_fr3_234,fr25_q2).
head(r_fr3_235,fr3_z2).
body(r_fr3_235,fr3_a2).
body(r_fr3_235,fr3_a3).
body(r_fr3_235,fr13_f2).
body(r_fr3_235,fr3_d1).
body(r_fr3_235,fr3_f2).
head(r_fr3_236,fr3_z2).
body(r_fr3_236,fr3_a1).
body(r_fr3_236,fr13_f2).
body(r_fr3_236,fr7_a3).
body(r_fr3_236,fr3_f2).
body(r_fr3_236,fr3_q3).
body(r_fr3_236,fr12_x3).
head(r_fr3_237,fr3_z2).
body(r_fr3_237,fr16_s3).
body(r_fr3_237,fr8_u1).
body(r_fr3_237,fr25_q2).
body(r_fr3_237,fr22_p2).
body(r_fr3_237,fr2_q2).
body(r_fr3_237,fr22_p2).
head(r_fr3_238,fr3_z2).
body(r_fr3_238,fr16_s3).
body(r_fr3_238,fr8_u1).
body(r_fr3_238,fr13_z1).
body(r_fr3_238,fr3_u2).
body(r_fr3_238,fr23_y2).
head(r_fr3_239,fr3_z2).
body(r_fr3_239,fr3_e2).
body(r_fr3_239,fr22_p2).
head(r_fr3_240,fr3_z2).
body(r_fr3_240,fr3_a3).
body(r_fr3_240,fr12_x3).
head(r_fr3_241,fr3_z2).
body(r_fr3_241,fr3_b2).
body(r_fr3_241,fr23_y2).
body(r_fr3_241,fr3_q3).
body(r_fr3_241,fr2_q2).
body(r_fr3_241,fr23_y2).
head(r_fr3_242,fr3_z2).
body(r_fr3_242,fr13_e1).
body(r_fr3_242,fr3_e2).
body(r_fr3_242,fr3_u2).
head(r_fr3_243,fr3_z2).
body(r_fr3_243,fr3_q3).
head(r_fr3_244,fr3_z2).
body(r_fr3_244,fr3_a3).
body(r_fr3_244,fr3_b3).
body(r_fr3_244,fr3_d1).
body(r_fr3_244,fr3_e2).
body(r_fr3_244,fr3_f2).
body(r_fr3_244,fr3_u2).
head(r_fr3_245,fr3_z2).
body(r_fr3_245,fr3_a1).
body(r_fr3_245,fr3_b3).
body(r_fr3_245,fr7_a3).
body(r_fr3_245,fr3_e2).
body(r_fr3_245,fr13_f2).
body(r_fr3_245,fr3_f2).
head(r_fr3_246,fr3_z2).
body(r_fr3_246,fr3_c3).
body(r_fr3_246,fr3_q3).
body(r_fr3_246,fr2_q2).
body(r_fr3_246,fr15_y1).
head(r_fr3_247,fr3_z2).
body(r_fr3_247,fr3_c3).
body(r_fr3_247,fr23_y2).
body(r_fr3_247,fr13_z1).
body(r_fr3_247,fr25_q2).
head(r_fr3_248,fr3_z2).
body(r_fr3_248,fr8_u1).
body(r_fr3_248,fr3_q3).
body(r_fr3_248,fr13_z1).
body(r_fr3_248,fr25_q2).
body(r_fr3_248,fr22_p2).
head(r_fr3_249,fr3_z2).
body(r_fr3_249,fr3_e2).
body(r_fr3_249,fr16_s3).
body(r_fr3_249,fr3_u2).
body(r_fr3_249,fr15_y1).
head(r_fr3_250,fr3_z2).
body(r_fr3_250,fr3_a1).
head(r_fr3_251,fr3_z2).
body(r_fr3_251,fr13_f2).
body(r_fr3_251,fr13_a2).
head(r_fr3_252,fr3_z2).
body(r_fr3_252,fr3_c3).
body(r_fr3_252,fr16_s3).
body(r_fr3_252,fr3_q3).
body(r_fr3_252,fr13_z1).
head(r_fr3_253,fr3_z2).
body(r_fr3_253,fr25_q2).
head(r_fr3_254,fr3_z2).
body(r_fr3_254,fr13_f2).
body(r_fr3_254,fr3_b2).
body(r_fr3_254,fr3_b3).
body(r_fr3_254,fr13_a2).
body(r_fr3_254,fr17_a2).
body(r_fr3_254,fr13_f2).
head(r_fr3_255,fr3_u2).
body(r_fr3_255,fr3_e2).
body(r_fr3_255,fr13_f2).
body(r_fr3_255,fr3_f2).
body(r_fr3_255,fr2_q2).
body(r_fr3_255,fr23_y2).
head(r_fr3_256,fr3_u2).
body(r_fr3_256,fr17_a2).
body(r_fr3_256,fr3_f2).
body(r_fr3_256,fr16_s3).
body(r_fr3_256,fr23_y2).
body(r_fr3_256,fr22_p2).
body(r_fr3_256,fr15_y1).
head(r_fr3_257,fr3_u2).
body(r_fr3_257,fr3_a2).
body(r_fr3_257,fr16_s3).
body(r_fr3_257,fr13_z1).
body(r_fr3_257,fr2_q2).
body(r_fr3_257,fr22_p2).
head(r_fr3_258,fr3_u2).
body(r_fr3_258,fr8_u1).
body(r_fr3_258,fr25_q2).
body(r_fr3_258,fr12_x3).
body(r_fr3_258,fr23_y2).
body(r_fr3_258,fr15_y1).
head(r_fr3_259,fr3_u2).
body(r_fr3_259,fr17_a2).
body(r_fr3_259,fr3_f2).
head(r_fr3_260,fr3_u2).
body(r_fr3_260,fr7_a3).
body(r_fr3_260,fr16_s3).
body(r_fr3_260,fr23_y2).
body(r_fr3_260,fr8_u1).
body(r_fr3_260,fr22_p2).
head(r_fr3_261,fr3_u2).
body(r_fr3_261,fr25_q2).
head(r_fr3_262,fr3_u2).
body(r_fr3_262,fr3_a3).
body(r_fr3_262,fr3_c3).
body(r_fr3_262,fr3_e2).
body(r_fr3_262,fr3_f2).
body(r_fr3_262,fr3_q3).
head(r_fr3_263,fr3_u2).
body(r_fr3_263,fr3_a1).
body(r_fr3_263,fr13_f2).
body(r_fr3_263,fr3_q3).
body(r_fr3_263,fr22_p2).
body(r_fr3_263,fr23_y2).
head(r_fr3_264,fr3_u2).
body(r_fr3_264,fr3_c3).
head(r_fr3_265,fr3_u2).
body(r_fr3_265,fr13_z1).
body(r_fr3_265,fr22_p2).
head(r_fr3_266,fr3_u2).
body(r_fr3_266,fr3_d1).
body(r_fr3_266,fr17_a2).
body(r_fr3_266,fr3_f2).
head(r_fr3_267,fr3_u2).
body(r_fr3_267,fr3_c3).
body(r_fr3_267,fr3_d1).
body(r_fr3_267,fr25_q2).
head(r_fr3_268,fr3_u2).
body(r_fr3_268,fr8_u1).
head(r_fr3_269,fr3_u2).
body(r_fr3_269,fr3_q3).
body(r_fr3_269,fr22_p2).
head(r_fr3_270,fr3_u2).
body(r_fr3_270,fr3_a3).
body(r_fr3_270,fr3_b2).
body(r_fr3_270,fr13_a2).
body(r_fr3_270,fr22_p2).
head(r_fr3_271,fr3_u2).
body(r_fr3_271,fr3_b2).
body(r_fr3_271,fr13_a2).
body(r_fr3_271,fr3_c3).
body(r_fr3_271,fr13_e1).
head(r_fr3_272,fr3_u2).
body(r_fr3_272,fr16_s3).
body(r_fr3_272,fr8_u1).
body(r_fr3_272,fr13_z1).
head(r_fr3_273,fr3_u2).
body(r_fr3_273,fr8_u1).
body(r_fr3_273,fr25_q2).
body(r_fr3_273,fr2_q2).
head(r_fr3_274,fr3_u2).
body(r_fr3_274,fr3_a2).
head(r_fr3_275,fr3_u2).
body(r_fr3_275,fr3_b2).
body(r_fr3_275,fr3_d1).
body(r_fr3_275,fr3_e2).
head(r_fr3_276,fr3_u2).
body(r_fr3_276,fr3_e2).
body(r_fr3_276,fr3_f2).
body(r_fr3_276,fr23_y2).
head(r_fr3_277,fr3_u2).
body(r_fr3_277,fr17_a2).
body(r_fr3_277,fr3_e2).
body(r_fr3_277,fr13_f2).
body(r_fr3_277,fr3_f2).
body(r_fr3_277,fr3_q3).
body(r_fr3_277,fr25_q2).
head(r_fr3_278,fr2_q2).
body(r_fr3_278,fr23_y2).
body(r_fr3_278,fr15_y1).
head(r_fr3_279,fr2_q2).
body(r_fr3_279,fr25_q2).
head(r_fr3_280,fr2_q2).
body(r_fr3_280,fr3_a2).
body(r_fr3_280,fr3_d1).
body(r_fr3_280,fr13_f2).
body(r_fr3_280,fr3_f2).
body(r_fr3_280,fr23_y2).
head(r_fr3_281,fr2_q2).
body(r_fr3_281,fr3_q3).
body(r_fr3_281,fr13_z1).
body(r_fr3_281,fr12_x3).
head(r_fr3_282,fr2_q2).
body(r_fr3_282,fr3_b3).
body(r_fr3_282,fr16_s3).
body(r_fr3_282,fr8_u1).
body(r_fr3_282,fr13_z1).
body(r_fr3_282,fr23_y2).
body(r_fr3_282,fr22_p2).
head(r_fr3_283,fr2_q2).
body(r_fr3_283,fr3_a3).
body(r_fr3_283,fr23_y2).
head(r_fr3_284,fr2_q2).
body(r_fr3_284,fr3_q3).
body(r_fr3_284,fr13_z1).
body(r_fr3_284,fr25_q2).
body(r_fr3_284,fr22_p2).
body(r_fr3_284,fr12_x3).
body(r_fr3_284,fr22_p2).
head(r_fr3_285,fr2_q2).
body(r_fr3_285,fr3_b2).
body(r_fr3_285,fr22_p2).
head(r_fr3_286,fr2_q2).
body(r_fr3_286,fr3_a3).
body(r_fr3_286,fr13_f2).
body(r_fr3_286,fr3_b2).
body(r_fr3_286,fr13_a2).
body(r_fr3_286,fr3_d1).
body(r_fr3_286,fr8_u1).
head(r_fr3_287,fr2_q2).
body(r_fr3_287,fr13_z1).
head(r_fr3_288,fr2_q2).
body(r_fr3_288,fr3_a3).
body(r_fr3_288,fr13_f2).
body(r_fr3_288,fr8_u1).
body(r_fr3_288,fr25_q2).
body(r_fr3_288,fr22_p2).
head(r_fr3_289,fr2_q2).
body(r_fr3_289,fr16_s3).
body(r_fr3_289,fr3_q3).
body(r_fr3_289,fr22_p2).
body(r_fr3_289,fr12_x3).
body(r_fr3_289,fr22_p2).
body(r_fr3_289,fr15_y1).
head(r_fr3_290,fr2_q2).
body(r_fr3_290,fr3_q3).
head(r_fr3_291,fr2_q2).
body(r_fr3_291,fr13_a2).
body(r_fr3_291,fr3_c3).
body(r_fr3_291,fr13_z1).
body(r_fr3_291,fr15_y1).
head(r_fr3_292,fr2_q2).
body(r_fr3_292,fr3_a1).
body(r_fr3_292,fr3_b3).
body(r_fr3_292,fr3_c3).
body(r_fr3_292,fr3_e2).
body(r_fr3_292,fr25_q2).
head(r_fr3_293,fr2_q2).
body(r_fr3_293,fr22_p2).
head(r_fr3_294,fr2_q2).
body(r_fr3_294,fr13_e1).
body(r_fr3_294,fr22_p2).
body(r_fr3_294,fr12_x3).
body(r_fr3_294,fr22_p2).
body(r_fr3_294,fr15_y1).
head(r_fr3_295,fr2_q2).
body(r_fr3_295,fr3_a1).
body(r_fr3_295,fr15_y1).
head(r_fr3_296,fr2_q2).
body(r_fr3_296,fr3_c3).
body(r_fr3_296,fr12_x3).
body(r_fr3_296,fr22_p2).
head(r_fr3_297,fr2_q2).
body(r_fr3_297,fr17_a2).
body(r_fr3_297,fr13_z1).
body(r_fr3_297,fr22_p2).
body(r_fr3_297,fr12_x3).
head(r_fr3_298,fr2_q2).
head(r_fr3_299,fr15_y1).
body(r_fr3_299,fr3_e2).
body(r_fr3_299,fr23_y2).
head(r_fr3_300,fr15_y1).
body(r_fr3_300,fr13_a2).
head(r_fr3_301,fr15_y1).
body(r_fr3_301,fr3_a2).
body(r_fr3_301,fr3_f2).
body(r_fr3_301,fr16_s3).
body(r_fr3_301,fr13_z1).
head(r_fr3_302,fr15_y1).
body(r_fr3_302,fr3_a3).
body(r_fr3_302,fr17_a2).
body(r_fr3_302,fr8_u1).
body(r_fr3_302,fr23_y2).
head(r_fr3_303,fr15_y1).
body(r_fr3_303,fr3_a2).
body(r_fr3_303,fr13_f2).
body(r_fr3_303,fr12_x3).
head(r_fr3_304,fr15_y1).
body(r_fr3_304,fr3_d1).
body(r_fr3_304,fr22_p2).
head(r_fr3_305,fr15_y1).
body(r_fr3_305,fr3_a1).
body(r_fr3_305,fr16_s3).
body(r_fr3_305,fr8_u1).
body(r_fr3_305,fr3_q3).
head(r_fr3_306,fr15_y1).
body(r_fr3_306,fr13_f2).
body(r_fr3_306,fr3_b2).
body(r_fr3_306,fr3_f2).
body(r_fr3_306,fr16_s3).
body(r_fr3_306,fr8_u1).
body(r_fr3_306,fr22_p2).
head(r_fr3_307,fr15_y1).
body(r_fr3_307,fr3_a1).
body(r_fr3_307,fr3_b3).
body(r_fr3_307,fr23_y2).
head(r_fr3_308,fr15_y1).
body(r_fr3_308,fr3_a1).
body(r_fr3_308,fr13_a2).
body(r_fr3_308,fr3_c3).
head(r_fr3_309,fr15_y1).
body(r_fr3_309,fr3_a1).
body(r_fr3_309,fr3_q3).
body(r_fr3_309,fr22_p2).
body(r_fr3_309,fr23_y2).
head(r_fr3_310,fr15_y1).
body(r_fr3_310,fr16_s3).
head(r_fr3_311,fr15_y1).
body(r_fr3_311,fr3_a3).
body(r_fr3_311,fr3_d1).
head(r_fr3_312,fr15_y1).
body(r_fr3_312,fr7_a3).
body(r_fr3_312,fr23_y2).
body(r_fr3_312,fr13_z1).
body(r_fr3_312,fr23_y2).
head(r_fr3_313,fr15_y1).
body(r_fr3_313,fr3_a1).
body(r_fr3_313,fr3_a2).
body(r_fr3_313,fr13_e1).
head(r_fr3_314,fr15_y1).
body(r_fr3_314,fr3_a1).
body(r_fr3_314,fr13_f2).
body(r_fr3_314,fr3_b3).
body(r_fr3_314,fr7_a3).
body(r_fr3_314,fr17_a2).
body(r_fr3_314,fr3_f2).
head(r_fr3_315,fr15_y1).
body(r_fr3_315,fr3_c3).
body(r_fr3_315,fr13_f2).
body(r_fr3_315,fr25_q2).
head(r_fr3_316,fr15_y1).
head(r_fr3_317,fr15_y1).
body(r_fr3_317,fr3_a1).
body(r_fr3_317,fr16_s3).
body(r_fr3_317,fr3_q3).
body(r_fr3_317,fr12_x3).
head(r_fr3_318,fr15_y1).
body(r_fr3_318,fr3_e2).
head(r_fr3_319,fr15_y1).
body(r_fr3_319,fr17_a2).
head(r_fr3_320,fr16_s3).
body(r_fr3_320,fr13_z1).
head(r_fr3_321,fr16_s3).
body(r_fr3_321,fr12_x3).
head(r_fr3_322,fr16_s3).
body(r_fr3_322,fr3_c3).
body(r_fr3_322,fr12_x3).
head(r_fr3_323,fr16_s3).
body(r_fr3_323,fr3_b2).
body(r_fr3_323,fr17_a2).
body(r_fr3_323,fr8_u1).
head(r_fr3_324,fr16_s3).
body(r_fr3_324,fr8_u1).
body(r_fr3_324,fr3_q3).
body(r_fr3_324,fr13_z1).
head(r_fr3_325,fr16_s3).
body(r_fr3_325,fr13_a2).
body(r_fr3_325,fr3_q3).
body(r_fr3_325,fr22_p2).
head(r_fr3_326,fr16_s3).
body(r_fr3_326,fr3_b2).
body(r_fr3_326,fr13_a2).
body(r_fr3_326,fr13_f2).
head(r_fr3_327,fr16_s3).
body(r_fr3_327,fr13_f2).
head(r_fr3_328,fr16_s3).
body(r_fr3_328,fr3_a3).
body(r_fr3_328,fr13_f2).
body(r_fr3_328,fr13_z1).
head(r_fr3_329,fr16_s3).
body(r_fr3_329,fr3_e2).
head(r_fr3_330,fr16_s3).
body(r_fr3_330,fr8_u1).
body(r_fr3_330,fr13_z1).
body(r_fr3_330,fr12_x3).
head(r_fr3_331,fr16_s3).
body(r_fr3_331,fr13_e1).
body(r_fr3_331,fr25_q2).
head(r_fr3_332,fr16_s3).
body(r_fr3_332,fr13_a2).
body(r_fr3_332,fr23_y2).
head(r_fr3_333,fr16_s3).
body(r_fr3_333,fr3_d1).
body(r_fr3_333,fr13_e1).
body(r_fr3_333,fr3_e2).
head(r_fr3_334,fr16_s3).
head(r_fr3_335,fr16_s3).
body(r_fr3_335,fr3_a1).
body(r_fr3_335,fr7_a3).
body(r_fr3_335,fr3_e2).
body(r_fr3_335,fr13_f2).
body(r_fr3_335,fr3_q3).
head(r_fr3_336,fr16_s3).
body(r_fr3_336,fr8_u1).
head(r_fr3_337,fr16_s3).
body(r_fr3_337,fr13_e1).
head(r_fr3_338,fr16_s3).
body(r_fr3_338,fr3_f2).
head(r_fr3_339,fr16_s3).
body(r_fr3_339,fr23_y2).
body(r_fr3_339,fr8_u1).
body(r_fr3_339,fr13_z1).
body(r_fr3_339,fr12_x3).
body(r_fr3_339,fr22_p2).
head(r_fr3_340,fr8_u1).
body(r_fr3_340,fr23_y2).
body(r_fr3_340,fr3_q3).
body(r_fr3_340,fr22_p2).
body(r_fr3_340,fr23_y2).
head(r_fr3_341,fr8_u1).
body(r_fr3_341,fr13_a2).
body(r_fr3_341,fr3_e2).
body(r_fr3_341,fr3_q3).
body(r_fr3_341,fr12_x3).
head(r_fr3_342,fr8_u1).
body(r_fr3_342,fr13_z1).
body(r_fr3_342,fr22_p2).
body(r_fr3_342,fr12_x3).
body(r_fr3_342,fr23_y2).
head(r_fr3_343,fr8_u1).
body(r_fr3_343,fr23_y2).
head(r_fr3_344,fr8_u1).
body(r_fr3_344,fr13_z1).
body(r_fr3_344,fr25_q2).
body(r_fr3_344,fr22_p2).
head(r_fr3_345,fr8_u1).
body(r_fr3_345,fr7_a3).
body(r_fr3_345,fr13_z1).
body(r_fr3_345,fr12_x3).
body(r_fr3_345,fr23_y2).
head(r_fr3_346,fr8_u1).
body(r_fr3_346,fr3_a2).
body(r_fr3_346,fr13_f2).
body(r_fr3_346,fr3_f2).
head(r_fr3_347,fr8_u1).
body(r_fr3_347,fr3_b3).
body(r_fr3_347,fr3_q3).
body(r_fr3_347,fr13_z1).
head(r_fr3_348,fr8_u1).
body(r_fr3_348,fr13_a2).
body(r_fr3_348,fr17_a2).
head(r_fr3_349,fr8_u1).
body(r_fr3_349,fr17_a2).
body(r_fr3_349,fr23_y2).
body(r_fr3_349,fr3_q3).
body(r_fr3_349,fr13_z1).
body(r_fr3_349,fr23_y2).
head(r_fr3_350,fr8_u1).
body(r_fr3_350,fr3_b2).
body(r_fr3_350,fr3_q3).
body(r_fr3_350,fr23_y2).
body(r_fr3_350,fr22_p2).
head(r_fr3_351,fr8_u1).
body(r_fr3_351,fr3_a2).
body(r_fr3_351,fr13_a2).
body(r_fr3_351,fr22_p2).
body(r_fr3_351,fr12_x3).
body(r_fr3_351,fr22_p2).
head(r_fr3_352,fr8_u1).
body(r_fr3_352,fr3_a2).
head(r_fr3_353,fr8_u1).
body(r_fr3_353,fr23_y2).
body(r_fr3_353,fr13_z1).
body(r_fr3_353,fr22_p2).
body(r_fr3_353,fr12_x3).
body(r_fr3_353,fr23_y2).
body(r_fr3_353,fr22_p2).
head(r_fr3_354,fr8_u1).
body(r_fr3_354,fr23_y2).
body(r_fr3_354,fr13_z1).
body(r_fr3_354,fr25_q2).
body(r_fr3_354,fr23_y2).
head(r_fr3_355,fr8_u1).
body(r_fr3_355,fr3_a3).
body(r_fr3_355,fr13_f2).
body(r_fr3_355,fr22_p2).
head(r_fr3_356,fr8_u1).
body(r_fr3_356,fr3_a2).
body(r_fr3_356,fr13_f2).
body(r_fr3_356,fr25_q2).
body(r_fr3_356,fr23_y2).
body(r_fr3_356,fr22_p2).
head(r_fr3_357,fr8_u1).
body(r_fr3_357,fr3_q3).
body(r_fr3_357,fr22_p2).
body(r_fr3_357,fr23_y2).
head(r_fr3_358,fr8_u1).
head(r_fr3_359,fr8_u1).
body(r_fr3_359,fr12_x3).
head(r_fr3_360,fr8_u1).
body(r_fr3_360,fr3_a3).
body(r_fr3_360,fr3_b2).
body(r_fr3_360,fr3_c3).
body(r_fr3_360,fr23_y2).
body(r_fr3_360,fr13_z1).
body(r_fr3_360,fr22_p2).
head(r_fr3_361,fr12_x3).
body(r_fr3_361,fr7_a3).
body(r_fr3_361,fr3_d1).
body(r_fr3_361,fr13_e1).
body(r_fr3_361,fr3_q3).
body(r_fr3_361,fr13_z1).
head(r_fr3_362,fr12_x3).
body(r_fr3_362,fr3_a1).
body(r_fr3_362,fr13_f2).
body(r_fr3_362,fr23_y2).
head(r_fr3_363,fr12_x3).
body(r_fr3_363,fr13_a2).
body(r_fr3_363,fr23_y2).
body(r_fr3_363,fr3_q3).
head(r_fr3_364,fr12_x3).
body(r_fr3_364,fr3_a1).
body(r_fr3_364,fr3_a2).
body(r_fr3_364,fr3_b2).
body(r_fr3_364,fr3_d1).
body(r_fr3_364,fr17_a2).
head(r_fr3_365,fr12_x3).
body(r_fr3_365,fr3_a2).
body(r_fr3_365,fr13_f2).
body(r_fr3_365,fr7_a3).
body(r_fr3_365,fr3_c3).
body(r_fr3_365,fr13_e1).
head(r_fr3_366,fr12_x3).
body(r_fr3_366,fr7_a3).
body(r_fr3_366,fr3_d1).
body(r_fr3_366,fr23_y2).
body(r_fr3_366,fr25_q2).
head(r_fr3_367,fr12_x3).
body(r_fr3_367,fr13_f2).
body(r_fr3_367,fr23_y2).
body(r_fr3_367,fr3_q3).
body(r_fr3_367,fr25_q2).
body(r_fr3_367,fr22_p2).
body(r_fr3_367,fr23_y2).
head(r_fr3_368,fr12_x3).
body(r_fr3_368,fr23_y2).
body(r_fr3_368,fr3_q3).
body(r_fr3_368,fr22_p2).
body(r_fr3_368,fr22_p2).
head(r_fr3_369,fr12_x3).
body(r_fr3_369,fr13_a2).
body(r_fr3_369,fr7_a3).
body(r_fr3_369,fr17_a2).
body(r_fr3_369,fr3_q3).
body(r_fr3_369,fr22_p2).
head(r_fr3_370,fr12_x3).
body(r_fr3_370,fr3_c3).
body(r_fr3_370,fr3_d1).
body(r_fr3_370,fr13_e1).
body(r_fr3_370,fr3_e2).
body(r_fr3_370,fr3_f2).
body(r_fr3_370,fr22_p2).
head(r_fr3_371,fr12_x3).
body(r_fr3_371,fr3_b2).
body(r_fr3_371,fr3_d1).
body(r_fr3_371,fr13_e1).
body(r_fr3_371,fr3_e2).
body(r_fr3_371,fr3_f2).
body(r_fr3_371,fr22_p2).
head(r_fr3_372,fr12_x3).
body(r_fr3_372,fr3_c3).
body(r_fr3_372,fr17_a2).
body(r_fr3_372,fr13_e1).
body(r_fr3_372,fr3_e2).
body(r_fr3_372,fr13_f2).
body(r_fr3_372,fr3_q3).
head(r_fr3_373,fr12_x3).
body(r_fr3_373,fr13_f2).
body(r_fr3_373,fr23_y2).
body(r_fr3_373,fr3_q3).
body(r_fr3_373,fr25_q2).
body(r_fr3_373,fr22_p2).
head(r_fr3_374,fr12_x3).
body(r_fr3_374,fr23_y2).
body(r_fr3_374,fr3_q3).
body(r_fr3_374,fr13_z1).
body(r_fr3_374,fr25_q2).
body(r_fr3_374,fr22_p2).
body(r_fr3_374,fr23_y2).
head(r_fr3_375,fr12_x3).
body(r_fr3_375,fr13_f2).
body(r_fr3_375,fr3_d1).
body(r_fr3_375,fr22_p2).
head(r_fr3_376,fr12_x3).
body(r_fr3_376,fr3_e2).
body(r_fr3_376,fr23_y2).
body(r_fr3_376,fr3_q3).
body(r_fr3_376,fr13_z1).
body(r_fr3_376,fr25_q2).
head(r_fr3_377,fr12_x3).
body(r_fr3_377,fr3_c3).
body(r_fr3_377,fr23_y2).
body(r_fr3_377,fr3_q3).
body(r_fr3_377,fr25_q2).
body(r_fr3_377,fr23_y2).
body(r_fr3_377,fr22_p2).
head(r_fr3_378,fr12_x3).
body(r_fr3_378,fr23_y2).
body(r_fr3_378,fr3_q3).
body(r_fr3_378,fr13_z1).
body(r_fr3_378,fr25_q2).
body(r_fr3_378,fr23_y2).
body(r_fr3_378,fr22_p2).
head(r_fr3_379,fr12_x3).
body(r_fr3_379,fr3_a3).
body(r_fr3_379,fr3_c3).
body(r_fr3_379,fr13_e1).
head(r_fr3_380,fr12_x3).
body(r_fr3_380,fr3_q3).
head(r_fr3_381,fr12_x3).
head(r_fr3_382,fr12_x3).
body(r_fr3_382,fr13_e1).
body(r_fr3_382,fr3_e2).
body(r_fr3_382,fr13_z1).
head(r_fr3_383,fr25_q2).
body(r_fr3_383,fr3_a3).
body(r_fr3_383,fr3_c3).
body(r_fr3_383,fr3_e2).
body(r_fr3_383,fr13_z1).
body(r_fr3_383,fr22_p2).
head(r_fr3_384,fr25_q2).
body(r_fr3_384,fr3_a3).
body(r_fr3_384,fr13_a2).
body(r_fr3_384,fr3_c3).
body(r_fr3_384,fr23_y2).
head(r_fr3_385,fr25_q2).
body(r_fr3_385,fr13_z1).
body(r_fr3_385,fr23_y2).
head(r_fr3_386,fr25_q2).
body(r_fr3_386,fr3_d1).
body(r_fr3_386,fr22_p2).
body(r_fr3_386,fr22_p2).
head(r_fr3_387,fr25_q2).
body(r_fr3_387,fr3_a3).
body(r_fr3_387,fr22_p2).
head(r_fr3_388,fr25_q2).
body(r_fr3_388,fr3_q3).
body(r_fr3_388,fr23_y2).
head(r_fr3_389,fr25_q2).
body(r_fr3_389,fr3_a3).
body(r_fr3_389,fr3_b3).
body(r_fr3_389,fr13_f2).
body(r_fr3_389,fr23_y2).
body(r_fr3_389,fr3_q3).
body(r_fr3_389,fr23_y2).
head(r_fr3_390,fr25_q2).
body(r_fr3_390,fr3_q3).
body(r_fr3_390,fr13_z1).
body(r_fr3_390,fr22_p2).
body(r_fr3_390,fr23_y2).
head(r_fr3_391,fr25_q2).
body(r_fr3_391,fr13_f2).
body(r_fr3_391,fr23_y2).
body(r_fr3_391,fr22_p2).
body(r_fr3_391,fr22_p2).
head(r_fr3_392,fr25_q2).
body(r_fr3_392,fr3_a3).
body(r_fr3_392,fr13_a2).
body(r_fr3_392,fr3_c3).
body(r_fr3_392,fr3_d1).
body(r_fr3_392,fr17_a2).
head(r_fr3_393,fr25_q2).
body(r_fr3_393,fr3_a3).
body(r_fr3_393,fr23_y2).
body(r_fr3_393,fr22_p2).
body(r_fr3_393,fr22_p2).
head(r_fr3_394,fr25_q2).
body(r_fr3_394,fr3_b3).
body(r_fr3_394,fr3_q3).
body(r_fr3_394,fr13_z1).
body(r_fr3_394,fr22_p2).
body(r_fr3_394,fr23_y2).
body(r_fr3_394,fr22_p2).
head(r_fr3_395,fr25_q2).
body(r_fr3_395,fr23_y2).
head(r_fr3_396,fr25_q2).
body(r_fr3_396,fr3_a1).
body(r_fr3_396,fr7_a3).
body(r_fr3_396,fr3_f2).
body(r_fr3_396,fr3_q3).
body(r_fr3_396,fr22_p2).
body(r_fr3_396,fr23_y2).
head(r_fr3_397,fr25_q2).
body(r_fr3_397,fr3_c3).
body(r_fr3_397,fr3_d1).
body(r_fr3_397,fr17_a2).
body(r_fr3_397,fr3_e2).
body(r_fr3_397,fr3_f2).
head(r_fr3_398,fr25_q2).
body(r_fr3_398,fr13_a2).
body(r_fr3_398,fr3_c3).
head(r_fr3_399,fr25_q2).
body(r_fr3_399,fr23_y2).
body(r_fr3_399,fr3_q3).
body(r_fr3_399,fr13_z1).
body(r_fr3_399,fr22_p2).
body(r_fr3_399,fr23_y2).
body(r_fr3_399,fr22_p2).
head(r_fr3_400,fr25_q2).
body(r_fr3_400,fr13_e1).
body(r_fr3_400,fr3_q3).
body(r_fr3_400,fr13_z1).
body(r_fr3_400,fr23_y2).
head(r_fr3_401,fr25_q2).
head(r_fr3_402,fr25_q2).
body(r_fr3_402,fr3_b2).
body(r_fr3_402,fr3_d1).
body(r_fr3_402,fr13_z1).
body(r_fr3_402,fr22_p2).
body(r_fr3_402,fr23_y2).
body(r_fr3_402,fr22_p2).
head(r_fr3_403,fr25_q2).
body(r_fr3_403,fr23_y2).
head(r_fr3_404,fr23_y2).
body(r_fr3_404,fr13_z1).
body(r_fr3_404,fr23_y2).
body(r_fr3_404,fr22_p2).
head(r_fr3_405,fr23_y2).
body(r_fr3_405,fr3_a1).
body(r_fr3_405,fr3_b2).
body(r_fr3_405,fr13_a2).
body(r_fr3_405,fr3_c3).
body(r_fr3_405,fr13_f2).
head(r_fr3_406,fr23_y2).
body(r_fr3_406,fr3_b2).
head(r_fr3_407,fr23_y2).
body(r_fr3_407,fr23_y2).
head(r_fr3_408,fr23_y2).
body(r_fr3_408,fr3_a3).
body(r_fr3_408,fr3_e2).
body(r_fr3_408,fr13_z1).
body(r_fr3_408,fr23_y2).
body(r_fr3_408,fr22_p2).
head(r_fr3_409,fr23_y2).
body(r_fr3_409,fr3_a3).
body(r_fr3_409,fr13_a2).
body(r_fr3_409,fr3_d1).
body(r_fr3_409,fr13_e1).
head(r_fr3_410,fr23_y2).
body(r_fr3_410,fr13_f2).
body(r_fr3_410,fr3_b3).
body(r_fr3_410,fr13_a2).
body(r_fr3_410,fr3_d1).
body(r_fr3_410,fr17_a2).
body(r_fr3_410,fr3_e2).
head(r_fr3_411,fr23_y2).
body(r_fr3_411,fr3_q3).
body(r_fr3_411,fr13_z1).
body(r_fr3_411,fr22_p2).
body(r_fr3_411,fr23_y2).
body(r_fr3_411,fr22_p2).
head(r_fr3_412,fr23_y2).
body(r_fr3_412,fr3_c3).
body(r_fr3_412,fr22_p2).
head(r_fr3_413,fr23_y2).
body(r_fr3_413,fr3_e2).
body(r_fr3_413,fr13_f2).
body(r_fr3_413,fr3_f2).
body(r_fr3_413,fr23_y2).
head(r_fr3_414,fr23_y2).
body(r_fr3_414,fr3_a2).
body(r_fr3_414,fr13_a2).
body(r_fr3_414,fr7_a3).
body(r_fr3_414,fr13_e1).
body(r_fr3_414,fr13_f2).
body(r_fr3_414,fr3_q3).
head(r_fr3_415,fr23_y2).
body(r_fr3_415,fr3_a3).
body(r_fr3_415,fr3_b2).
body(r_fr3_415,fr3_b3).
body(r_fr3_415,fr3_e2).
body(r_fr3_415,fr13_f2).
body(r_fr3_415,fr13_z1).
head(r_fr3_416,fr23_y2).
body(r_fr3_416,fr13_z1).
head(r_fr3_417,fr23_y2).
body(r_fr3_417,fr13_e1).
head(r_fr3_418,fr23_y2).
body(r_fr3_418,fr13_f2).
body(r_fr3_418,fr3_f2).
body(r_fr3_418,fr13_z1).
body(r_fr3_418,fr22_p2).
body(r_fr3_418,fr23_y2).
body(r_fr3_418,fr22_p2).
head(r_fr3_419,fr23_y2).
body(r_fr3_419,fr3_a3).
head(r_fr3_420,fr23_y2).
head(r_fr3_421,fr23_y2).
body(r_fr3_421,fr3_b3).
head(r_fr3_422,fr23_y2).
body(r_fr3_422,fr13_f2).
body(r_fr3_422,fr13_a2).
body(r_fr3_422,fr7_a3).
body(r_fr3_422,fr17_a2).
body(r_fr3_422,fr3_e2).
body(r_fr3_422,fr22_p2).
head(r_fr3_423,fr23_y2).
body(r_fr3_423,fr22_p2).
body(r_fr3_423,fr23_y2).
head(r_fr3_424,fr23_y2).
body(r_fr3_424,fr13_a2).
body(r_fr3_424,fr3_c3).
body(r_fr3_424,fr13_e1).
body(r_fr3_424,fr3_f2).

assumption(fr20_b2).
assumption(fr7_a3).
assumption(fr4_c1).
assumption(fr4_d1).
assumption(fr4_e1).
assumption(fr14_c1).
assumption(fr13_f2).
assumption(fr4_b2).
assumption(fr4_c2).
assumption(fr4_d2).
assumption(fr20_b2).
assumption(fr4_f2).
assumption(fr4_a3).
assumption(fr13_f2).
assumption(fr14_c1).
contrary(fr20_b2,fr1_p4).
contrary(fr13_f2,fr21_x3).
contrary(fr4_a3,fr13_f2).
contrary(fr7_a3,fr4_a3).
contrary(fr4_b2,fr22_p2).
contrary(fr13_f2,fr21_x3).
contrary(fr4_c1,fr13_f2).
contrary(fr4_c2,fr20_b2).
contrary(fr14_c1,fr4_c2).
contrary(fr4_d1,fr4_x1).
contrary(fr4_d2,fr23_v1).
contrary(fr4_e1,fr13_z1).
contrary(fr20_b2,fr7_a3).
contrary(fr14_c1,fr4_q2).
contrary(fr4_f2,fr4_q2).
head(r_fr4_0,fr20_z3).
body(r_fr4_0,fr13_f2).
body(r_fr4_0,fr7_a3).
head(r_fr4_1,fr20_z3).
body(r_fr4_1,fr13_f2).
body(r_fr4_1,fr4_q2).
head(r_fr4_2,fr20_z3).
body(r_fr4_2,fr21_x3).
head(r_fr4_3,fr20_z3).
body(r_fr4_3,fr4_d1).
head(r_fr4_4,fr20_z3).
body(r_fr4_4,fr23_y2).
head(r_fr4_5,fr20_z3).
body(r_fr4_5,fr13_f2).
body(r_fr4_5,fr7_a3).
body(r_fr4_5,fr4_c2).
body(r_fr4_5,fr20_b2).
body(r_fr4_5,fr14_c1).
head(r_fr4_6,fr20_z3).
body(r_fr4_6,fr20_b2).
body(r_fr4_6,fr13_f2).
body(r_fr4_6,fr4_c1).
body(r_fr4_6,fr4_c2).
body(r_fr4_6,fr14_c1).
body(r_fr4_6,fr14_c1).
head(r_fr4_7,fr20_z3).
head(r_fr4_8,fr20_z3).
body(r_fr4_8,fr23_v1).
head(r_fr4_9,fr20_z3).
body(r_fr4_9,fr22_p2).
head(r_fr4_10,fr20_z3).
body(r_fr4_10,fr8_u1).
body(r_fr4_10,fr22_p2).
body(r_fr4_10,fr20_r3).
head(r_fr4_11,fr20_z3).
body(r_fr4_11,fr23_y2).
head(r_fr4_12,fr13_z1).
body(r_fr4_12,fr4_a3).
body(r_fr4_12,fr14_c1).
body(r_fr4_12,fr14_c1).
body(r_fr4_12,fr4_x2).
head(r_fr4_13,fr13_z1).
body(r_fr4_13,fr20_b2).
body(r_fr4_13,fr4_d2).
body(r_fr4_13,fr21_x3).
body(r_fr4_13,fr22_p2).
body(r_fr4_13,fr4_y2).
head(r_fr4_14,fr13_z1).
body(r_fr4_14,fr20_b2).
body(r_fr4_14,fr13_f2).
body(r_fr4_14,fr4_q2).
body(r_fr4_14,fr4_y2).
body(r_fr4_14,fr1_p4).
head(r_fr4_15,fr13_z1).
body(r_fr4_15,fr13_f2).
body(r_fr4_15,fr4_a3).
body(r_fr4_15,fr7_a3).
body(r_fr4_15,fr4_c2).
body(r_fr4_15,fr14_c1).
body(r_fr4_15,fr4_d1).
head(r_fr4_16,fr13_z1).
body(r_fr4_16,fr20_b2).
body(r_fr4_16,fr4_b2).
body(r_fr4_16,fr4_c1).
body(r_fr4_16,fr4_d1).
body(r_fr4_16,fr4_d2).
head(r_fr4_17,fr13_z1).
head(r_fr4_18,fr13_z1).
body(r_fr4_18,fr14_c1).
body(r_fr4_18,fr8_u1).
body(r_fr4_18,fr4_t2).
head(r_fr4_19,fr13_z1).
body(r_fr4_19,fr20_z3).
head(r_fr4_20,fr13_z1).
body(r_fr4_20,fr20_b2).
body(r_fr4_20,fr4_d2).
body(r_fr4_20,fr14_c1).
body(r_fr4_20,fr23_s3).
body(r_fr4_20,fr22_p2).
body(r_fr4_20,fr20_r3).
head(r_fr4_21,fr13_z1).
body(r_fr4_21,fr4_d2).
body(r_fr4_21,fr20_z3).
head(r_fr4_22,fr13_z1).
body(r_fr4_22,fr20_z3).
body(r_fr4_22,fr23_v1).
body(r_fr4_22,fr4_t2).
head(r_fr4_23,fr23_y2).
body(r_fr4_23,fr4_e1).
body(r_fr4_23,fr20_r3).
body(r_fr4_23,fr13_z1).
head(r_fr4_24,fr23_y2).
body(r_fr4_24,fr13_f2).
body(r_fr4_24,fr4_d1).
body(r_fr4_24,fr13_z1).
head(r_fr4_25,fr23_y2).
body(r_fr4_25,fr4_a3).
body(r_fr4_25,fr4_c2).
body(r_fr4_25,fr4_d2).
head(r_fr4_26,fr23_y2).
body(r_fr4_26,fr13_s2).
body(r_fr4_26,fr23_s3).
body(r_fr4_26,fr20_r3).
body(r_fr4_26,fr23_y2).
head(r_fr4_27,fr23_y2).
body(r_fr4_27,fr13_f2).
body(r_fr4_27,fr4_d2).
body(r_fr4_27,fr4_f2).
head(r_fr4_28,fr23_y2).
body(r_fr4_28,fr22_p2).
body(r_fr4_28,fr23_v1).
body(r_fr4_28,fr4_s2).
body(r_fr4_28,fr4_t2).
body(r_fr4_28,fr5_r3).
body(r_fr4_28,fr4_w1).
head(r_fr4_29,fr23_y2).
body(r_fr4_29,fr23_v1).
body(r_fr4_29,fr23_y2).
body(r_fr4_29,fr4_x2).
head(r_fr4_30,fr23_y2).
body(r_fr4_30,fr20_b2).
body(r_fr4_30,fr13_f2).
body(r_fr4_30,fr7_a3).
body(r_fr4_30,fr4_b2).
body(r_fr4_30,fr4_c1).
head(r_fr4_31,fr23_y2).
body(r_fr4_31,fr4_b2).
body(r_fr4_31,fr23_y2).
body(r_fr4_31,fr22_p2).
body(r_fr4_31,fr20_t3).
head(r_fr4_32,fr23_y2).
body(r_fr4_32,fr22_p2).
head(r_fr4_33,fr23_y2).
head(r_fr4_34,fr23_y2).
body(r_fr4_34,fr4_a3).
body(r_fr4_34,fr4_c1).
body(r_fr4_34,fr4_s2).
body(r_fr4_34,fr20_t3).
body(r_fr4_34,fr20_r3).
head(r_fr4_35,fr23_y2).
body(r_fr4_35,fr13_f2).
body(r_fr4_35,fr4_c2).
body(r_fr4_35,fr4_e1).
head(r_fr4_36,fr13_s2).
body(r_fr4_36,fr4_c2).
body(r_fr4_36,fr13_z1).
head(r_fr4_37,fr13_s2).
body(r_fr4_37,fr20_b2).
body(r_fr4_37,fr4_c2).
body(r_fr4_37,fr14_c1).
body(r_fr4_37,fr4_e1).
body(r_fr4_37,fr20_b2).
body(r_fr4_37,fr21_x3).
head(r_fr4_38,fr13_s2).
body(r_fr4_38,fr20_z3).
body(r_fr4_38,fr23_s3).
body(r_fr4_38,fr4_t2).
body(r_fr4_38,fr22_p2).
body(r_fr4_38,fr4_w1).
head(r_fr4_39,fr13_s2).
head(r_fr4_40,fr13_s2).
body(r_fr4_40,fr1_p4).
head(r_fr4_41,fr13_s2).
body(r_fr4_41,fr23_v1).
body(r_fr4_41,fr8_u1).
body(r_fr4_41,fr4_s2).
body(r_fr4_41,fr22_p2).
head(r_fr4_42,fr13_s2).
body(r_fr4_42,fr9_t5).
head(r_fr4_43,fr13_s2).
body(r_fr4_43,fr4_q2).
body(r_fr4_43,fr22_p2).
head(r_fr4_44,fr13_s2).
body(r_fr4_44,fr23_v1).
body(r_fr4_44,fr8_u1).
body(r_fr4_44,fr5_r3).
body(r_fr4_44,fr4_x2).
body(r_fr4_44,fr1_p4).
head(r_fr4_45,fr13_s2).
body(r_fr4_45,fr20_b2).
body(r_fr4_45,fr14_c1).
body(r_fr4_45,fr4_e1).
body(r_fr4_45,fr20_b2).
body(r_fr4_45,fr4_f2).
body(r_fr4_45,fr4_w1).
head(r_fr4_46,fr13_s2).
body(r_fr4_46,fr4_q2).
body(r_fr4_46,fr21_x3).
body(r_fr4_46,fr4_w1).
head(r_fr4_47,fr4_x1).
body(r_fr4_47,fr20_z3).
body(r_fr4_47,fr4_q2).
body(r_fr4_47,fr4_s2).
body(r_fr4_47,fr20_t3).
body(r_fr4_47,fr20_r3).
body(r_fr4_47,fr13_z1).
head(r_fr4_48,fr4_x1).
body(r_fr4_48,fr20_b2).
body(r_fr4_48,fr13_f2).
body(r_fr4_48,fr7_a3).
body(r_fr4_48,fr4_c2).
body(r_fr4_48,fr20_b2).
head(r_fr4_49,fr4_x1).
body(r_fr4_49,fr4_b2).
body(r_fr4_49,fr4_c2).
body(r_fr4_49,fr4_e1).
body(r_fr4_49,fr14_c1).
head(r_fr4_50,fr4_x1).
body(r_fr4_50,fr4_b2).
body(r_fr4_50,fr14_c1).
body(r_fr4_50,fr20_b2).
body(r_fr4_50,fr4_f2).
body(r_fr4_50,fr9_t5).
body(r_fr4_50,fr4_y2).
head(r_fr4_51,fr4_x1).
body(r_fr4_51,fr4_d1).
body(r_fr4_51,fr23_y2).
body(r_fr4_51,fr13_z1).
head(r_fr4_52,fr4_x1).
body(r_fr4_52,fr23_v1).
body(r_fr4_52,fr20_t3).
head(r_fr4_53,fr4_x1).
body(r_fr4_53,fr4_a3).
body(r_fr4_53,fr4_b2).
body(r_fr4_53,fr4_c2).
body(r_fr4_53,fr20_b2).
body(r_fr4_53,fr14_c1).
body(r_fr4_53,fr13_z1).
head(r_fr4_54,fr4_x1).
body(r_fr4_54,fr4_d1).
head(r_fr4_55,fr4_x1).
head(r_fr4_56,fr4_x1).
body(r_fr4_56,fr4_e1).
body(r_fr4_56,fr4_q2).
body(r_fr4_56,fr4_t2).
body(r_fr4_56,fr22_p2).
body(r_fr4_56,fr23_y2).
head(r_fr4_57,fr4_x1).
body(r_fr4_57,fr21_x3).
body(r_fr4_57,fr22_p2).
body(r_fr4_57,fr23_v1).
head(r_fr4_58,fr20_r3).
body(r_fr4_58,fr4_c2).
head(r_fr4_59,fr20_r3).
head(r_fr4_60,fr20_r3).
body(r_fr4_60,fr21_x3).
body(r_fr4_60,fr23_v1).
body(r_fr4_60,fr13_z1).
head(r_fr4_61,fr20_r3).
body(r_fr4_61,fr4_c1).
body(r_fr4_61,fr4_s2).
head(r_fr4_62,fr20_r3).
body(r_fr4_62,fr13_f2).
body(r_fr4_62,fr4_c2).
body(r_fr4_62,fr20_z3).
body(r_fr4_62,fr22_p2).
head(r_fr4_63,fr20_r3).
body(r_fr4_63,fr13_f2).
body(r_fr4_63,fr4_d2).
body(r_fr4_63,fr20_b2).
body(r_fr4_63,fr14_c1).
head(r_fr4_64,fr20_r3).
body(r_fr4_64,fr4_f2).
body(r_fr4_64,fr23_y2).
head(r_fr4_65,fr20_r3).
body(r_fr4_65,fr4_c2).
body(r_fr4_65,fr21_x3).
body(r_fr4_65,fr4_s2).
head(r_fr4_66,fr20_r3).
body(r_fr4_66,fr23_v1).
body(r_fr4_66,fr20_t3).
body(r_fr4_66,fr5_r3).
body(r_fr4_66,fr23_y2).
head(r_fr4_67,fr20_r3).
body(r_fr4_67,fr13_s2).
head(r_fr4_68,fr20_r3).
body(r_fr4_68,fr4_d1).
head(r_fr4_69,fr20_r3).
body(r_fr4_69,fr13_f2).
body(r_fr4_69,fr4_e1).
head(r_fr4_70,fr20_r3).
body(r_fr4_70,fr4_b2).
body(r_fr4_70,fr13_f2).
body(r_fr4_70,fr4_c2).
body(r_fr4_70,fr23_v1).
head(r_fr4_71,fr21_x3).
body(r_fr4_71,fr13_f2).
body(r_fr4_71,fr4_d1).
body(r_fr4_71,fr20_b2).
body(r_fr4_71,fr4_q2).
head(r_fr4_72,fr21_x3).
body(r_fr4_72,fr14_c1).
body(r_fr4_72,fr20_z3).
body(r_fr4_72,fr4_t2).
body(r_fr4_72,fr20_r3).
head(r_fr4_73,fr21_x3).
body(r_fr4_73,fr23_y2).
head(r_fr4_74,fr21_x3).
body(r_fr4_74,fr4_c2).
body(r_fr4_74,fr4_d1).
head(r_fr4_75,fr21_x3).
body(r_fr4_75,fr4_x2).
head(r_fr4_76,fr21_x3).
body(r_fr4_76,fr4_a3).
body(r_fr4_76,fr4_c1).
body(r_fr4_76,fr22_p2).
body(r_fr4_76,fr8_u1).
head(r_fr4_77,fr21_x3).
body(r_fr4_77,fr14_c1).
body(r_fr4_77,fr20_b2).
body(r_fr4_77,fr13_s2).
body(r_fr4_77,fr4_s2).
body(r_fr4_77,fr20_t3).
head(r_fr4_78,fr21_x3).
body(r_fr4_78,fr23_v1).
body(r_fr4_78,fr20_r3).
body(r_fr4_78,fr1_p4).
head(r_fr4_79,fr21_x3).
body(r_fr4_79,fr20_b2).
body(r_fr4_79,fr4_f2).
body(r_fr4_79,fr22_p2).
body(r_fr4_79,fr8_u1).
body(r_fr4_79,fr4_x2).
head(r_fr4_80,fr21_x3).
head(r_fr4_81,fr21_x3).
body(r_fr4_81,fr20_b2).
body(r_fr4_81,fr4_a3).
body(r_fr4_81,fr4_b2).
body(r_fr4_81,fr20_b2).
body(r_fr4_81,fr14_c1).
body(r_fr4_81,fr4_q2).
head(r_fr4_82,fr21_x3).
body(r_fr4_82,fr4_b2).
head(r_fr4_83,fr4_q2).
body(r_fr4_83,fr4_e1).
body(r_fr4_83,fr13_z1).
body(r_fr4_83,fr4_x2).
body(r_fr4_83,fr4_y2).
head(r_fr4_84,fr4_q2).
body(r_fr4_84,fr20_b2).
body(r_fr4_84,fr4_d1).
body(r_fr4_84,fr21_x3).
body(r_fr4_84,fr22_p2).
body(r_fr4_84,fr4_x1).
body(r_fr4_84,fr4_x2).
head(r_fr4_85,fr4_q2).
body(r_fr4_85,fr4_c1).
body(r_fr4_85,fr4_e1).
body(r_fr4_85,fr13_z1).
body(r_fr4_85,fr21_x3).
head(r_fr4_86,fr4_q2).
body(r_fr4_86,fr4_f2).
body(r_fr4_86,fr4_t2).
body(r_fr4_86,fr5_r3).
body(r_fr4_86,fr23_y2).
body(r_fr4_86,fr4_y2).
head(r_fr4_87,fr4_q2).
body(r_fr4_87,fr9_t5).
body(r_fr4_87,fr4_x1).
head(r_fr4_88,fr4_q2).
body(r_fr4_88,fr4_b2).
body(r_fr4_88,fr13_f2).
body(r_fr4_88,fr14_c1).
body(r_fr4_88,fr4_d1).
body(r_fr4_88,fr20_b2).
body(r_fr4_88,fr4_f2).
head(r_fr4_89,fr4_q2).
body(r_fr4_89,fr13_f2).
body(r_fr4_89,fr7_a3).
body(r_fr4_89,fr4_b2).
body(r_fr4_89,fr4_x2).
head(r_fr4_90,fr4_q2).
body(r_fr4_90,fr14_c1).
body(r_fr4_90,fr20_b2).
body(r_fr4_90,fr20_z3).
body(r_fr4_90,fr22_p2).
body(r_fr4_90,fr4_x2).
head(r_fr4_91,fr4_q2).
body(r_fr4_91,fr13_f2).
body(r_fr4_91,fr7_a3).
body(r_fr4_91,fr13_f2).
body(r_fr4_91,fr4_c1).
body(r_fr4_91,fr20_b2).
body(r_fr4_91,fr14_c1).
head(r_fr4_92,fr4_q2).
head(r_fr4_93,fr4_q2).
body(r_fr4_93,fr4_d2).
body(r_fr4_93,fr14_c1).
body(r_fr4_93,fr22_p2).
body(r_fr4_93,fr23_v1).
body(r_fr4_93,fr22_p2).
body(r_fr4_93,fr4_x2).
head(r_fr4_94,fr4_q2).
body(r_fr4_94,fr14_c1).
body(r_fr4_94,fr4_f2).
head(r_fr4_95,fr4_q2).
body(r_fr4_95,fr13_z1).
body(r_fr4_95,fr4_s2).
body(r_fr4_95,fr23_s3).
head(r_fr4_96,fr4_q2).
body(r_fr4_96,fr13_f2).
body(r_fr4_96,fr13_f2).
body(r_fr4_96,fr4_f2).
body(r_fr4_96,fr22_p2).
head(r_fr4_97,fr1_p4).
body(r_fr4_97,fr13_z1).
body(r_fr4_97,fr4_q2).
body(r_fr4_97,fr23_v1).
body(r_fr4_97,fr5_r3).
body(r_fr4_97,fr4_w1).
head(r_fr4_98,fr1_p4).
body(r_fr4_98,fr13_z1).
body(r_fr4_98,fr23_s3).
body(r_fr4_98,fr4_t2).
body(r_fr4_98,fr22_p2).
body(r_fr4_98,fr5_r3).
body(r_fr4_98,fr23_y2).
head(r_fr4_99,fr1_p4).
body(r_fr4_99,fr4_f2).
head(r_fr4_100,fr1_p4).
body(r_fr4_100,fr13_f2).
body(r_fr4_100,fr14_c1).
body(r_fr4_100,fr4_x1).
head(r_fr4_101,fr1_p4).
body(r_fr4_101,fr4_x1).
body(r_fr4_101,fr4_y2).
head(r_fr4_102,fr1_p4).
body(r_fr4_102,fr20_b2).
body(r_fr4_102,fr13_z1).
body(r_fr4_102,fr22_p2).
body(r_fr4_102,fr23_y2).
head(r_fr4_103,fr1_p4).
body(r_fr4_103,fr13_z1).
body(r_fr4_103,fr13_s2).
body(r_fr4_103,fr9_t5).
body(r_fr4_103,fr4_s2).
body(r_fr4_103,fr4_w1).
head(r_fr4_104,fr1_p4).
head(r_fr4_105,fr1_p4).
body(r_fr4_105,fr4_b2).
body(r_fr4_105,fr9_t5).
head(r_fr4_106,fr1_p4).
body(r_fr4_106,fr14_c1).
body(r_fr4_106,fr14_c1).
body(r_fr4_106,fr4_f2).
body(r_fr4_106,fr21_x3).
head(r_fr4_107,fr1_p4).
body(r_fr4_107,fr4_s2).
body(r_fr4_107,fr20_r3).
head(r_fr4_108,fr4_s2).
body(r_fr4_108,fr8_u1).
body(r_fr4_108,fr22_p2).
body(r_fr4_108,fr23_y2).
body(r_fr4_108,fr4_y2).
body(r_fr4_108,fr13_z1).
head(r_fr4_109,fr4_s2).
body(r_fr4_109,fr4_c2).
body(r_fr4_109,fr23_y2).
body(r_fr4_109,fr23_v1).
body(r_fr4_109,fr8_u1).
body(r_fr4_109,fr4_x1).
body(r_fr4_109,fr13_z1).
head(r_fr4_110,fr4_s2).
body(r_fr4_110,fr4_e1).
head(r_fr4_111,fr4_s2).
body(r_fr4_111,fr14_c1).
body(r_fr4_111,fr4_d2).
body(r_fr4_111,fr4_e1).
body(r_fr4_111,fr20_b2).
body(r_fr4_111,fr13_z1).
head(r_fr4_112,fr4_s2).
body(r_fr4_112,fr23_y2).
head(r_fr4_113,fr4_s2).
body(r_fr4_113,fr4_b2).
body(r_fr4_113,fr4_e1).
body(r_fr4_113,fr20_b2).
body(r_fr4_113,fr23_v1).
body(r_fr4_113,fr4_x1).
head(r_fr4_114,fr4_s2).
body(r_fr4_114,fr13_f2).
body(r_fr4_114,fr4_c2).
body(r_fr4_114,fr4_d1).
body(r_fr4_114,fr4_y2).
body(r_fr4_114,fr1_p4).
head(r_fr4_115,fr4_s2).
head(r_fr4_116,fr4_s2).
body(r_fr4_116,fr7_a3).
body(r_fr4_116,fr4_c2).
body(r_fr4_116,fr9_t5).
body(r_fr4_116,fr4_x1).
head(r_fr4_117,fr4_s2).
body(r_fr4_117,fr14_c1).
head(r_fr4_118,fr4_s2).
body(r_fr4_118,fr4_c1).
body(r_fr4_118,fr4_c2).
body(r_fr4_118,fr14_c1).
body(r_fr4_118,fr4_f2).
head(r_fr4_119,fr4_s2).
body(r_fr4_119,fr20_b2).
body(r_fr4_119,fr4_d1).
body(r_fr4_119,fr4_f2).
body(r_fr4_119,fr20_z3).
body(r_fr4_119,fr4_y2).
head(r_fr4_120,fr4_s2).
body(r_fr4_120,fr14_c1).
body(r_fr4_120,fr4_d2).
body(r_fr4_120,fr23_v1).
body(r_fr4_120,fr4_x2).
body(r_fr4_120,fr23_y2).
body(r_fr4_120,fr4_y2).
head(r_fr4_121,fr4_s2).
body(r_fr4_121,fr13_f2).
body(r_fr4_121,fr4_c1).
body(r_fr4_121,fr4_d1).
body(r_fr4_121,fr20_b2).
head(r_fr4_122,fr23_y2).
body(r_fr4_122,fr13_z1).
body(r_fr4_122,fr4_s2).
body(r_fr4_122,fr4_t2).
body(r_fr4_122,fr20_r3).
body(r_fr4_122,fr5_r3).
head(r_fr4_123,fr23_y2).
body(r_fr4_123,fr4_c1).
body(r_fr4_123,fr13_z1).
body(r_fr4_123,fr13_s2).
head(r_fr4_124,fr23_y2).
body(r_fr4_124,fr23_s3).
body(r_fr4_124,fr4_x1).
body(r_fr4_124,fr1_p4).
head(r_fr4_125,fr23_y2).
body(r_fr4_125,fr4_b2).
body(r_fr4_125,fr4_c2).
body(r_fr4_125,fr4_f2).
body(r_fr4_125,fr5_r3).
body(r_fr4_125,fr4_y2).
head(r_fr4_126,fr23_y2).
body(r_fr4_126,fr4_a3).
body(r_fr4_126,fr4_b2).
body(r_fr4_126,fr13_f2).
body(r_fr4_126,fr4_d1).
body(r_fr4_126,fr4_e1).
body(r_fr4_126,fr14_c1).
head(r_fr4_127,fr23_y2).
body(r_fr4_127,fr4_c1).
body(r_fr4_127,fr4_d2).
body(r_fr4_127,fr4_e1).
body(r_fr4_127,fr4_f2).
head(r_fr4_128,fr23_y2).
body(r_fr4_128,fr14_c1).
body(r_fr4_128,fr13_z1).
body(r_fr4_128,fr23_v1).
body(r_fr4_128,fr20_r3).
body(r_fr4_128,fr23_y2).
head(r_fr4_129,fr23_y2).
body(r_fr4_129,fr13_f2).
body(r_fr4_129,fr4_e1).
body(r_fr4_129,fr23_v1).
body(r_fr4_129,fr4_x2).
body(r_fr4_129,fr13_z1).
head(r_fr4_130,fr23_y2).
body(r_fr4_130,fr13_s2).
body(r_fr4_130,fr23_y2).
head(r_fr4_131,fr23_y2).
body(r_fr4_131,fr7_a3).
body(r_fr4_131,fr4_c2).
body(r_fr4_131,fr20_t3).
body(r_fr4_131,fr20_r3).
body(r_fr4_131,fr5_r3).
body(r_fr4_131,fr1_p4).
head(r_fr4_132,fr23_y2).
head(r_fr4_133,fr23_y2).
body(r_fr4_133,fr20_b2).
body(r_fr4_133,fr4_c2).
body(r_fr4_133,fr23_s3).
head(r_fr4_134,fr23_y2).
body(r_fr4_134,fr20_b2).
body(r_fr4_134,fr13_f2).
body(r_fr4_134,fr4_c2).
body(r_fr4_134,fr4_d1).
body(r_fr4_134,fr20_b2).
body(r_fr4_134,fr14_c1).
head(r_fr4_135,fr4_x2).
body(r_fr4_135,fr4_c1).
body(r_fr4_135,fr23_y2).
body(r_fr4_135,fr4_t2).
body(r_fr4_135,fr4_w1).
body(r_fr4_135,fr4_x1).
body(r_fr4_135,fr23_y2).
head(r_fr4_136,fr4_x2).
body(r_fr4_136,fr4_b2).
body(r_fr4_136,fr4_c1).
body(r_fr4_136,fr4_c2).
body(r_fr4_136,fr4_d1).
head(r_fr4_137,fr4_x2).
body(r_fr4_137,fr4_b2).
body(r_fr4_137,fr4_c1).
body(r_fr4_137,fr13_z1).
head(r_fr4_138,fr4_x2).
body(r_fr4_138,fr4_f2).
body(r_fr4_138,fr4_x1).
head(r_fr4_139,fr4_x2).
body(r_fr4_139,fr23_y2).
body(r_fr4_139,fr4_q2).
body(r_fr4_139,fr21_x3).
head(r_fr4_140,fr4_x2).
body(r_fr4_140,fr4_c2).
body(r_fr4_140,fr4_w1).
body(r_fr4_140,fr1_p4).
head(r_fr4_141,fr4_x2).
body(r_fr4_141,fr20_b2).
body(r_fr4_141,fr7_a3).
body(r_fr4_141,fr14_c1).
body(r_fr4_141,fr4_d1).
body(r_fr4_141,fr14_c1).
body(r_fr4_141,fr4_f2).
head(r_fr4_142,fr4_x2).
body(r_fr4_142,fr14_c1).
body(r_fr4_142,fr8_u1).
body(r_fr4_142,fr23_y2).
body(r_fr4_142,fr13_z1).
head(r_fr4_143,fr4_x2).
head(r_fr4_144,fr4_x2).
body(r_fr4_144,fr20_b2).
body(r_fr4_144,fr4_a3).
body(r_fr4_144,fr7_a3).
body(r_fr4_144,fr4_b2).
body(r_fr4_144,fr4_c1).
head(r_fr4_145,fr4_x2).
body(r_fr4_145,fr4_c1).
head(r_fr4_146,fr4_x2).
body(r_fr4_146,fr20_b2).
body(r_fr4_146,fr4_f2).
body(r_fr4_146,fr8_u1).
body(r_fr4_146,fr4_x1).
body(r_fr4_146,fr13_z1).
head(r_fr4_147,fr4_x2).
body(r_fr4_147,fr4_q2).
body(r_fr4_147,fr9_t5).
body(r_fr4_147,fr4_s2).
body(r_fr4_147,fr23_s3).
body(r_fr4_147,fr4_t2).
body(r_fr4_147,fr4_w1).
head(r_fr4_148,fr4_x2).
body(r_fr4_148,fr20_b2).
body(r_fr4_148,fr13_z1).
body(r_fr4_148,fr23_y2).
body(r_fr4_148,fr20_t3).
body(r_fr4_148,fr20_r3).
body(r_fr4_148,fr4_y2).
head(r_fr4_149,fr23_y2).
body(r_fr4_149,fr4_c2).
body(r_fr4_149,fr4_e1).
body(r_fr4_149,fr13_s2).
body(r_fr4_149,fr8_u1).
body(r_fr4_149,fr4_x2).
head(r_fr4_150,fr23_y2).
body(r_fr4_150,fr13_z1).
body(r_fr4_150,fr23_v1).
body(r_fr4_150,fr9_t5).
body(r_fr4_150,fr4_t2).
head(r_fr4_151,fr23_y2).
body(r_fr4_151,fr9_t5).
body(r_fr4_151,fr20_t3).
head(r_fr4_152,fr23_y2).
body(r_fr4_152,fr13_f2).
body(r_fr4_152,fr4_d2).
head(r_fr4_153,fr23_y2).
body(r_fr4_153,fr22_p2).
body(r_fr4_153,fr23_v1).
body(r_fr4_153,fr9_t5).
body(r_fr4_153,fr8_u1).
body(r_fr4_153,fr20_t3).
body(r_fr4_153,fr4_x1).
head(r_fr4_154,fr23_y2).
body(r_fr4_154,fr13_f2).
body(r_fr4_154,fr4_b2).
body(r_fr4_154,fr20_b2).
body(r_fr4_154,fr14_c1).
head(r_fr4_155,fr23_y2).
body(r_fr4_155,fr13_s2).
body(r_fr4_155,fr4_w1).
head(r_fr4_156,fr23_y2).
body(r_fr4_156,fr7_a3).
body(r_fr4_156,fr4_d1).
body(r_fr4_156,fr4_y2).
head(r_fr4_157,fr23_y2).
body(r_fr4_157,fr4_a3).
body(r_fr4_157,fr7_a3).
body(r_fr4_157,fr20_b2).
head(r_fr4_158,fr23_y2).
body(r_fr4_158,fr13_f2).
body(r_fr4_158,fr14_c1).
body(r_fr4_158,fr23_s3).
head(r_fr4_159,fr23_y2).
body(r_fr4_159,fr7_a3).
body(r_fr4_159,fr4_c2).
head(r_fr4_160,fr23_y2).
body(r_fr4_160,fr20_z3).
body(r_fr4_160,fr13_s2).
body(r_fr4_160,fr23_s3).
body(r_fr4_160,fr23_y2).
head(r_fr4_161,fr20_t3).
body(r_fr4_161,fr21_x3).
body(r_fr4_161,fr20_r3).
body(r_fr4_161,fr23_y2).
head(r_fr4_162,fr20_t3).
body(r_fr4_162,fr4_f2).
body(r_fr4_162,fr20_z3).
body(r_fr4_162,fr21_x3).
body(r_fr4_162,fr22_p2).
body(r_fr4_162,fr22_p2).
head(r_fr4_163,fr20_t3).
body(r_fr4_163,fr23_s3).
head(r_fr4_164,fr20_t3).
body(r_fr4_164,fr20_b2).
body(r_fr4_164,fr23_y2).
body(r_fr4_164,fr22_p2).
head(r_fr4_165,fr20_t3).
body(r_fr4_165,fr13_f2).
body(r_fr4_165,fr4_a3).
body(r_fr4_165,fr5_r3).
body(r_fr4_165,fr23_y2).
head(r_fr4_166,fr20_t3).
body(r_fr4_166,fr4_a3).
body(r_fr4_166,fr7_a3).
body(r_fr4_166,fr4_c2).
head(r_fr4_167,fr20_t3).
body(r_fr4_167,fr4_d1).
body(r_fr4_167,fr20_b2).
body(r_fr4_167,fr13_s2).
body(r_fr4_167,fr5_r3).
head(r_fr4_168,fr20_t3).
body(r_fr4_168,fr23_y2).
body(r_fr4_168,fr9_t5).
head(r_fr4_169,fr20_t3).
body(r_fr4_169,fr20_b2).
body(r_fr4_169,fr13_f2).
body(r_fr4_169,fr14_c1).
body(r_fr4_169,fr14_c1).
body(r_fr4_169,fr4_f2).
body(r_fr4_169,fr23_y2).
head(r_fr4_170,fr20_t3).
body(r_fr4_170,fr13_z1).
head(r_fr4_171,fr20_t3).
body(r_fr4_171,fr20_b2).
body(r_fr4_171,fr4_c1).
body(r_fr4_171,fr4_x1).
head(r_fr4_172,fr20_t3).
body(r_fr4_172,fr13_f2).
body(r_fr4_172,fr4_d2).
body(r_fr4_172,fr13_z1).
body(r_fr4_172,fr13_z1).
head(r_fr4_173,fr4_w1).
body(r_fr4_173,fr22_p2).
head(r_fr4_174,fr4_w1).
body(r_fr4_174,fr20_b2).
body(r_fr4_174,fr13_f2).
body(r_fr4_174,fr13_f2).
body(r_fr4_174,fr4_d2).
body(r_fr4_174,fr20_b2).
body(r_fr4_174,fr22_p2).
head(r_fr4_175,fr4_w1).
body(r_fr4_175,fr7_a3).
body(r_fr4_175,fr4_c1).
body(r_fr4_175,fr4_e1).
body(r_fr4_175,fr20_t3).
head(r_fr4_176,fr4_w1).
body(r_fr4_176,fr13_f2).
head(r_fr4_177,fr4_w1).
head(r_fr4_178,fr4_w1).
body(r_fr4_178,fr4_c1).
body(r_fr4_178,fr23_v1).
head(r_fr4_179,fr4_w1).
body(r_fr4_179,fr23_v1).
head(r_fr4_180,fr4_w1).
body(r_fr4_180,fr20_b2).
body(r_fr4_180,fr14_c1).
body(r_fr4_180,fr22_p2).
head(r_fr4_181,fr4_w1).
body(r_fr4_181,fr4_x1).
head(r_fr4_182,fr4_w1).
body(r_fr4_182,fr13_f2).
body(r_fr4_182,fr4_d2).
body(r_fr4_182,fr4_e1).
body(r_fr4_182,fr5_r3).
body(r_fr4_182,fr4_y2).
head(r_fr4_183,fr4_w1).
body(r_fr4_183,fr20_z3).
body(r_fr4_183,fr23_y2).
body(r_fr4_183,fr9_t5).
body(r_fr4_183,fr20_r3).
body(r_fr4_183,fr1_p4).
head(r_fr4_184,fr4_w1).
body(r_fr4_184,fr13_f2).
body(r_fr4_184,fr4_c2).
body(r_fr4_184,fr4_d2).
body(r_fr4_184,fr13_s2).
body(r_fr4_184,fr8_u1).
head(r_fr4_185,fr4_w1).
body(r_fr4_185,fr4_q2).
body(r_fr4_185,fr22_p2).
body(r_fr4_185,fr22_p2).
body(r_fr4_185,fr4_x1).
head(r_fr4_186,fr4_t2).
body(r_fr4_186,fr13_f2).
body(r_fr4_186,fr21_x3).
body(r_fr4_186,fr20_t3).
body(r_fr4_186,fr4_x1).
head(r_fr4_187,fr4_t2).
body(r_fr4_187,fr13_f2).
body(r_fr4_187,fr4_a3).
body(r_fr4_187,fr20_t3).
body(r_fr4_187,fr4_x2).
head(r_fr4_188,fr4_t2).
body(r_fr4_188,fr13_f2).
body(r_fr4_188,fr4_d1).
body(r_fr4_188,fr4_e1).
body(r_fr4_188,fr4_f2).
body(r_fr4_188,fr4_w1).
body(r_fr4_188,fr1_p4).
head(r_fr4_189,fr4_t2).
body(r_fr4_189,fr7_a3).
body(r_fr4_189,fr4_c1).
body(r_fr4_189,fr14_c1).
body(r_fr4_189,fr4_d1).
head(r_fr4_190,fr4_t2).
body(r_fr4_190,fr4_c1).
body(r_fr4_190,fr23_v1).
body(r_fr4_190,fr9_t5).
head(r_fr4_191,fr4_t2).
body(r_fr4_191,fr20_b2).
body(r_fr4_191,fr1_p4).
head(r_fr4_192,fr4_t2).
body(r_fr4_192,fr13_f2).
head(r_fr4_193,fr4_t2).
body(r_fr4_193,fr14_c1).
body(r_fr4_193,fr13_z1).
head(r_fr4_194,fr4_t2).
body(r_fr4_194,fr4_d2).
body(r_fr4_194,fr14_c1).
head(r_fr4_195,fr4_t2).
body(r_fr4_195,fr4_a3).
body(r_fr4_195,fr4_f2).
body(r_fr4_195,fr22_p2).
body(r_fr4_195,fr20_t3).
body(r_fr4_195,fr22_p2).
head(r_fr4_196,fr4_t2).
body(r_fr4_196,fr7_a3).
body(r_fr4_196,fr4_c2).
body(r_fr4_196,fr4_d1).
body(r_fr4_196,fr13_z1).
body(r_fr4_196,fr20_t3).
body(r_fr4_196,fr5_r3).
head(r_fr4_197,fr4_t2).
body(r_fr4_197,fr13_f2).
body(r_fr4_197,fr4_a3).
body(r_fr4_197,fr4_b2).
body(r_fr4_197,fr13_f2).
body(r_fr4_197,fr14_c1).
body(r_fr4_197,fr4_d1).
head(r_fr4_198,fr4_y2).
body(r_fr4_198,fr13_f2).
body(r_fr4_198,fr4_c1).
body(r_fr4_198,fr21_x3).
body(r_fr4_198,fr23_s3).
body(r_fr4_198,fr20_r3).
body(r_fr4_198,fr13_z1).
head(r_fr4_199,fr4_y2).
body(r_fr4_199,fr4_b2).
body(r_fr4_199,fr4_c1).
body(r_fr4_199,fr4_c2).
body(r_fr4_199,fr14_c1).
body(r_fr4_199,fr21_x3).
body(r_fr4_199,fr20_t3).
head(r_fr4_200,fr4_y2).
body(r_fr4_200,fr4_f2).
body(r_fr4_200,fr21_x3).
body(r_fr4_200,fr23_y2).
body(r_fr4_200,fr4_x1).
body(r_fr4_200,fr1_p4).
head(r_fr4_201,fr4_y2).
body(r_fr4_201,fr4_q2).
body(r_fr4_201,fr4_t2).
body(r_fr4_201,fr22_p2).
body(r_fr4_201,fr23_y2).
head(r_fr4_202,fr4_y2).
body(r_fr4_202,fr4_e1).
body(r_fr4_202,fr20_b2).
head(r_fr4_203,fr4_y2).
body(r_fr4_203,fr4_d2).
body(r_fr4_203,fr23_v1).
head(r_fr4_204,fr4_y2).
body(r_fr4_204,fr13_f2).
body(r_fr4_204,fr20_b2).
body(r_fr4_204,fr23_y2).
head(r_fr4_205,fr4_y2).
body(r_fr4_205,fr7_a3).
body(r_fr4_205,fr4_c1).
body(r_fr4_205,fr14_c1).
body(r_fr4_205,fr20_b2).
head(r_fr4_206,fr4_y2).
body(r_fr4_206,fr4_c1).
head(r_fr4_207,fr4_y2).
body(r_fr4_207,fr4_q2).
head(r_fr4_208,fr4_y2).
body(r_fr4_208,fr14_c1).
head(r_fr4_209,fr4_y2).
body(r_fr4_209,fr14_c1).
body(r_fr4_209,fr4_d1).
body(r_fr4_209,fr4_f2).
body(r_fr4_209,fr23_y2).
head(r_fr4_210,fr4_y2).
body(r_fr4_210,fr13_f2).
body(r_fr4_210,fr4_e1).
body(r_fr4_210,fr13_s2).
body(r_fr4_210,fr5_r3).
body(r_fr4_210,fr4_x1).
head(r_fr4_211,fr4_y2).
body(r_fr4_211,fr7_a3).
body(r_fr4_211,fr20_b2).
body(r_fr4_211,fr23_s3).
head(r_fr4_212,fr9_t5).
body(r_fr4_212,fr13_f2).
body(r_fr4_212,fr4_d2).
body(r_fr4_212,fr4_e1).
body(r_fr4_212,fr23_v1).
body(r_fr4_212,fr4_x1).
head(r_fr4_213,fr9_t5).
body(r_fr4_213,fr23_s3).
head(r_fr4_214,fr9_t5).
body(r_fr4_214,fr7_a3).
body(r_fr4_214,fr4_s2).
body(r_fr4_214,fr23_y2).
head(r_fr4_215,fr9_t5).
body(r_fr4_215,fr4_d1).
body(r_fr4_215,fr13_s2).
body(r_fr4_215,fr23_y2).
body(r_fr4_215,fr4_x2).
body(r_fr4_215,fr1_p4).
head(r_fr4_216,fr9_t5).
body(r_fr4_216,fr13_s2).
body(r_fr4_216,fr20_t3).
body(r_fr4_216,fr22_p2).
body(r_fr4_216,fr23_y2).
body(r_fr4_216,fr1_p4).
head(r_fr4_217,fr9_t5).
body(r_fr4_217,fr4_c1).
body(r_fr4_217,fr4_c2).
body(r_fr4_217,fr4_e1).
body(r_fr4_217,fr20_b2).
body(r_fr4_217,fr4_f2).
head(r_fr4_218,fr9_t5).
body(r_fr4_218,fr20_b2).
body(r_fr4_218,fr13_f2).
body(r_fr4_218,fr14_c1).
body(r_fr4_218,fr14_c1).
head(r_fr4_219,fr9_t5).
body(r_fr4_219,fr13_f2).
body(r_fr4_219,fr20_z3).
body(r_fr4_219,fr8_u1).
body(r_fr4_219,fr20_r3).
head(r_fr4_220,fr9_t5).
head(r_fr4_221,fr9_t5).
body(r_fr4_221,fr20_b2).
body(r_fr4_221,fr13_f2).
body(r_fr4_221,fr14_c1).
body(r_fr4_221,fr4_d2).
body(r_fr4_221,fr4_e1).
body(r_fr4_221,fr14_c1).
head(r_fr4_222,fr9_t5).
body(r_fr4_222,fr4_t2).
head(r_fr4_223,fr23_s3).
body(r_fr4_223,fr4_c1).
body(r_fr4_223,fr23_y2).
body(r_fr4_223,fr4_q2).
body(r_fr4_223,fr8_u1).
body(r_fr4_223,fr4_t2).
body(r_fr4_223,fr13_z1).
head(r_fr4_224,fr23_s3).
body(r_fr4_224,fr23_y2).
head(r_fr4_225,fr23_s3).
body(r_fr4_225,fr22_p2).
head(r_fr4_226,fr23_s3).
body(r_fr4_226,fr4_a3).
body(r_fr4_226,fr7_a3).
body(r_fr4_226,fr4_c1).
body(r_fr4_226,fr20_b2).
body(r_fr4_226,fr14_c1).
head(r_fr4_227,fr23_s3).
body(r_fr4_227,fr13_s2).
body(r_fr4_227,fr4_w1).
head(r_fr4_228,fr23_s3).
body(r_fr4_228,fr13_f2).
body(r_fr4_228,fr4_a3).
body(r_fr4_228,fr4_c2).
body(r_fr4_228,fr4_d1).
body(r_fr4_228,fr4_d2).
head(r_fr4_229,fr23_s3).
head(r_fr4_230,fr23_s3).
body(r_fr4_230,fr13_f2).
body(r_fr4_230,fr4_a3).
body(r_fr4_230,fr4_b2).
body(r_fr4_230,fr20_b2).
head(r_fr4_231,fr23_s3).
body(r_fr4_231,fr4_c1).
body(r_fr4_231,fr23_y2).
body(r_fr4_231,fr1_p4).
head(r_fr4_232,fr23_s3).
body(r_fr4_232,fr20_b2).
body(r_fr4_232,fr14_c1).
body(r_fr4_232,fr20_b2).
body(r_fr4_232,fr14_c1).
body(r_fr4_232,fr4_f2).
body(r_fr4_232,fr20_t3).
head(r_fr4_233,fr23_s3).
body(r_fr4_233,fr4_a3).
body(r_fr4_233,fr7_a3).
body(r_fr4_233,fr14_c1).
body(r_fr4_233,fr4_f2).
body(r_fr4_233,fr13_z1).
body(r_fr4_233,fr1_p4).
head(r_fr4_234,fr23_s3).
body(r_fr4_234,fr13_f2).
body(r_fr4_234,fr5_r3).
body(r_fr4_234,fr23_y2).
body(r_fr4_234,fr13_z1).
head(r_fr4_235,fr23_s3).
body(r_fr4_235,fr7_a3).
body(r_fr4_235,fr4_c1).
body(r_fr4_235,fr20_z3).
body(r_fr4_235,fr21_x3).
body(r_fr4_235,fr4_s2).
body(r_fr4_235,fr4_y2).
head(r_fr4_236,fr23_s3).
body(r_fr4_236,fr13_f2).
head(r_fr4_237,fr5_r3).
body(r_fr4_237,fr7_a3).
body(r_fr4_237,fr4_b2).
body(r_fr4_237,fr14_c1).
body(r_fr4_237,fr20_z3).
body(r_fr4_237,fr23_s3).
body(r_fr4_237,fr4_x1).
head(r_fr4_238,fr5_r3).
body(r_fr4_238,fr13_f2).
body(r_fr4_238,fr4_a3).
body(r_fr4_238,fr13_f2).
body(r_fr4_238,fr4_e1).
body(r_fr4_238,fr4_w1).
head(r_fr4_239,fr5_r3).
body(r_fr4_239,fr4_a3).
body(r_fr4_239,fr4_b2).
body(r_fr4_239,fr4_c1).
body(r_fr4_239,fr4_d2).
body(r_fr4_239,fr14_c1).
body(r_fr4_239,fr4_f2).
head(r_fr4_240,fr5_r3).
body(r_fr4_240,fr23_y2).
body(r_fr4_240,fr4_t2).
body(r_fr4_240,fr1_p4).
head(r_fr4_241,fr5_r3).
body(r_fr4_241,fr4_c1).
body(r_fr4_241,fr4_c2).
body(r_fr4_241,fr4_d2).
body(r_fr4_241,fr14_c1).
head(r_fr4_242,fr5_r3).
body(r_fr4_242,fr14_c1).
body(r_fr4_242,fr13_z1).
body(r_fr4_242,fr23_y2).
body(r_fr4_242,fr4_w1).
head(r_fr4_243,fr5_r3).
body(r_fr4_243,fr13_f2).
body(r_fr4_243,fr4_a3).
body(r_fr4_243,fr4_e1).
body(r_fr4_243,fr14_c1).
body(r_fr4_243,fr21_x3).
head(r_fr4_244,fr5_r3).
body(r_fr4_244,fr13_f2).
body(r_fr4_244,fr4_d2).
body(r_fr4_244,fr4_q2).
body(r_fr4_244,fr23_v1).
head(r_fr4_245,fr5_r3).
body(r_fr4_245,fr13_f2).
body(r_fr4_245,fr4_c2).
body(r_fr4_245,fr23_y2).
head(r_fr4_246,fr5_r3).
body(r_fr4_246,fr13_z1).
body(r_fr4_246,fr9_t5).
body(r_fr4_246,fr4_s2).
body(r_fr4_246,fr20_r3).
body(r_fr4_246,fr23_y2).
body(r_fr4_246,fr1_p4).
head(r_fr4_247,fr5_r3).
body(r_fr4_247,fr4_b2).
body(r_fr4_247,fr20_z3).
body(r_fr4_247,fr4_s2).
head(r_fr4_248,fr5_r3).
head(r_fr4_249,fr5_r3).
body(r_fr4_249,fr4_b2).
head(r_fr4_250,fr5_r3).
body(r_fr4_250,fr7_a3).
body(r_fr4_250,fr4_b2).
body(r_fr4_250,fr13_f2).
body(r_fr4_250,fr14_c1).
body(r_fr4_250,fr20_b2).
body(r_fr4_250,fr4_f2).

assumption(fr5_a1).
assumption(fr13_f2).
assumption(fr8_b2).
assumption(fr20_b2).
assumption(fr5_e1).
assumption(fr5_f1).
assumption(fr5_a2).
assumption(fr14_c1).
assumption(fr20_b2).
assumption(fr5_d2).
assumption(fr20_b2).
assumption(fr5_f2).
assumption(fr13_f2).
assumption(fr5_b3).
assumption(fr14_e1).
contrary(fr5_a1,fr5_z1).
contrary(fr5_a2,fr13_f2).
contrary(fr13_f2,fr5_x2).
contrary(fr13_f2,fr23_y2).
contrary(fr14_c1,fr5_y3).
contrary(fr5_b3,fr2_q2).
contrary(fr8_b2,fr5_z1).
contrary(fr20_b2,fr5_a2).
contrary(fr14_e1,fr5_x2).
contrary(fr20_b2,fr2_q2).
contrary(fr5_d2,fr14_c1).
contrary(fr5_e1,fr14_c1).
contrary(fr20_b2,fr9_w5).
contrary(fr5_f1,fr5_p4).
contrary(fr5_f2,fr14_e1).
head(r_fr5_0,fr21_z2).
body(r_fr5_0,fr13_f2).
body(r_fr5_0,fr22_r2).
body(r_fr5_0,fr5_p2).
body(r_fr5_0,fr5_p4).
body(r_fr5_0,fr11_q4).
body(r_fr5_0,fr5_q2).
body(r_fr5_0,fr2_q2).
body(r_fr5_0,fr5_r3).
body(r_fr5_0,fr22_p2).
body(r_fr5_0,fr22_p2).
body(r_fr5_0,fr5_t1).
body(r_fr5_0,fr16_x2).
body(r_fr5_0,fr2_q2).
body(r_fr5_0,fr19_q1).
body(r_fr5_0,fr5_w3).
body(r_fr5_0,fr5_x2).
body(r_fr5_0,fr23_y2).
body(r_fr5_0,fr5_z2).
head(r_fr5_1,fr21_z2).
body(r_fr5_1,fr5_b3).
body(r_fr5_1,fr20_b2).
body(r_fr5_1,fr5_d2).
body(r_fr5_1,fr22_r2).
body(r_fr5_1,fr5_p2).
body(r_fr5_1,fr11_q4).
body(r_fr5_1,fr5_q2).
body(r_fr5_1,fr23_y2).
body(r_fr5_1,fr11_v1).
body(r_fr5_1,fr9_w5).
body(r_fr5_1,fr5_r3).
body(r_fr5_1,fr22_p2).
body(r_fr5_1,fr2_q2).
body(r_fr5_1,fr23_y2).
body(r_fr5_1,fr16_x2).
body(r_fr5_1,fr21_w1).
body(r_fr5_1,fr2_q2).
body(r_fr5_1,fr9_t5).
body(r_fr5_1,fr5_w3).
body(r_fr5_1,fr5_z1).
body(r_fr5_1,fr5_z2).
head(r_fr5_2,fr21_z2).
body(r_fr5_2,fr5_a2).
body(r_fr5_2,fr13_f2).
body(r_fr5_2,fr5_d2).
body(r_fr5_2,fr5_f1).
body(r_fr5_2,fr22_r2).
body(r_fr5_2,fr11_q4).
body(r_fr5_2,fr5_q2).
body(r_fr5_2,fr9_w5).
body(r_fr5_2,fr22_p2).
body(r_fr5_2,fr2_q2).
body(r_fr5_2,fr21_w1).
body(r_fr5_2,fr2_q2).
body(r_fr5_2,fr5_w1).
body(r_fr5_2,fr5_w3).
body(r_fr5_2,fr13_z1).
body(r_fr5_2,fr5_x2).
body(r_fr5_2,fr19_v1).
body(r_fr5_2,fr23_y2).
body(r_fr5_2,fr5_y3).
body(r_fr5_2,fr5_z2).
body(r_fr5_2,fr5_z3).
head(r_fr5_3,fr21_z2).
body(r_fr5_3,fr5_a1).
body(r_fr5_3,fr14_c1).
body(r_fr5_3,fr5_b3).
body(r_fr5_3,fr8_b2).
body(r_fr5_3,fr20_b2).
body(r_fr5_3,fr14_e1).
body(r_fr5_3,fr22_r2).
body(r_fr5_3,fr22_p2).
body(r_fr5_3,fr2_q2).
body(r_fr5_3,fr5_t1).
body(r_fr5_3,fr16_x2).
body(r_fr5_3,fr21_w1).
body(r_fr5_3,fr19_q1).
body(r_fr5_3,fr13_z1).
body(r_fr5_3,fr19_v1).
body(r_fr5_3,fr5_z1).
body(r_fr5_3,fr5_z2).
body(r_fr5_3,fr5_z3).
head(r_fr5_4,fr5_y3).
body(r_fr5_4,fr5_a1).
body(r_fr5_4,fr5_b3).
body(r_fr5_4,fr8_b2).
body(r_fr5_4,fr14_e1).
body(r_fr5_4,fr20_b2).
body(r_fr5_4,fr22_r2).
body(r_fr5_4,fr11_q4).
body(r_fr5_4,fr2_q2).
body(r_fr5_4,fr5_t1).
body(r_fr5_4,fr23_y2).
body(r_fr5_4,fr9_t5).
body(r_fr5_4,fr19_q1).
body(r_fr5_4,fr13_z1).
body(r_fr5_4,fr5_x2).
body(r_fr5_4,fr19_v1).
body(r_fr5_4,fr23_y2).
body(r_fr5_4,fr5_z2).
body(r_fr5_4,fr5_z3).
head(r_fr5_5,fr5_y3).
body(r_fr5_5,fr13_f2).
body(r_fr5_5,fr8_b2).
body(r_fr5_5,fr20_b2).
body(r_fr5_5,fr22_r2).
body(r_fr5_5,fr11_q4).
body(r_fr5_5,fr5_q2).
body(r_fr5_5,fr23_y2).
body(r_fr5_5,fr11_v1).
body(r_fr5_5,fr2_q2).
body(r_fr5_5,fr22_p2).
body(r_fr5_5,fr22_p2).
body(r_fr5_5,fr23_y2).
body(r_fr5_5,fr16_x2).
body(r_fr5_5,fr2_q2).
body(r_fr5_5,fr20_u3).
body(r_fr5_5,fr9_t5).
body(r_fr5_5,fr23_y2).
body(r_fr5_5,fr19_q1).
body(r_fr5_5,fr5_x2).
body(r_fr5_5,fr5_z2).
body(r_fr5_5,fr5_z3).
head(r_fr5_6,fr5_y3).
body(r_fr5_6,fr13_z1).
body(r_fr5_6,fr5_p4).
body(r_fr5_6,fr5_q2).
body(r_fr5_6,fr23_y2).
body(r_fr5_6,fr2_q2).
body(r_fr5_6,fr5_r3).
body(r_fr5_6,fr22_p2).
body(r_fr5_6,fr23_y2).
body(r_fr5_6,fr2_q2).
body(r_fr5_6,fr20_u3).
body(r_fr5_6,fr23_y2).
body(r_fr5_6,fr5_w1).
body(r_fr5_6,fr19_q1).
body(r_fr5_6,fr5_w3).
body(r_fr5_6,fr13_z1).
body(r_fr5_6,fr5_x2).
body(r_fr5_6,fr19_v1).
body(r_fr5_6,fr1_p4).
body(r_fr5_6,fr23_y2).
body(r_fr5_6,fr5_z1).
head(r_fr5_7,fr5_y3).
body(r_fr5_7,fr5_a1).
body(r_fr5_7,fr22_r2).
body(r_fr5_7,fr5_p2).
body(r_fr5_7,fr13_z1).
body(r_fr5_7,fr5_p4).
body(r_fr5_7,fr11_q4).
body(r_fr5_7,fr5_q2).
body(r_fr5_7,fr23_y2).
body(r_fr5_7,fr2_q2).
body(r_fr5_7,fr22_p2).
body(r_fr5_7,fr22_p2).
body(r_fr5_7,fr5_t1).
body(r_fr5_7,fr23_y2).
body(r_fr5_7,fr20_u3).
body(r_fr5_7,fr5_w3).
body(r_fr5_7,fr5_x2).
body(r_fr5_7,fr1_p4).
body(r_fr5_7,fr23_y2).
body(r_fr5_7,fr5_z3).
head(r_fr5_8,fr5_y3).
body(r_fr5_8,fr5_a1).
body(r_fr5_8,fr5_a2).
body(r_fr5_8,fr13_f2).
body(r_fr5_8,fr14_c1).
body(r_fr5_8,fr8_b2).
body(r_fr5_8,fr14_e1).
body(r_fr5_8,fr5_p2).
body(r_fr5_8,fr13_z1).
body(r_fr5_8,fr5_q2).
body(r_fr5_8,fr11_v1).
body(r_fr5_8,fr9_w5).
body(r_fr5_8,fr5_t1).
body(r_fr5_8,fr21_w1).
body(r_fr5_8,fr2_q2).
body(r_fr5_8,fr9_t5).
body(r_fr5_8,fr1_p4).
body(r_fr5_8,fr23_y2).
body(r_fr5_8,fr5_z1).
body(r_fr5_8,fr5_z3).
head(r_fr5_9,fr19_v1).
body(r_fr5_9,fr13_f2).
body(r_fr5_9,fr13_f2).
body(r_fr5_9,fr14_c1).
body(r_fr5_9,fr5_d2).
body(r_fr5_9,fr20_b2).
body(r_fr5_9,fr5_f2).
body(r_fr5_9,fr22_r2).
body(r_fr5_9,fr13_z1).
body(r_fr5_9,fr2_q2).
body(r_fr5_9,fr22_p2).
body(r_fr5_9,fr2_q2).
body(r_fr5_9,fr5_t1).
body(r_fr5_9,fr23_y2).
body(r_fr5_9,fr2_q2).
body(r_fr5_9,fr9_t5).
body(r_fr5_9,fr5_w1).
body(r_fr5_9,fr13_z1).
body(r_fr5_9,fr1_p4).
body(r_fr5_9,fr5_z3).
head(r_fr5_10,fr19_v1).
body(r_fr5_10,fr13_f2).
body(r_fr5_10,fr13_f2).
body(r_fr5_10,fr14_c1).
body(r_fr5_10,fr20_b2).
body(r_fr5_10,fr5_e1).
body(r_fr5_10,fr5_f1).
body(r_fr5_10,fr13_z1).
body(r_fr5_10,fr5_q2).
body(r_fr5_10,fr11_v1).
body(r_fr5_10,fr22_p2).
body(r_fr5_10,fr22_p2).
body(r_fr5_10,fr2_q2).
body(r_fr5_10,fr5_t1).
body(r_fr5_10,fr23_y2).
body(r_fr5_10,fr21_w1).
body(r_fr5_10,fr23_y2).
body(r_fr5_10,fr13_z1).
body(r_fr5_10,fr1_p4).
body(r_fr5_10,fr5_z2).
body(r_fr5_10,fr5_z3).
head(r_fr5_11,fr2_q2).
body(r_fr5_11,fr5_a1).
body(r_fr5_11,fr5_a2).
body(r_fr5_11,fr13_f2).
body(r_fr5_11,fr8_b2).
body(r_fr5_11,fr20_b2).
body(r_fr5_11,fr5_e1).
body(r_fr5_11,fr5_q2).
body(r_fr5_11,fr23_y2).
body(r_fr5_11,fr11_v1).
body(r_fr5_11,fr9_w5).
body(r_fr5_11,fr22_p2).
body(r_fr5_11,fr2_q2).
body(r_fr5_11,fr23_y2).
body(r_fr5_11,fr2_q2).
body(r_fr5_11,fr5_w3).
body(r_fr5_11,fr13_z1).
body(r_fr5_11,fr5_x2).
body(r_fr5_11,fr23_y2).
body(r_fr5_11,fr5_z2).
body(r_fr5_11,fr5_z3).
head(r_fr5_12,fr2_q2).
body(r_fr5_12,fr22_r2).
body(r_fr5_12,fr5_p2).
body(r_fr5_12,fr5_p4).
body(r_fr5_12,fr11_q4).
body(r_fr5_12,fr5_q2).
body(r_fr5_12,fr23_y2).
body(r_fr5_12,fr5_r3).
body(r_fr5_12,fr22_p2).
body(r_fr5_12,fr5_t1).
body(r_fr5_12,fr23_y2).
body(r_fr5_12,fr21_w1).
body(r_fr5_12,fr2_q2).
body(r_fr5_12,fr5_w1).
body(r_fr5_12,fr19_q1).
body(r_fr5_12,fr13_z1).
body(r_fr5_12,fr5_x2).
body(r_fr5_12,fr1_p4).
body(r_fr5_12,fr5_z1).
body(r_fr5_12,fr5_z2).
head(r_fr5_13,fr2_q2).
body(r_fr5_13,fr20_b2).
body(r_fr5_13,fr5_p2).
body(r_fr5_13,fr13_z1).
body(r_fr5_13,fr5_q2).
body(r_fr5_13,fr23_y2).
body(r_fr5_13,fr11_v1).
body(r_fr5_13,fr9_w5).
body(r_fr5_13,fr22_p2).
body(r_fr5_13,fr21_w1).
body(r_fr5_13,fr2_q2).
body(r_fr5_13,fr9_t5).
body(r_fr5_13,fr5_w1).
body(r_fr5_13,fr19_q1).
body(r_fr5_13,fr13_z1).
body(r_fr5_13,fr5_x2).
body(r_fr5_13,fr1_p4).
body(r_fr5_13,fr23_y2).
body(r_fr5_13,fr5_z1).
body(r_fr5_13,fr5_z2).
body(r_fr5_13,fr5_z3).
head(r_fr5_14,fr2_q2).
body(r_fr5_14,fr8_b2).
body(r_fr5_14,fr5_d2).
body(r_fr5_14,fr5_f1).
body(r_fr5_14,fr5_p2).
body(r_fr5_14,fr13_z1).
body(r_fr5_14,fr5_p4).
body(r_fr5_14,fr5_q2).
body(r_fr5_14,fr23_y2).
body(r_fr5_14,fr11_v1).
body(r_fr5_14,fr9_w5).
body(r_fr5_14,fr5_r3).
body(r_fr5_14,fr2_q2).
body(r_fr5_14,fr23_y2).
body(r_fr5_14,fr16_x2).
body(r_fr5_14,fr20_u3).
body(r_fr5_14,fr23_y2).
body(r_fr5_14,fr19_q1).
body(r_fr5_14,fr13_z1).
body(r_fr5_14,fr5_x2).
body(r_fr5_14,fr5_z1).
body(r_fr5_14,fr5_z3).
head(r_fr5_15,fr5_p4).
body(r_fr5_15,fr5_a1).
body(r_fr5_15,fr13_f2).
body(r_fr5_15,fr8_b2).
body(r_fr5_15,fr20_b2).
body(r_fr5_15,fr14_e1).
body(r_fr5_15,fr5_f1).
body(r_fr5_15,fr22_r2).
body(r_fr5_15,fr5_p2).
body(r_fr5_15,fr11_q4).
body(r_fr5_15,fr23_y2).
body(r_fr5_15,fr11_v1).
body(r_fr5_15,fr9_w5).
body(r_fr5_15,fr5_r3).
body(r_fr5_15,fr22_p2).
body(r_fr5_15,fr20_u3).
body(r_fr5_15,fr9_t5).
body(r_fr5_15,fr23_y2).
body(r_fr5_15,fr5_w1).
body(r_fr5_15,fr13_z1).
body(r_fr5_15,fr5_x2).
body(r_fr5_15,fr23_y2).
head(r_fr5_16,fr5_p4).
body(r_fr5_16,fr14_c1).
body(r_fr5_16,fr20_b2).
body(r_fr5_16,fr22_r2).
body(r_fr5_16,fr5_p2).
body(r_fr5_16,fr13_z1).
body(r_fr5_16,fr5_q2).
body(r_fr5_16,fr23_y2).
body(r_fr5_16,fr22_p2).
body(r_fr5_16,fr22_p2).
body(r_fr5_16,fr2_q2).
body(r_fr5_16,fr16_x2).
body(r_fr5_16,fr21_w1).
body(r_fr5_16,fr23_y2).
body(r_fr5_16,fr5_w1).
body(r_fr5_16,fr19_q1).
body(r_fr5_16,fr5_w3).
body(r_fr5_16,fr13_z1).
body(r_fr5_16,fr5_x2).
body(r_fr5_16,fr23_y2).
body(r_fr5_16,fr5_z2).
head(r_fr5_17,fr5_p4).
body(r_fr5_17,fr22_r2).
body(r_fr5_17,fr5_p2).
body(r_fr5_17,fr13_z1).
body(r_fr5_17,fr5_q2).
body(r_fr5_17,fr23_y2).
body(r_fr5_17,fr11_v1).
body(r_fr5_17,fr9_w5).
body(r_fr5_17,fr5_r3).
body(r_fr5_17,fr22_p2).
body(r_fr5_17,fr16_x2).
body(r_fr5_17,fr21_w1).
body(r_fr5_17,fr20_u3).
body(r_fr5_17,fr9_t5).
body(r_fr5_17,fr23_y2).
body(r_fr5_17,fr5_w1).
body(r_fr5_17,fr19_q1).
body(r_fr5_17,fr13_z1).
body(r_fr5_17,fr5_x2).
body(r_fr5_17,fr1_p4).
body(r_fr5_17,fr23_y2).
body(r_fr5_17,fr5_z3).
head(r_fr5_18,fr5_p4).
body(r_fr5_18,fr8_b2).
body(r_fr5_18,fr20_b2).
body(r_fr5_18,fr22_r2).
body(r_fr5_18,fr11_q4).
body(r_fr5_18,fr5_q2).
body(r_fr5_18,fr23_y2).
body(r_fr5_18,fr11_v1).
body(r_fr5_18,fr9_w5).
body(r_fr5_18,fr5_r3).
body(r_fr5_18,fr22_p2).
body(r_fr5_18,fr2_q2).
body(r_fr5_18,fr5_t1).
body(r_fr5_18,fr23_y2).
body(r_fr5_18,fr16_x2).
body(r_fr5_18,fr9_t5).
body(r_fr5_18,fr23_y2).
body(r_fr5_18,fr19_q1).
body(r_fr5_18,fr13_z1).
body(r_fr5_18,fr5_x2).
body(r_fr5_18,fr1_p4).
head(r_fr5_19,fr5_p4).
body(r_fr5_19,fr5_a1).
body(r_fr5_19,fr5_p2).
body(r_fr5_19,fr13_z1).
body(r_fr5_19,fr11_q4).
body(r_fr5_19,fr5_q2).
body(r_fr5_19,fr11_v1).
body(r_fr5_19,fr9_w5).
body(r_fr5_19,fr5_r3).
body(r_fr5_19,fr22_p2).
body(r_fr5_19,fr5_t1).
body(r_fr5_19,fr16_x2).
body(r_fr5_19,fr21_w1).
body(r_fr5_19,fr2_q2).
body(r_fr5_19,fr9_t5).
body(r_fr5_19,fr23_y2).
body(r_fr5_19,fr13_z1).
body(r_fr5_19,fr5_x2).
body(r_fr5_19,fr23_y2).
head(r_fr5_20,fr22_p2).
body(r_fr5_20,fr14_c1).
body(r_fr5_20,fr20_b2).
body(r_fr5_20,fr13_z1).
body(r_fr5_20,fr11_q4).
body(r_fr5_20,fr5_q2).
body(r_fr5_20,fr11_v1).
body(r_fr5_20,fr5_r3).
body(r_fr5_20,fr22_p2).
body(r_fr5_20,fr5_t1).
body(r_fr5_20,fr16_x2).
body(r_fr5_20,fr21_w1).
body(r_fr5_20,fr2_q2).
body(r_fr5_20,fr20_u3).
body(r_fr5_20,fr23_y2).
body(r_fr5_20,fr5_w1).
body(r_fr5_20,fr5_w3).
body(r_fr5_20,fr13_z1).
body(r_fr5_20,fr5_x2).
body(r_fr5_20,fr1_p4).
body(r_fr5_20,fr5_z2).
body(r_fr5_20,fr5_z3).
head(r_fr5_21,fr22_p2).
body(r_fr5_21,fr13_f2).
body(r_fr5_21,fr13_f2).
body(r_fr5_21,fr5_b3).
body(r_fr5_21,fr8_b2).
body(r_fr5_21,fr14_e1).
body(r_fr5_21,fr5_f2).
body(r_fr5_21,fr23_y2).
body(r_fr5_21,fr11_v1).
body(r_fr5_21,fr22_p2).
body(r_fr5_21,fr2_q2).
body(r_fr5_21,fr23_y2).
body(r_fr5_21,fr21_w1).
body(r_fr5_21,fr2_q2).
body(r_fr5_21,fr9_t5).
body(r_fr5_21,fr19_q1).
body(r_fr5_21,fr13_z1).
body(r_fr5_21,fr5_x2).
body(r_fr5_21,fr5_z1).
body(r_fr5_21,fr5_z3).
head(r_fr5_22,fr22_p2).
body(r_fr5_22,fr22_r2).
body(r_fr5_22,fr5_p2).
body(r_fr5_22,fr13_z1).
body(r_fr5_22,fr11_q4).
body(r_fr5_22,fr5_q2).
body(r_fr5_22,fr11_v1).
body(r_fr5_22,fr5_r3).
body(r_fr5_22,fr22_p2).
body(r_fr5_22,fr2_q2).
body(r_fr5_22,fr5_t1).
body(r_fr5_22,fr21_w1).
body(r_fr5_22,fr2_q2).
body(r_fr5_22,fr9_t5).
body(r_fr5_22,fr5_w1).
body(r_fr5_22,fr19_q1).
body(r_fr5_22,fr5_w3).
body(r_fr5_22,fr13_z1).
body(r_fr5_22,fr5_x2).
body(r_fr5_22,fr5_z1).
body(r_fr5_22,fr5_z3).
head(r_fr5_23,fr13_z1).
body(r_fr5_23,fr5_a1).
body(r_fr5_23,fr5_a2).
body(r_fr5_23,fr14_e1).
body(r_fr5_23,fr5_e1).
body(r_fr5_23,fr5_p2).
body(r_fr5_23,fr5_q2).
body(r_fr5_23,fr23_y2).
body(r_fr5_23,fr22_p2).
body(r_fr5_23,fr2_q2).
body(r_fr5_23,fr5_t1).
body(r_fr5_23,fr23_y2).
body(r_fr5_23,fr21_w1).
body(r_fr5_23,fr2_q2).
body(r_fr5_23,fr20_u3).
body(r_fr5_23,fr23_y2).
body(r_fr5_23,fr5_w1).
body(r_fr5_23,fr19_q1).
body(r_fr5_23,fr5_w3).
body(r_fr5_23,fr5_x2).
body(r_fr5_23,fr5_z2).
body(r_fr5_23,fr5_z3).
head(r_fr5_24,fr13_z1).
body(r_fr5_24,fr14_c1).
body(r_fr5_24,fr14_e1).
body(r_fr5_24,fr22_r2).
body(r_fr5_24,fr11_q4).
body(r_fr5_24,fr23_y2).
body(r_fr5_24,fr11_v1).
body(r_fr5_24,fr22_p2).
body(r_fr5_24,fr2_q2).
body(r_fr5_24,fr5_t1).
body(r_fr5_24,fr21_w1).
body(r_fr5_24,fr2_q2).
body(r_fr5_24,fr20_u3).
body(r_fr5_24,fr9_t5).
body(r_fr5_24,fr23_y2).
body(r_fr5_24,fr5_w3).
body(r_fr5_24,fr13_z1).
body(r_fr5_24,fr23_y2).
body(r_fr5_24,fr5_z2).
head(r_fr5_25,fr11_q4).
body(r_fr5_25,fr14_c1).
body(r_fr5_25,fr5_b3).
body(r_fr5_25,fr22_r2).
body(r_fr5_25,fr11_v1).
body(r_fr5_25,fr9_w5).
body(r_fr5_25,fr5_r3).
body(r_fr5_25,fr22_p2).
body(r_fr5_25,fr2_q2).
body(r_fr5_25,fr23_y2).
body(r_fr5_25,fr21_w1).
body(r_fr5_25,fr2_q2).
body(r_fr5_25,fr9_t5).
body(r_fr5_25,fr23_y2).
body(r_fr5_25,fr19_q1).
body(r_fr5_25,fr5_w3).
body(r_fr5_25,fr13_z1).
body(r_fr5_25,fr5_x2).
body(r_fr5_25,fr1_p4).
body(r_fr5_25,fr5_z2).
head(r_fr5_26,fr11_q4).
body(r_fr5_26,fr5_a1).
body(r_fr5_26,fr22_r2).
body(r_fr5_26,fr5_q2).
body(r_fr5_26,fr11_v1).
body(r_fr5_26,fr9_w5).
body(r_fr5_26,fr22_p2).
body(r_fr5_26,fr16_x2).
body(r_fr5_26,fr21_w1).
body(r_fr5_26,fr2_q2).
body(r_fr5_26,fr20_u3).
body(r_fr5_26,fr9_t5).
body(r_fr5_26,fr23_y2).
body(r_fr5_26,fr19_q1).
body(r_fr5_26,fr13_z1).
body(r_fr5_26,fr5_x2).
body(r_fr5_26,fr1_p4).
body(r_fr5_26,fr5_z1).
body(r_fr5_26,fr5_z2).
body(r_fr5_26,fr5_z3).
head(r_fr5_27,fr11_q4).
body(r_fr5_27,fr5_a1).
body(r_fr5_27,fr13_f2).
body(r_fr5_27,fr13_f2).
body(r_fr5_27,fr5_d2).
body(r_fr5_27,fr20_b2).
body(r_fr5_27,fr5_q2).
body(r_fr5_27,fr23_y2).
body(r_fr5_27,fr9_w5).
body(r_fr5_27,fr5_r3).
body(r_fr5_27,fr22_p2).
body(r_fr5_27,fr2_q2).
body(r_fr5_27,fr21_w1).
body(r_fr5_27,fr2_q2).
body(r_fr5_27,fr19_q1).
body(r_fr5_27,fr5_w3).
body(r_fr5_27,fr13_z1).
body(r_fr5_27,fr5_x2).
body(r_fr5_27,fr5_z1).
head(r_fr5_28,fr11_q4).
body(r_fr5_28,fr20_b2).
body(r_fr5_28,fr5_e1).
body(r_fr5_28,fr5_f1).
body(r_fr5_28,fr5_f2).
body(r_fr5_28,fr5_p2).
body(r_fr5_28,fr5_q2).
body(r_fr5_28,fr23_y2).
body(r_fr5_28,fr11_v1).
body(r_fr5_28,fr9_w5).
body(r_fr5_28,fr5_t1).
body(r_fr5_28,fr23_y2).
body(r_fr5_28,fr16_x2).
body(r_fr5_28,fr2_q2).
body(r_fr5_28,fr23_y2).
body(r_fr5_28,fr19_q1).
body(r_fr5_28,fr5_w3).
body(r_fr5_28,fr5_x2).
body(r_fr5_28,fr23_y2).
body(r_fr5_28,fr5_z1).
body(r_fr5_28,fr5_z2).
body(r_fr5_28,fr5_z3).
head(r_fr5_29,fr11_q4).
body(r_fr5_29,fr13_f2).
body(r_fr5_29,fr14_c1).
body(r_fr5_29,fr8_b2).
body(r_fr5_29,fr5_d2).
body(r_fr5_29,fr20_b2).
body(r_fr5_29,fr5_f1).
body(r_fr5_29,fr22_r2).
body(r_fr5_29,fr5_q2).
body(r_fr5_29,fr23_y2).
body(r_fr5_29,fr11_v1).
body(r_fr5_29,fr9_w5).
body(r_fr5_29,fr2_q2).
body(r_fr5_29,fr16_x2).
body(r_fr5_29,fr21_w1).
body(r_fr5_29,fr2_q2).
body(r_fr5_29,fr23_y2).
body(r_fr5_29,fr5_w3).
body(r_fr5_29,fr5_z3).
head(r_fr5_30,fr23_y2).
body(r_fr5_30,fr22_r2).
body(r_fr5_30,fr5_p2).
body(r_fr5_30,fr11_v1).
body(r_fr5_30,fr9_w5).
body(r_fr5_30,fr5_r3).
body(r_fr5_30,fr5_t1).
body(r_fr5_30,fr23_y2).
body(r_fr5_30,fr16_x2).
body(r_fr5_30,fr2_q2).
body(r_fr5_30,fr20_u3).
body(r_fr5_30,fr9_t5).
body(r_fr5_30,fr23_y2).
body(r_fr5_30,fr5_w1).
body(r_fr5_30,fr19_q1).
body(r_fr5_30,fr5_w3).
body(r_fr5_30,fr13_z1).
body(r_fr5_30,fr5_x2).
body(r_fr5_30,fr1_p4).
body(r_fr5_30,fr5_z1).
head(r_fr5_31,fr23_y2).
body(r_fr5_31,fr13_f2).
body(r_fr5_31,fr8_b2).
body(r_fr5_31,fr5_d2).
body(r_fr5_31,fr5_f2).
body(r_fr5_31,fr22_r2).
body(r_fr5_31,fr5_q2).
body(r_fr5_31,fr23_y2).
body(r_fr5_31,fr11_v1).
body(r_fr5_31,fr5_r3).
body(r_fr5_31,fr2_q2).
body(r_fr5_31,fr5_t1).
body(r_fr5_31,fr23_y2).
body(r_fr5_31,fr16_x2).
body(r_fr5_31,fr21_w1).
body(r_fr5_31,fr23_y2).
body(r_fr5_31,fr5_x2).
body(r_fr5_31,fr5_z2).
body(r_fr5_31,fr5_z3).
head(r_fr5_32,fr23_y2).
body(r_fr5_32,fr8_b2).
body(r_fr5_32,fr5_p2).
body(r_fr5_32,fr5_q2).
body(r_fr5_32,fr11_v1).
body(r_fr5_32,fr9_w5).
body(r_fr5_32,fr22_p2).
body(r_fr5_32,fr2_q2).
body(r_fr5_32,fr5_t1).
body(r_fr5_32,fr23_y2).
body(r_fr5_32,fr21_w1).
body(r_fr5_32,fr20_u3).
body(r_fr5_32,fr9_t5).
body(r_fr5_32,fr23_y2).
body(r_fr5_32,fr5_w1).
body(r_fr5_32,fr5_w3).
body(r_fr5_32,fr5_x2).
body(r_fr5_32,fr5_z1).
body(r_fr5_32,fr5_z2).
body(r_fr5_32,fr5_z3).
head(r_fr5_33,fr23_y2).
body(r_fr5_33,fr5_a2).
body(r_fr5_33,fr13_f2).
body(r_fr5_33,fr5_b3).
body(r_fr5_33,fr22_r2).
body(r_fr5_33,fr5_q2).
body(r_fr5_33,fr23_y2).
body(r_fr5_33,fr5_r3).
body(r_fr5_33,fr22_p2).
body(r_fr5_33,fr5_t1).
body(r_fr5_33,fr23_y2).
body(r_fr5_33,fr16_x2).
body(r_fr5_33,fr2_q2).
body(r_fr5_33,fr20_u3).
body(r_fr5_33,fr9_t5).
body(r_fr5_33,fr23_y2).
body(r_fr5_33,fr5_w1).
body(r_fr5_33,fr5_w3).
body(r_fr5_33,fr13_z1).
body(r_fr5_33,fr5_x2).
body(r_fr5_33,fr1_p4).
body(r_fr5_33,fr5_z3).
head(r_fr5_34,fr23_y2).
body(r_fr5_34,fr5_a2).
body(r_fr5_34,fr13_f2).
body(r_fr5_34,fr5_b3).
body(r_fr5_34,fr20_b2).
body(r_fr5_34,fr5_f1).
body(r_fr5_34,fr22_r2).
body(r_fr5_34,fr5_q2).
body(r_fr5_34,fr23_y2).
body(r_fr5_34,fr2_q2).
body(r_fr5_34,fr5_t1).
body(r_fr5_34,fr16_x2).
body(r_fr5_34,fr21_w1).
body(r_fr5_34,fr2_q2).
body(r_fr5_34,fr20_u3).
body(r_fr5_34,fr23_y2).
body(r_fr5_34,fr13_z1).
body(r_fr5_34,fr5_x2).
body(r_fr5_34,fr5_z1).
body(r_fr5_34,fr5_z2).
body(r_fr5_34,fr5_z3).
head(r_fr5_35,fr23_y2).
body(r_fr5_35,fr5_a2).
body(r_fr5_35,fr20_b2).
body(r_fr5_35,fr22_r2).
body(r_fr5_35,fr5_q2).
body(r_fr5_35,fr11_v1).
body(r_fr5_35,fr5_r3).
body(r_fr5_35,fr22_p2).
body(r_fr5_35,fr2_q2).
body(r_fr5_35,fr5_t1).
body(r_fr5_35,fr21_w1).
body(r_fr5_35,fr2_q2).
body(r_fr5_35,fr20_u3).
body(r_fr5_35,fr9_t5).
body(r_fr5_35,fr5_w1).
body(r_fr5_35,fr19_q1).
body(r_fr5_35,fr13_z1).
body(r_fr5_35,fr5_x2).
body(r_fr5_35,fr1_p4).
body(r_fr5_35,fr5_z1).
body(r_fr5_35,fr5_z3).
head(r_fr5_36,fr23_y2).
body(r_fr5_36,fr13_f2).
body(r_fr5_36,fr5_b3).
body(r_fr5_36,fr14_e1).
body(r_fr5_36,fr5_e1).
body(r_fr5_36,fr20_b2).
body(r_fr5_36,fr22_r2).
body(r_fr5_36,fr5_p2).
body(r_fr5_36,fr5_q2).
body(r_fr5_36,fr23_y2).
body(r_fr5_36,fr11_v1).
body(r_fr5_36,fr5_t1).
body(r_fr5_36,fr16_x2).
body(r_fr5_36,fr23_y2).
body(r_fr5_36,fr5_w3).
body(r_fr5_36,fr5_x2).
body(r_fr5_36,fr1_p4).
body(r_fr5_36,fr5_z1).
body(r_fr5_36,fr5_z2).
head(r_fr5_37,fr23_y2).
body(r_fr5_37,fr5_a1).
body(r_fr5_37,fr13_f2).
body(r_fr5_37,fr14_c1).
body(r_fr5_37,fr5_b3).
body(r_fr5_37,fr20_b2).
body(r_fr5_37,fr5_f1).
body(r_fr5_37,fr22_r2).
body(r_fr5_37,fr5_p2).
body(r_fr5_37,fr5_q2).
body(r_fr5_37,fr11_v1).
body(r_fr5_37,fr9_w5).
body(r_fr5_37,fr2_q2).
body(r_fr5_37,fr5_t1).
body(r_fr5_37,fr21_w1).
body(r_fr5_37,fr20_u3).
body(r_fr5_37,fr19_q1).
body(r_fr5_37,fr5_w3).
body(r_fr5_37,fr13_z1).
body(r_fr5_37,fr5_x2).
body(r_fr5_37,fr1_p4).
body(r_fr5_37,fr5_z1).
head(r_fr5_38,fr23_y2).
body(r_fr5_38,fr5_b3).
body(r_fr5_38,fr8_b2).
body(r_fr5_38,fr20_b2).
body(r_fr5_38,fr5_f2).
body(r_fr5_38,fr5_p2).
body(r_fr5_38,fr23_y2).
body(r_fr5_38,fr11_v1).
body(r_fr5_38,fr9_w5).
body(r_fr5_38,fr22_p2).
body(r_fr5_38,fr16_x2).
body(r_fr5_38,fr2_q2).
body(r_fr5_38,fr20_u3).
body(r_fr5_38,fr23_y2).
body(r_fr5_38,fr19_q1).
body(r_fr5_38,fr5_w3).
body(r_fr5_38,fr5_x2).
body(r_fr5_38,fr5_z1).
body(r_fr5_38,fr5_z2).
body(r_fr5_38,fr5_z3).
head(r_fr5_39,fr13_z1).
body(r_fr5_39,fr14_c1).
body(r_fr5_39,fr8_b2).
body(r_fr5_39,fr20_b2).
body(r_fr5_39,fr5_f1).
body(r_fr5_39,fr22_r2).
body(r_fr5_39,fr11_v1).
body(r_fr5_39,fr9_w5).
body(r_fr5_39,fr22_p2).
body(r_fr5_39,fr2_q2).
body(r_fr5_39,fr5_t1).
body(r_fr5_39,fr16_x2).
body(r_fr5_39,fr21_w1).
body(r_fr5_39,fr9_t5).
body(r_fr5_39,fr23_y2).
body(r_fr5_39,fr5_w1).
body(r_fr5_39,fr19_q1).
body(r_fr5_39,fr5_x2).
body(r_fr5_39,fr1_p4).
body(r_fr5_39,fr5_z3).
head(r_fr5_40,fr13_z1).
body(r_fr5_40,fr5_a1).
body(r_fr5_40,fr5_a2).
body(r_fr5_40,fr13_f2).
body(r_fr5_40,fr14_c1).
body(r_fr5_40,fr8_b2).
body(r_fr5_40,fr5_f1).
body(r_fr5_40,fr22_r2).
body(r_fr5_40,fr5_p2).
body(r_fr5_40,fr5_q2).
body(r_fr5_40,fr9_w5).
body(r_fr5_40,fr5_r3).
body(r_fr5_40,fr2_q2).
body(r_fr5_40,fr2_q2).
body(r_fr5_40,fr20_u3).
body(r_fr5_40,fr5_w1).
body(r_fr5_40,fr19_q1).
body(r_fr5_40,fr5_w3).
body(r_fr5_40,fr5_z1).
head(r_fr5_41,fr13_z1).
body(r_fr5_41,fr5_a2).
body(r_fr5_41,fr13_f2).
body(r_fr5_41,fr5_b3).
body(r_fr5_41,fr8_b2).
body(r_fr5_41,fr20_b2).
body(r_fr5_41,fr5_p2).
body(r_fr5_41,fr5_q2).
body(r_fr5_41,fr23_y2).
body(r_fr5_41,fr11_v1).
body(r_fr5_41,fr9_w5).
body(r_fr5_41,fr22_p2).
body(r_fr5_41,fr21_w1).
body(r_fr5_41,fr2_q2).
body(r_fr5_41,fr9_t5).
body(r_fr5_41,fr1_p4).
body(r_fr5_41,fr5_z1).
body(r_fr5_41,fr5_z2).
body(r_fr5_41,fr5_z3).
head(r_fr5_42,fr13_z1).
body(r_fr5_42,fr5_a2).
body(r_fr5_42,fr5_b3).
body(r_fr5_42,fr8_b2).
body(r_fr5_42,fr5_f2).
body(r_fr5_42,fr22_r2).
body(r_fr5_42,fr5_p2).
body(r_fr5_42,fr5_q2).
body(r_fr5_42,fr23_y2).
body(r_fr5_42,fr11_v1).
body(r_fr5_42,fr22_p2).
body(r_fr5_42,fr2_q2).
body(r_fr5_42,fr5_t1).
body(r_fr5_42,fr16_x2).
body(r_fr5_42,fr20_u3).
body(r_fr5_42,fr9_t5).
body(r_fr5_42,fr5_x2).
body(r_fr5_42,fr1_p4).
body(r_fr5_42,fr5_z2).
body(r_fr5_42,fr5_z3).
head(r_fr5_43,fr13_z1).
body(r_fr5_43,fr22_r2).
body(r_fr5_43,fr5_p2).
body(r_fr5_43,fr5_q2).
body(r_fr5_43,fr23_y2).
body(r_fr5_43,fr11_v1).
body(r_fr5_43,fr9_w5).
body(r_fr5_43,fr22_p2).
body(r_fr5_43,fr2_q2).
body(r_fr5_43,fr5_t1).
body(r_fr5_43,fr16_x2).
body(r_fr5_43,fr21_w1).
body(r_fr5_43,fr2_q2).
body(r_fr5_43,fr20_u3).
body(r_fr5_43,fr9_t5).
body(r_fr5_43,fr23_y2).
body(r_fr5_43,fr5_w1).
body(r_fr5_43,fr19_q1).
body(r_fr5_43,fr5_w3).
body(r_fr5_43,fr5_x2).
body(r_fr5_43,fr5_z1).
body(r_fr5_43,fr5_z3).
head(r_fr5_44,fr20_u3).
body(r_fr5_44,fr20_b2).
body(r_fr5_44,fr5_f1).
body(r_fr5_44,fr5_f2).
body(r_fr5_44,fr22_r2).
body(r_fr5_44,fr5_q2).
body(r_fr5_44,fr23_y2).
body(r_fr5_44,fr11_v1).
body(r_fr5_44,fr9_w5).
body(r_fr5_44,fr5_r3).
body(r_fr5_44,fr22_p2).
body(r_fr5_44,fr2_q2).
body(r_fr5_44,fr16_x2).
body(r_fr5_44,fr9_t5).
body(r_fr5_44,fr19_q1).
body(r_fr5_44,fr5_w3).
body(r_fr5_44,fr5_x2).
body(r_fr5_44,fr1_p4).
body(r_fr5_44,fr5_z1).
body(r_fr5_44,fr5_z2).
body(r_fr5_44,fr5_z3).
head(r_fr5_45,fr20_u3).
body(r_fr5_45,fr14_e1).
body(r_fr5_45,fr22_r2).
body(r_fr5_45,fr5_p2).
body(r_fr5_45,fr5_q2).
body(r_fr5_45,fr11_v1).
body(r_fr5_45,fr9_w5).
body(r_fr5_45,fr5_r3).
body(r_fr5_45,fr22_p2).
body(r_fr5_45,fr5_t1).
body(r_fr5_45,fr16_x2).
body(r_fr5_45,fr21_w1).
body(r_fr5_45,fr23_y2).
body(r_fr5_45,fr5_w1).
body(r_fr5_45,fr19_q1).
body(r_fr5_45,fr5_w3).
body(r_fr5_45,fr1_p4).
body(r_fr5_45,fr5_z1).
body(r_fr5_45,fr5_z2).
body(r_fr5_45,fr5_z3).
head(r_fr5_46,fr2_q2).
body(r_fr5_46,fr20_b2).
body(r_fr5_46,fr20_b2).
body(r_fr5_46,fr5_d2).
body(r_fr5_46,fr5_f2).
body(r_fr5_46,fr22_r2).
body(r_fr5_46,fr5_q2).
body(r_fr5_46,fr23_y2).
body(r_fr5_46,fr9_w5).
body(r_fr5_46,fr5_r3).
body(r_fr5_46,fr5_t1).
body(r_fr5_46,fr16_x2).
body(r_fr5_46,fr21_w1).
body(r_fr5_46,fr2_q2).
body(r_fr5_46,fr9_t5).
body(r_fr5_46,fr5_w1).
body(r_fr5_46,fr19_q1).
body(r_fr5_46,fr5_w3).
body(r_fr5_46,fr5_x2).
body(r_fr5_46,fr1_p4).
body(r_fr5_46,fr5_z1).
body(r_fr5_46,fr5_z3).
head(r_fr5_47,fr2_q2).
body(r_fr5_47,fr13_f2).
body(r_fr5_47,fr14_c1).
body(r_fr5_47,fr20_b2).
body(r_fr5_47,fr5_d2).
body(r_fr5_47,fr5_f1).
body(r_fr5_47,fr22_r2).
body(r_fr5_47,fr5_p2).
body(r_fr5_47,fr23_y2).
body(r_fr5_47,fr9_w5).
body(r_fr5_47,fr5_r3).
body(r_fr5_47,fr22_p2).
body(r_fr5_47,fr5_t1).
body(r_fr5_47,fr16_x2).
body(r_fr5_47,fr21_w1).
body(r_fr5_47,fr2_q2).
body(r_fr5_47,fr9_t5).
body(r_fr5_47,fr23_y2).
body(r_fr5_47,fr5_w3).
body(r_fr5_47,fr5_x2).
body(r_fr5_47,fr5_z1).
head(r_fr5_48,fr2_q2).
body(r_fr5_48,fr13_f2).
body(r_fr5_48,fr14_c1).
body(r_fr5_48,fr20_b2).
body(r_fr5_48,fr5_e1).
body(r_fr5_48,fr20_b2).
body(r_fr5_48,fr5_f2).
body(r_fr5_48,fr22_r2).
body(r_fr5_48,fr5_q2).
body(r_fr5_48,fr23_y2).
body(r_fr5_48,fr11_v1).
body(r_fr5_48,fr9_w5).
body(r_fr5_48,fr22_p2).
body(r_fr5_48,fr5_t1).
body(r_fr5_48,fr21_w1).
body(r_fr5_48,fr2_q2).
body(r_fr5_48,fr9_t5).
body(r_fr5_48,fr23_y2).
body(r_fr5_48,fr5_x2).
body(r_fr5_48,fr1_p4).
body(r_fr5_48,fr5_z1).
body(r_fr5_48,fr5_z3).
head(r_fr5_49,fr5_p2).
body(r_fr5_49,fr13_f2).
body(r_fr5_49,fr8_b2).
body(r_fr5_49,fr20_b2).
body(r_fr5_49,fr22_r2).
body(r_fr5_49,fr5_q2).
body(r_fr5_49,fr23_y2).
body(r_fr5_49,fr11_v1).
body(r_fr5_49,fr9_w5).
body(r_fr5_49,fr5_r3).
body(r_fr5_49,fr22_p2).
body(r_fr5_49,fr5_t1).
body(r_fr5_49,fr21_w1).
body(r_fr5_49,fr2_q2).
body(r_fr5_49,fr9_t5).
body(r_fr5_49,fr23_y2).
body(r_fr5_49,fr5_w1).
body(r_fr5_49,fr19_q1).
body(r_fr5_49,fr5_w3).
body(r_fr5_49,fr5_x2).
body(r_fr5_49,fr1_p4).
body(r_fr5_49,fr5_z3).
head(r_fr5_50,fr5_p2).
body(r_fr5_50,fr5_a1).
body(r_fr5_50,fr13_f2).
body(r_fr5_50,fr13_f2).
body(r_fr5_50,fr5_d2).
body(r_fr5_50,fr5_e1).
body(r_fr5_50,fr22_r2).
body(r_fr5_50,fr5_q2).
body(r_fr5_50,fr23_y2).
body(r_fr5_50,fr22_p2).
body(r_fr5_50,fr5_t1).
body(r_fr5_50,fr16_x2).
body(r_fr5_50,fr21_w1).
body(r_fr5_50,fr19_q1).
body(r_fr5_50,fr5_w3).
body(r_fr5_50,fr5_x2).
body(r_fr5_50,fr5_z1).
body(r_fr5_50,fr5_z2).
body(r_fr5_50,fr5_z3).
head(r_fr5_51,fr5_p2).
body(r_fr5_51,fr14_e1).
body(r_fr5_51,fr22_r2).
body(r_fr5_51,fr5_q2).
body(r_fr5_51,fr23_y2).
body(r_fr5_51,fr9_w5).
body(r_fr5_51,fr5_r3).
body(r_fr5_51,fr22_p2).
body(r_fr5_51,fr5_t1).
body(r_fr5_51,fr16_x2).
body(r_fr5_51,fr21_w1).
body(r_fr5_51,fr2_q2).
body(r_fr5_51,fr9_t5).
body(r_fr5_51,fr23_y2).
body(r_fr5_51,fr5_w1).
body(r_fr5_51,fr19_q1).
body(r_fr5_51,fr5_w3).
body(r_fr5_51,fr5_x2).
body(r_fr5_51,fr1_p4).
body(r_fr5_51,fr5_z1).
body(r_fr5_51,fr5_z2).
body(r_fr5_51,fr5_z3).
head(r_fr5_52,fr5_p2).
body(r_fr5_52,fr5_a2).
body(r_fr5_52,fr14_c1).
body(r_fr5_52,fr8_b2).
body(r_fr5_52,fr20_b2).
body(r_fr5_52,fr5_d2).
body(r_fr5_52,fr5_e1).
body(r_fr5_52,fr22_r2).
body(r_fr5_52,fr23_y2).
body(r_fr5_52,fr11_v1).
body(r_fr5_52,fr9_w5).
body(r_fr5_52,fr22_p2).
body(r_fr5_52,fr5_t1).
body(r_fr5_52,fr16_x2).
body(r_fr5_52,fr23_y2).
body(r_fr5_52,fr5_w1).
body(r_fr5_52,fr19_q1).
body(r_fr5_52,fr5_w3).
body(r_fr5_52,fr5_x2).
body(r_fr5_52,fr1_p4).
body(r_fr5_52,fr5_z1).
body(r_fr5_52,fr5_z3).
head(r_fr5_53,fr21_w1).
body(r_fr5_53,fr5_a1).
body(r_fr5_53,fr13_f2).
body(r_fr5_53,fr13_f2).
body(r_fr5_53,fr5_d2).
body(r_fr5_53,fr5_f1).
body(r_fr5_53,fr5_f2).
body(r_fr5_53,fr22_r2).
body(r_fr5_53,fr5_q2).
body(r_fr5_53,fr11_v1).
body(r_fr5_53,fr9_w5).
body(r_fr5_53,fr5_r3).
body(r_fr5_53,fr22_p2).
body(r_fr5_53,fr5_t1).
body(r_fr5_53,fr16_x2).
body(r_fr5_53,fr23_y2).
body(r_fr5_53,fr19_q1).
body(r_fr5_53,fr5_w3).
body(r_fr5_53,fr1_p4).
body(r_fr5_53,fr5_z1).
head(r_fr5_54,fr21_w1).
body(r_fr5_54,fr5_a2).
body(r_fr5_54,fr13_f2).
body(r_fr5_54,fr14_c1).
body(r_fr5_54,fr5_b3).
body(r_fr5_54,fr5_f1).
body(r_fr5_54,fr5_f2).
body(r_fr5_54,fr22_r2).
body(r_fr5_54,fr5_q2).
body(r_fr5_54,fr11_v1).
body(r_fr5_54,fr9_w5).
body(r_fr5_54,fr5_r3).
body(r_fr5_54,fr22_p2).
body(r_fr5_54,fr16_x2).
body(r_fr5_54,fr5_w1).
body(r_fr5_54,fr19_q1).
body(r_fr5_54,fr5_w3).
body(r_fr5_54,fr5_z1).
body(r_fr5_54,fr5_z2).
body(r_fr5_54,fr5_z3).
head(r_fr5_55,fr21_w1).
body(r_fr5_55,fr5_b3).
body(r_fr5_55,fr8_b2).
body(r_fr5_55,fr14_e1).
body(r_fr5_55,fr20_b2).
body(r_fr5_55,fr22_r2).
body(r_fr5_55,fr5_q2).
body(r_fr5_55,fr23_y2).
body(r_fr5_55,fr11_v1).
body(r_fr5_55,fr9_w5).
body(r_fr5_55,fr5_r3).
body(r_fr5_55,fr22_p2).
body(r_fr5_55,fr5_t1).
body(r_fr5_55,fr16_x2).
body(r_fr5_55,fr2_q2).
body(r_fr5_55,fr9_t5).
body(r_fr5_55,fr5_w1).
body(r_fr5_55,fr5_w3).
body(r_fr5_55,fr1_p4).
body(r_fr5_55,fr5_z1).
body(r_fr5_55,fr5_z2).
body(r_fr5_55,fr5_z3).
head(r_fr5_56,fr9_w5).
body(r_fr5_56,fr8_b2).
body(r_fr5_56,fr14_e1).
body(r_fr5_56,fr5_f2).
body(r_fr5_56,fr22_r2).
body(r_fr5_56,fr5_q2).
body(r_fr5_56,fr23_y2).
body(r_fr5_56,fr11_v1).
body(r_fr5_56,fr5_r3).
body(r_fr5_56,fr22_p2).
body(r_fr5_56,fr16_x2).
body(r_fr5_56,fr2_q2).
body(r_fr5_56,fr9_t5).
body(r_fr5_56,fr23_y2).
body(r_fr5_56,fr5_w1).
body(r_fr5_56,fr19_q1).
body(r_fr5_56,fr5_w3).
body(r_fr5_56,fr5_x2).
body(r_fr5_56,fr1_p4).
body(r_fr5_56,fr5_z1).
body(r_fr5_56,fr5_z2).
body(r_fr5_56,fr5_z3).
head(r_fr5_57,fr9_w5).
body(r_fr5_57,fr13_f2).
body(r_fr5_57,fr13_f2).
body(r_fr5_57,fr5_b3).
body(r_fr5_57,fr20_b2).
body(r_fr5_57,fr20_b2).
body(r_fr5_57,fr20_b2).
body(r_fr5_57,fr5_q2).
body(r_fr5_57,fr23_y2).
body(r_fr5_57,fr11_v1).
body(r_fr5_57,fr5_r3).
body(r_fr5_57,fr22_p2).
body(r_fr5_57,fr5_t1).
body(r_fr5_57,fr9_t5).
body(r_fr5_57,fr23_y2).
body(r_fr5_57,fr5_w1).
body(r_fr5_57,fr19_q1).
body(r_fr5_57,fr5_w3).
body(r_fr5_57,fr1_p4).
body(r_fr5_57,fr5_z1).
body(r_fr5_57,fr5_z2).
body(r_fr5_57,fr5_z3).
head(r_fr5_58,fr9_w5).
body(r_fr5_58,fr5_a2).
body(r_fr5_58,fr20_b2).
body(r_fr5_58,fr5_e1).
body(r_fr5_58,fr20_b2).
body(r_fr5_58,fr5_q2).
body(r_fr5_58,fr23_y2).
body(r_fr5_58,fr11_v1).
body(r_fr5_58,fr5_r3).
body(r_fr5_58,fr22_p2).
body(r_fr5_58,fr16_x2).
body(r_fr5_58,fr2_q2).
body(r_fr5_58,fr9_t5).
body(r_fr5_58,fr23_y2).
body(r_fr5_58,fr5_w1).
body(r_fr5_58,fr19_q1).
body(r_fr5_58,fr5_x2).
body(r_fr5_58,fr5_z1).
body(r_fr5_58,fr5_z3).
head(r_fr5_59,fr9_w5).
body(r_fr5_59,fr14_c1).
body(r_fr5_59,fr5_d2).
body(r_fr5_59,fr5_e1).
body(r_fr5_59,fr20_b2).
body(r_fr5_59,fr22_r2).
body(r_fr5_59,fr5_q2).
body(r_fr5_59,fr5_r3).
body(r_fr5_59,fr22_p2).
body(r_fr5_59,fr5_t1).
body(r_fr5_59,fr16_x2).
body(r_fr5_59,fr2_q2).
body(r_fr5_59,fr9_t5).
body(r_fr5_59,fr23_y2).
body(r_fr5_59,fr5_w1).
body(r_fr5_59,fr19_q1).
body(r_fr5_59,fr5_w3).
body(r_fr5_59,fr1_p4).
body(r_fr5_59,fr5_z1).
body(r_fr5_59,fr5_z2).
body(r_fr5_59,fr5_z3).
head(r_fr5_60,fr5_w3).
body(r_fr5_60,fr13_f2).
body(r_fr5_60,fr22_r2).
body(r_fr5_60,fr5_q2).
body(r_fr5_60,fr23_y2).
body(r_fr5_60,fr11_v1).
body(r_fr5_60,fr5_r3).
body(r_fr5_60,fr22_p2).
body(r_fr5_60,fr5_t1).
body(r_fr5_60,fr16_x2).
body(r_fr5_60,fr2_q2).
body(r_fr5_60,fr9_t5).
body(r_fr5_60,fr23_y2).
body(r_fr5_60,fr5_w1).
body(r_fr5_60,fr19_q1).
body(r_fr5_60,fr5_x2).
body(r_fr5_60,fr1_p4).
body(r_fr5_60,fr5_z1).
body(r_fr5_60,fr5_z2).
body(r_fr5_60,fr5_z3).
head(r_fr5_61,fr5_w3).
body(r_fr5_61,fr5_a1).
body(r_fr5_61,fr13_f2).
body(r_fr5_61,fr8_b2).
body(r_fr5_61,fr14_e1).
body(r_fr5_61,fr5_e1).
body(r_fr5_61,fr23_y2).
body(r_fr5_61,fr5_r3).
body(r_fr5_61,fr5_t1).
body(r_fr5_61,fr16_x2).
body(r_fr5_61,fr2_q2).
body(r_fr5_61,fr9_t5).
body(r_fr5_61,fr23_y2).
body(r_fr5_61,fr5_w1).
body(r_fr5_61,fr19_q1).
body(r_fr5_61,fr5_x2).
body(r_fr5_61,fr5_z1).
body(r_fr5_61,fr5_z2).
body(r_fr5_61,fr5_z3).
head(r_fr5_62,fr5_w3).
body(r_fr5_62,fr5_a2).
body(r_fr5_62,fr20_b2).
body(r_fr5_62,fr5_q2).
body(r_fr5_62,fr23_y2).
body(r_fr5_62,fr11_v1).
body(r_fr5_62,fr5_r3).
body(r_fr5_62,fr22_p2).
body(r_fr5_62,fr5_t1).
body(r_fr5_62,fr16_x2).
body(r_fr5_62,fr2_q2).
body(r_fr5_62,fr9_t5).
body(r_fr5_62,fr23_y2).
body(r_fr5_62,fr5_w1).
body(r_fr5_62,fr19_q1).
body(r_fr5_62,fr5_x2).
body(r_fr5_62,fr5_z1).
body(r_fr5_62,fr5_z2).
body(r_fr5_62,fr5_z3).
head(r_fr5_63,fr9_t5).
body(r_fr5_63,fr13_f2).
body(r_fr5_63,fr14_c1).
body(r_fr5_63,fr8_b2).
body(r_fr5_63,fr20_b2).
body(r_fr5_63,fr5_d2).
body(r_fr5_63,fr22_r2).
body(r_fr5_63,fr5_q2).
body(r_fr5_63,fr23_y2).
body(r_fr5_63,fr11_v1).
body(r_fr5_63,fr5_r3).
body(r_fr5_63,fr22_p2).
body(r_fr5_63,fr5_t1).
body(r_fr5_63,fr16_x2).
body(r_fr5_63,fr2_q2).
body(r_fr5_63,fr23_y2).
body(r_fr5_63,fr5_w1).
body(r_fr5_63,fr19_q1).
body(r_fr5_63,fr5_x2).
body(r_fr5_63,fr5_z1).
body(r_fr5_63,fr5_z2).
body(r_fr5_63,fr5_z3).
head(r_fr5_64,fr9_t5).
body(r_fr5_64,fr5_a2).
body(r_fr5_64,fr8_b2).
body(r_fr5_64,fr22_r2).
body(r_fr5_64,fr5_q2).
body(r_fr5_64,fr23_y2).
body(r_fr5_64,fr11_v1).
body(r_fr5_64,fr5_r3).
body(r_fr5_64,fr22_p2).
body(r_fr5_64,fr5_t1).
body(r_fr5_64,fr16_x2).
body(r_fr5_64,fr2_q2).
body(r_fr5_64,fr23_y2).
body(r_fr5_64,fr5_w1).
body(r_fr5_64,fr19_q1).
body(r_fr5_64,fr5_x2).
body(r_fr5_64,fr1_p4).
body(r_fr5_64,fr5_z1).
body(r_fr5_64,fr5_z2).
body(r_fr5_64,fr5_z3).
head(r_fr5_65,fr9_t5).
body(r_fr5_65,fr5_a2).
body(r_fr5_65,fr13_f2).
body(r_fr5_65,fr13_f2).
body(r_fr5_65,fr14_e1).
body(r_fr5_65,fr5_d2).
body(r_fr5_65,fr5_q2).
body(r_fr5_65,fr23_y2).
body(r_fr5_65,fr11_v1).
body(r_fr5_65,fr5_r3).
body(r_fr5_65,fr5_t1).
body(r_fr5_65,fr16_x2).
body(r_fr5_65,fr2_q2).
body(r_fr5_65,fr5_w1).
body(r_fr5_65,fr19_q1).
body(r_fr5_65,fr5_x2).
body(r_fr5_65,fr1_p4).
body(r_fr5_65,fr5_z1).
body(r_fr5_65,fr5_z2).
body(r_fr5_65,fr5_z3).
head(r_fr5_66,fr9_t5).
body(r_fr5_66,fr8_b2).
body(r_fr5_66,fr20_b2).
body(r_fr5_66,fr5_e1).
body(r_fr5_66,fr5_f1).
body(r_fr5_66,fr5_f2).
body(r_fr5_66,fr22_r2).
body(r_fr5_66,fr23_y2).
body(r_fr5_66,fr11_v1).
body(r_fr5_66,fr5_r3).
body(r_fr5_66,fr22_p2).
body(r_fr5_66,fr5_t1).
body(r_fr5_66,fr16_x2).
body(r_fr5_66,fr2_q2).
body(r_fr5_66,fr23_y2).
body(r_fr5_66,fr5_w1).
body(r_fr5_66,fr19_q1).
body(r_fr5_66,fr5_x2).
body(r_fr5_66,fr1_p4).
body(r_fr5_66,fr5_z1).
body(r_fr5_66,fr5_z2).
body(r_fr5_66,fr5_z3).
head(r_fr5_67,fr9_t5).
body(r_fr5_67,fr5_a2).
body(r_fr5_67,fr13_f2).
body(r_fr5_67,fr5_e1).
body(r_fr5_67,fr5_f2).
body(r_fr5_67,fr22_r2).
body(r_fr5_67,fr5_q2).
body(r_fr5_67,fr23_y2).
body(r_fr5_67,fr11_v1).
body(r_fr5_67,fr22_p2).
body(r_fr5_67,fr5_t1).
body(r_fr5_67,fr16_x2).
body(r_fr5_67,fr2_q2).
body(r_fr5_67,fr23_y2).
body(r_fr5_67,fr19_q1).
body(r_fr5_67,fr5_x2).
body(r_fr5_67,fr1_p4).
body(r_fr5_67,fr5_z2).
body(r_fr5_67,fr5_z3).
head(r_fr5_68,fr23_y2).
body(r_fr5_68,fr5_a2).
body(r_fr5_68,fr13_f2).
body(r_fr5_68,fr8_b2).
body(r_fr5_68,fr5_f2).
body(r_fr5_68,fr22_r2).
body(r_fr5_68,fr5_q2).
body(r_fr5_68,fr11_v1).
body(r_fr5_68,fr5_r3).
body(r_fr5_68,fr22_p2).
body(r_fr5_68,fr5_t1).
body(r_fr5_68,fr16_x2).
body(r_fr5_68,fr2_q2).
body(r_fr5_68,fr23_y2).
body(r_fr5_68,fr5_w1).
body(r_fr5_68,fr19_q1).
body(r_fr5_68,fr5_x2).
body(r_fr5_68,fr1_p4).
body(r_fr5_68,fr5_z1).
body(r_fr5_68,fr5_z2).
body(r_fr5_68,fr5_z3).
head(r_fr5_69,fr23_y2).
body(r_fr5_69,fr5_a1).
body(r_fr5_69,fr5_a2).
body(r_fr5_69,fr14_c1).
body(r_fr5_69,fr8_b2).
body(r_fr5_69,fr5_f1).
body(r_fr5_69,fr22_r2).
body(r_fr5_69,fr5_q2).
body(r_fr5_69,fr11_v1).
body(r_fr5_69,fr5_r3).
body(r_fr5_69,fr22_p2).
body(r_fr5_69,fr5_t1).
body(r_fr5_69,fr16_x2).
body(r_fr5_69,fr2_q2).
body(r_fr5_69,fr23_y2).
body(r_fr5_69,fr5_w1).
body(r_fr5_69,fr19_q1).
body(r_fr5_69,fr5_x2).
body(r_fr5_69,fr1_p4).
body(r_fr5_69,fr5_z1).
body(r_fr5_69,fr5_z2).
body(r_fr5_69,fr5_z3).
head(r_fr5_70,fr16_x2).
body(r_fr5_70,fr5_a2).
body(r_fr5_70,fr13_f2).
body(r_fr5_70,fr8_b2).
body(r_fr5_70,fr20_b2).
body(r_fr5_70,fr5_f1).
body(r_fr5_70,fr5_f2).
body(r_fr5_70,fr22_r2).
body(r_fr5_70,fr5_q2).
body(r_fr5_70,fr11_v1).
body(r_fr5_70,fr5_r3).
body(r_fr5_70,fr22_p2).
body(r_fr5_70,fr5_t1).
body(r_fr5_70,fr2_q2).
body(r_fr5_70,fr23_y2).
body(r_fr5_70,fr5_w1).
body(r_fr5_70,fr19_q1).
body(r_fr5_70,fr5_x2).
body(r_fr5_70,fr5_z1).
body(r_fr5_70,fr5_z2).
body(r_fr5_70,fr5_z3).
head(r_fr5_71,fr16_x2).
body(r_fr5_71,fr5_b3).
body(r_fr5_71,fr14_e1).
body(r_fr5_71,fr20_b2).
body(r_fr5_71,fr5_f1).
body(r_fr5_71,fr22_r2).
body(r_fr5_71,fr11_v1).
body(r_fr5_71,fr5_r3).
body(r_fr5_71,fr22_p2).
body(r_fr5_71,fr5_t1).
body(r_fr5_71,fr2_q2).
body(r_fr5_71,fr23_y2).
body(r_fr5_71,fr5_w1).
body(r_fr5_71,fr19_q1).
body(r_fr5_71,fr5_x2).
body(r_fr5_71,fr1_p4).
body(r_fr5_71,fr5_z1).
body(r_fr5_71,fr5_z2).
body(r_fr5_71,fr5_z3).
head(r_fr5_72,fr16_x2).
body(r_fr5_72,fr5_b3).
body(r_fr5_72,fr8_b2).
body(r_fr5_72,fr5_e1).
body(r_fr5_72,fr20_b2).
body(r_fr5_72,fr5_f1).
body(r_fr5_72,fr22_r2).
body(r_fr5_72,fr5_q2).
body(r_fr5_72,fr11_v1).
body(r_fr5_72,fr5_r3).
body(r_fr5_72,fr22_p2).
body(r_fr5_72,fr2_q2).
body(r_fr5_72,fr23_y2).
body(r_fr5_72,fr5_w1).
body(r_fr5_72,fr19_q1).
body(r_fr5_72,fr5_x2).
body(r_fr5_72,fr1_p4).
body(r_fr5_72,fr5_z1).
body(r_fr5_72,fr5_z2).
body(r_fr5_72,fr5_z3).

assumption(fr6_a1).
assumption(fr9_b4).
assumption(fr13_f2).
assumption(fr6_d1).
assumption(fr14_d2).
assumption(fr13_f2).
assumption(fr13_f2).
assumption(fr13_f2).
assumption(fr6_c2).
assumption(fr7_a3).
assumption(fr14_f1).
assumption(fr13_f2).
assumption(fr13_f2).
assumption(fr6_b3).
assumption(fr20_b2).
contrary(fr6_a1,fr12_x3).
contrary(fr13_f2,fr13_f2).
contrary(fr13_f2,fr6_u2).
contrary(fr9_b4,fr6_d1).
contrary(fr13_f2,fr6_b3).
contrary(fr6_b3,fr23_y2).
contrary(fr13_f2,fr13_f2).
contrary(fr6_c2,fr22_p2).
contrary(fr20_b2,fr13_v2).
contrary(fr6_d1,fr21_z2).
contrary(fr7_a3,fr14_d2).
contrary(fr14_d2,fr6_r1).
contrary(fr14_f1,fr22_p2).
contrary(fr13_f2,fr23_y2).
contrary(fr13_f2,fr23_y2).
head(r_fr6_0,fr6_w2).
body(r_fr6_0,fr7_a3).
head(r_fr6_1,fr6_w2).
body(r_fr6_1,fr13_f2).
body(r_fr6_1,fr22_p2).
head(r_fr6_2,fr6_w2).
body(r_fr6_2,fr22_p2).
head(r_fr6_3,fr6_w2).
body(r_fr6_3,fr6_p1).
head(r_fr6_4,fr6_w2).
body(r_fr6_4,fr6_b3).
body(r_fr6_4,fr21_z2).
body(r_fr6_4,fr23_y2).
head(r_fr6_5,fr6_w2).
head(r_fr6_6,fr6_w2).
body(r_fr6_6,fr6_c2).
body(r_fr6_6,fr13_f2).
body(r_fr6_6,fr2_q2).
body(r_fr6_6,fr20_r3).
body(r_fr6_6,fr6_x2).
head(r_fr6_7,fr6_w2).
body(r_fr6_7,fr6_r1).
body(r_fr6_7,fr23_y2).
body(r_fr6_7,fr6_u1).
body(r_fr6_7,fr13_s2).
body(r_fr6_7,fr6_x2).
body(r_fr6_7,fr23_y2).
head(r_fr6_8,fr6_w2).
body(r_fr6_8,fr13_f2).
head(r_fr6_9,fr6_w2).
body(r_fr6_9,fr13_f2).
body(r_fr6_9,fr12_x3).
body(r_fr6_9,fr6_r1).
body(r_fr6_9,fr23_y2).
head(r_fr6_10,fr6_w2).
body(r_fr6_10,fr9_b4).
body(r_fr6_10,fr6_s2).
body(r_fr6_10,fr6_u1).
body(r_fr6_10,fr13_v2).
head(r_fr6_11,fr6_w2).
body(r_fr6_11,fr6_d1).
body(r_fr6_11,fr6_u2).
head(r_fr6_12,fr6_r1).
body(r_fr6_12,fr12_x3).
body(r_fr6_12,fr22_p2).
body(r_fr6_12,fr23_y2).
body(r_fr6_12,fr20_z1).
body(r_fr6_12,fr13_v2).
body(r_fr6_12,fr23_y2).
head(r_fr6_13,fr6_r1).
body(r_fr6_13,fr6_a1).
body(r_fr6_13,fr13_f2).
head(r_fr6_14,fr6_r1).
body(r_fr6_14,fr13_f2).
head(r_fr6_15,fr6_r1).
body(r_fr6_15,fr23_y2).
body(r_fr6_15,fr23_y2).
head(r_fr6_16,fr6_r1).
body(r_fr6_16,fr21_z2).
body(r_fr6_16,fr23_y2).
head(r_fr6_17,fr6_r1).
body(r_fr6_17,fr20_b2).
body(r_fr6_17,fr14_f1).
body(r_fr6_17,fr13_f2).
body(r_fr6_17,fr23_y2).
body(r_fr6_17,fr20_r3).
head(r_fr6_18,fr6_r1).
body(r_fr6_18,fr6_a1).
body(r_fr6_18,fr7_a3).
body(r_fr6_18,fr13_f2).
body(r_fr6_18,fr6_u2).
head(r_fr6_19,fr6_r1).
body(r_fr6_19,fr13_f2).
body(r_fr6_19,fr6_p1).
body(r_fr6_19,fr23_y2).
body(r_fr6_19,fr20_r3).
body(r_fr6_19,fr6_u2).
body(r_fr6_19,fr13_s2).
head(r_fr6_20,fr6_r1).
body(r_fr6_20,fr14_d2).
body(r_fr6_20,fr23_y2).
head(r_fr6_21,fr6_r1).
body(r_fr6_21,fr13_f2).
body(r_fr6_21,fr13_f2).
body(r_fr6_21,fr6_d1).
body(r_fr6_21,fr13_f2).
body(r_fr6_21,fr13_f2).
body(r_fr6_21,fr23_y2).
head(r_fr6_22,fr6_r1).
body(r_fr6_22,fr13_f2).
body(r_fr6_22,fr6_c2).
body(r_fr6_22,fr20_b2).
body(r_fr6_22,fr23_y2).
head(r_fr6_23,fr6_r1).
head(r_fr6_24,fr6_r1).
body(r_fr6_24,fr13_f2).
body(r_fr6_24,fr13_f2).
body(r_fr6_24,fr14_f1).
body(r_fr6_24,fr6_s2).
body(r_fr6_24,fr13_s2).
body(r_fr6_24,fr6_z1).
head(r_fr6_25,fr6_r1).
body(r_fr6_25,fr13_f2).
body(r_fr6_25,fr13_f2).
body(r_fr6_25,fr13_f2).
body(r_fr6_25,fr6_s2).
body(r_fr6_25,fr6_x2).
body(r_fr6_25,fr13_v2).
head(r_fr6_26,fr6_z1).
body(r_fr6_26,fr9_b4).
body(r_fr6_26,fr13_f2).
body(r_fr6_26,fr13_f2).
body(r_fr6_26,fr7_a3).
head(r_fr6_27,fr6_z1).
body(r_fr6_27,fr6_b3).
body(r_fr6_27,fr2_q2).
body(r_fr6_27,fr6_u2).
body(r_fr6_27,fr20_z1).
head(r_fr6_28,fr6_z1).
body(r_fr6_28,fr6_d1).
body(r_fr6_28,fr13_f2).
body(r_fr6_28,fr6_u2).
body(r_fr6_28,fr13_s2).
body(r_fr6_28,fr20_z1).
head(r_fr6_29,fr6_z1).
body(r_fr6_29,fr13_f2).
body(r_fr6_29,fr13_f2).
body(r_fr6_29,fr6_c2).
body(r_fr6_29,fr2_q2).
body(r_fr6_29,fr6_p3).
body(r_fr6_29,fr23_y2).
head(r_fr6_30,fr6_z1).
body(r_fr6_30,fr9_b4).
body(r_fr6_30,fr14_f1).
body(r_fr6_30,fr21_z2).
head(r_fr6_31,fr6_z1).
body(r_fr6_31,fr6_s2).
body(r_fr6_31,fr13_s2).
body(r_fr6_31,fr6_y1).
body(r_fr6_31,fr23_y2).
head(r_fr6_32,fr6_z1).
body(r_fr6_32,fr6_d1).
body(r_fr6_32,fr12_x3).
body(r_fr6_32,fr6_x2).
head(r_fr6_33,fr6_z1).
body(r_fr6_33,fr6_a1).
body(r_fr6_33,fr14_d2).
body(r_fr6_33,fr6_p3).
head(r_fr6_34,fr6_z1).
body(r_fr6_34,fr6_p3).
head(r_fr6_35,fr6_z1).
body(r_fr6_35,fr13_f2).
body(r_fr6_35,fr13_f2).
body(r_fr6_35,fr21_z2).
body(r_fr6_35,fr20_r3).
body(r_fr6_35,fr6_u2).
body(r_fr6_35,fr6_y1).
head(r_fr6_36,fr6_z1).
head(r_fr6_37,fr6_x2).
body(r_fr6_37,fr6_b3).
body(r_fr6_37,fr13_f2).
body(r_fr6_37,fr6_p1).
body(r_fr6_37,fr23_y2).
head(r_fr6_38,fr6_x2).
body(r_fr6_38,fr14_d2).
body(r_fr6_38,fr13_f2).
body(r_fr6_38,fr6_p3).
head(r_fr6_39,fr6_x2).
body(r_fr6_39,fr9_b4).
head(r_fr6_40,fr6_x2).
body(r_fr6_40,fr13_f2).
body(r_fr6_40,fr2_q2).
body(r_fr6_40,fr23_y2).
head(r_fr6_41,fr6_x2).
body(r_fr6_41,fr22_p2).
head(r_fr6_42,fr6_x2).
head(r_fr6_43,fr6_x2).
body(r_fr6_43,fr13_f2).
body(r_fr6_43,fr6_p1).
body(r_fr6_43,fr20_r3).
head(r_fr6_44,fr6_x2).
body(r_fr6_44,fr13_f2).
body(r_fr6_44,fr6_b3).
body(r_fr6_44,fr22_p2).
head(r_fr6_45,fr6_x2).
body(r_fr6_45,fr20_b2).
head(r_fr6_46,fr6_x2).
body(r_fr6_46,fr9_b4).
body(r_fr6_46,fr6_d1).
body(r_fr6_46,fr20_r3).
body(r_fr6_46,fr13_v2).
head(r_fr6_47,fr6_x2).
body(r_fr6_47,fr6_p1).
body(r_fr6_47,fr23_y2).
body(r_fr6_47,fr6_u2).
body(r_fr6_47,fr6_y1).
head(r_fr6_48,fr6_x2).
body(r_fr6_48,fr13_f2).
body(r_fr6_48,fr6_c2).
body(r_fr6_48,fr7_a3).
head(r_fr6_49,fr13_v2).
body(r_fr6_49,fr6_c2).
body(r_fr6_49,fr22_p2).
body(r_fr6_49,fr6_s2).
body(r_fr6_49,fr6_u1).
body(r_fr6_49,fr22_p2).
body(r_fr6_49,fr20_z1).
head(r_fr6_50,fr13_v2).
body(r_fr6_50,fr23_y2).
body(r_fr6_50,fr20_z1).
body(r_fr6_50,fr23_y2).
head(r_fr6_51,fr13_v2).
body(r_fr6_51,fr9_b4).
head(r_fr6_52,fr13_v2).
body(r_fr6_52,fr14_f1).
body(r_fr6_52,fr12_x3).
head(r_fr6_53,fr13_v2).
body(r_fr6_53,fr13_f2).
body(r_fr6_53,fr9_b4).
body(r_fr6_53,fr23_y2).
head(r_fr6_54,fr13_v2).
body(r_fr6_54,fr14_f1).
head(r_fr6_55,fr13_v2).
body(r_fr6_55,fr7_a3).
body(r_fr6_55,fr13_f2).
body(r_fr6_55,fr23_y2).
body(r_fr6_55,fr21_z2).
head(r_fr6_56,fr13_v2).
body(r_fr6_56,fr13_f2).
body(r_fr6_56,fr6_p3).
head(r_fr6_57,fr13_v2).
body(r_fr6_57,fr13_f2).
body(r_fr6_57,fr9_b4).
body(r_fr6_57,fr7_a3).
body(r_fr6_57,fr14_f1).
body(r_fr6_57,fr13_f2).
body(r_fr6_57,fr13_f2).
head(r_fr6_58,fr13_v2).
body(r_fr6_58,fr22_p2).
head(r_fr6_59,fr13_v2).
head(r_fr6_60,fr13_v2).
body(r_fr6_60,fr6_p3).
body(r_fr6_60,fr12_x3).
body(r_fr6_60,fr23_y2).
body(r_fr6_60,fr20_r3).
body(r_fr6_60,fr23_y2).
head(r_fr6_61,fr23_y2).
body(r_fr6_61,fr23_y2).
body(r_fr6_61,fr6_y1).
head(r_fr6_62,fr23_y2).
body(r_fr6_62,fr13_f2).
head(r_fr6_63,fr23_y2).
body(r_fr6_63,fr13_f2).
body(r_fr6_63,fr13_f2).
body(r_fr6_63,fr22_p2).
body(r_fr6_63,fr6_y1).
head(r_fr6_64,fr23_y2).
body(r_fr6_64,fr7_a3).
body(r_fr6_64,fr14_f1).
body(r_fr6_64,fr13_f2).
head(r_fr6_65,fr23_y2).
body(r_fr6_65,fr6_b3).
body(r_fr6_65,fr6_p3).
body(r_fr6_65,fr6_u1).
body(r_fr6_65,fr22_p2).
body(r_fr6_65,fr23_y2).
head(r_fr6_66,fr23_y2).
body(r_fr6_66,fr14_f1).
body(r_fr6_66,fr12_x3).
body(r_fr6_66,fr6_s2).
head(r_fr6_67,fr23_y2).
body(r_fr6_67,fr13_f2).
body(r_fr6_67,fr14_d2).
body(r_fr6_67,fr6_p3).
body(r_fr6_67,fr13_s2).
head(r_fr6_68,fr23_y2).
body(r_fr6_68,fr13_f2).
body(r_fr6_68,fr14_d2).
body(r_fr6_68,fr14_f1).
body(r_fr6_68,fr2_q2).
body(r_fr6_68,fr23_y2).
head(r_fr6_69,fr23_y2).
body(r_fr6_69,fr9_b4).
body(r_fr6_69,fr6_b3).
body(r_fr6_69,fr20_b2).
body(r_fr6_69,fr6_u1).
body(r_fr6_69,fr20_z1).
body(r_fr6_69,fr23_y2).
head(r_fr6_70,fr23_y2).
body(r_fr6_70,fr13_f2).
body(r_fr6_70,fr6_y1).
head(r_fr6_71,fr23_y2).
body(r_fr6_71,fr23_y2).
head(r_fr6_72,fr23_y2).
body(r_fr6_72,fr6_a1).
body(r_fr6_72,fr9_b4).
head(r_fr6_73,fr23_y2).
body(r_fr6_73,fr20_z1).
head(r_fr6_74,fr22_p2).
body(r_fr6_74,fr13_f2).
head(r_fr6_75,fr22_p2).
body(r_fr6_75,fr6_b3).
body(r_fr6_75,fr6_c2).
body(r_fr6_75,fr20_b2).
body(r_fr6_75,fr13_f2).
body(r_fr6_75,fr6_u1).
head(r_fr6_76,fr22_p2).
body(r_fr6_76,fr6_c2).
body(r_fr6_76,fr6_d1).
body(r_fr6_76,fr13_f2).
body(r_fr6_76,fr21_z2).
head(r_fr6_77,fr22_p2).
body(r_fr6_77,fr6_u2).
body(r_fr6_77,fr13_s2).
body(r_fr6_77,fr20_z1).
head(r_fr6_78,fr22_p2).
body(r_fr6_78,fr9_b4).
body(r_fr6_78,fr23_y2).
head(r_fr6_79,fr22_p2).
head(r_fr6_80,fr22_p2).
body(r_fr6_80,fr6_c2).
body(r_fr6_80,fr20_b2).
body(r_fr6_80,fr13_f2).
body(r_fr6_80,fr6_y1).
head(r_fr6_81,fr22_p2).
body(r_fr6_81,fr13_f2).
body(r_fr6_81,fr13_f2).
body(r_fr6_81,fr20_r3).
body(r_fr6_81,fr6_u1).
body(r_fr6_81,fr23_y2).
head(r_fr6_82,fr22_p2).
body(r_fr6_82,fr12_x3).
body(r_fr6_82,fr6_s2).
head(r_fr6_83,fr22_p2).
body(r_fr6_83,fr6_p3).
body(r_fr6_83,fr6_u1).
body(r_fr6_83,fr6_u2).
head(r_fr6_84,fr22_p2).
body(r_fr6_84,fr6_p1).
body(r_fr6_84,fr23_y2).
head(r_fr6_85,fr22_p2).
body(r_fr6_85,fr13_f2).
body(r_fr6_85,fr9_b4).
body(r_fr6_85,fr6_c2).
body(r_fr6_85,fr20_b2).
head(r_fr6_86,fr21_z2).
head(r_fr6_87,fr21_z2).
body(r_fr6_87,fr6_a1).
body(r_fr6_87,fr9_b4).
body(r_fr6_87,fr20_z1).
head(r_fr6_88,fr21_z2).
body(r_fr6_88,fr6_p1).
body(r_fr6_88,fr23_y2).
body(r_fr6_88,fr20_r3).
body(r_fr6_88,fr6_u2).
body(r_fr6_88,fr6_y1).
head(r_fr6_89,fr21_z2).
body(r_fr6_89,fr13_f2).
head(r_fr6_90,fr21_z2).
body(r_fr6_90,fr6_d1).
body(r_fr6_90,fr12_x3).
head(r_fr6_91,fr21_z2).
body(r_fr6_91,fr13_f2).
head(r_fr6_92,fr21_z2).
body(r_fr6_92,fr13_f2).
body(r_fr6_92,fr9_b4).
body(r_fr6_92,fr20_b2).
body(r_fr6_92,fr7_a3).
body(r_fr6_92,fr14_d2).
head(r_fr6_93,fr21_z2).
body(r_fr6_93,fr13_f2).
body(r_fr6_93,fr13_f2).
body(r_fr6_93,fr13_f2).
head(r_fr6_94,fr21_z2).
body(r_fr6_94,fr12_x3).
body(r_fr6_94,fr22_p2).
body(r_fr6_94,fr6_s2).
body(r_fr6_94,fr13_s2).
head(r_fr6_95,fr21_z2).
body(r_fr6_95,fr9_b4).
body(r_fr6_95,fr14_f1).
body(r_fr6_95,fr12_x3).
body(r_fr6_95,fr23_y2).
body(r_fr6_95,fr6_u1).
head(r_fr6_96,fr21_z2).
body(r_fr6_96,fr13_f2).
body(r_fr6_96,fr14_f1).
body(r_fr6_96,fr13_f2).
body(r_fr6_96,fr6_s2).
body(r_fr6_96,fr20_z1).
head(r_fr6_97,fr20_r3).
body(r_fr6_97,fr6_p3).
body(r_fr6_97,fr23_y2).
head(r_fr6_98,fr20_r3).
body(r_fr6_98,fr13_s2).
head(r_fr6_99,fr20_r3).
body(r_fr6_99,fr2_q2).
head(r_fr6_100,fr20_r3).
body(r_fr6_100,fr6_p1).
body(r_fr6_100,fr6_p3).
body(r_fr6_100,fr22_p2).
body(r_fr6_100,fr6_s2).
head(r_fr6_101,fr20_r3).
body(r_fr6_101,fr6_a1).
body(r_fr6_101,fr13_f2).
body(r_fr6_101,fr2_q2).
body(r_fr6_101,fr23_y2).
head(r_fr6_102,fr20_r3).
body(r_fr6_102,fr6_p1).
body(r_fr6_102,fr2_q2).
body(r_fr6_102,fr22_p2).
head(r_fr6_103,fr20_r3).
body(r_fr6_103,fr6_a1).
body(r_fr6_103,fr13_f2).
body(r_fr6_103,fr13_f2).
body(r_fr6_103,fr14_d2).
body(r_fr6_103,fr13_f2).
head(r_fr6_104,fr20_r3).
head(r_fr6_105,fr20_r3).
body(r_fr6_105,fr13_f2).
body(r_fr6_105,fr6_s2).
body(r_fr6_105,fr23_y2).
head(r_fr6_106,fr20_r3).
body(r_fr6_106,fr6_b3).
body(r_fr6_106,fr2_q2).
body(r_fr6_106,fr23_y2).
body(r_fr6_106,fr6_u1).
body(r_fr6_106,fr20_z1).
head(r_fr6_107,fr20_r3).
body(r_fr6_107,fr13_f2).
body(r_fr6_107,fr13_f2).
body(r_fr6_107,fr14_f1).
body(r_fr6_107,fr23_y2).
body(r_fr6_107,fr23_y2).
head(r_fr6_108,fr20_z1).
body(r_fr6_108,fr14_d2).
body(r_fr6_108,fr13_f2).
body(r_fr6_108,fr13_f2).
body(r_fr6_108,fr23_y2).
body(r_fr6_108,fr6_s2).
head(r_fr6_109,fr20_z1).
body(r_fr6_109,fr13_f2).
body(r_fr6_109,fr23_y2).
head(r_fr6_110,fr20_z1).
body(r_fr6_110,fr22_p2).
body(r_fr6_110,fr23_y2).
body(r_fr6_110,fr13_s2).
head(r_fr6_111,fr20_z1).
body(r_fr6_111,fr13_f2).
body(r_fr6_111,fr13_f2).
body(r_fr6_111,fr14_f1).
body(r_fr6_111,fr13_f2).
body(r_fr6_111,fr23_y2).
head(r_fr6_112,fr20_z1).
body(r_fr6_112,fr6_a1).
body(r_fr6_112,fr13_f2).
body(r_fr6_112,fr14_d2).
head(r_fr6_113,fr20_z1).
body(r_fr6_113,fr2_q2).
head(r_fr6_114,fr20_z1).
body(r_fr6_114,fr13_f2).
head(r_fr6_115,fr20_z1).
body(r_fr6_115,fr2_q2).
body(r_fr6_115,fr6_s2).
body(r_fr6_115,fr23_y2).
head(r_fr6_116,fr20_z1).
body(r_fr6_116,fr13_f2).
body(r_fr6_116,fr22_p2).
head(r_fr6_117,fr20_z1).
body(r_fr6_117,fr12_x3).
body(r_fr6_117,fr23_y2).
head(r_fr6_118,fr20_z1).
body(r_fr6_118,fr13_f2).
body(r_fr6_118,fr6_d1).
body(r_fr6_118,fr7_a3).
body(r_fr6_118,fr13_f2).
head(r_fr6_119,fr20_z1).
body(r_fr6_119,fr14_f1).
body(r_fr6_119,fr6_u2).
body(r_fr6_119,fr6_y1).
head(r_fr6_120,fr20_z1).
head(r_fr6_121,fr6_s2).
body(r_fr6_121,fr23_y2).
head(r_fr6_122,fr6_s2).
body(r_fr6_122,fr6_p3).
body(r_fr6_122,fr23_y2).
body(r_fr6_122,fr6_u2).
body(r_fr6_122,fr23_y2).
head(r_fr6_123,fr6_s2).
body(r_fr6_123,fr6_b3).
body(r_fr6_123,fr6_d1).
body(r_fr6_123,fr14_f1).
head(r_fr6_124,fr6_s2).
body(r_fr6_124,fr7_a3).
body(r_fr6_124,fr14_d2).
body(r_fr6_124,fr6_p1).
head(r_fr6_125,fr6_s2).
body(r_fr6_125,fr13_f2).
head(r_fr6_126,fr6_s2).
body(r_fr6_126,fr6_b3).
body(r_fr6_126,fr20_b2).
head(r_fr6_127,fr6_s2).
body(r_fr6_127,fr2_q2).
body(r_fr6_127,fr22_p2).
body(r_fr6_127,fr6_u1).
body(r_fr6_127,fr13_s2).
body(r_fr6_127,fr23_y2).
body(r_fr6_127,fr23_y2).
head(r_fr6_128,fr6_s2).
body(r_fr6_128,fr23_y2).
body(r_fr6_128,fr23_y2).
head(r_fr6_129,fr6_s2).
body(r_fr6_129,fr6_a1).
body(r_fr6_129,fr9_b4).
body(r_fr6_129,fr20_b2).
body(r_fr6_129,fr6_d1).
body(r_fr6_129,fr14_d2).
head(r_fr6_130,fr6_s2).
body(r_fr6_130,fr13_f2).
body(r_fr6_130,fr13_f2).
body(r_fr6_130,fr14_d2).
body(r_fr6_130,fr13_s2).
body(r_fr6_130,fr23_y2).
head(r_fr6_131,fr6_s2).
body(r_fr6_131,fr2_q2).
body(r_fr6_131,fr6_y1).
body(r_fr6_131,fr23_y2).
head(r_fr6_132,fr6_s2).
body(r_fr6_132,fr6_b3).
body(r_fr6_132,fr22_p2).
head(r_fr6_133,fr6_s2).
body(r_fr6_133,fr22_p2).
body(r_fr6_133,fr23_y2).
head(r_fr6_134,fr6_s2).
body(r_fr6_134,fr2_q2).
body(r_fr6_134,fr6_p3).
body(r_fr6_134,fr6_u2).
body(r_fr6_134,fr13_s2).
head(r_fr6_135,fr6_y1).
body(r_fr6_135,fr13_f2).
body(r_fr6_135,fr13_f2).
body(r_fr6_135,fr6_b3).
body(r_fr6_135,fr20_b2).
body(r_fr6_135,fr14_d2).
head(r_fr6_136,fr6_y1).
body(r_fr6_136,fr6_b3).
body(r_fr6_136,fr23_y2).
body(r_fr6_136,fr23_y2).
head(r_fr6_137,fr6_y1).
body(r_fr6_137,fr22_p2).
body(r_fr6_137,fr13_s2).
head(r_fr6_138,fr6_y1).
body(r_fr6_138,fr13_f2).
body(r_fr6_138,fr7_a3).
body(r_fr6_138,fr14_d2).
body(r_fr6_138,fr13_f2).
head(r_fr6_139,fr6_y1).
body(r_fr6_139,fr6_p1).
body(r_fr6_139,fr22_p2).
body(r_fr6_139,fr23_y2).
head(r_fr6_140,fr6_y1).
body(r_fr6_140,fr6_a1).
body(r_fr6_140,fr6_p1).
body(r_fr6_140,fr23_y2).
body(r_fr6_140,fr6_u1).
body(r_fr6_140,fr6_u2).
body(r_fr6_140,fr23_y2).
head(r_fr6_141,fr6_y1).
body(r_fr6_141,fr6_p3).
head(r_fr6_142,fr6_y1).
body(r_fr6_142,fr12_x3).
body(r_fr6_142,fr6_u2).
head(r_fr6_143,fr6_y1).
body(r_fr6_143,fr6_b3).
body(r_fr6_143,fr13_f2).
body(r_fr6_143,fr13_s2).
body(r_fr6_143,fr23_y2).
head(r_fr6_144,fr6_y1).
body(r_fr6_144,fr6_a1).
body(r_fr6_144,fr13_f2).
body(r_fr6_144,fr20_b2).
body(r_fr6_144,fr23_y2).
body(r_fr6_144,fr6_u2).
head(r_fr6_145,fr6_y1).
body(r_fr6_145,fr23_y2).
body(r_fr6_145,fr23_y2).
head(r_fr6_146,fr6_y1).
body(r_fr6_146,fr6_p1).
head(r_fr6_147,fr6_y1).
body(r_fr6_147,fr13_f2).
body(r_fr6_147,fr23_y2).
head(r_fr6_148,fr6_y1).
body(r_fr6_148,fr23_y2).
head(r_fr6_149,fr23_y2).
body(r_fr6_149,fr6_a1).
body(r_fr6_149,fr6_p3).
body(r_fr6_149,fr6_u2).
head(r_fr6_150,fr23_y2).
body(r_fr6_150,fr13_f2).
body(r_fr6_150,fr7_a3).
head(r_fr6_151,fr23_y2).
body(r_fr6_151,fr13_f2).
body(r_fr6_151,fr6_b3).
body(r_fr6_151,fr14_d2).
body(r_fr6_151,fr14_f1).
body(r_fr6_151,fr2_q2).
head(r_fr6_152,fr23_y2).
body(r_fr6_152,fr9_b4).
body(r_fr6_152,fr6_b3).
head(r_fr6_153,fr23_y2).
body(r_fr6_153,fr6_u1).
head(r_fr6_154,fr23_y2).
body(r_fr6_154,fr6_a1).
body(r_fr6_154,fr6_c2).
body(r_fr6_154,fr14_f1).
head(r_fr6_155,fr23_y2).
body(r_fr6_155,fr6_a1).
body(r_fr6_155,fr13_f2).
body(r_fr6_155,fr13_f2).
body(r_fr6_155,fr6_d1).
body(r_fr6_155,fr14_d2).
body(r_fr6_155,fr2_q2).
head(r_fr6_156,fr23_y2).
body(r_fr6_156,fr6_p1).
body(r_fr6_156,fr6_p3).
body(r_fr6_156,fr12_x3).
body(r_fr6_156,fr23_y2).
body(r_fr6_156,fr23_y2).
head(r_fr6_157,fr23_y2).
body(r_fr6_157,fr13_f2).
body(r_fr6_157,fr23_y2).
head(r_fr6_158,fr23_y2).
body(r_fr6_158,fr6_b3).
head(r_fr6_159,fr23_y2).
body(r_fr6_159,fr13_f2).
body(r_fr6_159,fr9_b4).
body(r_fr6_159,fr6_d1).
body(r_fr6_159,fr13_s2).
head(r_fr6_160,fr23_y2).
body(r_fr6_160,fr13_f2).
body(r_fr6_160,fr13_f2).
body(r_fr6_160,fr13_f2).
body(r_fr6_160,fr13_f2).
body(r_fr6_160,fr22_p2).
body(r_fr6_160,fr23_y2).
head(r_fr6_161,fr23_y2).
head(r_fr6_162,fr23_y2).
body(r_fr6_162,fr14_d2).
body(r_fr6_162,fr13_f2).
body(r_fr6_162,fr23_y2).
head(r_fr6_163,fr23_y2).
body(r_fr6_163,fr6_b3).
body(r_fr6_163,fr6_c2).
body(r_fr6_163,fr2_q2).
head(r_fr6_164,fr23_y2).
body(r_fr6_164,fr22_p2).
body(r_fr6_164,fr23_y2).
body(r_fr6_164,fr6_u2).
body(r_fr6_164,fr23_y2).
head(r_fr6_165,fr23_y2).
body(r_fr6_165,fr13_f2).
body(r_fr6_165,fr12_x3).
head(r_fr6_166,fr23_y2).
body(r_fr6_166,fr6_b3).
body(r_fr6_166,fr7_a3).
body(r_fr6_166,fr14_f1).
body(r_fr6_166,fr13_f2).
body(r_fr6_166,fr23_y2).
head(r_fr6_167,fr23_y2).
body(r_fr6_167,fr14_d2).
body(r_fr6_167,fr6_p1).
head(r_fr6_168,fr23_y2).
body(r_fr6_168,fr23_y2).
body(r_fr6_168,fr13_s2).
head(r_fr6_169,fr23_y2).
body(r_fr6_169,fr23_y2).
head(r_fr6_170,fr23_y2).
body(r_fr6_170,fr6_d1).
body(r_fr6_170,fr6_p1).
body(r_fr6_170,fr12_x3).
body(r_fr6_170,fr23_y2).
head(r_fr6_171,fr23_y2).
body(r_fr6_171,fr13_f2).
body(r_fr6_171,fr6_c2).
body(r_fr6_171,fr7_a3).
body(r_fr6_171,fr14_f1).
body(r_fr6_171,fr2_q2).
body(r_fr6_171,fr12_x3).
head(r_fr6_172,fr23_y2).
body(r_fr6_172,fr6_p1).
body(r_fr6_172,fr6_p3).
head(r_fr6_173,fr23_y2).
head(r_fr6_174,fr23_y2).
body(r_fr6_174,fr7_a3).
body(r_fr6_174,fr23_y2).
body(r_fr6_174,fr23_y2).
head(r_fr6_175,fr23_y2).
body(r_fr6_175,fr14_f1).
body(r_fr6_175,fr6_u1).
body(r_fr6_175,fr6_u2).
head(r_fr6_176,fr23_y2).
body(r_fr6_176,fr9_b4).
body(r_fr6_176,fr20_b2).
body(r_fr6_176,fr14_f1).
body(r_fr6_176,fr6_p1).
body(r_fr6_176,fr6_u1).
body(r_fr6_176,fr6_u2).
head(r_fr6_177,fr6_p1).
body(r_fr6_177,fr23_y2).
head(r_fr6_178,fr6_p1).
body(r_fr6_178,fr13_f2).
body(r_fr6_178,fr9_b4).
body(r_fr6_178,fr6_d1).
head(r_fr6_179,fr6_p1).
body(r_fr6_179,fr13_f2).
head(r_fr6_180,fr6_p1).
head(r_fr6_181,fr6_p1).
body(r_fr6_181,fr13_f2).
body(r_fr6_181,fr7_a3).
body(r_fr6_181,fr14_d2).
body(r_fr6_181,fr14_f1).
body(r_fr6_181,fr2_q2).
body(r_fr6_181,fr13_s2).
head(r_fr6_182,fr6_p1).
body(r_fr6_182,fr6_p3).
body(r_fr6_182,fr12_x3).
body(r_fr6_182,fr22_p2).
head(r_fr6_183,fr6_p1).
body(r_fr6_183,fr23_y2).
head(r_fr6_184,fr6_p1).
body(r_fr6_184,fr13_f2).
body(r_fr6_184,fr6_b3).
body(r_fr6_184,fr13_f2).
head(r_fr6_185,fr6_p1).
body(r_fr6_185,fr13_f2).
body(r_fr6_185,fr9_b4).
body(r_fr6_185,fr6_c2).
head(r_fr6_186,fr6_p1).
body(r_fr6_186,fr13_f2).
body(r_fr6_186,fr2_q2).
body(r_fr6_186,fr12_x3).
body(r_fr6_186,fr6_u1).
head(r_fr6_187,fr6_p1).
body(r_fr6_187,fr6_p3).
body(r_fr6_187,fr13_s2).
head(r_fr6_188,fr6_p3).
body(r_fr6_188,fr6_a1).
body(r_fr6_188,fr6_c2).
body(r_fr6_188,fr7_a3).
body(r_fr6_188,fr13_f2).
body(r_fr6_188,fr22_p2).
body(r_fr6_188,fr23_y2).
head(r_fr6_189,fr6_p3).
body(r_fr6_189,fr13_f2).
body(r_fr6_189,fr20_b2).
head(r_fr6_190,fr6_p3).
body(r_fr6_190,fr13_f2).
body(r_fr6_190,fr6_c2).
body(r_fr6_190,fr13_f2).
body(r_fr6_190,fr13_f2).
body(r_fr6_190,fr23_y2).
head(r_fr6_191,fr6_p3).
body(r_fr6_191,fr13_f2).
body(r_fr6_191,fr12_x3).
body(r_fr6_191,fr22_p2).
body(r_fr6_191,fr23_y2).
body(r_fr6_191,fr23_y2).
head(r_fr6_192,fr6_p3).
body(r_fr6_192,fr13_f2).
body(r_fr6_192,fr20_b2).
body(r_fr6_192,fr2_q2).
head(r_fr6_193,fr6_p3).
body(r_fr6_193,fr20_b2).
body(r_fr6_193,fr7_a3).
body(r_fr6_193,fr23_y2).
body(r_fr6_193,fr6_u2).
body(r_fr6_193,fr23_y2).
head(r_fr6_194,fr6_p3).
body(r_fr6_194,fr22_p2).
body(r_fr6_194,fr6_u1).
body(r_fr6_194,fr13_s2).
head(r_fr6_195,fr6_p3).
body(r_fr6_195,fr6_a1).
body(r_fr6_195,fr13_f2).
body(r_fr6_195,fr13_f2).
body(r_fr6_195,fr6_b3).
body(r_fr6_195,fr14_f1).
body(r_fr6_195,fr23_y2).
head(r_fr6_196,fr6_p3).
body(r_fr6_196,fr23_y2).
head(r_fr6_197,fr6_p3).
body(r_fr6_197,fr13_f2).
body(r_fr6_197,fr20_b2).
body(r_fr6_197,fr13_f2).
head(r_fr6_198,fr6_p3).
head(r_fr6_199,fr6_u2).
body(r_fr6_199,fr20_b2).
body(r_fr6_199,fr23_y2).
head(r_fr6_200,fr6_u2).
body(r_fr6_200,fr6_a1).
body(r_fr6_200,fr12_x3).
body(r_fr6_200,fr13_s2).
head(r_fr6_201,fr6_u2).
body(r_fr6_201,fr13_f2).
body(r_fr6_201,fr20_b2).
body(r_fr6_201,fr13_f2).
head(r_fr6_202,fr6_u2).
body(r_fr6_202,fr9_b4).
body(r_fr6_202,fr22_p2).
body(r_fr6_202,fr23_y2).
body(r_fr6_202,fr13_s2).
body(r_fr6_202,fr23_y2).
head(r_fr6_203,fr6_u2).
body(r_fr6_203,fr12_x3).
body(r_fr6_203,fr22_p2).
body(r_fr6_203,fr23_y2).
body(r_fr6_203,fr23_y2).
body(r_fr6_203,fr13_s2).
body(r_fr6_203,fr23_y2).
head(r_fr6_204,fr6_u2).
body(r_fr6_204,fr6_b3).
body(r_fr6_204,fr14_d2).
body(r_fr6_204,fr14_f1).
body(r_fr6_204,fr2_q2).
head(r_fr6_205,fr6_u2).
body(r_fr6_205,fr6_a1).
body(r_fr6_205,fr13_f2).
body(r_fr6_205,fr14_d2).
head(r_fr6_206,fr6_u2).
body(r_fr6_206,fr13_f2).
body(r_fr6_206,fr20_b2).
body(r_fr6_206,fr6_d1).
body(r_fr6_206,fr7_a3).
body(r_fr6_206,fr14_f1).
head(r_fr6_207,fr6_u2).
body(r_fr6_207,fr20_b2).
body(r_fr6_207,fr13_f2).
body(r_fr6_207,fr23_y2).
body(r_fr6_207,fr23_y2).
head(r_fr6_208,fr6_u2).
body(r_fr6_208,fr2_q2).
body(r_fr6_208,fr12_x3).
body(r_fr6_208,fr22_p2).
body(r_fr6_208,fr23_y2).
head(r_fr6_209,fr6_u2).
body(r_fr6_209,fr6_a1).
body(r_fr6_209,fr13_f2).
body(r_fr6_209,fr6_b3).
body(r_fr6_209,fr13_f2).
body(r_fr6_209,fr14_f1).
body(r_fr6_209,fr2_q2).
head(r_fr6_210,fr6_u2).
body(r_fr6_210,fr7_a3).
head(r_fr6_211,fr6_u2).
head(r_fr6_212,fr6_u2).
body(r_fr6_212,fr6_u1).
head(r_fr6_213,fr2_q2).
body(r_fr6_213,fr13_f2).
body(r_fr6_213,fr13_f2).
body(r_fr6_213,fr23_y2).
head(r_fr6_214,fr2_q2).
body(r_fr6_214,fr22_p2).
head(r_fr6_215,fr2_q2).
body(r_fr6_215,fr13_s2).
head(r_fr6_216,fr2_q2).
body(r_fr6_216,fr6_a1).
body(r_fr6_216,fr12_x3).
body(r_fr6_216,fr22_p2).
body(r_fr6_216,fr23_y2).
body(r_fr6_216,fr13_s2).
head(r_fr6_217,fr2_q2).
body(r_fr6_217,fr13_f2).
body(r_fr6_217,fr6_d1).
body(r_fr6_217,fr22_p2).
body(r_fr6_217,fr23_y2).
head(r_fr6_218,fr2_q2).
body(r_fr6_218,fr13_f2).
body(r_fr6_218,fr22_p2).
body(r_fr6_218,fr13_s2).
head(r_fr6_219,fr2_q2).
head(r_fr6_220,fr2_q2).
body(r_fr6_220,fr13_f2).
body(r_fr6_220,fr13_f2).
body(r_fr6_220,fr13_f2).
head(r_fr6_221,fr2_q2).
body(r_fr6_221,fr9_b4).
body(r_fr6_221,fr14_d2).
body(r_fr6_221,fr13_f2).
body(r_fr6_221,fr22_p2).
body(r_fr6_221,fr23_y2).
body(r_fr6_221,fr23_y2).
head(r_fr6_222,fr2_q2).
body(r_fr6_222,fr13_f2).
body(r_fr6_222,fr13_f2).
body(r_fr6_222,fr23_y2).
body(r_fr6_222,fr6_u1).
head(r_fr6_223,fr2_q2).
body(r_fr6_223,fr23_y2).
body(r_fr6_223,fr13_s2).
body(r_fr6_223,fr23_y2).
head(r_fr6_224,fr2_q2).
body(r_fr6_224,fr6_a1).
body(r_fr6_224,fr13_f2).
body(r_fr6_224,fr13_f2).
body(r_fr6_224,fr14_f1).
body(r_fr6_224,fr13_f2).
head(r_fr6_225,fr2_q2).
body(r_fr6_225,fr13_f2).
body(r_fr6_225,fr13_f2).
body(r_fr6_225,fr6_d1).
body(r_fr6_225,fr14_f1).
body(r_fr6_225,fr13_f2).
head(r_fr6_226,fr23_y2).
body(r_fr6_226,fr12_x3).
body(r_fr6_226,fr23_y2).
body(r_fr6_226,fr6_u1).
head(r_fr6_227,fr23_y2).
body(r_fr6_227,fr13_f2).
body(r_fr6_227,fr23_y2).
head(r_fr6_228,fr23_y2).
body(r_fr6_228,fr22_p2).
body(r_fr6_228,fr23_y2).
head(r_fr6_229,fr23_y2).
body(r_fr6_229,fr13_f2).
body(r_fr6_229,fr6_c2).
body(r_fr6_229,fr7_a3).
body(r_fr6_229,fr23_y2).
head(r_fr6_230,fr23_y2).
body(r_fr6_230,fr13_f2).
body(r_fr6_230,fr7_a3).
body(r_fr6_230,fr14_f1).
body(r_fr6_230,fr13_f2).
body(r_fr6_230,fr6_u1).
head(r_fr6_231,fr23_y2).
body(r_fr6_231,fr6_d1).
body(r_fr6_231,fr7_a3).
body(r_fr6_231,fr14_f1).
body(r_fr6_231,fr23_y2).
head(r_fr6_232,fr23_y2).
body(r_fr6_232,fr6_a1).
body(r_fr6_232,fr13_f2).
body(r_fr6_232,fr6_d1).
body(r_fr6_232,fr14_d2).
head(r_fr6_233,fr23_y2).
body(r_fr6_233,fr13_f2).
body(r_fr6_233,fr13_f2).
body(r_fr6_233,fr12_x3).
body(r_fr6_233,fr22_p2).
body(r_fr6_233,fr6_u1).
head(r_fr6_234,fr23_y2).
body(r_fr6_234,fr14_f1).
body(r_fr6_234,fr23_y2).
body(r_fr6_234,fr13_s2).
head(r_fr6_235,fr23_y2).
body(r_fr6_235,fr6_c2).
body(r_fr6_235,fr14_f1).
head(r_fr6_236,fr23_y2).
body(r_fr6_236,fr13_f2).
body(r_fr6_236,fr6_u1).
head(r_fr6_237,fr23_y2).
body(r_fr6_237,fr13_f2).
body(r_fr6_237,fr13_s2).
body(r_fr6_237,fr23_y2).
head(r_fr6_238,fr6_u1).
body(r_fr6_238,fr6_a1).
body(r_fr6_238,fr6_b3).
body(r_fr6_238,fr13_f2).
head(r_fr6_239,fr6_u1).
body(r_fr6_239,fr23_y2).
head(r_fr6_240,fr6_u1).
body(r_fr6_240,fr20_b2).
body(r_fr6_240,fr14_f1).
body(r_fr6_240,fr22_p2).
head(r_fr6_241,fr6_u1).
body(r_fr6_241,fr14_d2).
body(r_fr6_241,fr13_s2).
head(r_fr6_242,fr6_u1).
body(r_fr6_242,fr13_f2).
body(r_fr6_242,fr12_x3).
body(r_fr6_242,fr23_y2).
head(r_fr6_243,fr6_u1).
body(r_fr6_243,fr13_f2).
body(r_fr6_243,fr13_f2).
body(r_fr6_243,fr13_f2).
head(r_fr6_244,fr6_u1).
body(r_fr6_244,fr6_a1).
body(r_fr6_244,fr13_f2).
body(r_fr6_244,fr12_x3).
body(r_fr6_244,fr22_p2).
body(r_fr6_244,fr13_s2).
body(r_fr6_244,fr23_y2).
head(r_fr6_245,fr6_u1).
body(r_fr6_245,fr6_a1).
body(r_fr6_245,fr13_f2).
body(r_fr6_245,fr13_f2).
body(r_fr6_245,fr14_d2).
body(r_fr6_245,fr14_f1).
body(r_fr6_245,fr13_s2).
head(r_fr6_246,fr6_u1).
head(r_fr6_247,fr6_u1).
body(r_fr6_247,fr9_b4).
body(r_fr6_247,fr6_c2).
body(r_fr6_247,fr12_x3).
body(r_fr6_247,fr22_p2).
body(r_fr6_247,fr13_s2).
body(r_fr6_247,fr23_y2).
head(r_fr6_248,fr6_u1).
body(r_fr6_248,fr6_a1).
body(r_fr6_248,fr12_x3).
body(r_fr6_248,fr23_y2).
body(r_fr6_248,fr23_y2).
head(r_fr6_249,fr6_u1).
body(r_fr6_249,fr6_a1).
body(r_fr6_249,fr9_b4).
body(r_fr6_249,fr12_x3).
body(r_fr6_249,fr22_p2).
body(r_fr6_249,fr23_y2).
body(r_fr6_249,fr23_y2).
head(r_fr6_250,fr6_u1).
body(r_fr6_250,fr12_x3).

assumption(fr13_f2).
assumption(fr9_e2).
assumption(fr7_c1).
assumption(fr7_d1).
assumption(fr7_e1).
assumption(fr7_f1).
assumption(fr12_e2).
assumption(fr17_e2).
assumption(fr7_c2).
assumption(fr9_a3).
assumption(fr14_c1).
assumption(fr7_f2).
assumption(fr7_a3).
assumption(fr7_b3).
assumption(fr14_c1).
contrary(fr13_f2,fr23_y2).
contrary(fr12_e2,fr7_a3).
contrary(fr7_a3,fr20_z1).
contrary(fr9_e2,fr2_q2).
contrary(fr17_e2,fr2_q2).
contrary(fr7_b3,fr13_z1).
contrary(fr7_c1,fr7_d1).
contrary(fr7_c2,fr13_x2).
contrary(fr14_c1,fr9_e2).
contrary(fr7_d1,fr13_z1).
contrary(fr9_a3,fr12_e2).
contrary(fr7_e1,fr14_c1).
contrary(fr14_c1,fr17_e2).
contrary(fr7_f1,fr17_p3).
contrary(fr7_f2,fr22_p2).
head(r_fr7_0,fr22_p2).
body(r_fr7_0,fr7_b3).
body(r_fr7_0,fr7_d1).
body(r_fr7_0,fr7_e1).
body(r_fr7_0,fr13_z1).
body(r_fr7_0,fr7_v2).
head(r_fr7_1,fr22_p2).
body(r_fr7_1,fr7_b3).
body(r_fr7_1,fr7_f1).
body(r_fr7_1,fr7_r1).
body(r_fr7_1,fr12_x3).
head(r_fr7_2,fr22_p2).
body(r_fr7_2,fr7_f1).
head(r_fr7_3,fr22_p2).
body(r_fr7_3,fr23_y2).
body(r_fr7_3,fr7_s1).
body(r_fr7_3,fr23_y2).
body(r_fr7_3,fr7_z2).
head(r_fr7_4,fr22_p2).
body(r_fr7_4,fr7_d1).
body(r_fr7_4,fr9_a3).
body(r_fr7_4,fr7_e1).
head(r_fr7_5,fr22_p2).
body(r_fr7_5,fr4_x2).
head(r_fr7_6,fr22_p2).
head(r_fr7_7,fr22_p2).
body(r_fr7_7,fr7_e1).
head(r_fr7_8,fr22_p2).
body(r_fr7_8,fr9_e2).
body(r_fr7_8,fr14_c1).
body(r_fr7_8,fr7_f2).
body(r_fr7_8,fr23_y2).
body(r_fr7_8,fr22_p2).
head(r_fr7_9,fr22_p2).
body(r_fr7_9,fr17_e2).
head(r_fr7_10,fr22_p2).
body(r_fr7_10,fr13_f2).
body(r_fr7_10,fr12_e2).
body(r_fr7_10,fr9_e2).
body(r_fr7_10,fr14_c1).
body(r_fr7_10,fr13_x2).
body(r_fr7_10,fr13_z1).
head(r_fr7_11,fr22_p2).
body(r_fr7_11,fr13_f2).
body(r_fr7_11,fr7_r1).
body(r_fr7_11,fr22_p2).
body(r_fr7_11,fr7_x2).
body(r_fr7_11,fr13_z1).
head(r_fr7_12,fr22_p2).
body(r_fr7_12,fr13_z1).
body(r_fr7_12,fr7_r2).
body(r_fr7_12,fr13_z1).
head(r_fr7_13,fr22_p2).
body(r_fr7_13,fr9_e2).
body(r_fr7_13,fr17_e2).
body(r_fr7_13,fr7_c1).
body(r_fr7_13,fr7_d1).
body(r_fr7_13,fr9_a3).
head(r_fr7_14,fr22_p2).
body(r_fr7_14,fr13_z1).
body(r_fr7_14,fr23_y2).
body(r_fr7_14,fr7_r1).
body(r_fr7_14,fr23_y2).
body(r_fr7_14,fr22_p2).
head(r_fr7_15,fr22_p2).
body(r_fr7_15,fr7_r1).
body(r_fr7_15,fr7_s1).
body(r_fr7_15,fr23_y2).
body(r_fr7_15,fr20_z1).
head(r_fr7_16,fr22_p2).
body(r_fr7_16,fr7_b3).
body(r_fr7_16,fr17_p3).
head(r_fr7_17,fr22_p2).
body(r_fr7_17,fr7_c2).
body(r_fr7_17,fr7_d1).
body(r_fr7_17,fr7_f1).
body(r_fr7_17,fr7_x2).
head(r_fr7_18,fr22_p2).
body(r_fr7_18,fr12_e2).
body(r_fr7_18,fr7_r2).
head(r_fr7_19,fr22_p2).
body(r_fr7_19,fr12_e2).
body(r_fr7_19,fr7_e1).
body(r_fr7_19,fr7_f1).
body(r_fr7_19,fr20_z1).
body(r_fr7_19,fr13_x2).
head(r_fr7_20,fr7_r2).
body(r_fr7_20,fr7_r1).
body(r_fr7_20,fr23_p3).
body(r_fr7_20,fr2_q2).
body(r_fr7_20,fr12_x3).
head(r_fr7_21,fr7_r2).
body(r_fr7_21,fr12_e2).
body(r_fr7_21,fr7_b3).
body(r_fr7_21,fr7_d1).
body(r_fr7_21,fr7_r1).
body(r_fr7_21,fr13_x2).
head(r_fr7_22,fr7_r2).
body(r_fr7_22,fr22_p2).
body(r_fr7_22,fr13_x2).
body(r_fr7_22,fr13_z1).
body(r_fr7_22,fr13_z1).
head(r_fr7_23,fr7_r2).
body(r_fr7_23,fr1_p4).
body(r_fr7_23,fr13_z1).
head(r_fr7_24,fr7_r2).
body(r_fr7_24,fr7_c1).
body(r_fr7_24,fr7_c2).
body(r_fr7_24,fr23_y2).
body(r_fr7_24,fr13_z1).
head(r_fr7_25,fr7_r2).
body(r_fr7_25,fr7_v2).
body(r_fr7_25,fr17_p3).
head(r_fr7_26,fr7_r2).
body(r_fr7_26,fr7_a3).
body(r_fr7_26,fr22_p2).
head(r_fr7_27,fr7_r2).
body(r_fr7_27,fr7_r1).
body(r_fr7_27,fr23_p3).
body(r_fr7_27,fr4_x2).
head(r_fr7_28,fr7_r2).
body(r_fr7_28,fr17_e2).
body(r_fr7_28,fr7_d1).
head(r_fr7_29,fr7_r2).
body(r_fr7_29,fr12_e2).
head(r_fr7_30,fr7_r2).
body(r_fr7_30,fr14_c1).
body(r_fr7_30,fr7_f1).
body(r_fr7_30,fr22_p2).
body(r_fr7_30,fr23_y2).
head(r_fr7_31,fr7_r2).
body(r_fr7_31,fr9_a3).
body(r_fr7_31,fr7_s1).
head(r_fr7_32,fr7_r2).
body(r_fr7_32,fr14_c1).
body(r_fr7_32,fr13_z1).
body(r_fr7_32,fr7_r1).
body(r_fr7_32,fr23_y2).
body(r_fr7_32,fr2_q2).
body(r_fr7_32,fr7_v2).
head(r_fr7_33,fr7_r2).
head(r_fr7_34,fr7_r2).
body(r_fr7_34,fr9_e2).
body(r_fr7_34,fr14_c1).
body(r_fr7_34,fr7_f2).
body(r_fr7_34,fr22_p2).
body(r_fr7_34,fr13_z1).
head(r_fr7_35,fr7_r2).
body(r_fr7_35,fr7_d1).
body(r_fr7_35,fr7_e1).
body(r_fr7_35,fr7_f2).
head(r_fr7_36,fr7_r2).
body(r_fr7_36,fr13_f2).
body(r_fr7_36,fr7_c1).
body(r_fr7_36,fr7_c2).
body(r_fr7_36,fr7_e1).
body(r_fr7_36,fr7_f2).
body(r_fr7_36,fr17_p3).
head(r_fr7_37,fr7_r2).
body(r_fr7_37,fr12_e2).
body(r_fr7_37,fr17_e2).
body(r_fr7_37,fr14_c1).
body(r_fr7_37,fr7_e1).
body(r_fr7_37,fr14_c1).
head(r_fr7_38,fr7_r2).
body(r_fr7_38,fr17_e2).
body(r_fr7_38,fr14_c1).
body(r_fr7_38,fr20_z1).
body(r_fr7_38,fr7_v2).
head(r_fr7_39,fr7_r2).
body(r_fr7_39,fr7_a3).
body(r_fr7_39,fr7_c1).
body(r_fr7_39,fr14_c1).
body(r_fr7_39,fr13_z1).
body(r_fr7_39,fr13_x2).
body(r_fr7_39,fr7_s1).
head(r_fr7_40,fr4_x2).
body(r_fr7_40,fr7_b3).
body(r_fr7_40,fr14_c1).
body(r_fr7_40,fr7_d1).
body(r_fr7_40,fr9_a3).
head(r_fr7_41,fr4_x2).
body(r_fr7_41,fr7_f1).
body(r_fr7_41,fr23_y2).
body(r_fr7_41,fr7_s1).
body(r_fr7_41,fr13_z1).
head(r_fr7_42,fr4_x2).
body(r_fr7_42,fr14_c1).
body(r_fr7_42,fr9_a3).
body(r_fr7_42,fr7_e1).
body(r_fr7_42,fr14_c1).
body(r_fr7_42,fr7_f2).
body(r_fr7_42,fr7_z2).
head(r_fr7_43,fr4_x2).
body(r_fr7_43,fr14_c1).
body(r_fr7_43,fr2_q2).
head(r_fr7_44,fr4_x2).
body(r_fr7_44,fr13_f2).
body(r_fr7_44,fr9_e2).
body(r_fr7_44,fr9_a3).
body(r_fr7_44,fr7_e1).
body(r_fr7_44,fr7_f1).
head(r_fr7_45,fr4_x2).
body(r_fr7_45,fr14_c1).
head(r_fr7_46,fr4_x2).
body(r_fr7_46,fr7_b3).
body(r_fr7_46,fr7_d1).
body(r_fr7_46,fr9_a3).
body(r_fr7_46,fr7_f1).
head(r_fr7_47,fr4_x2).
body(r_fr7_47,fr13_x2).
head(r_fr7_48,fr4_x2).
body(r_fr7_48,fr14_c1).
body(r_fr7_48,fr13_z1).
body(r_fr7_48,fr23_y2).
body(r_fr7_48,fr7_r1).
body(r_fr7_48,fr13_x2).
body(r_fr7_48,fr7_x2).
head(r_fr7_49,fr4_x2).
body(r_fr7_49,fr17_e2).
body(r_fr7_49,fr14_c1).
head(r_fr7_50,fr4_x2).
body(r_fr7_50,fr7_r2).
body(r_fr7_50,fr7_s1).
body(r_fr7_50,fr13_z1).
head(r_fr7_51,fr4_x2).
body(r_fr7_51,fr13_f2).
body(r_fr7_51,fr7_c1).
body(r_fr7_51,fr7_e1).
head(r_fr7_52,fr4_x2).
body(r_fr7_52,fr7_a3).
body(r_fr7_52,fr7_c1).
body(r_fr7_52,fr14_c1).
body(r_fr7_52,fr7_f1).
body(r_fr7_52,fr13_x2).
head(r_fr7_53,fr4_x2).
body(r_fr7_53,fr1_p4).
body(r_fr7_53,fr23_y2).
body(r_fr7_53,fr13_x2).
body(r_fr7_53,fr7_r1).
body(r_fr7_53,fr17_p3).
head(r_fr7_54,fr4_x2).
body(r_fr7_54,fr12_e2).
body(r_fr7_54,fr7_c2).
body(r_fr7_54,fr2_q2).
body(r_fr7_54,fr13_z1).
body(r_fr7_54,fr23_p3).
body(r_fr7_54,fr7_z2).
head(r_fr7_55,fr4_x2).
body(r_fr7_55,fr22_p2).
body(r_fr7_55,fr13_z1).
body(r_fr7_55,fr23_y2).
body(r_fr7_55,fr23_y2).
body(r_fr7_55,fr13_z1).
head(r_fr7_56,fr4_x2).
body(r_fr7_56,fr7_c2).
body(r_fr7_56,fr7_d1).
body(r_fr7_56,fr9_a3).
body(r_fr7_56,fr7_e1).
body(r_fr7_56,fr12_x3).
head(r_fr7_57,fr4_x2).
head(r_fr7_58,fr13_z1).
body(r_fr7_58,fr1_p4).
body(r_fr7_58,fr23_y2).
body(r_fr7_58,fr4_x2).
head(r_fr7_59,fr13_z1).
body(r_fr7_59,fr7_c1).
body(r_fr7_59,fr1_p4).
body(r_fr7_59,fr13_z1).
head(r_fr7_60,fr13_z1).
body(r_fr7_60,fr14_c1).
body(r_fr7_60,fr22_p2).
body(r_fr7_60,fr23_y2).
body(r_fr7_60,fr23_y2).
body(r_fr7_60,fr23_p3).
body(r_fr7_60,fr7_z2).
head(r_fr7_61,fr13_z1).
body(r_fr7_61,fr13_f2).
body(r_fr7_61,fr7_a3).
body(r_fr7_61,fr9_e2).
body(r_fr7_61,fr7_b3).
body(r_fr7_61,fr7_f2).
body(r_fr7_61,fr2_q2).
head(r_fr7_62,fr13_z1).
body(r_fr7_62,fr7_s1).
body(r_fr7_62,fr22_p2).
body(r_fr7_62,fr20_z1).
body(r_fr7_62,fr13_x2).
head(r_fr7_63,fr13_z1).
body(r_fr7_63,fr4_x2).
body(r_fr7_63,fr7_v2).
body(r_fr7_63,fr13_x2).
head(r_fr7_64,fr13_z1).
body(r_fr7_64,fr14_c1).
body(r_fr7_64,fr7_f1).
body(r_fr7_64,fr2_q2).
body(r_fr7_64,fr1_p4).
body(r_fr7_64,fr13_x2).
head(r_fr7_65,fr13_z1).
body(r_fr7_65,fr14_c1).
body(r_fr7_65,fr23_p3).
body(r_fr7_65,fr4_x2).
head(r_fr7_66,fr13_z1).
body(r_fr7_66,fr13_z1).
head(r_fr7_67,fr13_z1).
body(r_fr7_67,fr13_f2).
body(r_fr7_67,fr7_f1).
body(r_fr7_67,fr22_p2).
body(r_fr7_67,fr13_x2).
head(r_fr7_68,fr13_z1).
body(r_fr7_68,fr13_z1).
body(r_fr7_68,fr13_x2).
body(r_fr7_68,fr17_p3).
body(r_fr7_68,fr7_x2).
head(r_fr7_69,fr13_z1).
body(r_fr7_69,fr13_f2).
body(r_fr7_69,fr7_b3).
body(r_fr7_69,fr14_c1).
body(r_fr7_69,fr13_z1).
head(r_fr7_70,fr13_z1).
body(r_fr7_70,fr7_a3).
body(r_fr7_70,fr17_e2).
body(r_fr7_70,fr7_c2).
body(r_fr7_70,fr9_a3).
body(r_fr7_70,fr23_y2).
head(r_fr7_71,fr13_z1).
body(r_fr7_71,fr7_s1).
head(r_fr7_72,fr13_z1).
body(r_fr7_72,fr23_y2).
body(r_fr7_72,fr7_v2).
head(r_fr7_73,fr13_z1).
body(r_fr7_73,fr7_b3).
body(r_fr7_73,fr7_c2).
body(r_fr7_73,fr9_a3).
body(r_fr7_73,fr7_f2).
head(r_fr7_74,fr13_z1).
body(r_fr7_74,fr13_f2).
body(r_fr7_74,fr17_e2).
body(r_fr7_74,fr7_e1).
body(r_fr7_74,fr22_p2).
head(r_fr7_75,fr13_z1).
body(r_fr7_75,fr7_d1).
body(r_fr7_75,fr7_f1).
body(r_fr7_75,fr22_p2).
body(r_fr7_75,fr23_y2).
head(r_fr7_76,fr13_z1).
body(r_fr7_76,fr7_a3).
body(r_fr7_76,fr9_e2).
body(r_fr7_76,fr9_a3).
body(r_fr7_76,fr1_p4).
head(r_fr7_77,fr13_z1).
head(r_fr7_78,fr7_z2).
body(r_fr7_78,fr23_p3).
body(r_fr7_78,fr22_p2).
body(r_fr7_78,fr12_x3).
head(r_fr7_79,fr7_z2).
body(r_fr7_79,fr7_a3).
body(r_fr7_79,fr7_b3).
body(r_fr7_79,fr7_d1).
body(r_fr7_79,fr23_y2).
body(r_fr7_79,fr13_x2).
head(r_fr7_80,fr7_z2).
body(r_fr7_80,fr17_e2).
body(r_fr7_80,fr7_d1).
body(r_fr7_80,fr9_a3).
body(r_fr7_80,fr7_f2).
head(r_fr7_81,fr7_z2).
body(r_fr7_81,fr17_p3).
body(r_fr7_81,fr13_z1).
head(r_fr7_82,fr7_z2).
body(r_fr7_82,fr7_b3).
body(r_fr7_82,fr14_c1).
body(r_fr7_82,fr2_q2).
body(r_fr7_82,fr4_x2).
head(r_fr7_83,fr7_z2).
body(r_fr7_83,fr17_e2).
body(r_fr7_83,fr14_c1).
body(r_fr7_83,fr23_p3).
body(r_fr7_83,fr2_q2).
body(r_fr7_83,fr4_x2).
head(r_fr7_84,fr7_z2).
body(r_fr7_84,fr7_v2).
body(r_fr7_84,fr13_z1).
head(r_fr7_85,fr7_z2).
body(r_fr7_85,fr14_c1).
head(r_fr7_86,fr7_z2).
body(r_fr7_86,fr7_a3).
body(r_fr7_86,fr7_c2).
body(r_fr7_86,fr9_a3).
body(r_fr7_86,fr12_x3).
head(r_fr7_87,fr7_z2).
body(r_fr7_87,fr13_f2).
body(r_fr7_87,fr9_e2).
body(r_fr7_87,fr7_c1).
body(r_fr7_87,fr2_q2).
body(r_fr7_87,fr13_z1).
head(r_fr7_88,fr7_z2).
body(r_fr7_88,fr9_e2).
body(r_fr7_88,fr17_e2).
body(r_fr7_88,fr7_d1).
body(r_fr7_88,fr4_x2).
head(r_fr7_89,fr7_z2).
body(r_fr7_89,fr17_e2).
head(r_fr7_90,fr7_z2).
body(r_fr7_90,fr9_e2).
body(r_fr7_90,fr1_p4).
body(r_fr7_90,fr7_s1).
body(r_fr7_90,fr13_z1).
head(r_fr7_91,fr7_z2).
body(r_fr7_91,fr7_b3).
head(r_fr7_92,fr7_z2).
body(r_fr7_92,fr13_f2).
head(r_fr7_93,fr7_z2).
body(r_fr7_93,fr17_e2).
body(r_fr7_93,fr7_f2).
body(r_fr7_93,fr23_p3).
body(r_fr7_93,fr7_x2).
body(r_fr7_93,fr13_z1).
head(r_fr7_94,fr7_z2).
body(r_fr7_94,fr7_b3).
body(r_fr7_94,fr7_c1).
body(r_fr7_94,fr7_f2).
body(r_fr7_94,fr20_z1).
body(r_fr7_94,fr13_z1).
body(r_fr7_94,fr12_x3).
head(r_fr7_95,fr7_z2).
body(r_fr7_95,fr13_f2).
body(r_fr7_95,fr17_p3).
body(r_fr7_95,fr13_x2).
body(r_fr7_95,fr12_x3).
head(r_fr7_96,fr7_z2).
body(r_fr7_96,fr13_f2).
body(r_fr7_96,fr7_a3).
body(r_fr7_96,fr1_p4).
body(r_fr7_96,fr7_s1).
body(r_fr7_96,fr23_y2).
body(r_fr7_96,fr22_p2).
head(r_fr7_97,fr13_z1).
body(r_fr7_97,fr7_a3).
head(r_fr7_98,fr13_z1).
body(r_fr7_98,fr17_e2).
body(r_fr7_98,fr7_b3).
head(r_fr7_99,fr13_z1).
body(r_fr7_99,fr13_f2).
body(r_fr7_99,fr9_a3).
body(r_fr7_99,fr23_y2).
body(r_fr7_99,fr12_x3).
head(r_fr7_100,fr13_z1).
body(r_fr7_100,fr7_c1).
body(r_fr7_100,fr2_q2).
body(r_fr7_100,fr4_x2).
body(r_fr7_100,fr13_x2).
head(r_fr7_101,fr13_z1).
body(r_fr7_101,fr7_s1).
body(r_fr7_101,fr4_x2).
body(r_fr7_101,fr20_z1).
body(r_fr7_101,fr7_x2).
body(r_fr7_101,fr12_x3).
head(r_fr7_102,fr13_z1).
body(r_fr7_102,fr7_c2).
body(r_fr7_102,fr2_q2).
body(r_fr7_102,fr1_p4).
body(r_fr7_102,fr23_p3).
body(r_fr7_102,fr4_x2).
body(r_fr7_102,fr13_z1).
head(r_fr7_103,fr13_z1).
body(r_fr7_103,fr9_e2).
body(r_fr7_103,fr23_y2).
body(r_fr7_103,fr23_y2).
body(r_fr7_103,fr13_x2).
body(r_fr7_103,fr13_z1).
body(r_fr7_103,fr12_x3).
head(r_fr7_104,fr13_z1).
body(r_fr7_104,fr23_p3).
body(r_fr7_104,fr20_z1).
body(r_fr7_104,fr7_x2).
head(r_fr7_105,fr13_z1).
body(r_fr7_105,fr7_e1).
body(r_fr7_105,fr7_r1).
head(r_fr7_106,fr13_z1).
body(r_fr7_106,fr7_c2).
body(r_fr7_106,fr1_p4).
body(r_fr7_106,fr22_p2).
head(r_fr7_107,fr13_z1).
body(r_fr7_107,fr7_a3).
body(r_fr7_107,fr7_b3).
body(r_fr7_107,fr7_d1).
head(r_fr7_108,fr13_z1).
body(r_fr7_108,fr7_c1).
body(r_fr7_108,fr7_e1).
body(r_fr7_108,fr7_r2).
head(r_fr7_109,fr13_z1).
body(r_fr7_109,fr4_x2).
body(r_fr7_109,fr12_x3).
head(r_fr7_110,fr13_z1).
body(r_fr7_110,fr7_e1).
body(r_fr7_110,fr22_p2).
body(r_fr7_110,fr7_r1).
body(r_fr7_110,fr4_x2).
body(r_fr7_110,fr20_z1).
head(r_fr7_111,fr13_z1).
body(r_fr7_111,fr12_e2).
body(r_fr7_111,fr7_e1).
body(r_fr7_111,fr22_p2).
body(r_fr7_111,fr22_p2).
body(r_fr7_111,fr13_z1).
head(r_fr7_112,fr13_z1).
head(r_fr7_113,fr13_z1).
body(r_fr7_113,fr12_e2).
body(r_fr7_113,fr14_c1).
body(r_fr7_113,fr13_z1).
head(r_fr7_114,fr13_z1).
body(r_fr7_114,fr9_e2).
body(r_fr7_114,fr7_c2).
head(r_fr7_115,fr13_z1).
body(r_fr7_115,fr2_q2).
head(r_fr7_116,fr13_z1).
body(r_fr7_116,fr17_e2).
body(r_fr7_116,fr14_c1).
head(r_fr7_117,fr12_x3).
body(r_fr7_117,fr4_x2).
body(r_fr7_117,fr7_v2).
body(r_fr7_117,fr13_z1).
body(r_fr7_117,fr7_z2).
head(r_fr7_118,fr12_x3).
body(r_fr7_118,fr7_e1).
body(r_fr7_118,fr2_q2).
body(r_fr7_118,fr7_r2).
body(r_fr7_118,fr23_y2).
body(r_fr7_118,fr23_p3).
body(r_fr7_118,fr17_p3).
head(r_fr7_119,fr12_x3).
body(r_fr7_119,fr22_p2).
body(r_fr7_119,fr7_r2).
body(r_fr7_119,fr23_y2).
body(r_fr7_119,fr22_p2).
head(r_fr7_120,fr12_x3).
body(r_fr7_120,fr17_e2).
body(r_fr7_120,fr7_c1).
body(r_fr7_120,fr7_e1).
body(r_fr7_120,fr14_c1).
body(r_fr7_120,fr7_f1).
body(r_fr7_120,fr13_x2).
head(r_fr7_121,fr12_x3).
body(r_fr7_121,fr12_e2).
body(r_fr7_121,fr9_e2).
body(r_fr7_121,fr7_b3).
body(r_fr7_121,fr7_c2).
body(r_fr7_121,fr14_c1).
body(r_fr7_121,fr9_a3).
head(r_fr7_122,fr12_x3).
body(r_fr7_122,fr7_d1).
body(r_fr7_122,fr13_z1).
body(r_fr7_122,fr20_z1).
body(r_fr7_122,fr13_z1).
head(r_fr7_123,fr12_x3).
body(r_fr7_123,fr7_f2).
head(r_fr7_124,fr12_x3).
body(r_fr7_124,fr7_b3).
head(r_fr7_125,fr12_x3).
body(r_fr7_125,fr2_q2).
head(r_fr7_126,fr12_x3).
body(r_fr7_126,fr17_p3).
body(r_fr7_126,fr13_z1).
head(r_fr7_127,fr12_x3).
body(r_fr7_127,fr12_e2).
body(r_fr7_127,fr7_c1).
body(r_fr7_127,fr9_a3).
body(r_fr7_127,fr7_e1).
head(r_fr7_128,fr12_x3).
body(r_fr7_128,fr7_a3).
body(r_fr7_128,fr17_e2).
body(r_fr7_128,fr7_f1).
body(r_fr7_128,fr7_r2).
body(r_fr7_128,fr4_x2).
head(r_fr7_129,fr12_x3).
head(r_fr7_130,fr12_x3).
body(r_fr7_130,fr13_f2).
body(r_fr7_130,fr12_e2).
body(r_fr7_130,fr9_e2).
body(r_fr7_130,fr7_f2).
head(r_fr7_131,fr12_x3).
body(r_fr7_131,fr17_e2).
body(r_fr7_131,fr9_a3).
body(r_fr7_131,fr22_p2).
head(r_fr7_132,fr12_x3).
body(r_fr7_132,fr7_s1).
body(r_fr7_132,fr23_y2).
body(r_fr7_132,fr20_z1).
body(r_fr7_132,fr13_z1).
body(r_fr7_132,fr13_x2).
body(r_fr7_132,fr7_x2).
head(r_fr7_133,fr12_x3).
body(r_fr7_133,fr2_q2).
body(r_fr7_133,fr13_x2).
body(r_fr7_133,fr7_r1).
body(r_fr7_133,fr7_v2).
head(r_fr7_134,fr12_x3).
body(r_fr7_134,fr7_b3).
body(r_fr7_134,fr7_e1).
body(r_fr7_134,fr23_y2).
body(r_fr7_134,fr13_z1).
head(r_fr7_135,fr12_x3).
body(r_fr7_135,fr7_d1).
body(r_fr7_135,fr23_p3).
body(r_fr7_135,fr2_q2).
body(r_fr7_135,fr13_z1).
head(r_fr7_136,fr7_s1).
body(r_fr7_136,fr17_e2).
body(r_fr7_136,fr9_a3).
body(r_fr7_136,fr2_q2).
body(r_fr7_136,fr13_z1).
body(r_fr7_136,fr7_z2).
head(r_fr7_137,fr7_s1).
body(r_fr7_137,fr12_e2).
body(r_fr7_137,fr9_e2).
body(r_fr7_137,fr7_b3).
body(r_fr7_137,fr7_c2).
body(r_fr7_137,fr9_a3).
body(r_fr7_137,fr7_x2).
head(r_fr7_138,fr7_s1).
body(r_fr7_138,fr14_c1).
body(r_fr7_138,fr13_z1).
body(r_fr7_138,fr13_x2).
head(r_fr7_139,fr7_s1).
body(r_fr7_139,fr12_e2).
body(r_fr7_139,fr17_e2).
body(r_fr7_139,fr7_c1).
body(r_fr7_139,fr9_a3).
head(r_fr7_140,fr7_s1).
body(r_fr7_140,fr7_f2).
body(r_fr7_140,fr1_p4).
body(r_fr7_140,fr23_y2).
head(r_fr7_141,fr7_s1).
body(r_fr7_141,fr7_a3).
body(r_fr7_141,fr17_e2).
body(r_fr7_141,fr7_b3).
body(r_fr7_141,fr7_c1).
body(r_fr7_141,fr7_d1).
body(r_fr7_141,fr23_y2).
head(r_fr7_142,fr7_s1).
body(r_fr7_142,fr7_d1).
body(r_fr7_142,fr7_f2).
body(r_fr7_142,fr7_r1).
head(r_fr7_143,fr7_s1).
body(r_fr7_143,fr12_e2).
body(r_fr7_143,fr7_c2).
head(r_fr7_144,fr7_s1).
body(r_fr7_144,fr7_x2).
head(r_fr7_145,fr7_s1).
body(r_fr7_145,fr9_e2).
body(r_fr7_145,fr7_b3).
body(r_fr7_145,fr7_f1).
head(r_fr7_146,fr7_s1).
body(r_fr7_146,fr7_c2).
body(r_fr7_146,fr14_c1).
head(r_fr7_147,fr7_s1).
body(r_fr7_147,fr22_p2).
body(r_fr7_147,fr13_z1).
body(r_fr7_147,fr13_x2).
body(r_fr7_147,fr23_p3).
body(r_fr7_147,fr12_x3).
head(r_fr7_148,fr7_s1).
body(r_fr7_148,fr14_c1).
body(r_fr7_148,fr7_f1).
body(r_fr7_148,fr7_f2).
head(r_fr7_149,fr7_s1).
body(r_fr7_149,fr13_f2).
body(r_fr7_149,fr7_c1).
body(r_fr7_149,fr14_c1).
body(r_fr7_149,fr7_f2).
head(r_fr7_150,fr7_s1).
body(r_fr7_150,fr7_b3).
body(r_fr7_150,fr14_c1).
body(r_fr7_150,fr7_d1).
head(r_fr7_151,fr7_s1).
head(r_fr7_152,fr7_s1).
body(r_fr7_152,fr7_r1).
body(r_fr7_152,fr7_v2).
head(r_fr7_153,fr13_x2).
body(r_fr7_153,fr13_f2).
head(r_fr7_154,fr13_x2).
body(r_fr7_154,fr17_e2).
body(r_fr7_154,fr7_f1).
body(r_fr7_154,fr7_x2).
head(r_fr7_155,fr13_x2).
body(r_fr7_155,fr22_p2).
body(r_fr7_155,fr7_r2).
body(r_fr7_155,fr7_s1).
body(r_fr7_155,fr23_y2).
body(r_fr7_155,fr7_z2).
head(r_fr7_156,fr13_x2).
body(r_fr7_156,fr7_f2).
body(r_fr7_156,fr13_z1).
head(r_fr7_157,fr13_x2).
body(r_fr7_157,fr7_c2).
body(r_fr7_157,fr7_d1).
body(r_fr7_157,fr14_c1).
body(r_fr7_157,fr7_f1).
head(r_fr7_158,fr13_x2).
body(r_fr7_158,fr13_f2).
body(r_fr7_158,fr12_e2).
body(r_fr7_158,fr9_e2).
body(r_fr7_158,fr17_e2).
body(r_fr7_158,fr7_e1).
body(r_fr7_158,fr7_f1).
head(r_fr7_159,fr13_x2).
body(r_fr7_159,fr13_f2).
body(r_fr7_159,fr12_e2).
body(r_fr7_159,fr17_e2).
body(r_fr7_159,fr7_c1).
body(r_fr7_159,fr7_e1).
head(r_fr7_160,fr13_x2).
head(r_fr7_161,fr13_x2).
body(r_fr7_161,fr12_e2).
body(r_fr7_161,fr7_d1).
body(r_fr7_161,fr7_f2).
body(r_fr7_161,fr7_r1).
body(r_fr7_161,fr22_p2).
body(r_fr7_161,fr13_z1).
head(r_fr7_162,fr13_x2).
body(r_fr7_162,fr7_a3).
body(r_fr7_162,fr7_c2).
body(r_fr7_162,fr7_d1).
body(r_fr7_162,fr7_f1).
body(r_fr7_162,fr7_r1).
head(r_fr7_163,fr13_x2).
body(r_fr7_163,fr12_e2).
body(r_fr7_163,fr7_a3).
body(r_fr7_163,fr17_e2).
body(r_fr7_163,fr7_b3).
body(r_fr7_163,fr7_c1).
body(r_fr7_163,fr7_e1).
head(r_fr7_164,fr13_x2).
body(r_fr7_164,fr12_e2).
body(r_fr7_164,fr7_c2).
body(r_fr7_164,fr9_a3).
body(r_fr7_164,fr14_c1).
body(r_fr7_164,fr17_p3).
body(r_fr7_164,fr13_z1).
head(r_fr7_165,fr13_x2).
body(r_fr7_165,fr1_p4).
body(r_fr7_165,fr23_y2).
body(r_fr7_165,fr2_q2).
head(r_fr7_166,fr13_x2).
body(r_fr7_166,fr13_f2).
body(r_fr7_166,fr7_a3).
body(r_fr7_166,fr7_e1).
body(r_fr7_166,fr7_f1).
body(r_fr7_166,fr13_x2).
head(r_fr7_167,fr13_x2).
body(r_fr7_167,fr22_p2).
body(r_fr7_167,fr7_v2).
body(r_fr7_167,fr13_z1).
head(r_fr7_168,fr13_x2).
body(r_fr7_168,fr13_z1).
head(r_fr7_169,fr13_x2).
body(r_fr7_169,fr1_p4).
head(r_fr7_170,fr13_x2).
body(r_fr7_170,fr7_a3).
body(r_fr7_170,fr7_c2).
body(r_fr7_170,fr14_c1).
body(r_fr7_170,fr7_d1).
head(r_fr7_171,fr13_x2).
body(r_fr7_171,fr2_q2).
body(r_fr7_171,fr7_v2).
body(r_fr7_171,fr13_z1).
head(r_fr7_172,fr13_x2).
body(r_fr7_172,fr17_e2).
body(r_fr7_172,fr23_y2).
body(r_fr7_172,fr22_p2).
body(r_fr7_172,fr13_z1).
head(r_fr7_173,fr13_x2).
body(r_fr7_173,fr7_c1).
body(r_fr7_173,fr9_a3).
body(r_fr7_173,fr23_p3).
body(r_fr7_173,fr13_z1).
head(r_fr7_174,fr13_x2).
body(r_fr7_174,fr7_d1).
body(r_fr7_174,fr1_p4).
body(r_fr7_174,fr7_v2).
body(r_fr7_174,fr12_x3).
head(r_fr7_175,fr13_x2).
body(r_fr7_175,fr23_p3).
body(r_fr7_175,fr7_v2).
body(r_fr7_175,fr13_z1).
head(r_fr7_176,fr13_x2).
body(r_fr7_176,fr13_f2).
head(r_fr7_177,fr13_x2).
body(r_fr7_177,fr13_f2).
body(r_fr7_177,fr1_p4).
body(r_fr7_177,fr2_q2).
body(r_fr7_177,fr22_p2).
body(r_fr7_177,fr13_z1).
head(r_fr7_178,fr13_x2).
body(r_fr7_178,fr14_c1).
body(r_fr7_178,fr23_y2).
body(r_fr7_178,fr7_z2).
head(r_fr7_179,fr13_x2).
body(r_fr7_179,fr13_f2).
body(r_fr7_179,fr12_e2).
body(r_fr7_179,fr9_e2).
body(r_fr7_179,fr1_p4).
body(r_fr7_179,fr17_p3).
head(r_fr7_180,fr13_x2).
body(r_fr7_180,fr13_f2).
body(r_fr7_180,fr14_c1).
body(r_fr7_180,fr7_e1).
body(r_fr7_180,fr14_c1).
body(r_fr7_180,fr7_f1).
head(r_fr7_181,fr13_x2).
body(r_fr7_181,fr13_f2).
body(r_fr7_181,fr17_e2).
body(r_fr7_181,fr7_c1).
body(r_fr7_181,fr7_c2).
body(r_fr7_181,fr7_d1).
body(r_fr7_181,fr9_a3).
head(r_fr7_182,fr13_x2).
body(r_fr7_182,fr12_e2).
body(r_fr7_182,fr7_b3).
body(r_fr7_182,fr7_r1).
body(r_fr7_182,fr23_y2).
head(r_fr7_183,fr13_x2).
body(r_fr7_183,fr7_r1).
body(r_fr7_183,fr22_p2).
body(r_fr7_183,fr17_p3).
body(r_fr7_183,fr13_z1).
body(r_fr7_183,fr13_x2).
body(r_fr7_183,fr12_x3).
head(r_fr7_184,fr13_x2).
body(r_fr7_184,fr13_f2).
body(r_fr7_184,fr12_e2).
body(r_fr7_184,fr7_b3).
body(r_fr7_184,fr9_a3).
body(r_fr7_184,fr14_c1).
body(r_fr7_184,fr7_f1).
head(r_fr7_185,fr13_x2).
head(r_fr7_186,fr13_x2).
body(r_fr7_186,fr23_y2).
body(r_fr7_186,fr7_s1).
head(r_fr7_187,fr13_x2).
body(r_fr7_187,fr9_e2).
body(r_fr7_187,fr7_c2).
body(r_fr7_187,fr7_e1).
body(r_fr7_187,fr14_c1).
body(r_fr7_187,fr7_f2).
head(r_fr7_188,fr13_x2).
body(r_fr7_188,fr12_e2).
body(r_fr7_188,fr7_c1).
body(r_fr7_188,fr9_a3).
body(r_fr7_188,fr7_f2).
body(r_fr7_188,fr7_r2).
body(r_fr7_188,fr13_x2).
head(r_fr7_189,fr13_x2).
body(r_fr7_189,fr13_f2).
body(r_fr7_189,fr9_e2).
body(r_fr7_189,fr14_c1).
body(r_fr7_189,fr7_r1).
head(r_fr7_190,fr7_x2).
body(r_fr7_190,fr7_r1).
body(r_fr7_190,fr7_s1).
body(r_fr7_190,fr7_v2).
head(r_fr7_191,fr7_x2).
body(r_fr7_191,fr23_y2).
head(r_fr7_192,fr7_x2).
body(r_fr7_192,fr14_c1).
body(r_fr7_192,fr7_d1).
body(r_fr7_192,fr7_f2).
head(r_fr7_193,fr7_x2).
body(r_fr7_193,fr17_e2).
body(r_fr7_193,fr7_e1).
body(r_fr7_193,fr13_x2).
body(r_fr7_193,fr2_q2).
head(r_fr7_194,fr7_x2).
body(r_fr7_194,fr1_p4).
body(r_fr7_194,fr13_z1).
body(r_fr7_194,fr23_y2).
body(r_fr7_194,fr7_s1).
body(r_fr7_194,fr23_y2).
body(r_fr7_194,fr7_z2).
head(r_fr7_195,fr7_x2).
body(r_fr7_195,fr9_e2).
body(r_fr7_195,fr17_e2).
body(r_fr7_195,fr7_c2).
body(r_fr7_195,fr7_d1).
body(r_fr7_195,fr13_x2).
body(r_fr7_195,fr7_z2).
head(r_fr7_196,fr7_x2).
body(r_fr7_196,fr7_f2).
body(r_fr7_196,fr7_r1).
body(r_fr7_196,fr23_p3).
body(r_fr7_196,fr2_q2).
head(r_fr7_197,fr7_x2).
body(r_fr7_197,fr7_d1).
body(r_fr7_197,fr23_y2).
body(r_fr7_197,fr7_r1).
body(r_fr7_197,fr2_q2).
head(r_fr7_198,fr7_x2).
body(r_fr7_198,fr12_e2).
body(r_fr7_198,fr7_a3).
body(r_fr7_198,fr9_e2).
body(r_fr7_198,fr7_c2).
body(r_fr7_198,fr7_d1).
body(r_fr7_198,fr7_f1).
head(r_fr7_199,fr7_x2).
body(r_fr7_199,fr1_p4).
body(r_fr7_199,fr22_p2).
body(r_fr7_199,fr7_r2).
body(r_fr7_199,fr23_y2).
body(r_fr7_199,fr23_p3).
body(r_fr7_199,fr22_p2).
head(r_fr7_200,fr7_x2).
body(r_fr7_200,fr7_d1).
body(r_fr7_200,fr7_f2).
body(r_fr7_200,fr1_p4).
body(r_fr7_200,fr23_p3).
body(r_fr7_200,fr22_p2).
body(r_fr7_200,fr20_z1).
head(r_fr7_201,fr7_x2).
body(r_fr7_201,fr17_e2).
body(r_fr7_201,fr7_v2).
head(r_fr7_202,fr7_x2).
body(r_fr7_202,fr12_e2).
body(r_fr7_202,fr2_q2).
body(r_fr7_202,fr1_p4).
body(r_fr7_202,fr13_x2).
body(r_fr7_202,fr13_z1).
body(r_fr7_202,fr12_x3).
head(r_fr7_203,fr7_x2).
body(r_fr7_203,fr7_e1).
body(r_fr7_203,fr2_q2).
head(r_fr7_204,fr7_x2).
body(r_fr7_204,fr7_a3).
body(r_fr7_204,fr7_c2).
body(r_fr7_204,fr9_a3).
body(r_fr7_204,fr20_z1).
head(r_fr7_205,fr7_x2).
body(r_fr7_205,fr7_a3).
head(r_fr7_206,fr7_x2).
head(r_fr7_207,fr7_x2).
body(r_fr7_207,fr2_q2).
head(r_fr7_208,fr7_x2).
body(r_fr7_208,fr7_a3).
body(r_fr7_208,fr7_c2).
body(r_fr7_208,fr7_f1).
body(r_fr7_208,fr7_f2).
body(r_fr7_208,fr13_x2).
body(r_fr7_208,fr12_x3).
head(r_fr7_209,fr7_x2).
body(r_fr7_209,fr7_c1).
body(r_fr7_209,fr1_p4).
body(r_fr7_209,fr13_z1).
head(r_fr7_210,fr22_p2).
body(r_fr7_210,fr9_e2).
body(r_fr7_210,fr7_d1).
head(r_fr7_211,fr22_p2).
body(r_fr7_211,fr14_c1).
body(r_fr7_211,fr7_s1).
body(r_fr7_211,fr13_z1).
body(r_fr7_211,fr13_z1).
head(r_fr7_212,fr22_p2).
body(r_fr7_212,fr7_c2).
body(r_fr7_212,fr23_p3).
body(r_fr7_212,fr2_q2).
body(r_fr7_212,fr13_x2).
head(r_fr7_213,fr22_p2).
body(r_fr7_213,fr13_f2).
body(r_fr7_213,fr17_e2).
body(r_fr7_213,fr7_c1).
body(r_fr7_213,fr7_f1).
body(r_fr7_213,fr13_z1).
head(r_fr7_214,fr22_p2).
body(r_fr7_214,fr12_e2).
body(r_fr7_214,fr14_c1).
body(r_fr7_214,fr13_z1).
head(r_fr7_215,fr22_p2).
body(r_fr7_215,fr7_c2).
body(r_fr7_215,fr22_p2).
body(r_fr7_215,fr7_v2).
body(r_fr7_215,fr13_z1).
head(r_fr7_216,fr22_p2).
body(r_fr7_216,fr13_f2).
body(r_fr7_216,fr12_e2).
body(r_fr7_216,fr9_e2).
body(r_fr7_216,fr14_c1).
body(r_fr7_216,fr23_y2).
body(r_fr7_216,fr23_y2).
head(r_fr7_217,fr22_p2).
body(r_fr7_217,fr13_f2).
body(r_fr7_217,fr12_e2).
body(r_fr7_217,fr9_e2).
body(r_fr7_217,fr17_e2).
body(r_fr7_217,fr7_f1).
head(r_fr7_218,fr22_p2).
body(r_fr7_218,fr2_q2).
body(r_fr7_218,fr13_z1).
body(r_fr7_218,fr23_y2).
body(r_fr7_218,fr13_z1).
head(r_fr7_219,fr22_p2).
body(r_fr7_219,fr12_e2).
body(r_fr7_219,fr17_e2).
body(r_fr7_219,fr7_c2).
body(r_fr7_219,fr4_x2).
head(r_fr7_220,fr22_p2).
body(r_fr7_220,fr7_d1).
body(r_fr7_220,fr7_e1).
body(r_fr7_220,fr7_r1).
head(r_fr7_221,fr22_p2).
body(r_fr7_221,fr23_y2).
body(r_fr7_221,fr12_x3).
head(r_fr7_222,fr22_p2).
body(r_fr7_222,fr13_f2).
body(r_fr7_222,fr7_c1).
body(r_fr7_222,fr7_d1).
body(r_fr7_222,fr14_c1).
body(r_fr7_222,fr13_z1).
head(r_fr7_223,fr22_p2).
body(r_fr7_223,fr12_e2).
body(r_fr7_223,fr7_f1).
head(r_fr7_224,fr22_p2).
body(r_fr7_224,fr7_a3).
body(r_fr7_224,fr23_y2).
body(r_fr7_224,fr23_y2).
body(r_fr7_224,fr7_v2).
body(r_fr7_224,fr13_x2).
body(r_fr7_224,fr13_z1).
head(r_fr7_225,fr22_p2).
body(r_fr7_225,fr12_e2).
body(r_fr7_225,fr7_d1).
body(r_fr7_225,fr13_x2).
body(r_fr7_225,fr13_z1).
head(r_fr7_226,fr22_p2).
body(r_fr7_226,fr7_f1).
body(r_fr7_226,fr13_x2).
body(r_fr7_226,fr7_r2).
head(r_fr7_227,fr22_p2).
head(r_fr7_228,fr22_p2).
body(r_fr7_228,fr7_c1).
body(r_fr7_228,fr14_c1).
body(r_fr7_228,fr23_y2).
body(r_fr7_228,fr20_z1).
body(r_fr7_228,fr13_z1).
head(r_fr7_229,fr1_p4).
body(r_fr7_229,fr12_e2).
body(r_fr7_229,fr7_c1).
body(r_fr7_229,fr14_c1).
body(r_fr7_229,fr14_c1).
body(r_fr7_229,fr7_f1).
head(r_fr7_230,fr1_p4).
body(r_fr7_230,fr7_r2).
body(r_fr7_230,fr12_x3).
head(r_fr7_231,fr1_p4).
body(r_fr7_231,fr9_e2).
body(r_fr7_231,fr20_z1).
body(r_fr7_231,fr7_x2).
body(r_fr7_231,fr13_z1).
head(r_fr7_232,fr1_p4).
body(r_fr7_232,fr17_e2).
body(r_fr7_232,fr7_d1).
body(r_fr7_232,fr9_a3).
body(r_fr7_232,fr14_c1).
body(r_fr7_232,fr13_x2).
head(r_fr7_233,fr1_p4).
body(r_fr7_233,fr9_e2).
body(r_fr7_233,fr7_c2).
body(r_fr7_233,fr7_d1).
body(r_fr7_233,fr9_a3).
body(r_fr7_233,fr7_e1).
head(r_fr7_234,fr1_p4).
body(r_fr7_234,fr7_r1).
body(r_fr7_234,fr23_p3).
head(r_fr7_235,fr1_p4).
body(r_fr7_235,fr12_e2).
head(r_fr7_236,fr1_p4).
body(r_fr7_236,fr13_f2).
body(r_fr7_236,fr9_e2).
body(r_fr7_236,fr7_f2).
head(r_fr7_237,fr1_p4).
body(r_fr7_237,fr13_z1).
body(r_fr7_237,fr7_z2).
head(r_fr7_238,fr1_p4).
body(r_fr7_238,fr13_z1).
head(r_fr7_239,fr1_p4).
head(r_fr7_240,fr1_p4).
body(r_fr7_240,fr23_p3).
head(r_fr7_241,fr1_p4).
body(r_fr7_241,fr13_f2).
body(r_fr7_241,fr7_b3).
body(r_fr7_241,fr7_d1).
body(r_fr7_241,fr9_a3).
body(r_fr7_241,fr4_x2).
body(r_fr7_241,fr13_x2).
head(r_fr7_242,fr1_p4).
body(r_fr7_242,fr2_q2).
body(r_fr7_242,fr23_p3).
body(r_fr7_242,fr4_x2).
body(r_fr7_242,fr13_z1).
head(r_fr7_243,fr1_p4).
body(r_fr7_243,fr9_e2).
body(r_fr7_243,fr17_e2).
body(r_fr7_243,fr7_c1).
body(r_fr7_243,fr7_f2).
body(r_fr7_243,fr13_z1).
body(r_fr7_243,fr13_x2).
head(r_fr7_244,fr1_p4).
body(r_fr7_244,fr13_f2).
body(r_fr7_244,fr7_c1).
body(r_fr7_244,fr7_e1).
head(r_fr7_245,fr1_p4).
body(r_fr7_245,fr23_y2).
body(r_fr7_245,fr4_x2).
body(r_fr7_245,fr22_p2).
body(r_fr7_245,fr7_v2).
body(r_fr7_245,fr13_z1).
body(r_fr7_245,fr12_x3).
head(r_fr7_246,fr1_p4).
body(r_fr7_246,fr13_x2).
head(r_fr7_247,fr1_p4).
body(r_fr7_247,fr13_z1).
body(r_fr7_247,fr12_x3).
head(r_fr7_248,fr7_r1).
body(r_fr7_248,fr7_a3).
body(r_fr7_248,fr7_f2).
body(r_fr7_248,fr13_z1).
head(r_fr7_249,fr7_r1).
body(r_fr7_249,fr13_f2).
body(r_fr7_249,fr9_e2).
body(r_fr7_249,fr9_a3).
body(r_fr7_249,fr7_e1).
body(r_fr7_249,fr14_c1).
head(r_fr7_250,fr7_r1).
body(r_fr7_250,fr13_z1).
head(r_fr7_251,fr7_r1).
body(r_fr7_251,fr22_p2).
body(r_fr7_251,fr12_x3).
head(r_fr7_252,fr7_r1).
body(r_fr7_252,fr7_b3).
body(r_fr7_252,fr7_d1).
body(r_fr7_252,fr22_p2).
head(r_fr7_253,fr7_r1).
body(r_fr7_253,fr14_c1).
body(r_fr7_253,fr2_q2).
body(r_fr7_253,fr13_z1).
head(r_fr7_254,fr7_r1).
body(r_fr7_254,fr13_f2).
body(r_fr7_254,fr7_a3).
body(r_fr7_254,fr9_e2).
body(r_fr7_254,fr7_c1).
body(r_fr7_254,fr7_c2).
body(r_fr7_254,fr14_c1).
head(r_fr7_255,fr7_r1).
body(r_fr7_255,fr13_f2).
body(r_fr7_255,fr7_b3).
body(r_fr7_255,fr7_c2).
body(r_fr7_255,fr7_f2).
body(r_fr7_255,fr7_s1).
body(r_fr7_255,fr7_v2).
head(r_fr7_256,fr7_r1).
body(r_fr7_256,fr9_a3).
body(r_fr7_256,fr7_f1).
head(r_fr7_257,fr7_r1).
body(r_fr7_257,fr9_a3).
body(r_fr7_257,fr22_p2).
head(r_fr7_258,fr7_r1).
body(r_fr7_258,fr12_e2).
body(r_fr7_258,fr7_b3).
body(r_fr7_258,fr14_c1).
body(r_fr7_258,fr7_r2).
body(r_fr7_258,fr7_s1).
body(r_fr7_258,fr23_p3).
head(r_fr7_259,fr7_r1).
body(r_fr7_259,fr13_f2).
body(r_fr7_259,fr12_e2).
body(r_fr7_259,fr7_d1).
body(r_fr7_259,fr7_f2).
body(r_fr7_259,fr13_x2).
body(r_fr7_259,fr13_z1).
head(r_fr7_260,fr7_r1).
body(r_fr7_260,fr12_e2).
body(r_fr7_260,fr7_c2).
body(r_fr7_260,fr7_d1).
head(r_fr7_261,fr7_r1).
body(r_fr7_261,fr7_a3).
body(r_fr7_261,fr7_b3).
body(r_fr7_261,fr7_c1).
body(r_fr7_261,fr7_f1).
body(r_fr7_261,fr13_z1).
head(r_fr7_262,fr7_r1).
body(r_fr7_262,fr13_f2).
body(r_fr7_262,fr7_e1).
head(r_fr7_263,fr7_r1).
head(r_fr7_264,fr7_r1).
body(r_fr7_264,fr22_p2).
body(r_fr7_264,fr13_x2).
head(r_fr7_265,fr7_r1).
body(r_fr7_265,fr7_f1).
head(r_fr7_266,fr7_r1).
body(r_fr7_266,fr13_f2).
body(r_fr7_266,fr1_p4).
body(r_fr7_266,fr22_p2).
body(r_fr7_266,fr13_x2).
body(r_fr7_266,fr23_y2).
body(r_fr7_266,fr13_z1).
head(r_fr7_267,fr7_v2).
body(r_fr7_267,fr7_f2).
body(r_fr7_267,fr7_s1).
body(r_fr7_267,fr20_z1).
head(r_fr7_268,fr7_v2).
body(r_fr7_268,fr7_d1).
body(r_fr7_268,fr9_a3).
body(r_fr7_268,fr7_f1).
head(r_fr7_269,fr7_v2).
body(r_fr7_269,fr14_c1).
body(r_fr7_269,fr22_p2).
head(r_fr7_270,fr7_v2).
body(r_fr7_270,fr9_a3).
head(r_fr7_271,fr7_v2).
body(r_fr7_271,fr13_z1).
head(r_fr7_272,fr7_v2).
body(r_fr7_272,fr7_f2).
body(r_fr7_272,fr13_z1).
body(r_fr7_272,fr22_p2).
body(r_fr7_272,fr20_z1).
body(r_fr7_272,fr13_z1).
body(r_fr7_272,fr7_x2).
head(r_fr7_273,fr7_v2).
body(r_fr7_273,fr22_p2).
body(r_fr7_273,fr13_z1).
body(r_fr7_273,fr23_y2).
body(r_fr7_273,fr13_z1).
body(r_fr7_273,fr7_z2).
head(r_fr7_274,fr7_v2).
body(r_fr7_274,fr7_r1).
body(r_fr7_274,fr7_s1).
body(r_fr7_274,fr23_y2).
body(r_fr7_274,fr7_x2).
head(r_fr7_275,fr7_v2).
body(r_fr7_275,fr9_e2).
body(r_fr7_275,fr7_d1).
body(r_fr7_275,fr7_f2).
head(r_fr7_276,fr7_v2).
body(r_fr7_276,fr7_a3).
head(r_fr7_277,fr7_v2).
body(r_fr7_277,fr13_f2).
body(r_fr7_277,fr7_c2).
body(r_fr7_277,fr9_a3).
body(r_fr7_277,fr7_e1).
head(r_fr7_278,fr7_v2).
body(r_fr7_278,fr17_e2).
body(r_fr7_278,fr7_b3).
body(r_fr7_278,fr7_d1).
body(r_fr7_278,fr14_c1).
body(r_fr7_278,fr7_f1).
head(r_fr7_279,fr7_v2).
body(r_fr7_279,fr9_e2).
body(r_fr7_279,fr14_c1).
head(r_fr7_280,fr7_v2).
body(r_fr7_280,fr2_q2).
head(r_fr7_281,fr7_v2).
body(r_fr7_281,fr13_f2).
body(r_fr7_281,fr12_e2).
body(r_fr7_281,fr7_c1).
body(r_fr7_281,fr7_f1).
head(r_fr7_282,fr7_v2).
body(r_fr7_282,fr9_e2).
body(r_fr7_282,fr7_b3).
body(r_fr7_282,fr7_e1).
body(r_fr7_282,fr1_p4).
head(r_fr7_283,fr7_v2).
head(r_fr7_284,fr7_v2).
body(r_fr7_284,fr13_f2).
body(r_fr7_284,fr9_e2).
body(r_fr7_284,fr7_c1).
body(r_fr7_284,fr9_a3).
head(r_fr7_285,fr23_y2).
body(r_fr7_285,fr7_s1).
body(r_fr7_285,fr20_z1).
head(r_fr7_286,fr23_y2).
body(r_fr7_286,fr13_f2).
body(r_fr7_286,fr17_e2).
body(r_fr7_286,fr7_e1).
body(r_fr7_286,fr14_c1).
body(r_fr7_286,fr23_y2).
head(r_fr7_287,fr23_y2).
body(r_fr7_287,fr7_c1).
body(r_fr7_287,fr7_c2).
head(r_fr7_288,fr23_y2).
body(r_fr7_288,fr13_f2).
body(r_fr7_288,fr7_d1).
body(r_fr7_288,fr9_a3).
body(r_fr7_288,fr7_e1).
body(r_fr7_288,fr14_c1).
body(r_fr7_288,fr13_z1).
head(r_fr7_289,fr23_y2).
body(r_fr7_289,fr7_c2).
body(r_fr7_289,fr1_p4).
body(r_fr7_289,fr12_x3).
head(r_fr7_290,fr23_y2).
body(r_fr7_290,fr17_e2).
body(r_fr7_290,fr9_a3).
body(r_fr7_290,fr7_f1).
body(r_fr7_290,fr7_r2).
body(r_fr7_290,fr13_x2).
head(r_fr7_291,fr23_y2).
body(r_fr7_291,fr7_b3).
body(r_fr7_291,fr7_x2).
head(r_fr7_292,fr23_y2).
body(r_fr7_292,fr13_f2).
body(r_fr7_292,fr17_e2).
body(r_fr7_292,fr9_a3).
body(r_fr7_292,fr7_r1).
body(r_fr7_292,fr22_p2).
body(r_fr7_292,fr12_x3).
head(r_fr7_293,fr23_y2).
body(r_fr7_293,fr13_f2).
body(r_fr7_293,fr9_e2).
body(r_fr7_293,fr7_c2).
body(r_fr7_293,fr7_e1).
head(r_fr7_294,fr23_y2).
body(r_fr7_294,fr14_c1).
body(r_fr7_294,fr2_q2).
body(r_fr7_294,fr22_p2).
body(r_fr7_294,fr23_y2).
body(r_fr7_294,fr7_z2).
head(r_fr7_295,fr23_y2).
body(r_fr7_295,fr1_p4).
body(r_fr7_295,fr7_r2).
body(r_fr7_295,fr2_q2).
body(r_fr7_295,fr20_z1).
head(r_fr7_296,fr23_y2).
body(r_fr7_296,fr12_e2).
body(r_fr7_296,fr9_a3).
head(r_fr7_297,fr23_y2).
body(r_fr7_297,fr13_x2).
head(r_fr7_298,fr23_y2).
body(r_fr7_298,fr12_e2).
body(r_fr7_298,fr9_e2).
body(r_fr7_298,fr7_d1).
body(r_fr7_298,fr14_c1).
body(r_fr7_298,fr7_f1).
body(r_fr7_298,fr7_f2).
head(r_fr7_299,fr23_y2).
body(r_fr7_299,fr13_z1).
body(r_fr7_299,fr23_y2).
body(r_fr7_299,fr22_p2).
head(r_fr7_300,fr23_y2).
body(r_fr7_300,fr7_c2).
body(r_fr7_300,fr7_d1).
body(r_fr7_300,fr17_p3).
body(r_fr7_300,fr13_x2).
head(r_fr7_301,fr23_y2).
body(r_fr7_301,fr13_f2).
body(r_fr7_301,fr7_b3).
body(r_fr7_301,fr14_c1).
body(r_fr7_301,fr2_q2).
body(r_fr7_301,fr13_z1).
body(r_fr7_301,fr7_x2).
head(r_fr7_302,fr2_q2).
body(r_fr7_302,fr7_a3).
body(r_fr7_302,fr9_e2).
body(r_fr7_302,fr17_e2).
body(r_fr7_302,fr7_c1).
head(r_fr7_303,fr2_q2).
body(r_fr7_303,fr2_q2).
head(r_fr7_304,fr2_q2).
body(r_fr7_304,fr7_b3).
body(r_fr7_304,fr9_a3).
body(r_fr7_304,fr1_p4).
head(r_fr7_305,fr2_q2).
body(r_fr7_305,fr14_c1).
body(r_fr7_305,fr14_c1).
body(r_fr7_305,fr7_f1).
body(r_fr7_305,fr1_p4).
body(r_fr7_305,fr13_z1).
body(r_fr7_305,fr23_p3).
head(r_fr7_306,fr2_q2).
body(r_fr7_306,fr7_f1).
body(r_fr7_306,fr12_x3).
head(r_fr7_307,fr2_q2).
body(r_fr7_307,fr12_e2).
body(r_fr7_307,fr7_a3).
body(r_fr7_307,fr1_p4).
body(r_fr7_307,fr23_y2).
body(r_fr7_307,fr13_x2).
body(r_fr7_307,fr13_z1).
head(r_fr7_308,fr2_q2).
body(r_fr7_308,fr13_f2).
body(r_fr7_308,fr17_e2).
body(r_fr7_308,fr7_f1).
body(r_fr7_308,fr23_y2).
body(r_fr7_308,fr4_x2).
head(r_fr7_309,fr2_q2).
body(r_fr7_309,fr23_y2).
body(r_fr7_309,fr23_p3).
body(r_fr7_309,fr2_q2).
body(r_fr7_309,fr4_x2).
body(r_fr7_309,fr17_p3).
body(r_fr7_309,fr12_x3).
head(r_fr7_310,fr2_q2).
body(r_fr7_310,fr7_c2).
body(r_fr7_310,fr9_a3).
body(r_fr7_310,fr22_p2).
body(r_fr7_310,fr23_y2).
body(r_fr7_310,fr17_p3).
head(r_fr7_311,fr2_q2).
body(r_fr7_311,fr22_p2).
body(r_fr7_311,fr2_q2).
body(r_fr7_311,fr13_z1).
head(r_fr7_312,fr2_q2).
body(r_fr7_312,fr22_p2).
body(r_fr7_312,fr23_y2).
body(r_fr7_312,fr17_p3).
head(r_fr7_313,fr2_q2).
body(r_fr7_313,fr7_e1).
body(r_fr7_313,fr7_f1).
head(r_fr7_314,fr2_q2).
body(r_fr7_314,fr1_p4).
body(r_fr7_314,fr7_s1).
body(r_fr7_314,fr20_z1).
body(r_fr7_314,fr13_x2).
head(r_fr7_315,fr2_q2).
body(r_fr7_315,fr7_d1).
body(r_fr7_315,fr14_c1).
head(r_fr7_316,fr2_q2).
body(r_fr7_316,fr14_c1).
body(r_fr7_316,fr23_y2).
body(r_fr7_316,fr2_q2).
body(r_fr7_316,fr4_x2).
body(r_fr7_316,fr7_v2).
body(r_fr7_316,fr13_z1).
head(r_fr7_317,fr2_q2).
body(r_fr7_317,fr17_e2).
head(r_fr7_318,fr2_q2).
body(r_fr7_318,fr14_c1).
head(r_fr7_319,fr2_q2).
head(r_fr7_320,fr2_q2).
body(r_fr7_320,fr13_f2).
body(r_fr7_320,fr7_e1).
head(r_fr7_321,fr2_q2).
body(r_fr7_321,fr7_c1).
body(r_fr7_321,fr9_a3).
body(r_fr7_321,fr7_f2).
head(r_fr7_322,fr20_z1).
body(r_fr7_322,fr7_r1).
body(r_fr7_322,fr23_y2).
head(r_fr7_323,fr20_z1).
body(r_fr7_323,fr7_b3).
body(r_fr7_323,fr2_q2).
body(r_fr7_323,fr13_z1).
body(r_fr7_323,fr23_y2).
body(r_fr7_323,fr17_p3).
body(r_fr7_323,fr7_x2).
head(r_fr7_324,fr20_z1).
body(r_fr7_324,fr23_p3).
body(r_fr7_324,fr22_p2).
body(r_fr7_324,fr7_v2).
head(r_fr7_325,fr20_z1).
body(r_fr7_325,fr9_e2).
body(r_fr7_325,fr7_r1).
body(r_fr7_325,fr23_y2).
body(r_fr7_325,fr2_q2).
body(r_fr7_325,fr13_z1).
body(r_fr7_325,fr12_x3).
head(r_fr7_326,fr20_z1).
body(r_fr7_326,fr13_z1).
body(r_fr7_326,fr23_y2).
body(r_fr7_326,fr23_y2).
body(r_fr7_326,fr4_x2).
body(r_fr7_326,fr13_x2).
head(r_fr7_327,fr20_z1).
body(r_fr7_327,fr7_a3).
body(r_fr7_327,fr9_e2).
body(r_fr7_327,fr14_c1).
body(r_fr7_327,fr7_r1).
body(r_fr7_327,fr2_q2).
body(r_fr7_327,fr22_p2).
head(r_fr7_328,fr20_z1).
body(r_fr7_328,fr7_b3).
body(r_fr7_328,fr7_f2).
body(r_fr7_328,fr23_p3).
body(r_fr7_328,fr17_p3).
body(r_fr7_328,fr13_z1).
head(r_fr7_329,fr20_z1).
body(r_fr7_329,fr13_z1).
body(r_fr7_329,fr7_z2).
head(r_fr7_330,fr20_z1).
body(r_fr7_330,fr22_p2).
body(r_fr7_330,fr13_x2).
body(r_fr7_330,fr13_z1).
head(r_fr7_331,fr20_z1).
body(r_fr7_331,fr1_p4).
body(r_fr7_331,fr13_x2).
body(r_fr7_331,fr7_r1).
body(r_fr7_331,fr7_v2).
head(r_fr7_332,fr20_z1).
body(r_fr7_332,fr7_b3).
body(r_fr7_332,fr9_a3).
body(r_fr7_332,fr7_e1).
body(r_fr7_332,fr14_c1).
body(r_fr7_332,fr7_f1).
body(r_fr7_332,fr7_f2).
head(r_fr7_333,fr20_z1).
body(r_fr7_333,fr7_e1).
body(r_fr7_333,fr23_y2).
head(r_fr7_334,fr20_z1).
body(r_fr7_334,fr9_e2).
body(r_fr7_334,fr7_c1).
body(r_fr7_334,fr9_a3).
body(r_fr7_334,fr14_c1).
head(r_fr7_335,fr20_z1).
head(r_fr7_336,fr20_z1).
body(r_fr7_336,fr13_f2).
body(r_fr7_336,fr7_b3).
body(r_fr7_336,fr7_c1).
body(r_fr7_336,fr14_c1).
body(r_fr7_336,fr13_z1).
body(r_fr7_336,fr12_x3).
head(r_fr7_337,fr20_z1).
body(r_fr7_337,fr9_e2).
body(r_fr7_337,fr14_c1).
head(r_fr7_338,fr20_z1).
body(r_fr7_338,fr7_r1).
body(r_fr7_338,fr7_r2).
body(r_fr7_338,fr7_s1).
body(r_fr7_338,fr23_y2).
body(r_fr7_338,fr7_z2).
head(r_fr7_339,fr20_z1).
body(r_fr7_339,fr23_y2).
head(r_fr7_340,fr20_z1).
body(r_fr7_340,fr14_c1).
body(r_fr7_340,fr9_a3).
body(r_fr7_340,fr7_e1).
body(r_fr7_340,fr13_x2).
head(r_fr7_341,fr13_z1).
body(r_fr7_341,fr7_a3).
body(r_fr7_341,fr7_e1).
body(r_fr7_341,fr7_f1).
body(r_fr7_341,fr7_f2).
body(r_fr7_341,fr2_q2).
head(r_fr7_342,fr13_z1).
body(r_fr7_342,fr7_a3).
body(r_fr7_342,fr9_e2).
body(r_fr7_342,fr17_e2).
body(r_fr7_342,fr9_a3).
head(r_fr7_343,fr13_z1).
body(r_fr7_343,fr7_a3).
body(r_fr7_343,fr1_p4).
body(r_fr7_343,fr2_q2).
body(r_fr7_343,fr13_z1).
body(r_fr7_343,fr13_x2).
body(r_fr7_343,fr7_z2).
head(r_fr7_344,fr13_z1).
body(r_fr7_344,fr7_r2).
body(r_fr7_344,fr23_y2).
body(r_fr7_344,fr23_y2).
body(r_fr7_344,fr7_v2).
body(r_fr7_344,fr7_z2).
head(r_fr7_345,fr13_z1).
body(r_fr7_345,fr7_c2).
body(r_fr7_345,fr14_c1).
body(r_fr7_345,fr7_f1).
body(r_fr7_345,fr7_f2).
body(r_fr7_345,fr17_p3).
head(r_fr7_346,fr13_z1).
body(r_fr7_346,fr7_c1).
body(r_fr7_346,fr7_c2).
body(r_fr7_346,fr2_q2).
body(r_fr7_346,fr4_x2).
body(r_fr7_346,fr17_p3).
body(r_fr7_346,fr13_z1).
head(r_fr7_347,fr13_z1).
body(r_fr7_347,fr7_v2).
head(r_fr7_348,fr13_z1).
body(r_fr7_348,fr7_a3).
body(r_fr7_348,fr7_f1).
head(r_fr7_349,fr13_z1).
body(r_fr7_349,fr20_z1).
head(r_fr7_350,fr13_z1).
body(r_fr7_350,fr7_r2).
head(r_fr7_351,fr13_z1).
body(r_fr7_351,fr7_d1).
body(r_fr7_351,fr14_c1).
body(r_fr7_351,fr7_f1).
body(r_fr7_351,fr2_q2).
body(r_fr7_351,fr23_y2).
body(r_fr7_351,fr2_q2).
head(r_fr7_352,fr13_z1).
body(r_fr7_352,fr7_c2).
body(r_fr7_352,fr22_p2).
body(r_fr7_352,fr23_y2).
body(r_fr7_352,fr23_y2).
body(r_fr7_352,fr7_v2).
head(r_fr7_353,fr13_z1).
body(r_fr7_353,fr7_a3).
body(r_fr7_353,fr7_c1).
body(r_fr7_353,fr14_c1).
body(r_fr7_353,fr9_a3).
body(r_fr7_353,fr7_f2).
head(r_fr7_354,fr13_z1).
body(r_fr7_354,fr7_r2).
body(r_fr7_354,fr2_q2).
body(r_fr7_354,fr17_p3).
head(r_fr7_355,fr13_z1).
body(r_fr7_355,fr7_d1).
body(r_fr7_355,fr23_y2).
body(r_fr7_355,fr4_x2).
head(r_fr7_356,fr13_z1).
body(r_fr7_356,fr13_f2).
body(r_fr7_356,fr22_p2).
body(r_fr7_356,fr23_y2).
body(r_fr7_356,fr7_r1).
head(r_fr7_357,fr13_z1).
body(r_fr7_357,fr14_c1).
body(r_fr7_357,fr20_z1).
head(r_fr7_358,fr13_z1).
head(r_fr7_359,fr13_z1).
body(r_fr7_359,fr7_c2).
body(r_fr7_359,fr14_c1).
body(r_fr7_359,fr9_a3).
body(r_fr7_359,fr7_r2).
body(r_fr7_359,fr23_p3).
body(r_fr7_359,fr2_q2).
head(r_fr7_360,fr23_p3).
body(r_fr7_360,fr2_q2).
body(r_fr7_360,fr20_z1).
body(r_fr7_360,fr13_z1).
head(r_fr7_361,fr23_p3).
body(r_fr7_361,fr7_a3).
body(r_fr7_361,fr7_b3).
body(r_fr7_361,fr7_s1).
body(r_fr7_361,fr22_p2).
head(r_fr7_362,fr23_p3).
body(r_fr7_362,fr2_q2).
body(r_fr7_362,fr22_p2).
body(r_fr7_362,fr13_z1).
head(r_fr7_363,fr23_p3).
body(r_fr7_363,fr9_e2).
body(r_fr7_363,fr7_b3).
head(r_fr7_364,fr23_p3).
body(r_fr7_364,fr13_f2).
body(r_fr7_364,fr7_d1).
body(r_fr7_364,fr7_s1).
body(r_fr7_364,fr23_y2).
head(r_fr7_365,fr23_p3).
body(r_fr7_365,fr14_c1).
head(r_fr7_366,fr23_p3).
body(r_fr7_366,fr1_p4).
head(r_fr7_367,fr23_p3).
body(r_fr7_367,fr12_e2).
body(r_fr7_367,fr7_a3).
body(r_fr7_367,fr7_d1).
head(r_fr7_368,fr23_p3).
body(r_fr7_368,fr9_e2).
body(r_fr7_368,fr14_c1).
body(r_fr7_368,fr2_q2).
body(r_fr7_368,fr12_x3).
head(r_fr7_369,fr23_p3).
body(r_fr7_369,fr9_e2).
body(r_fr7_369,fr7_c2).
body(r_fr7_369,fr7_s1).
body(r_fr7_369,fr2_q2).
body(r_fr7_369,fr13_x2).
head(r_fr7_370,fr23_p3).
body(r_fr7_370,fr7_d1).
body(r_fr7_370,fr7_v2).
head(r_fr7_371,fr23_p3).
body(r_fr7_371,fr22_p2).
body(r_fr7_371,fr7_r1).
body(r_fr7_371,fr23_y2).
body(r_fr7_371,fr22_p2).
body(r_fr7_371,fr13_x2).
body(r_fr7_371,fr13_z1).
head(r_fr7_372,fr23_p3).
body(r_fr7_372,fr7_b3).
body(r_fr7_372,fr14_c1).
head(r_fr7_373,fr23_p3).
body(r_fr7_373,fr23_y2).
body(r_fr7_373,fr20_z1).
head(r_fr7_374,fr23_p3).
body(r_fr7_374,fr4_x2).
head(r_fr7_375,fr23_p3).
body(r_fr7_375,fr7_f2).
body(r_fr7_375,fr4_x2).
body(r_fr7_375,fr7_v2).
head(r_fr7_376,fr23_p3).
body(r_fr7_376,fr7_c2).
body(r_fr7_376,fr2_q2).
body(r_fr7_376,fr23_y2).
body(r_fr7_376,fr13_z1).
body(r_fr7_376,fr13_z1).
body(r_fr7_376,fr7_z2).
head(r_fr7_377,fr23_p3).
body(r_fr7_377,fr14_c1).
body(r_fr7_377,fr7_r1).
body(r_fr7_377,fr7_r2).
head(r_fr7_378,fr23_p3).
body(r_fr7_378,fr9_a3).
head(r_fr7_379,fr23_p3).

assumption(fr13_f2).
assumption(fr14_c1).
assumption(fr18_f1).
assumption(fr13_f2).
assumption(fr13_f2).
assumption(fr13_f2).
assumption(fr6_c2).
assumption(fr8_b2).
assumption(fr13_f2).
contrary(fr13_f2,fr14_c1).
contrary(fr6_c2,fr13_f2).
contrary(fr14_c1,fr23_y2).
contrary(fr8_b2,fr22_p2).
contrary(fr18_f1,fr20_x2).
contrary(fr13_f2,fr8_b2).
contrary(fr13_f2,fr2_q2).
contrary(fr13_f2,fr2_q2).
contrary(fr13_f2,fr22_p2).
head(r_fr8_0,fr22_p2).
body(r_fr8_0,fr13_z1).
body(r_fr8_0,fr22_p2).
body(r_fr8_0,fr8_v1).
head(r_fr8_1,fr22_p2).
head(r_fr8_2,fr2_q2).
body(r_fr8_2,fr13_f2).
head(r_fr8_3,fr2_q2).
body(r_fr8_3,fr6_c2).
body(r_fr8_3,fr18_f1).
body(r_fr8_3,fr13_f2).
head(r_fr8_4,fr22_p2).
body(r_fr8_4,fr13_f2).
body(r_fr8_4,fr13_z1).
body(r_fr8_4,fr23_y2).
head(r_fr8_5,fr22_p2).
body(r_fr8_5,fr23_y2).
body(r_fr8_5,fr23_y2).
head(r_fr8_6,fr8_v1).
body(r_fr8_6,fr6_c2).
head(r_fr8_7,fr8_v1).
body(r_fr8_7,fr18_f1).
body(r_fr8_7,fr13_f2).
body(r_fr8_7,fr13_f2).
head(r_fr8_8,fr8_v1).
head(r_fr8_9,fr13_z1).
body(r_fr8_9,fr21_z2).
head(r_fr8_10,fr13_z1).
body(r_fr8_10,fr13_f2).
body(r_fr8_10,fr8_v1).
head(r_fr8_11,fr8_u1).
body(r_fr8_11,fr22_p2).
head(r_fr8_12,fr8_u1).
head(r_fr8_13,fr8_u1).
body(r_fr8_13,fr23_y2).
head(r_fr8_14,fr22_p2).
head(r_fr8_15,fr22_p2).
body(r_fr8_15,fr13_f2).
body(r_fr8_15,fr13_f2).
body(r_fr8_15,fr2_q2).
head(r_fr8_16,fr22_p2).
body(r_fr8_16,fr13_f2).
body(r_fr8_16,fr13_f2).
head(r_fr8_17,fr23_y2).
body(r_fr8_17,fr8_b2).
body(r_fr8_17,fr8_u1).
head(r_fr8_18,fr23_y2).
head(r_fr8_19,fr23_y2).
body(r_fr8_19,fr23_y2).
head(r_fr8_20,fr23_y2).
body(r_fr8_20,fr8_b2).
head(r_fr8_21,fr21_z2).
head(r_fr8_22,fr21_z2).
body(r_fr8_22,fr20_x2).
head(r_fr8_23,fr8_w1).
body(r_fr8_23,fr22_p2).
head(r_fr8_24,fr8_w1).
head(r_fr8_25,fr23_y2).
body(r_fr8_25,fr6_c2).
body(r_fr8_25,fr14_c1).
body(r_fr8_25,fr18_f1).
head(r_fr8_26,fr23_y2).
body(r_fr8_26,fr18_f1).
body(r_fr8_26,fr13_f2).
head(r_fr8_27,fr23_y2).

assumption(fr9_a1).
assumption(fr9_b1).
assumption(fr9_c1).
assumption(fr9_d1).
assumption(fr9_e1).
assumption(fr10_f1).
assumption(fr13_f2).
assumption(fr18_f1).
assumption(fr9_c2).
assumption(fr9_d2).
assumption(fr9_e2).
assumption(fr9_f2).
assumption(fr9_a3).
assumption(fr9_b3).
assumption(fr14_d2).
assumption(fr13_f2).
assumption(fr13_f2).
assumption(fr13_f2).
assumption(fr13_f2).
assumption(fr9_b4).
assumption(fr9_c4).
assumption(fr9_d4).
assumption(fr7_c1).
assumption(fr14_c1).
assumption(fr9_a5).
assumption(fr9_b5).
assumption(fr17_e2).
assumption(fr9_d5).
assumption(fr13_f2).
assumption(fr9_f5).
assumption(fr9_a6).
assumption(fr13_e1).
assumption(fr9_c6).
contrary(fr9_a1,fr9_r4).
contrary(fr13_f2,fr9_z2).
contrary(fr9_a3,fr23_y2).
contrary(fr13_f2,fr9_a6).
contrary(fr9_a5,fr13_e1).
contrary(fr9_a6,fr9_c2).
contrary(fr9_b1,fr9_b5).
contrary(fr18_f1,fr9_q4).
contrary(fr9_b3,fr9_d4).
contrary(fr9_b4,fr12_x3).
contrary(fr9_b5,fr13_z1).
contrary(fr13_e1,fr9_d5).
contrary(fr9_c1,fr2_q2).
contrary(fr9_c2,fr9_b4).
contrary(fr14_d2,fr14_c1).
contrary(fr9_c4,fr9_s4).
contrary(fr17_e2,fr9_z4).
contrary(fr9_c6,fr13_f2).
contrary(fr9_d1,fr23_y2).
contrary(fr9_d2,fr23_y2).
contrary(fr13_f2,fr9_b1).
contrary(fr9_d4,fr22_p2).
contrary(fr9_d5,fr9_w2).
contrary(fr9_e1,fr9_z5).
contrary(fr9_e2,fr9_a1).
contrary(fr13_f2,fr23_y2).
contrary(fr7_c1,fr9_b5).
contrary(fr13_f2,fr7_c1).
contrary(fr10_f1,fr9_x1).
contrary(fr9_f2,fr9_a6).
contrary(fr13_f2,fr9_p5).
contrary(fr14_c1,fr17_e2).
contrary(fr9_f5,fr9_w1).
head(r_fr9_0,fr9_q3).
body(r_fr9_0,fr9_a3).
body(r_fr9_0,fr9_d1).
body(r_fr9_0,fr13_f2).
body(r_fr9_0,fr9_e2).
body(r_fr9_0,fr2_q2).
body(r_fr9_0,fr9_s3).
body(r_fr9_0,fr9_y3).
body(r_fr9_0,fr9_z2).
head(r_fr9_1,fr9_q3).
body(r_fr9_1,fr9_a3).
body(r_fr9_1,fr9_b1).
body(r_fr9_1,fr18_f1).
body(r_fr9_1,fr9_b3).
body(r_fr9_1,fr9_b4).
body(r_fr9_1,fr9_c2).
body(r_fr9_1,fr9_d2).
body(r_fr9_1,fr9_d5).
body(r_fr9_1,fr9_e2).
body(r_fr9_1,fr9_f2).
body(r_fr9_1,fr13_f2).
body(r_fr9_1,fr23_y2).
body(r_fr9_1,fr9_y2).
head(r_fr9_2,fr9_q3).
body(r_fr9_2,fr13_f2).
body(r_fr9_2,fr9_c1).
body(r_fr9_2,fr9_d1).
body(r_fr9_2,fr9_d2).
body(r_fr9_2,fr13_f2).
body(r_fr9_2,fr13_f2).
body(r_fr9_2,fr9_f2).
body(r_fr9_2,fr22_p2).
body(r_fr9_2,fr9_w5).
head(r_fr9_3,fr9_q3).
body(r_fr9_3,fr9_v2).
body(r_fr9_3,fr9_v4).
head(r_fr9_4,fr9_q3).
head(r_fr9_5,fr9_q3).
body(r_fr9_5,fr9_d1).
body(r_fr9_5,fr9_p4).
body(r_fr9_5,fr9_u2).
body(r_fr9_5,fr13_z1).
body(r_fr9_5,fr9_t5).
head(r_fr9_6,fr9_z1).
body(r_fr9_6,fr13_f2).
body(r_fr9_6,fr9_b3).
body(r_fr9_6,fr9_b4).
body(r_fr9_6,fr9_c1).
body(r_fr9_6,fr9_d4).
body(r_fr9_6,fr9_f5).
head(r_fr9_7,fr9_z1).
body(r_fr9_7,fr9_a1).
body(r_fr9_7,fr9_b4).
body(r_fr9_7,fr13_e1).
body(r_fr9_7,fr9_c4).
body(r_fr9_7,fr9_c6).
body(r_fr9_7,fr10_f1).
body(r_fr9_7,fr14_c1).
body(r_fr9_7,fr9_f5).
body(r_fr9_7,fr9_s3).
body(r_fr9_7,fr9_v4).
body(r_fr9_7,fr8_u1).
body(r_fr9_7,fr9_t5).
body(r_fr9_7,fr9_z2).
head(r_fr9_8,fr9_z1).
head(r_fr9_9,fr9_z1).
body(r_fr9_9,fr18_f1).
body(r_fr9_9,fr9_b4).
body(r_fr9_9,fr9_f2).
body(r_fr9_9,fr23_y2).
body(r_fr9_9,fr9_x1).
head(r_fr9_10,fr12_x3).
body(r_fr9_10,fr9_t3).
body(r_fr9_10,fr9_v2).
body(r_fr9_10,fr9_x2).
body(r_fr9_10,fr9_y4).
body(r_fr9_10,fr9_z5).
head(r_fr9_11,fr12_x3).
body(r_fr9_11,fr9_a1).
body(r_fr9_11,fr13_f2).
body(r_fr9_11,fr9_b3).
body(r_fr9_11,fr9_c1).
body(r_fr9_11,fr9_c2).
body(r_fr9_11,fr14_d2).
body(r_fr9_11,fr9_c4).
body(r_fr9_11,fr17_e2).
body(r_fr9_11,fr9_d5).
body(r_fr9_11,fr9_e1).
body(r_fr9_11,fr9_e2).
body(r_fr9_11,fr13_f2).
body(r_fr9_11,fr9_f2).
head(r_fr9_12,fr12_x3).
body(r_fr9_12,fr9_f5).
body(r_fr9_12,fr9_s5).
body(r_fr9_12,fr9_w1).
body(r_fr9_12,fr8_u1).
head(r_fr9_13,fr12_x3).
body(r_fr9_13,fr23_y2).
body(r_fr9_13,fr9_u5).
body(r_fr9_13,fr9_v5).
body(r_fr9_13,fr8_u1).
body(r_fr9_13,fr9_y4).
body(r_fr9_13,fr9_z2).
head(r_fr9_14,fr12_x3).
body(r_fr9_14,fr9_v3).
head(r_fr9_15,fr12_x3).
body(r_fr9_15,fr9_a1).
body(r_fr9_15,fr13_f2).
body(r_fr9_15,fr9_a3).
body(r_fr9_15,fr9_a6).
body(r_fr9_15,fr9_b4).
body(r_fr9_15,fr9_c6).
body(r_fr9_15,fr9_q2).
body(r_fr9_15,fr9_r4).
body(r_fr9_15,fr9_z4).
head(r_fr9_16,fr12_x3).
head(r_fr9_17,fr12_x3).
body(r_fr9_17,fr14_d2).
body(r_fr9_17,fr9_s3).
body(r_fr9_17,fr8_u1).
head(r_fr9_18,fr12_x3).
body(r_fr9_18,fr12_x1).
body(r_fr9_18,fr23_y2).
body(r_fr9_18,fr9_s2).
body(r_fr9_18,fr9_s5).
body(r_fr9_18,fr9_v2).
body(r_fr9_18,fr9_w5).
body(r_fr9_18,fr8_u1).
body(r_fr9_18,fr9_y2).
body(r_fr9_18,fr9_z4).
head(r_fr9_19,fr12_x3).
body(r_fr9_19,fr9_a6).
body(r_fr9_19,fr9_d5).
body(r_fr9_19,fr10_f1).
body(r_fr9_19,fr9_f2).
body(r_fr9_19,fr2_q2).
body(r_fr9_19,fr9_r4).
body(r_fr9_19,fr9_u4).
body(r_fr9_19,fr9_t5).
head(r_fr9_20,fr9_y3).
body(r_fr9_20,fr9_q4).
body(r_fr9_20,fr12_x1).
body(r_fr9_20,fr9_r4).
body(r_fr9_20,fr9_t3).
body(r_fr9_20,fr9_u2).
body(r_fr9_20,fr9_u4).
body(r_fr9_20,fr8_u1).
body(r_fr9_20,fr9_z2).
body(r_fr9_20,fr9_z4).
body(r_fr9_20,fr9_z5).
head(r_fr9_21,fr9_y3).
body(r_fr9_21,fr18_f1).
body(r_fr9_21,fr17_e2).
body(r_fr9_21,fr9_d1).
body(r_fr9_21,fr9_d2).
body(r_fr9_21,fr9_e2).
body(r_fr9_21,fr7_c1).
body(r_fr9_21,fr23_y2).
head(r_fr9_22,fr9_y3).
body(r_fr9_22,fr22_p2).
body(r_fr9_22,fr2_q2).
body(r_fr9_22,fr9_q4).
body(r_fr9_22,fr9_s4).
body(r_fr9_22,fr23_y2).
body(r_fr9_22,fr9_t3).
body(r_fr9_22,fr9_u1).
body(r_fr9_22,fr9_t5).
body(r_fr9_22,fr8_u1).
body(r_fr9_22,fr9_z1).
body(r_fr9_22,fr9_z4).
head(r_fr9_23,fr9_y3).
body(r_fr9_23,fr9_c1).
body(r_fr9_23,fr14_d2).
body(r_fr9_23,fr9_c4).
body(r_fr9_23,fr10_f1).
body(r_fr9_23,fr9_f2).
body(r_fr9_23,fr14_c1).
body(r_fr9_23,fr9_z2).
head(r_fr9_24,fr9_y3).
body(r_fr9_24,fr9_a6).
body(r_fr9_24,fr9_c4).
body(r_fr9_24,fr9_d1).
body(r_fr9_24,fr9_d5).
body(r_fr9_24,fr14_c1).
body(r_fr9_24,fr9_u1).
body(r_fr9_24,fr9_u4).
head(r_fr9_25,fr9_y3).
body(r_fr9_25,fr9_d1).
body(r_fr9_25,fr13_f2).
body(r_fr9_25,fr9_f2).
body(r_fr9_25,fr9_p4).
body(r_fr9_25,fr2_q2).
body(r_fr9_25,fr9_s2).
body(r_fr9_25,fr9_t3).
body(r_fr9_25,fr9_w5).
body(r_fr9_25,fr9_y2).
body(r_fr9_25,fr9_z3).
body(r_fr9_25,fr9_z4).
head(r_fr9_26,fr9_y3).
body(r_fr9_26,fr9_a6).
body(r_fr9_26,fr13_e1).
body(r_fr9_26,fr9_d4).
body(r_fr9_26,fr7_c1).
body(r_fr9_26,fr22_q1).
body(r_fr9_26,fr22_p2).
body(r_fr9_26,fr9_v3).
head(r_fr9_27,fr9_y3).
head(r_fr9_28,fr9_y3).
body(r_fr9_28,fr13_f2).
body(r_fr9_28,fr9_a3).
body(r_fr9_28,fr9_a5).
body(r_fr9_28,fr9_b3).
body(r_fr9_28,fr9_b5).
body(r_fr9_28,fr9_e1).
body(r_fr9_28,fr23_y2).
body(r_fr9_28,fr9_s2).
head(r_fr9_29,fr9_y3).
body(r_fr9_29,fr13_f2).
body(r_fr9_29,fr13_f2).
body(r_fr9_29,fr18_f1).
body(r_fr9_29,fr9_b5).
body(r_fr9_29,fr9_c2).
body(r_fr9_29,fr9_c6).
body(r_fr9_29,fr9_d2).
body(r_fr9_29,fr9_d4).
body(r_fr9_29,fr9_d5).
body(r_fr9_29,fr7_c1).
body(r_fr9_29,fr9_f2).
head(r_fr9_30,fr9_z5).
body(r_fr9_30,fr9_a5).
body(r_fr9_30,fr18_f1).
body(r_fr9_30,fr9_b3).
body(r_fr9_30,fr13_e1).
body(r_fr9_30,fr14_d2).
body(r_fr9_30,fr9_c6).
body(r_fr9_30,fr9_d1).
body(r_fr9_30,fr7_c1).
body(r_fr9_30,fr13_f2).
body(r_fr9_30,fr9_f5).
body(r_fr9_30,fr9_z2).
head(r_fr9_31,fr9_z5).
body(r_fr9_31,fr9_c6).
body(r_fr9_31,fr13_f2).
body(r_fr9_31,fr9_s2).
body(r_fr9_31,fr23_y2).
head(r_fr9_32,fr9_z5).
body(r_fr9_32,fr9_a3).
body(r_fr9_32,fr12_x3).
body(r_fr9_32,fr9_r4).
body(r_fr9_32,fr22_p2).
body(r_fr9_32,fr9_t4).
body(r_fr9_32,fr9_w2).
body(r_fr9_32,fr8_u1).
head(r_fr9_33,fr9_z5).
body(r_fr9_33,fr9_d2).
body(r_fr9_33,fr9_d4).
body(r_fr9_33,fr13_f2).
body(r_fr9_33,fr9_f5).
head(r_fr9_34,fr9_z5).
body(r_fr9_34,fr13_f2).
body(r_fr9_34,fr22_p2).
body(r_fr9_34,fr23_y2).
body(r_fr9_34,fr9_v2).
body(r_fr9_34,fr9_w5).
body(r_fr9_34,fr9_z2).
head(r_fr9_35,fr9_z5).
body(r_fr9_35,fr9_p4).
body(r_fr9_35,fr9_p5).
body(r_fr9_35,fr9_r4).
body(r_fr9_35,fr9_s4).
body(r_fr9_35,fr9_u5).
body(r_fr9_35,fr9_y1).
body(r_fr9_35,fr9_y3).
head(r_fr9_36,fr9_z5).
head(r_fr9_37,fr9_z5).
body(r_fr9_37,fr9_a6).
body(r_fr9_37,fr9_c2).
body(r_fr9_37,fr10_f1).
body(r_fr9_37,fr13_f2).
body(r_fr9_37,fr23_y2).
body(r_fr9_37,fr9_t3).
body(r_fr9_37,fr9_t5).
body(r_fr9_37,fr9_u1).
body(r_fr9_37,fr23_y2).
body(r_fr9_37,fr9_w2).
body(r_fr9_37,fr8_u1).
body(r_fr9_37,fr9_z3).
head(r_fr9_38,fr9_z5).
body(r_fr9_38,fr9_a3).
body(r_fr9_38,fr7_c1).
head(r_fr9_39,fr9_z5).
body(r_fr9_39,fr13_f2).
body(r_fr9_39,fr9_a3).
body(r_fr9_39,fr10_f1).
head(r_fr9_40,fr9_z5).
body(r_fr9_40,fr9_a3).
body(r_fr9_40,fr9_b3).
body(r_fr9_40,fr13_e1).
body(r_fr9_40,fr9_c4).
body(r_fr9_40,fr13_f2).
body(r_fr9_40,fr9_d4).
body(r_fr9_40,fr9_d5).
body(r_fr9_40,fr13_f2).
body(r_fr9_40,fr9_f2).
body(r_fr9_40,fr13_f2).
body(r_fr9_40,fr22_p2).
body(r_fr9_40,fr23_y2).
head(r_fr9_41,fr9_y1).
body(r_fr9_41,fr13_f2).
body(r_fr9_41,fr18_f1).
body(r_fr9_41,fr9_b3).
body(r_fr9_41,fr9_q2).
body(r_fr9_41,fr9_s5).
body(r_fr9_41,fr9_t1).
body(r_fr9_41,fr9_w2).
head(r_fr9_42,fr9_y1).
body(r_fr9_42,fr13_f2).
body(r_fr9_42,fr14_c1).
head(r_fr9_43,fr9_y1).
body(r_fr9_43,fr13_f2).
body(r_fr9_43,fr9_b1).
body(r_fr9_43,fr9_c2).
body(r_fr9_43,fr9_c4).
body(r_fr9_43,fr17_e2).
body(r_fr9_43,fr9_d2).
body(r_fr9_43,fr9_f2).
body(r_fr9_43,fr13_f2).
body(r_fr9_43,fr14_c1).
body(r_fr9_43,fr9_u1).
body(r_fr9_43,fr23_y2).
body(r_fr9_43,fr9_w1).
body(r_fr9_43,fr9_y3).
head(r_fr9_44,fr9_y1).
body(r_fr9_44,fr9_d2).
body(r_fr9_44,fr9_q4).
body(r_fr9_44,fr23_y2).
body(r_fr9_44,fr9_u1).
body(r_fr9_44,fr9_u5).
body(r_fr9_44,fr9_v2).
body(r_fr9_44,fr9_v4).
body(r_fr9_44,fr9_v5).
body(r_fr9_44,fr9_w5).
body(r_fr9_44,fr9_x2).
body(r_fr9_44,fr8_u1).
body(r_fr9_44,fr9_y3).
body(r_fr9_44,fr9_z4).
head(r_fr9_45,fr9_y1).
body(r_fr9_45,fr9_z4).
head(r_fr9_46,fr9_x2).
head(r_fr9_47,fr9_x2).
body(r_fr9_47,fr9_a5).
body(r_fr9_47,fr23_y2).
body(r_fr9_47,fr9_s2).
body(r_fr9_47,fr9_t3).
body(r_fr9_47,fr9_v5).
body(r_fr9_47,fr9_t5).
head(r_fr9_48,fr9_x2).
body(r_fr9_48,fr9_a1).
body(r_fr9_48,fr9_a3).
body(r_fr9_48,fr9_b1).
body(r_fr9_48,fr9_c1).
body(r_fr9_48,fr9_d5).
body(r_fr9_48,fr9_e1).
body(r_fr9_48,fr13_f2).
body(r_fr9_48,fr12_x1).
body(r_fr9_48,fr8_u1).
head(r_fr9_49,fr9_v2).
body(r_fr9_49,fr14_d2).
body(r_fr9_49,fr9_x2).
head(r_fr9_50,fr9_v2).
body(r_fr9_50,fr9_b5).
body(r_fr9_50,fr9_e1).
body(r_fr9_50,fr9_e2).
body(r_fr9_50,fr7_c1).
body(r_fr9_50,fr9_f2).
head(r_fr9_51,fr9_v2).
body(r_fr9_51,fr13_e1).
body(r_fr9_51,fr9_d1).
body(r_fr9_51,fr13_f2).
body(r_fr9_51,fr9_d4).
body(r_fr9_51,fr13_f2).
body(r_fr9_51,fr13_f2).
body(r_fr9_51,fr14_c1).
body(r_fr9_51,fr9_y3).
head(r_fr9_52,fr9_v2).
body(r_fr9_52,fr13_f2).
body(r_fr9_52,fr9_a3).
body(r_fr9_52,fr13_f2).
body(r_fr9_52,fr9_t3).
body(r_fr9_52,fr9_u4).
body(r_fr9_52,fr9_y3).
head(r_fr9_53,fr9_v2).
body(r_fr9_53,fr9_a5).
body(r_fr9_53,fr9_d1).
body(r_fr9_53,fr13_f2).
body(r_fr9_53,fr9_f2).
body(r_fr9_53,fr12_x3).
body(r_fr9_53,fr12_x1).
body(r_fr9_53,fr23_y2).
body(r_fr9_53,fr13_z1).
body(r_fr9_53,fr9_x1).
body(r_fr9_53,fr9_y2).
head(r_fr9_54,fr9_v2).
head(r_fr9_55,fr9_v2).
body(r_fr9_55,fr9_a1).
body(r_fr9_55,fr9_a6).
body(r_fr9_55,fr9_c1).
body(r_fr9_55,fr9_c2).
body(r_fr9_55,fr13_f2).
body(r_fr9_55,fr9_d4).
body(r_fr9_55,fr13_f2).
body(r_fr9_55,fr14_c1).
body(r_fr9_55,fr2_q2).
body(r_fr9_55,fr9_s5).
body(r_fr9_55,fr22_p2).
body(r_fr9_55,fr8_u1).
head(r_fr9_56,fr9_v2).
body(r_fr9_56,fr9_b1).
body(r_fr9_56,fr13_f2).
body(r_fr9_56,fr23_y2).
head(r_fr9_57,fr9_v5).
body(r_fr9_57,fr9_a5).
body(r_fr9_57,fr13_f2).
body(r_fr9_57,fr9_p4).
body(r_fr9_57,fr23_y2).
body(r_fr9_57,fr9_t5).
body(r_fr9_57,fr9_w2).
body(r_fr9_57,fr22_p2).
head(r_fr9_58,fr9_v5).
body(r_fr9_58,fr9_a1).
body(r_fr9_58,fr9_a3).
body(r_fr9_58,fr9_a5).
body(r_fr9_58,fr18_f1).
body(r_fr9_58,fr13_e1).
body(r_fr9_58,fr9_c1).
body(r_fr9_58,fr9_c2).
body(r_fr9_58,fr14_d2).
body(r_fr9_58,fr9_d2).
body(r_fr9_58,fr9_d4).
body(r_fr9_58,fr13_f2).
body(r_fr9_58,fr13_f2).
body(r_fr9_58,fr14_c1).
head(r_fr9_59,fr23_y2).
body(r_fr9_59,fr9_c2).
body(r_fr9_59,fr9_d4).
body(r_fr9_59,fr9_d5).
body(r_fr9_59,fr14_c1).
body(r_fr9_59,fr9_u2).
body(r_fr9_59,fr9_w2).
head(r_fr9_60,fr23_y2).
body(r_fr9_60,fr23_y2).
body(r_fr9_60,fr9_s5).
body(r_fr9_60,fr9_t4).
body(r_fr9_60,fr9_u2).
body(r_fr9_60,fr9_x1).
head(r_fr9_61,fr23_y2).
body(r_fr9_61,fr13_f2).
body(r_fr9_61,fr9_a3).
body(r_fr9_61,fr9_a5).
body(r_fr9_61,fr13_e1).
body(r_fr9_61,fr9_c4).
body(r_fr9_61,fr13_f2).
body(r_fr9_61,fr9_f2).
body(r_fr9_61,fr14_c1).
body(r_fr9_61,fr9_z3).
head(r_fr9_62,fr23_y2).
body(r_fr9_62,fr9_e1).
body(r_fr9_62,fr13_f2).
body(r_fr9_62,fr9_v2).
body(r_fr9_62,fr9_t5).
body(r_fr9_62,fr9_y2).
head(r_fr9_63,fr23_y2).
body(r_fr9_63,fr9_b1).
body(r_fr9_63,fr14_d2).
body(r_fr9_63,fr9_c4).
body(r_fr9_63,fr9_d2).
body(r_fr9_63,fr9_e1).
body(r_fr9_63,fr13_f2).
body(r_fr9_63,fr9_f2).
body(r_fr9_63,fr14_c1).
body(r_fr9_63,fr9_f5).
body(r_fr9_63,fr22_q1).
head(r_fr9_64,fr23_y2).
body(r_fr9_64,fr13_f2).
body(r_fr9_64,fr9_b1).
body(r_fr9_64,fr9_b5).
body(r_fr9_64,fr10_f1).
body(r_fr9_64,fr13_f2).
body(r_fr9_64,fr9_f5).
body(r_fr9_64,fr9_p5).
body(r_fr9_64,fr23_y2).
body(r_fr9_64,fr23_y2).
body(r_fr9_64,fr9_t4).
body(r_fr9_64,fr9_t5).
body(r_fr9_64,fr9_y3).
head(r_fr9_65,fr23_y2).
head(r_fr9_66,fr23_y2).
body(r_fr9_66,fr9_c2).
body(r_fr9_66,fr14_d2).
body(r_fr9_66,fr9_c4).
body(r_fr9_66,fr17_e2).
body(r_fr9_66,fr9_c6).
body(r_fr9_66,fr9_d2).
body(r_fr9_66,fr13_f2).
body(r_fr9_66,fr9_e1).
body(r_fr9_66,fr10_f1).
body(r_fr9_66,fr2_q2).
head(r_fr9_67,fr23_y2).
body(r_fr9_67,fr9_a1).
body(r_fr9_67,fr9_e2).
body(r_fr9_67,fr7_c1).
body(r_fr9_67,fr9_p4).
body(r_fr9_67,fr23_y2).
body(r_fr9_67,fr12_x3).
body(r_fr9_67,fr12_x1).
body(r_fr9_67,fr9_t3).
body(r_fr9_67,fr9_u1).
body(r_fr9_67,fr13_z1).
body(r_fr9_67,fr9_v5).
body(r_fr9_67,fr9_x1).
body(r_fr9_67,fr9_y4).
head(r_fr9_68,fr23_y2).
body(r_fr9_68,fr9_c2).
body(r_fr9_68,fr17_e2).
body(r_fr9_68,fr9_d1).
body(r_fr9_68,fr8_u1).
head(r_fr9_69,fr23_y2).
body(r_fr9_69,fr9_a5).
body(r_fr9_69,fr9_b3).
body(r_fr9_69,fr9_b5).
body(r_fr9_69,fr9_c2).
body(r_fr9_69,fr14_d2).
body(r_fr9_69,fr9_d1).
body(r_fr9_69,fr13_f2).
body(r_fr9_69,fr9_w4).
body(r_fr9_69,fr9_w5).
body(r_fr9_69,fr8_u1).
head(r_fr9_70,fr23_y2).
body(r_fr9_70,fr9_c2).
body(r_fr9_70,fr13_f2).
body(r_fr9_70,fr9_t3).
body(r_fr9_70,fr9_u5).
body(r_fr9_70,fr9_v5).
head(r_fr9_71,fr23_y2).
body(r_fr9_71,fr9_s4).
head(r_fr9_72,fr23_y2).
body(r_fr9_72,fr9_c4).
body(r_fr9_72,fr9_f2).
head(r_fr9_73,fr23_y2).
head(r_fr9_74,fr23_y2).
body(r_fr9_74,fr17_e2).
body(r_fr9_74,fr9_d1).
body(r_fr9_74,fr2_q2).
body(r_fr9_74,fr9_p4).
body(r_fr9_74,fr9_q4).
body(r_fr9_74,fr12_x3).
body(r_fr9_74,fr9_s3).
body(r_fr9_74,fr9_u1).
body(r_fr9_74,fr9_u5).
body(r_fr9_74,fr9_x1).
head(r_fr9_75,fr23_y2).
body(r_fr9_75,fr13_f2).
body(r_fr9_75,fr13_e1).
body(r_fr9_75,fr9_c2).
body(r_fr9_75,fr14_d2).
body(r_fr9_75,fr17_e2).
body(r_fr9_75,fr9_c6).
body(r_fr9_75,fr13_f2).
body(r_fr9_75,fr13_f2).
body(r_fr9_75,fr2_q2).
body(r_fr9_75,fr9_q3).
body(r_fr9_75,fr9_t4).
body(r_fr9_75,fr9_w2).
head(r_fr9_76,fr9_w4).
body(r_fr9_76,fr9_b4).
head(r_fr9_77,fr9_w4).
body(r_fr9_77,fr9_b4).
body(r_fr9_77,fr13_e1).
body(r_fr9_77,fr9_c6).
body(r_fr9_77,fr9_q3).
body(r_fr9_77,fr13_z1).
head(r_fr9_78,fr9_w4).
body(r_fr9_78,fr9_q3).
body(r_fr9_78,fr9_x2).
head(r_fr9_79,fr9_w4).
body(r_fr9_79,fr9_b1).
body(r_fr9_79,fr9_c1).
head(r_fr9_80,fr9_w4).
body(r_fr9_80,fr9_p4).
body(r_fr9_80,fr12_x3).
body(r_fr9_80,fr23_y2).
body(r_fr9_80,fr9_s4).
body(r_fr9_80,fr23_y2).
body(r_fr9_80,fr9_t3).
body(r_fr9_80,fr9_t4).
body(r_fr9_80,fr23_y2).
body(r_fr9_80,fr13_z1).
body(r_fr9_80,fr9_v3).
body(r_fr9_80,fr9_x1).
body(r_fr9_80,fr9_x2).
body(r_fr9_80,fr9_z5).
head(r_fr9_81,fr2_q2).
body(r_fr9_81,fr9_a1).
body(r_fr9_81,fr13_f2).
body(r_fr9_81,fr18_f1).
body(r_fr9_81,fr9_b5).
body(r_fr9_81,fr9_c6).
body(r_fr9_81,fr9_f5).
head(r_fr9_82,fr2_q2).
body(r_fr9_82,fr9_c6).
body(r_fr9_82,fr2_q2).
body(r_fr9_82,fr23_y2).
body(r_fr9_82,fr9_s4).
body(r_fr9_82,fr9_t5).
body(r_fr9_82,fr23_y2).
body(r_fr9_82,fr9_u5).
body(r_fr9_82,fr9_v3).
body(r_fr9_82,fr22_p2).
body(r_fr9_82,fr9_w5).
body(r_fr9_82,fr8_u1).
body(r_fr9_82,fr9_z2).
head(r_fr9_83,fr2_q2).
body(r_fr9_83,fr9_a1).
body(r_fr9_83,fr9_b5).
body(r_fr9_83,fr14_c1).
body(r_fr9_83,fr9_f5).
body(r_fr9_83,fr22_p2).
head(r_fr9_84,fr2_q2).
body(r_fr9_84,fr9_b5).
head(r_fr9_85,fr2_q2).
body(r_fr9_85,fr9_b1).
body(r_fr9_85,fr9_b3).
body(r_fr9_85,fr9_c1).
body(r_fr9_85,fr9_c4).
body(r_fr9_85,fr9_e2).
body(r_fr9_85,fr13_f2).
body(r_fr9_85,fr12_x3).
body(r_fr9_85,fr23_y2).
body(r_fr9_85,fr9_t1).
body(r_fr9_85,fr23_y2).
body(r_fr9_85,fr9_u2).
body(r_fr9_85,fr9_v3).
body(r_fr9_85,fr9_v5).
head(r_fr9_86,fr2_q2).
body(r_fr9_86,fr9_a1).
body(r_fr9_86,fr9_a5).
body(r_fr9_86,fr9_b3).
body(r_fr9_86,fr9_c1).
body(r_fr9_86,fr13_f2).
body(r_fr9_86,fr7_c1).
body(r_fr9_86,fr14_c1).
body(r_fr9_86,fr23_y2).
body(r_fr9_86,fr9_s2).
body(r_fr9_86,fr23_y2).
body(r_fr9_86,fr9_w5).
body(r_fr9_86,fr9_x1).
body(r_fr9_86,fr8_u1).
head(r_fr9_87,fr2_q2).
body(r_fr9_87,fr14_c1).
body(r_fr9_87,fr9_t5).
body(r_fr9_87,fr9_z4).
body(r_fr9_87,fr9_z5).
head(r_fr9_88,fr2_q2).
body(r_fr9_88,fr9_c4).
body(r_fr9_88,fr9_d5).
body(r_fr9_88,fr9_e2).
head(r_fr9_89,fr2_q2).
body(r_fr9_89,fr9_c4).
body(r_fr9_89,fr10_f1).
body(r_fr9_89,fr22_p2).
body(r_fr9_89,fr9_q3).
body(r_fr9_89,fr23_y2).
body(r_fr9_89,fr9_u5).
body(r_fr9_89,fr9_z1).
body(r_fr9_89,fr9_z2).
body(r_fr9_89,fr9_z5).
head(r_fr9_90,fr2_q2).
body(r_fr9_90,fr9_c1).
body(r_fr9_90,fr2_q2).
body(r_fr9_90,fr23_y2).
body(r_fr9_90,fr23_y2).
body(r_fr9_90,fr9_w1).
body(r_fr9_90,fr9_w4).
body(r_fr9_90,fr9_x2).
body(r_fr9_90,fr8_u1).
body(r_fr9_90,fr9_y1).
body(r_fr9_90,fr9_z5).
head(r_fr9_91,fr2_q2).
body(r_fr9_91,fr12_x3).
body(r_fr9_91,fr23_y2).
body(r_fr9_91,fr9_t4).
body(r_fr9_91,fr9_v3).
body(r_fr9_91,fr8_u1).
head(r_fr9_92,fr9_y2).
body(r_fr9_92,fr9_c6).
body(r_fr9_92,fr9_u2).
head(r_fr9_93,fr9_y2).
body(r_fr9_93,fr9_d5).
body(r_fr9_93,fr9_s5).
body(r_fr9_93,fr9_t4).
body(r_fr9_93,fr8_u1).
head(r_fr9_94,fr9_y2).
body(r_fr9_94,fr9_a6).
body(r_fr9_94,fr9_b1).
body(r_fr9_94,fr14_d2).
body(r_fr9_94,fr13_z1).
body(r_fr9_94,fr22_p2).
body(r_fr9_94,fr8_u1).
head(r_fr9_95,fr9_y2).
body(r_fr9_95,fr9_a1).
body(r_fr9_95,fr9_b5).
body(r_fr9_95,fr9_c4).
body(r_fr9_95,fr9_q4).
body(r_fr9_95,fr12_x3).
body(r_fr9_95,fr23_y2).
body(r_fr9_95,fr22_p2).
body(r_fr9_95,fr9_s2).
body(r_fr9_95,fr9_v3).
body(r_fr9_95,fr9_v5).
body(r_fr9_95,fr8_u1).
body(r_fr9_95,fr9_z1).
head(r_fr9_96,fr9_y2).
body(r_fr9_96,fr9_a3).
body(r_fr9_96,fr9_b5).
body(r_fr9_96,fr13_f2).
body(r_fr9_96,fr10_f1).
body(r_fr9_96,fr2_q2).
body(r_fr9_96,fr9_r4).
body(r_fr9_96,fr9_s4).
body(r_fr9_96,fr9_s5).
body(r_fr9_96,fr9_t5).
body(r_fr9_96,fr23_y2).
body(r_fr9_96,fr9_u5).
head(r_fr9_97,fr9_y2).
body(r_fr9_97,fr9_a3).
body(r_fr9_97,fr9_c6).
body(r_fr9_97,fr9_e2).
body(r_fr9_97,fr13_f2).
body(r_fr9_97,fr9_f2).
body(r_fr9_97,fr12_x1).
body(r_fr9_97,fr8_u1).
head(r_fr9_98,fr9_y2).
body(r_fr9_98,fr9_e1).
body(r_fr9_98,fr9_e2).
body(r_fr9_98,fr22_p2).
body(r_fr9_98,fr9_q2).
body(r_fr9_98,fr23_y2).
body(r_fr9_98,fr9_s5).
body(r_fr9_98,fr9_v4).
body(r_fr9_98,fr9_z5).
head(r_fr9_99,fr9_y2).
body(r_fr9_99,fr13_f2).
body(r_fr9_99,fr8_u1).
head(r_fr9_100,fr9_z3).
body(r_fr9_100,fr9_d5).
body(r_fr9_100,fr13_f2).
body(r_fr9_100,fr9_p4).
body(r_fr9_100,fr9_q2).
body(r_fr9_100,fr9_s5).
body(r_fr9_100,fr23_y2).
body(r_fr9_100,fr9_t4).
body(r_fr9_100,fr9_v4).
body(r_fr9_100,fr9_z5).
head(r_fr9_101,fr9_z3).
body(r_fr9_101,fr9_b4).
body(r_fr9_101,fr9_s2).
body(r_fr9_101,fr9_u1).
body(r_fr9_101,fr23_y2).
head(r_fr9_102,fr9_z3).
body(r_fr9_102,fr13_e1).
body(r_fr9_102,fr9_u2).
body(r_fr9_102,fr8_u1).
head(r_fr9_103,fr9_z3).
body(r_fr9_103,fr13_f2).
head(r_fr9_104,fr9_z3).
body(r_fr9_104,fr9_u4).
head(r_fr9_105,fr9_z3).
body(r_fr9_105,fr13_f2).
body(r_fr9_105,fr9_a5).
body(r_fr9_105,fr9_c1).
body(r_fr9_105,fr13_f2).
head(r_fr9_106,fr9_z3).
body(r_fr9_106,fr13_f2).
body(r_fr9_106,fr14_d2).
body(r_fr9_106,fr13_f2).
body(r_fr9_106,fr9_s4).
body(r_fr9_106,fr9_y1).
head(r_fr9_107,fr9_z3).
body(r_fr9_107,fr2_q2).
body(r_fr9_107,fr9_q3).
body(r_fr9_107,fr9_q4).
body(r_fr9_107,fr12_x3).
body(r_fr9_107,fr12_x1).
body(r_fr9_107,fr9_s2).
body(r_fr9_107,fr9_t3).
body(r_fr9_107,fr9_t4).
body(r_fr9_107,fr9_u4).
body(r_fr9_107,fr9_v3).
body(r_fr9_107,fr9_w5).
body(r_fr9_107,fr8_u1).
body(r_fr9_107,fr9_z5).
head(r_fr9_108,fr8_u1).
body(r_fr9_108,fr13_e1).
body(r_fr9_108,fr14_d2).
body(r_fr9_108,fr9_c6).
body(r_fr9_108,fr13_f2).
body(r_fr9_108,fr9_e1).
body(r_fr9_108,fr10_f1).
body(r_fr9_108,fr9_q2).
body(r_fr9_108,fr9_u1).
body(r_fr9_108,fr9_z1).
head(r_fr9_109,fr8_u1).
head(r_fr9_110,fr8_u1).
body(r_fr9_110,fr9_a5).
body(r_fr9_110,fr9_d2).
body(r_fr9_110,fr9_f5).
head(r_fr9_111,fr8_u1).
body(r_fr9_111,fr9_c4).
body(r_fr9_111,fr9_e2).
body(r_fr9_111,fr2_q2).
body(r_fr9_111,fr9_v3).
body(r_fr9_111,fr9_y1).
head(r_fr9_112,fr8_u1).
body(r_fr9_112,fr9_a1).
body(r_fr9_112,fr17_e2).
body(r_fr9_112,fr9_d1).
body(r_fr9_112,fr12_x1).
body(r_fr9_112,fr9_u4).
body(r_fr9_112,fr22_p2).
body(r_fr9_112,fr9_y4).
head(r_fr9_113,fr8_u1).
body(r_fr9_113,fr13_f2).
body(r_fr9_113,fr18_f1).
body(r_fr9_113,fr9_b4).
body(r_fr9_113,fr9_c6).
body(r_fr9_113,fr9_d1).
body(r_fr9_113,fr9_d4).
body(r_fr9_113,fr9_e1).
body(r_fr9_113,fr2_q2).
body(r_fr9_113,fr9_t3).
body(r_fr9_113,fr23_y2).
body(r_fr9_113,fr13_z1).
body(r_fr9_113,fr9_w2).
head(r_fr9_114,fr8_u1).
body(r_fr9_114,fr13_f2).
body(r_fr9_114,fr13_f2).
body(r_fr9_114,fr9_b1).
body(r_fr9_114,fr13_e1).
body(r_fr9_114,fr9_c4).
body(r_fr9_114,fr9_c6).
head(r_fr9_115,fr9_t5).
body(r_fr9_115,fr9_b3).
body(r_fr9_115,fr9_d2).
body(r_fr9_115,fr13_f2).
body(r_fr9_115,fr9_x2).
head(r_fr9_116,fr9_t5).
body(r_fr9_116,fr9_u5).
head(r_fr9_117,fr22_q1).
body(r_fr9_117,fr9_q3).
body(r_fr9_117,fr23_y2).
body(r_fr9_117,fr23_y2).
body(r_fr9_117,fr9_u4).
body(r_fr9_117,fr9_w2).
body(r_fr9_117,fr9_w4).
body(r_fr9_117,fr9_z2).
head(r_fr9_118,fr22_q1).
body(r_fr9_118,fr9_b1).
body(r_fr9_118,fr9_b4).
body(r_fr9_118,fr9_d5).
body(r_fr9_118,fr9_e1).
body(r_fr9_118,fr13_f2).
head(r_fr9_119,fr22_q1).
body(r_fr9_119,fr9_a1).
body(r_fr9_119,fr9_c1).
body(r_fr9_119,fr9_d2).
body(r_fr9_119,fr7_c1).
body(r_fr9_119,fr9_f2).
head(r_fr9_120,fr22_q1).
body(r_fr9_120,fr13_f2).
body(r_fr9_120,fr13_f2).
body(r_fr9_120,fr9_a6).
body(r_fr9_120,fr9_b5).
body(r_fr9_120,fr13_f2).
body(r_fr9_120,fr9_y1).
head(r_fr9_121,fr22_q1).
body(r_fr9_121,fr18_f1).
body(r_fr9_121,fr9_p4).
body(r_fr9_121,fr9_q3).
body(r_fr9_121,fr9_t1).
body(r_fr9_121,fr9_t3).
body(r_fr9_121,fr9_t5).
body(r_fr9_121,fr9_u1).
body(r_fr9_121,fr9_u4).
body(r_fr9_121,fr9_v3).
body(r_fr9_121,fr9_x2).
body(r_fr9_121,fr9_z1).
body(r_fr9_121,fr9_z3).
head(r_fr9_122,fr22_q1).
body(r_fr9_122,fr9_a6).
body(r_fr9_122,fr18_f1).
body(r_fr9_122,fr9_b3).
body(r_fr9_122,fr9_d4).
body(r_fr9_122,fr2_q2).
body(r_fr9_122,fr9_q2).
body(r_fr9_122,fr23_y2).
body(r_fr9_122,fr23_y2).
body(r_fr9_122,fr9_t4).
body(r_fr9_122,fr9_u1).
body(r_fr9_122,fr9_v5).
body(r_fr9_122,fr9_z4).
head(r_fr9_123,fr22_q1).
body(r_fr9_123,fr9_a5).
body(r_fr9_123,fr23_y2).
body(r_fr9_123,fr9_x2).
body(r_fr9_123,fr9_t5).
head(r_fr9_124,fr9_u2).
body(r_fr9_124,fr22_q1).
body(r_fr9_124,fr9_z5).
head(r_fr9_125,fr9_u2).
body(r_fr9_125,fr13_f2).
body(r_fr9_125,fr9_d5).
head(r_fr9_126,fr9_u2).
body(r_fr9_126,fr13_f2).
body(r_fr9_126,fr22_p2).
head(r_fr9_127,fr9_u2).
body(r_fr9_127,fr9_b5).
body(r_fr9_127,fr13_f2).
body(r_fr9_127,fr9_q4).
body(r_fr9_127,fr9_s2).
body(r_fr9_127,fr9_s4).
body(r_fr9_127,fr9_t1).
body(r_fr9_127,fr9_t5).
body(r_fr9_127,fr9_v2).
body(r_fr9_127,fr9_y4).
head(r_fr9_128,fr9_u2).
body(r_fr9_128,fr9_b3).
body(r_fr9_128,fr17_e2).
body(r_fr9_128,fr9_d2).
body(r_fr9_128,fr9_d4).
body(r_fr9_128,fr9_e1).
body(r_fr9_128,fr9_r4).
body(r_fr9_128,fr23_y2).
body(r_fr9_128,fr9_w1).
body(r_fr9_128,fr9_z5).
head(r_fr9_129,fr9_u2).
body(r_fr9_129,fr13_f2).
body(r_fr9_129,fr9_e2).
body(r_fr9_129,fr9_t3).
body(r_fr9_129,fr9_u5).
body(r_fr9_129,fr9_w4).
body(r_fr9_129,fr8_u1).
head(r_fr9_130,fr9_s2).
body(r_fr9_130,fr13_f2).
body(r_fr9_130,fr17_e2).
body(r_fr9_130,fr10_f1).
body(r_fr9_130,fr9_u2).
head(r_fr9_131,fr9_s2).
body(r_fr9_131,fr13_e1).
body(r_fr9_131,fr9_d4).
head(r_fr9_132,fr9_s2).
body(r_fr9_132,fr9_a1).
body(r_fr9_132,fr9_d2).
body(r_fr9_132,fr9_d4).
body(r_fr9_132,fr9_d5).
body(r_fr9_132,fr13_f2).
head(r_fr9_133,fr9_s2).
body(r_fr9_133,fr13_f2).
body(r_fr9_133,fr9_a6).
body(r_fr9_133,fr18_f1).
body(r_fr9_133,fr9_b4).
body(r_fr9_133,fr9_c1).
body(r_fr9_133,fr9_c6).
body(r_fr9_133,fr9_d2).
body(r_fr9_133,fr13_f2).
body(r_fr9_133,fr9_q2).
body(r_fr9_133,fr23_y2).
head(r_fr9_134,fr9_s2).
body(r_fr9_134,fr9_a1).
body(r_fr9_134,fr9_b1).
body(r_fr9_134,fr9_b3).
body(r_fr9_134,fr13_e1).
body(r_fr9_134,fr9_c1).
body(r_fr9_134,fr7_c1).
body(r_fr9_134,fr13_f2).
body(r_fr9_134,fr9_t4).
body(r_fr9_134,fr8_u1).
head(r_fr9_135,fr9_s2).
body(r_fr9_135,fr9_a3).
body(r_fr9_135,fr9_a5).
body(r_fr9_135,fr9_a6).
body(r_fr9_135,fr18_f1).
body(r_fr9_135,fr9_b3).
body(r_fr9_135,fr9_e2).
body(r_fr9_135,fr9_q2).
body(r_fr9_135,fr9_u4).
head(r_fr9_136,fr9_s2).
body(r_fr9_136,fr9_b1).
body(r_fr9_136,fr13_z1).
head(r_fr9_137,fr9_s2).
body(r_fr9_137,fr9_a5).
body(r_fr9_137,fr9_a6).
body(r_fr9_137,fr18_f1).
body(r_fr9_137,fr9_c2).
body(r_fr9_137,fr14_d2).
body(r_fr9_137,fr9_c4).
body(r_fr9_137,fr9_e2).
body(r_fr9_137,fr13_f2).
body(r_fr9_137,fr7_c1).
body(r_fr9_137,fr13_f2).
body(r_fr9_137,fr9_f2).
body(r_fr9_137,fr9_t4).
head(r_fr9_138,fr9_s2).
body(r_fr9_138,fr9_a3).
body(r_fr9_138,fr13_e1).
body(r_fr9_138,fr13_f2).
body(r_fr9_138,fr9_p5).
body(r_fr9_138,fr23_y2).
body(r_fr9_138,fr9_v3).
body(r_fr9_138,fr9_v4).
body(r_fr9_138,fr9_v5).
head(r_fr9_139,fr9_s2).
body(r_fr9_139,fr9_a1).
body(r_fr9_139,fr9_a3).
body(r_fr9_139,fr13_f2).
body(r_fr9_139,fr9_b4).
body(r_fr9_139,fr13_f2).
body(r_fr9_139,fr9_q2).
body(r_fr9_139,fr9_r4).
body(r_fr9_139,fr9_t1).
head(r_fr9_140,fr22_p2).
body(r_fr9_140,fr13_f2).
body(r_fr9_140,fr13_f2).
body(r_fr9_140,fr9_e1).
body(r_fr9_140,fr7_c1).
body(r_fr9_140,fr2_q2).
body(r_fr9_140,fr23_y2).
head(r_fr9_141,fr22_p2).
head(r_fr9_142,fr22_p2).
body(r_fr9_142,fr13_f2).
body(r_fr9_142,fr17_e2).
body(r_fr9_142,fr9_d5).
body(r_fr9_142,fr9_e2).
body(r_fr9_142,fr13_f2).
body(r_fr9_142,fr14_c1).
body(r_fr9_142,fr9_f5).
body(r_fr9_142,fr9_z5).
head(r_fr9_143,fr22_p2).
body(r_fr9_143,fr13_f2).
body(r_fr9_143,fr9_e1).
head(r_fr9_144,fr22_p2).
body(r_fr9_144,fr17_e2).
body(r_fr9_144,fr23_y2).
body(r_fr9_144,fr22_p2).
head(r_fr9_145,fr22_p2).
body(r_fr9_145,fr10_f1).
body(r_fr9_145,fr9_p4).
body(r_fr9_145,fr12_x1).
body(r_fr9_145,fr23_y2).
body(r_fr9_145,fr22_p2).
body(r_fr9_145,fr9_s3).
body(r_fr9_145,fr9_s4).
body(r_fr9_145,fr9_u5).
body(r_fr9_145,fr9_w4).
body(r_fr9_145,fr9_y2).
body(r_fr9_145,fr9_y4).
body(r_fr9_145,fr9_z4).
head(r_fr9_146,fr22_p2).
body(r_fr9_146,fr9_c6).
body(r_fr9_146,fr9_p4).
body(r_fr9_146,fr23_y2).
body(r_fr9_146,fr12_x1).
body(r_fr9_146,fr23_y2).
body(r_fr9_146,fr9_t3).
body(r_fr9_146,fr9_u4).
body(r_fr9_146,fr9_w2).
body(r_fr9_146,fr22_p2).
body(r_fr9_146,fr8_u1).
body(r_fr9_146,fr9_z4).
head(r_fr9_147,fr22_p2).
body(r_fr9_147,fr9_q3).
body(r_fr9_147,fr9_q4).
body(r_fr9_147,fr22_p2).
body(r_fr9_147,fr9_s4).
body(r_fr9_147,fr9_t4).
body(r_fr9_147,fr9_v4).
body(r_fr9_147,fr9_w5).
body(r_fr9_147,fr8_u1).
body(r_fr9_147,fr9_y2).
body(r_fr9_147,fr9_y3).
body(r_fr9_147,fr9_z1).
body(r_fr9_147,fr9_z3).
head(r_fr9_148,fr22_p2).
body(r_fr9_148,fr9_a5).
body(r_fr9_148,fr9_c1).
body(r_fr9_148,fr9_d1).
body(r_fr9_148,fr10_f1).
body(r_fr9_148,fr9_v2).
body(r_fr9_148,fr9_y4).
head(r_fr9_149,fr22_p2).
body(r_fr9_149,fr9_r4).
body(r_fr9_149,fr9_s5).
body(r_fr9_149,fr9_t4).
body(r_fr9_149,fr9_u2).
body(r_fr9_149,fr9_w4).
body(r_fr9_149,fr8_u1).
body(r_fr9_149,fr9_z5).
head(r_fr9_150,fr22_p2).
body(r_fr9_150,fr9_a1).
body(r_fr9_150,fr9_b3).
body(r_fr9_150,fr9_d1).
body(r_fr9_150,fr9_e2).
body(r_fr9_150,fr23_y2).
body(r_fr9_150,fr12_x3).
body(r_fr9_150,fr23_y2).
body(r_fr9_150,fr9_u1).
body(r_fr9_150,fr13_z1).
body(r_fr9_150,fr9_t5).
head(r_fr9_151,fr9_s3).
body(r_fr9_151,fr2_q2).
body(r_fr9_151,fr23_y2).
body(r_fr9_151,fr12_x1).
body(r_fr9_151,fr22_p2).
body(r_fr9_151,fr9_t1).
body(r_fr9_151,fr13_z1).
body(r_fr9_151,fr9_v4).
body(r_fr9_151,fr9_w2).
body(r_fr9_151,fr8_u1).
body(r_fr9_151,fr8_u1).
body(r_fr9_151,fr9_y2).
body(r_fr9_151,fr9_y4).
body(r_fr9_151,fr9_z4).
head(r_fr9_152,fr9_s3).
body(r_fr9_152,fr9_a5).
body(r_fr9_152,fr14_d2).
body(r_fr9_152,fr9_c6).
body(r_fr9_152,fr10_f1).
body(r_fr9_152,fr23_y2).
body(r_fr9_152,fr9_s4).
body(r_fr9_152,fr9_s5).
body(r_fr9_152,fr9_u1).
body(r_fr9_152,fr13_z1).
body(r_fr9_152,fr9_z2).
body(r_fr9_152,fr9_z4).
head(r_fr9_153,fr9_s3).
head(r_fr9_154,fr9_s3).
body(r_fr9_154,fr18_f1).
body(r_fr9_154,fr23_y2).
body(r_fr9_154,fr9_u5).
body(r_fr9_154,fr9_w4).
body(r_fr9_154,fr9_x2).
body(r_fr9_154,fr9_y2).
body(r_fr9_154,fr9_z4).
head(r_fr9_155,fr9_z4).
body(r_fr9_155,fr9_q3).
body(r_fr9_155,fr22_p2).
body(r_fr9_155,fr9_s3).
body(r_fr9_155,fr9_w2).
body(r_fr9_155,fr22_p2).
body(r_fr9_155,fr9_x1).
body(r_fr9_155,fr9_t5).
body(r_fr9_155,fr9_z3).
head(r_fr9_156,fr9_z4).
body(r_fr9_156,fr9_x1).
head(r_fr9_157,fr9_z4).
body(r_fr9_157,fr9_p5).
body(r_fr9_157,fr9_q4).
head(r_fr9_158,fr9_q4).
body(r_fr9_158,fr9_f5).
body(r_fr9_158,fr9_s5).
body(r_fr9_158,fr9_t3).
body(r_fr9_158,fr8_u1).
body(r_fr9_158,fr9_y4).
head(r_fr9_159,fr9_q4).
body(r_fr9_159,fr8_u1).
head(r_fr9_160,fr9_q4).
body(r_fr9_160,fr9_a1).
body(r_fr9_160,fr9_b4).
body(r_fr9_160,fr9_c1).
body(r_fr9_160,fr13_f2).
body(r_fr9_160,fr9_s4).
body(r_fr9_160,fr9_w4).
head(r_fr9_161,fr9_q4).
body(r_fr9_161,fr13_f2).
body(r_fr9_161,fr17_e2).
body(r_fr9_161,fr9_s4).
body(r_fr9_161,fr9_s5).
body(r_fr9_161,fr9_v5).
body(r_fr9_161,fr9_y2).
body(r_fr9_161,fr9_y3).
body(r_fr9_161,fr9_z4).
head(r_fr9_162,fr9_q4).
body(r_fr9_162,fr9_b5).
body(r_fr9_162,fr9_f2).
body(r_fr9_162,fr9_s2).
body(r_fr9_162,fr9_z3).
head(r_fr9_163,fr9_q4).
body(r_fr9_163,fr18_f1).
body(r_fr9_163,fr9_c4).
body(r_fr9_163,fr7_c1).
body(r_fr9_163,fr10_f1).
body(r_fr9_163,fr12_x3).
body(r_fr9_163,fr9_s4).
body(r_fr9_163,fr9_s5).
body(r_fr9_163,fr9_u1).
body(r_fr9_163,fr9_v3).
body(r_fr9_163,fr8_u1).
body(r_fr9_163,fr9_z1).
body(r_fr9_163,fr9_z4).
head(r_fr9_164,fr9_q4).
body(r_fr9_164,fr13_f2).
body(r_fr9_164,fr13_f2).
body(r_fr9_164,fr9_a6).
body(r_fr9_164,fr9_c6).
body(r_fr9_164,fr7_c1).
body(r_fr9_164,fr10_f1).
body(r_fr9_164,fr13_f2).
body(r_fr9_164,fr9_f5).
body(r_fr9_164,fr9_s2).
body(r_fr9_164,fr9_y3).
head(r_fr9_165,fr9_q4).
body(r_fr9_165,fr9_a3).
body(r_fr9_165,fr9_a5).
body(r_fr9_165,fr9_b1).
body(r_fr9_165,fr18_f1).
body(r_fr9_165,fr9_b4).
body(r_fr9_165,fr9_b5).
body(r_fr9_165,fr14_d2).
body(r_fr9_165,fr9_c4).
body(r_fr9_165,fr17_e2).
body(r_fr9_165,fr9_d5).
body(r_fr9_165,fr23_y2).
body(r_fr9_165,fr9_s2).
body(r_fr9_165,fr8_u1).
head(r_fr9_166,fr9_q4).
body(r_fr9_166,fr9_c6).
body(r_fr9_166,fr7_c1).
body(r_fr9_166,fr10_f1).
body(r_fr9_166,fr9_f2).
body(r_fr9_166,fr9_f5).
body(r_fr9_166,fr9_r4).
head(r_fr9_167,fr9_q4).
body(r_fr9_167,fr9_a1).
body(r_fr9_167,fr9_a5).
body(r_fr9_167,fr9_b1).
body(r_fr9_167,fr13_e1).
body(r_fr9_167,fr17_e2).
body(r_fr9_167,fr13_f2).
body(r_fr9_167,fr9_z3).
head(r_fr9_168,fr22_p2).
body(r_fr9_168,fr9_b4).
body(r_fr9_168,fr9_d2).
head(r_fr9_169,fr22_p2).
head(r_fr9_170,fr22_p2).
body(r_fr9_170,fr13_f2).
body(r_fr9_170,fr9_q3).
body(r_fr9_170,fr23_y2).
body(r_fr9_170,fr9_r4).
body(r_fr9_170,fr23_y2).
body(r_fr9_170,fr9_y1).
head(r_fr9_171,fr9_v4).
body(r_fr9_171,fr18_f1).
body(r_fr9_171,fr9_b3).
body(r_fr9_171,fr13_e1).
body(r_fr9_171,fr7_c1).
body(r_fr9_171,fr9_s2).
body(r_fr9_171,fr9_s3).
body(r_fr9_171,fr9_s4).
body(r_fr9_171,fr8_u1).
body(r_fr9_171,fr9_z2).
head(r_fr9_172,fr9_v4).
body(r_fr9_172,fr9_b3).
body(r_fr9_172,fr9_d1).
body(r_fr9_172,fr9_d2).
body(r_fr9_172,fr9_e1).
body(r_fr9_172,fr9_e2).
body(r_fr9_172,fr9_f2).
head(r_fr9_173,fr9_v4).
body(r_fr9_173,fr9_p4).
body(r_fr9_173,fr9_q2).
body(r_fr9_173,fr9_s2).
body(r_fr9_173,fr9_t4).
body(r_fr9_173,fr9_u4).
body(r_fr9_173,fr9_u5).
body(r_fr9_173,fr9_w4).
body(r_fr9_173,fr8_u1).
body(r_fr9_173,fr9_y4).
head(r_fr9_174,fr9_v4).
body(r_fr9_174,fr9_a5).
head(r_fr9_175,fr9_s4).
body(r_fr9_175,fr2_q2).
body(r_fr9_175,fr13_z1).
body(r_fr9_175,fr9_v2).
body(r_fr9_175,fr9_v4).
body(r_fr9_175,fr9_x2).
body(r_fr9_175,fr9_t5).
body(r_fr9_175,fr8_u1).
body(r_fr9_175,fr9_z5).
head(r_fr9_176,fr9_s4).
body(r_fr9_176,fr14_d2).
body(r_fr9_176,fr9_c4).
body(r_fr9_176,fr9_c6).
body(r_fr9_176,fr13_f2).
body(r_fr9_176,fr9_d5).
body(r_fr9_176,fr13_f2).
body(r_fr9_176,fr14_c1).
body(r_fr9_176,fr12_x1).
body(r_fr9_176,fr9_u2).
body(r_fr9_176,fr22_p2).
head(r_fr9_177,fr9_s4).
body(r_fr9_177,fr12_x3).
body(r_fr9_177,fr9_y4).
head(r_fr9_178,fr9_s4).
body(r_fr9_178,fr9_a3).
body(r_fr9_178,fr9_p4).
head(r_fr9_179,fr9_t5).
head(r_fr9_180,fr9_t5).
body(r_fr9_180,fr13_f2).
body(r_fr9_180,fr14_d2).
body(r_fr9_180,fr9_c6).
body(r_fr9_180,fr13_f2).
body(r_fr9_180,fr9_s4).
body(r_fr9_180,fr9_v2).
body(r_fr9_180,fr9_v5).
body(r_fr9_180,fr8_u1).
body(r_fr9_180,fr9_z2).
head(r_fr9_181,fr9_v3).
body(r_fr9_181,fr9_a6).
body(r_fr9_181,fr9_b1).
body(r_fr9_181,fr9_b3).
body(r_fr9_181,fr9_c2).
body(r_fr9_181,fr13_f2).
body(r_fr9_181,fr9_f2).
body(r_fr9_181,fr2_q2).
body(r_fr9_181,fr23_y2).
body(r_fr9_181,fr9_s3).
body(r_fr9_181,fr9_t3).
body(r_fr9_181,fr13_z1).
head(r_fr9_182,fr9_v3).
body(r_fr9_182,fr18_f1).
body(r_fr9_182,fr17_e2).
body(r_fr9_182,fr9_q4).
body(r_fr9_182,fr9_t1).
body(r_fr9_182,fr9_y3).
body(r_fr9_182,fr9_z1).
head(r_fr9_183,fr9_v3).
body(r_fr9_183,fr9_a5).
body(r_fr9_183,fr9_b4).
body(r_fr9_183,fr9_c2).
body(r_fr9_183,fr14_d2).
body(r_fr9_183,fr9_c4).
body(r_fr9_183,fr9_c6).
body(r_fr9_183,fr13_f2).
body(r_fr9_183,fr13_f2).
body(r_fr9_183,fr13_f2).
body(r_fr9_183,fr10_f1).
body(r_fr9_183,fr23_y2).
body(r_fr9_183,fr9_u2).
body(r_fr9_183,fr9_v2).
head(r_fr9_184,fr9_t3).
head(r_fr9_185,fr9_t3).
body(r_fr9_185,fr9_a1).
body(r_fr9_185,fr9_b5).
body(r_fr9_185,fr9_e2).
body(r_fr9_185,fr9_q3).
body(r_fr9_185,fr23_y2).
body(r_fr9_185,fr12_x1).
body(r_fr9_185,fr9_t4).
body(r_fr9_185,fr9_v5).
body(r_fr9_185,fr9_w1).
body(r_fr9_185,fr9_w2).
body(r_fr9_185,fr9_y3).
body(r_fr9_185,fr9_z1).
body(r_fr9_185,fr9_z2).
head(r_fr9_186,fr9_t3).
body(r_fr9_186,fr9_u1).
body(r_fr9_186,fr9_y2).
head(r_fr9_187,fr9_t3).
body(r_fr9_187,fr13_f2).
body(r_fr9_187,fr9_b3).
body(r_fr9_187,fr17_e2).
body(r_fr9_187,fr9_d2).
body(r_fr9_187,fr13_f2).
head(r_fr9_188,fr9_w1).
body(r_fr9_188,fr13_f2).
body(r_fr9_188,fr9_b1).
body(r_fr9_188,fr18_f1).
body(r_fr9_188,fr9_b5).
body(r_fr9_188,fr9_d4).
body(r_fr9_188,fr13_f2).
body(r_fr9_188,fr13_f2).
body(r_fr9_188,fr13_f2).
head(r_fr9_189,fr9_w1).
body(r_fr9_189,fr9_a6).
body(r_fr9_189,fr9_d4).
body(r_fr9_189,fr10_f1).
body(r_fr9_189,fr13_f2).
body(r_fr9_189,fr9_q2).
head(r_fr9_190,fr9_y4).
body(r_fr9_190,fr9_b1).
body(r_fr9_190,fr9_b5).
body(r_fr9_190,fr9_c4).
body(r_fr9_190,fr9_d5).
body(r_fr9_190,fr9_e1).
body(r_fr9_190,fr9_e2).
body(r_fr9_190,fr9_p5).
body(r_fr9_190,fr9_w1).
head(r_fr9_191,fr9_y4).
body(r_fr9_191,fr9_a1).
body(r_fr9_191,fr9_a3).
body(r_fr9_191,fr9_b4).
body(r_fr9_191,fr17_e2).
body(r_fr9_191,fr13_f2).
body(r_fr9_191,fr9_d4).
body(r_fr9_191,fr9_e1).
body(r_fr9_191,fr9_e2).
body(r_fr9_191,fr7_c1).
body(r_fr9_191,fr10_f1).
body(r_fr9_191,fr9_f2).
body(r_fr9_191,fr14_c1).
body(r_fr9_191,fr9_w2).
head(r_fr9_192,fr9_y4).
body(r_fr9_192,fr9_t4).
body(r_fr9_192,fr13_z1).
body(r_fr9_192,fr9_v3).
body(r_fr9_192,fr9_w2).
head(r_fr9_193,fr12_x1).
body(r_fr9_193,fr13_f2).
body(r_fr9_193,fr18_f1).
body(r_fr9_193,fr9_d2).
head(r_fr9_194,fr12_x1).
body(r_fr9_194,fr9_a3).
body(r_fr9_194,fr9_c4).
body(r_fr9_194,fr17_e2).
body(r_fr9_194,fr9_r4).
body(r_fr9_194,fr9_s3).
body(r_fr9_194,fr9_u5).
body(r_fr9_194,fr13_z1).
body(r_fr9_194,fr9_v4).
body(r_fr9_194,fr9_v5).
body(r_fr9_194,fr9_w2).
body(r_fr9_194,fr9_y4).
body(r_fr9_194,fr9_z4).
head(r_fr9_195,fr12_x1).
body(r_fr9_195,fr9_d4).
body(r_fr9_195,fr22_p2).
head(r_fr9_196,fr12_x1).
body(r_fr9_196,fr9_c6).
body(r_fr9_196,fr9_p4).
body(r_fr9_196,fr23_y2).
body(r_fr9_196,fr12_x3).
body(r_fr9_196,fr9_t3).
body(r_fr9_196,fr9_y2).
body(r_fr9_196,fr9_z1).
body(r_fr9_196,fr9_z4).
head(r_fr9_197,fr12_x1).
body(r_fr9_197,fr14_d2).
body(r_fr9_197,fr9_t4).
body(r_fr9_197,fr9_z1).
head(r_fr9_198,fr12_x1).
body(r_fr9_198,fr9_e2).
body(r_fr9_198,fr10_f1).
head(r_fr9_199,fr12_x1).
body(r_fr9_199,fr13_f2).
body(r_fr9_199,fr9_c1).
body(r_fr9_199,fr9_c4).
body(r_fr9_199,fr17_e2).
body(r_fr9_199,fr13_f2).
body(r_fr9_199,fr9_d4).
body(r_fr9_199,fr9_e1).
body(r_fr9_199,fr13_f2).
body(r_fr9_199,fr7_c1).
body(r_fr9_199,fr13_f2).
body(r_fr9_199,fr10_f1).
body(r_fr9_199,fr23_y2).
body(r_fr9_199,fr23_y2).
head(r_fr9_200,fr12_x1).
body(r_fr9_200,fr9_d1).
body(r_fr9_200,fr14_c1).
body(r_fr9_200,fr9_y3).
head(r_fr9_201,fr12_x1).
body(r_fr9_201,fr9_b5).
body(r_fr9_201,fr13_f2).
body(r_fr9_201,fr13_f2).
body(r_fr9_201,fr14_c1).
body(r_fr9_201,fr9_w2).
body(r_fr9_201,fr9_x2).
head(r_fr9_202,fr12_x1).
body(r_fr9_202,fr13_f2).
body(r_fr9_202,fr9_a5).
body(r_fr9_202,fr13_f2).
body(r_fr9_202,fr13_f2).
body(r_fr9_202,fr22_q1).
body(r_fr9_202,fr2_q2).
body(r_fr9_202,fr9_u5).
body(r_fr9_202,fr9_v5).
body(r_fr9_202,fr9_x1).
body(r_fr9_202,fr9_y2).
body(r_fr9_202,fr8_u1).
head(r_fr9_203,fr9_s5).
body(r_fr9_203,fr9_b4).
body(r_fr9_203,fr9_c2).
body(r_fr9_203,fr13_f2).
body(r_fr9_203,fr23_y2).
body(r_fr9_203,fr9_u4).
body(r_fr9_203,fr8_u1).
body(r_fr9_203,fr9_y2).
body(r_fr9_203,fr9_y4).
head(r_fr9_204,fr9_s5).
body(r_fr9_204,fr13_f2).
body(r_fr9_204,fr9_b4).
body(r_fr9_204,fr9_c6).
body(r_fr9_204,fr9_f5).
body(r_fr9_204,fr23_y2).
body(r_fr9_204,fr9_s4).
body(r_fr9_204,fr9_v2).
body(r_fr9_204,fr8_u1).
body(r_fr9_204,fr9_y4).
body(r_fr9_204,fr9_z3).
head(r_fr9_205,fr9_s5).
body(r_fr9_205,fr9_b4).
body(r_fr9_205,fr9_e1).
body(r_fr9_205,fr13_f2).
body(r_fr9_205,fr10_f1).
body(r_fr9_205,fr23_y2).
body(r_fr9_205,fr23_y2).
body(r_fr9_205,fr9_z1).
head(r_fr9_206,fr9_s5).
body(r_fr9_206,fr9_b1).
body(r_fr9_206,fr9_c2).
body(r_fr9_206,fr10_f1).
body(r_fr9_206,fr9_u5).
body(r_fr9_206,fr9_z3).
head(r_fr9_207,fr9_u5).
body(r_fr9_207,fr9_p4).
body(r_fr9_207,fr9_q2).
body(r_fr9_207,fr9_s4).
body(r_fr9_207,fr8_u1).
body(r_fr9_207,fr9_y3).
body(r_fr9_207,fr9_y4).
body(r_fr9_207,fr9_z3).
head(r_fr9_208,fr9_u5).
body(r_fr9_208,fr9_c2).
body(r_fr9_208,fr14_d2).
body(r_fr9_208,fr9_d1).
body(r_fr9_208,fr9_d4).
body(r_fr9_208,fr13_f2).
body(r_fr9_208,fr10_f1).
body(r_fr9_208,fr13_f2).
body(r_fr9_208,fr9_f5).
body(r_fr9_208,fr9_r4).
body(r_fr9_208,fr9_s4).
head(r_fr9_209,fr9_u5).
body(r_fr9_209,fr9_a1).
head(r_fr9_210,fr9_t4).
body(r_fr9_210,fr9_a6).
body(r_fr9_210,fr9_c1).
body(r_fr9_210,fr9_d5).
body(r_fr9_210,fr7_c1).
body(r_fr9_210,fr9_q4).
head(r_fr9_211,fr9_t4).
head(r_fr9_212,fr9_t4).
body(r_fr9_212,fr14_d2).
body(r_fr9_212,fr9_p4).
body(r_fr9_212,fr9_s5).
body(r_fr9_212,fr9_t5).
body(r_fr9_212,fr22_p2).
body(r_fr9_212,fr9_y2).
head(r_fr9_213,fr9_t4).
body(r_fr9_213,fr9_p5).
body(r_fr9_213,fr9_q3).
body(r_fr9_213,fr23_y2).
body(r_fr9_213,fr9_u4).
body(r_fr9_213,fr13_z1).
body(r_fr9_213,fr9_w4).
body(r_fr9_213,fr9_y3).
head(r_fr9_214,fr9_t4).
body(r_fr9_214,fr9_q4).
body(r_fr9_214,fr9_y4).
body(r_fr9_214,fr9_z1).
body(r_fr9_214,fr9_z4).
head(r_fr9_215,fr9_t4).
body(r_fr9_215,fr9_a5).
body(r_fr9_215,fr18_f1).
body(r_fr9_215,fr9_b4).
body(r_fr9_215,fr9_c2).
body(r_fr9_215,fr14_d2).
body(r_fr9_215,fr9_c4).
body(r_fr9_215,fr9_d5).
body(r_fr9_215,fr13_f2).
body(r_fr9_215,fr9_q3).
body(r_fr9_215,fr9_s4).
body(r_fr9_215,fr9_t5).
head(r_fr9_216,fr9_w5).
body(r_fr9_216,fr9_b4).
body(r_fr9_216,fr9_d2).
body(r_fr9_216,fr9_f2).
body(r_fr9_216,fr22_q1).
body(r_fr9_216,fr9_q2).
body(r_fr9_216,fr9_q4).
body(r_fr9_216,fr23_y2).
body(r_fr9_216,fr9_u1).
body(r_fr9_216,fr9_v3).
body(r_fr9_216,fr9_t5).
body(r_fr9_216,fr9_y4).
body(r_fr9_216,fr8_u1).
body(r_fr9_216,fr9_z3).
head(r_fr9_217,fr9_w5).
body(r_fr9_217,fr13_f2).
body(r_fr9_217,fr14_d2).
body(r_fr9_217,fr13_f2).
body(r_fr9_217,fr22_p2).
body(r_fr9_217,fr9_w1).
body(r_fr9_217,fr9_z3).
body(r_fr9_217,fr9_z4).
head(r_fr9_218,fr9_w5).
head(r_fr9_219,fr9_w5).
body(r_fr9_219,fr14_c1).
head(r_fr9_220,fr9_w5).
body(r_fr9_220,fr9_a3).
body(r_fr9_220,fr9_c2).
body(r_fr9_220,fr9_f2).
head(r_fr9_221,fr9_w5).
body(r_fr9_221,fr9_d2).
body(r_fr9_221,fr10_f1).
body(r_fr9_221,fr9_s2).
body(r_fr9_221,fr9_u1).
body(r_fr9_221,fr9_v2).
head(r_fr9_222,fr9_w5).
body(r_fr9_222,fr9_b4).
body(r_fr9_222,fr9_d4).
body(r_fr9_222,fr9_e2).
body(r_fr9_222,fr9_f5).
head(r_fr9_223,fr23_y2).
body(r_fr9_223,fr9_a1).
body(r_fr9_223,fr9_a6).
body(r_fr9_223,fr9_b1).
body(r_fr9_223,fr9_b5).
body(r_fr9_223,fr13_e1).
body(r_fr9_223,fr14_d2).
body(r_fr9_223,fr9_d5).
body(r_fr9_223,fr13_f2).
body(r_fr9_223,fr9_f5).
head(r_fr9_224,fr23_y2).
body(r_fr9_224,fr9_c1).
head(r_fr9_225,fr23_y2).
body(r_fr9_225,fr22_q1).
body(r_fr9_225,fr9_u4).
body(r_fr9_225,fr8_u1).
body(r_fr9_225,fr8_u1).
body(r_fr9_225,fr9_z1).
body(r_fr9_225,fr9_z5).
head(r_fr9_226,fr23_y2).
body(r_fr9_226,fr9_f5).
head(r_fr9_227,fr23_y2).
body(r_fr9_227,fr2_q2).
body(r_fr9_227,fr23_y2).
body(r_fr9_227,fr9_u4).
body(r_fr9_227,fr9_v4).
body(r_fr9_227,fr9_w2).
body(r_fr9_227,fr9_w5).
body(r_fr9_227,fr9_x1).
body(r_fr9_227,fr9_x2).
body(r_fr9_227,fr9_t5).
body(r_fr9_227,fr8_u1).
body(r_fr9_227,fr9_y3).
head(r_fr9_228,fr23_y2).
body(r_fr9_228,fr10_f1).
body(r_fr9_228,fr22_q1).
body(r_fr9_228,fr2_q2).
body(r_fr9_228,fr9_q3).
body(r_fr9_228,fr9_s3).
body(r_fr9_228,fr9_t1).
body(r_fr9_228,fr9_u4).
body(r_fr9_228,fr9_v5).
body(r_fr9_228,fr22_p2).
body(r_fr9_228,fr9_x1).
body(r_fr9_228,fr8_u1).
body(r_fr9_228,fr9_y3).
body(r_fr9_228,fr9_z5).
head(r_fr9_229,fr23_y2).
body(r_fr9_229,fr13_f2).
body(r_fr9_229,fr13_f2).
body(r_fr9_229,fr18_f1).
body(r_fr9_229,fr9_c2).
body(r_fr9_229,fr17_e2).
body(r_fr9_229,fr9_c6).
body(r_fr9_229,fr13_f2).
body(r_fr9_229,fr10_f1).
body(r_fr9_229,fr9_f5).
head(r_fr9_230,fr23_y2).
body(r_fr9_230,fr2_q2).
body(r_fr9_230,fr23_y2).
body(r_fr9_230,fr9_s2).
body(r_fr9_230,fr23_y2).
body(r_fr9_230,fr22_p2).
body(r_fr9_230,fr9_w4).
body(r_fr9_230,fr8_u1).
body(r_fr9_230,fr9_z4).
head(r_fr9_231,fr23_y2).
body(r_fr9_231,fr13_f2).
body(r_fr9_231,fr13_f2).
body(r_fr9_231,fr9_b3).
body(r_fr9_231,fr17_e2).
body(r_fr9_231,fr9_d5).
body(r_fr9_231,fr13_f2).
body(r_fr9_231,fr13_f2).
body(r_fr9_231,fr14_c1).
body(r_fr9_231,fr9_f5).
body(r_fr9_231,fr9_s2).
body(r_fr9_231,fr9_z1).
head(r_fr9_232,fr23_y2).
head(r_fr9_233,fr9_u4).
body(r_fr9_233,fr9_b1).
body(r_fr9_233,fr9_b4).
body(r_fr9_233,fr9_c2).
body(r_fr9_233,fr17_e2).
body(r_fr9_233,fr9_d1).
body(r_fr9_233,fr9_d2).
body(r_fr9_233,fr9_d4).
body(r_fr9_233,fr9_e1).
body(r_fr9_233,fr9_e2).
body(r_fr9_233,fr9_t5).
body(r_fr9_233,fr8_u1).
head(r_fr9_234,fr9_u4).
body(r_fr9_234,fr9_a1).
body(r_fr9_234,fr13_f2).
body(r_fr9_234,fr9_a5).
body(r_fr9_234,fr9_b1).
body(r_fr9_234,fr18_f1).
body(r_fr9_234,fr9_b3).
body(r_fr9_234,fr9_b5).
body(r_fr9_234,fr13_e1).
body(r_fr9_234,fr9_c1).
body(r_fr9_234,fr9_c6).
body(r_fr9_234,fr9_d5).
body(r_fr9_234,fr13_f2).
body(r_fr9_234,fr9_f2).
head(r_fr9_235,fr9_u4).
body(r_fr9_235,fr14_c1).
body(r_fr9_235,fr9_p5).
body(r_fr9_235,fr9_x2).
head(r_fr9_236,fr9_u4).
head(r_fr9_237,fr9_u4).
body(r_fr9_237,fr9_a3).
body(r_fr9_237,fr9_b1).
body(r_fr9_237,fr9_b5).
body(r_fr9_237,fr9_c6).
body(r_fr9_237,fr9_d4).
body(r_fr9_237,fr13_f2).
body(r_fr9_237,fr13_f2).
body(r_fr9_237,fr9_f5).
body(r_fr9_237,fr9_y3).
head(r_fr9_238,fr9_u4).
body(r_fr9_238,fr9_a6).
body(r_fr9_238,fr9_b5).
body(r_fr9_238,fr9_c6).
body(r_fr9_238,fr9_e1).
body(r_fr9_238,fr9_p4).
body(r_fr9_238,fr9_q3).
body(r_fr9_238,fr9_t4).
body(r_fr9_238,fr9_v4).
head(r_fr9_239,fr9_u4).
body(r_fr9_239,fr9_c1).
body(r_fr9_239,fr9_c2).
body(r_fr9_239,fr10_f1).
head(r_fr9_240,fr9_u4).
body(r_fr9_240,fr9_b4).
body(r_fr9_240,fr17_e2).
body(r_fr9_240,fr9_s2).
body(r_fr9_240,fr9_t5).
body(r_fr9_240,fr9_v5).
body(r_fr9_240,fr9_w1).
head(r_fr9_241,fr9_u4).
body(r_fr9_241,fr9_r4).
body(r_fr9_241,fr9_t4).
body(r_fr9_241,fr23_y2).
body(r_fr9_241,fr9_w1).
body(r_fr9_241,fr8_u1).
body(r_fr9_241,fr9_y4).
head(r_fr9_242,fr9_u4).
body(r_fr9_242,fr13_f2).
body(r_fr9_242,fr9_d2).
body(r_fr9_242,fr22_q1).
body(r_fr9_242,fr9_p4).
body(r_fr9_242,fr2_q2).
body(r_fr9_242,fr9_r4).
body(r_fr9_242,fr23_y2).
body(r_fr9_242,fr23_y2).
body(r_fr9_242,fr9_v3).
body(r_fr9_242,fr9_t5).
body(r_fr9_242,fr9_y1).
body(r_fr9_242,fr8_u1).
body(r_fr9_242,fr9_z4).
head(r_fr9_243,fr13_z1).
body(r_fr9_243,fr14_d2).
body(r_fr9_243,fr14_c1).
body(r_fr9_243,fr9_p5).
head(r_fr9_244,fr13_z1).
head(r_fr9_245,fr9_w2).
body(r_fr9_245,fr9_a3).
body(r_fr9_245,fr13_f2).
body(r_fr9_245,fr9_c1).
body(r_fr9_245,fr14_d2).
body(r_fr9_245,fr9_c4).
body(r_fr9_245,fr9_d5).
body(r_fr9_245,fr9_e1).
body(r_fr9_245,fr13_f2).
body(r_fr9_245,fr10_f1).
body(r_fr9_245,fr13_f2).
head(r_fr9_246,fr9_w2).
body(r_fr9_246,fr18_f1).
body(r_fr9_246,fr9_b5).
body(r_fr9_246,fr13_e1).
body(r_fr9_246,fr9_c1).
body(r_fr9_246,fr22_p2).
body(r_fr9_246,fr9_u2).
body(r_fr9_246,fr9_v3).
body(r_fr9_246,fr9_v5).
body(r_fr9_246,fr9_y1).
head(r_fr9_247,fr8_u1).
body(r_fr9_247,fr13_f2).
body(r_fr9_247,fr13_f2).
body(r_fr9_247,fr9_d1).
body(r_fr9_247,fr9_e2).
body(r_fr9_247,fr9_t4).
body(r_fr9_247,fr9_w4).
head(r_fr9_248,fr8_u1).
body(r_fr9_248,fr9_b4).
head(r_fr9_249,fr8_u1).
body(r_fr9_249,fr9_d4).
body(r_fr9_249,fr9_v2).
head(r_fr9_250,fr8_u1).
body(r_fr9_250,fr9_b1).
body(r_fr9_250,fr9_c2).
body(r_fr9_250,fr9_v5).
head(r_fr9_251,fr8_u1).
body(r_fr9_251,fr9_e2).
body(r_fr9_251,fr22_q1).
body(r_fr9_251,fr23_y2).
body(r_fr9_251,fr9_u4).
body(r_fr9_251,fr9_v2).
body(r_fr9_251,fr9_x2).
body(r_fr9_251,fr8_u1).
body(r_fr9_251,fr9_z3).
head(r_fr9_252,fr8_u1).
body(r_fr9_252,fr9_a6).
body(r_fr9_252,fr23_y2).
head(r_fr9_253,fr8_u1).
body(r_fr9_253,fr13_f2).
body(r_fr9_253,fr13_f2).
body(r_fr9_253,fr9_b3).
body(r_fr9_253,fr9_c2).
body(r_fr9_253,fr13_f2).
body(r_fr9_253,fr13_f2).
body(r_fr9_253,fr10_f1).
body(r_fr9_253,fr22_q1).
body(r_fr9_253,fr13_z1).
body(r_fr9_253,fr9_w1).
body(r_fr9_253,fr9_x2).
head(r_fr9_254,fr8_u1).
body(r_fr9_254,fr13_e1).
body(r_fr9_254,fr13_f2).
body(r_fr9_254,fr2_q2).
body(r_fr9_254,fr23_y2).
body(r_fr9_254,fr9_w1).
head(r_fr9_255,fr8_u1).
body(r_fr9_255,fr18_f1).
body(r_fr9_255,fr9_e2).
head(r_fr9_256,fr9_p4).
body(r_fr9_256,fr9_a1).
body(r_fr9_256,fr9_a5).
body(r_fr9_256,fr9_d1).
body(r_fr9_256,fr9_d4).
body(r_fr9_256,fr13_f2).
head(r_fr9_257,fr9_p4).
body(r_fr9_257,fr13_f2).
body(r_fr9_257,fr7_c1).
body(r_fr9_257,fr9_q3).
body(r_fr9_257,fr9_q4).
body(r_fr9_257,fr12_x1).
body(r_fr9_257,fr9_s5).
body(r_fr9_257,fr9_t1).
body(r_fr9_257,fr23_y2).
body(r_fr9_257,fr9_u1).
body(r_fr9_257,fr9_w4).
body(r_fr9_257,fr8_u1).
body(r_fr9_257,fr9_y4).
head(r_fr9_258,fr9_p4).
body(r_fr9_258,fr9_f5).
body(r_fr9_258,fr9_q3).
head(r_fr9_259,fr9_p4).
body(r_fr9_259,fr9_a3).
body(r_fr9_259,fr9_a5).
body(r_fr9_259,fr9_a6).
body(r_fr9_259,fr9_c4).
body(r_fr9_259,fr17_e2).
body(r_fr9_259,fr9_c6).
body(r_fr9_259,fr14_c1).
body(r_fr9_259,fr22_q1).
body(r_fr9_259,fr9_u1).
head(r_fr9_260,fr9_p4).
body(r_fr9_260,fr9_a1).
body(r_fr9_260,fr13_f2).
body(r_fr9_260,fr9_a5).
body(r_fr9_260,fr18_f1).
body(r_fr9_260,fr9_b5).
body(r_fr9_260,fr9_d1).
body(r_fr9_260,fr9_d2).
body(r_fr9_260,fr13_f2).
body(r_fr9_260,fr9_d5).
body(r_fr9_260,fr9_e2).
head(r_fr9_261,fr9_p4).
body(r_fr9_261,fr13_f2).
body(r_fr9_261,fr9_w4).
head(r_fr9_262,fr9_r4).
body(r_fr9_262,fr9_b4).
body(r_fr9_262,fr9_c1).
head(r_fr9_263,fr9_r4).
body(r_fr9_263,fr9_e2).
body(r_fr9_263,fr9_p5).
body(r_fr9_263,fr9_q3).
body(r_fr9_263,fr9_s2).
body(r_fr9_263,fr9_t5).
body(r_fr9_263,fr9_u4).
body(r_fr9_263,fr9_y3).
head(r_fr9_264,fr9_r4).
body(r_fr9_264,fr9_a1).
body(r_fr9_264,fr9_a6).
body(r_fr9_264,fr10_f1).
head(r_fr9_265,fr9_r4).
body(r_fr9_265,fr10_f1).
body(r_fr9_265,fr2_q2).
body(r_fr9_265,fr9_t4).
body(r_fr9_265,fr9_z2).
body(r_fr9_265,fr9_z5).
head(r_fr9_266,fr9_r4).
body(r_fr9_266,fr9_a3).
body(r_fr9_266,fr9_d2).
body(r_fr9_266,fr13_f2).
body(r_fr9_266,fr23_y2).
body(r_fr9_266,fr9_t3).
body(r_fr9_266,fr9_u4).
body(r_fr9_266,fr9_y4).
body(r_fr9_266,fr9_z2).
head(r_fr9_267,fr9_r4).
body(r_fr9_267,fr9_b5).
body(r_fr9_267,fr9_e2).
body(r_fr9_267,fr22_q1).
body(r_fr9_267,fr9_p4).
body(r_fr9_267,fr23_y2).
body(r_fr9_267,fr23_y2).
body(r_fr9_267,fr22_p2).
body(r_fr9_267,fr9_s3).
body(r_fr9_267,fr9_u2).
body(r_fr9_267,fr8_u1).
body(r_fr9_267,fr9_z1).
body(r_fr9_267,fr9_z3).
head(r_fr9_268,fr9_r4).
head(r_fr9_269,fr9_r4).
body(r_fr9_269,fr13_f2).
body(r_fr9_269,fr14_c1).
body(r_fr9_269,fr9_q2).
body(r_fr9_269,fr9_u5).
body(r_fr9_269,fr9_t5).
body(r_fr9_269,fr8_u1).
body(r_fr9_269,fr9_z1).
body(r_fr9_269,fr9_z2).
body(r_fr9_269,fr9_z4).
body(r_fr9_269,fr9_z5).
head(r_fr9_270,fr9_r4).
body(r_fr9_270,fr9_a3).
body(r_fr9_270,fr13_f2).
body(r_fr9_270,fr9_b1).
body(r_fr9_270,fr9_b4).
body(r_fr9_270,fr9_e2).
body(r_fr9_270,fr13_f2).
body(r_fr9_270,fr14_c1).
body(r_fr9_270,fr9_y1).

assumption(fr13_f2).
assumption(fr13_f2).
assumption(fr10_c1).
assumption(fr10_d1).
assumption(fr14_c1).
assumption(fr10_f1).
assumption(fr13_f2).
assumption(fr10_b2).
assumption(fr10_c2).
assumption(fr10_d2).
assumption(fr9_b4).
assumption(fr7_c1).
assumption(fr14_c1).
assumption(fr23_f2).
assumption(fr13_f2).
contrary(fr13_f2,fr10_d2).
contrary(fr13_f2,fr13_f2).
contrary(fr14_c1,fr10_c1).
contrary(fr13_f2,fr10_c1).
contrary(fr10_b2,fr23_y2).
contrary(fr23_f2,fr22_p2).
contrary(fr10_c1,fr13_s2).
contrary(fr10_c2,fr10_b2).
contrary(fr13_f2,fr10_c2).
contrary(fr10_d1,fr7_c1).
contrary(fr10_d2,fr13_f2).
contrary(fr14_c1,fr23_y2).
contrary(fr9_b4,fr13_f2).
contrary(fr10_f1,fr23_s3).
contrary(fr7_c1,fr23_s3).
head(r_fr10_0,fr23_y2).
body(r_fr10_0,fr14_c1).
body(r_fr10_0,fr10_d1).
body(r_fr10_0,fr14_c1).
body(r_fr10_0,fr7_c1).
head(r_fr10_1,fr23_y2).
body(r_fr10_1,fr13_z1).
body(r_fr10_1,fr23_s3).
head(r_fr10_2,fr23_y2).
body(r_fr10_2,fr13_z1).
head(r_fr10_3,fr13_s2).
body(r_fr10_3,fr7_c1).
body(r_fr10_3,fr13_z1).
body(r_fr10_3,fr23_s3).
head(r_fr10_4,fr13_s2).
head(r_fr10_5,fr13_s2).
body(r_fr10_5,fr23_s3).
head(r_fr10_6,fr13_s2).
body(r_fr10_6,fr13_f2).
body(r_fr10_6,fr14_c1).
body(r_fr10_6,fr13_f2).
head(r_fr10_7,fr13_s2).
body(r_fr10_7,fr13_f2).
body(r_fr10_7,fr10_c2).
body(r_fr10_7,fr13_f2).
head(r_fr10_8,fr23_s3).
body(r_fr10_8,fr9_b4).
body(r_fr10_8,fr10_f1).
head(r_fr10_9,fr23_s3).
body(r_fr10_9,fr13_f2).
body(r_fr10_9,fr10_c1).
body(r_fr10_9,fr10_d1).
body(r_fr10_9,fr10_d2).
body(r_fr10_9,fr9_b4).
body(r_fr10_9,fr10_f1).
head(r_fr10_10,fr23_s3).
body(r_fr10_10,fr13_f2).
head(r_fr10_11,fr23_s3).
body(r_fr10_11,fr10_c2).
head(r_fr10_12,fr23_s3).
head(r_fr10_13,fr22_p2).
body(r_fr10_13,fr7_c1).
body(r_fr10_13,fr13_z1).
head(r_fr10_14,fr22_p2).
body(r_fr10_14,fr13_f2).
body(r_fr10_14,fr10_c1).
head(r_fr10_15,fr22_p2).
head(r_fr10_16,fr22_p2).
body(r_fr10_16,fr13_f2).
body(r_fr10_16,fr13_f2).
head(r_fr10_17,fr22_p2).
body(r_fr10_17,fr13_z1).
head(r_fr10_18,fr13_z1).
body(r_fr10_18,fr10_c1).
body(r_fr10_18,fr10_d2).
body(r_fr10_18,fr10_f1).
head(r_fr10_19,fr13_z1).
body(r_fr10_19,fr7_c1).
head(r_fr10_20,fr13_z1).
body(r_fr10_20,fr13_f2).
body(r_fr10_20,fr10_d1).
body(r_fr10_20,fr9_b4).
head(r_fr10_21,fr13_z1).
body(r_fr10_21,fr10_c1).
body(r_fr10_21,fr13_f2).
body(r_fr10_21,fr10_d1).
body(r_fr10_21,fr14_c1).
body(r_fr10_21,fr9_b4).
head(r_fr10_22,fr13_z1).

assumption(fr20_b2).
assumption(fr11_b1).
assumption(fr11_c1).
assumption(fr13_f2).
assumption(fr11_e1).
assumption(fr11_f1).
assumption(fr11_a2).
assumption(fr11_b2).
assumption(fr11_c2).
assumption(fr14_c1).
assumption(fr11_e2).
assumption(fr18_f1).
assumption(fr13_f2).
assumption(fr11_b3).
assumption(fr14_d2).
contrary(fr20_b2,fr11_f1).
contrary(fr11_a2,fr20_b2).
contrary(fr13_f2,fr11_x1).
contrary(fr11_b1,fr11_q1).
contrary(fr11_b2,fr11_c1).
contrary(fr11_b3,fr11_f1).
contrary(fr11_c1,fr23_y2).
contrary(fr11_c2,fr11_t3).
contrary(fr14_d2,fr11_s2).
contrary(fr13_f2,fr15_y1).
contrary(fr14_c1,fr1_z3).
contrary(fr11_e1,fr22_p2).
contrary(fr11_e2,fr11_v2).
contrary(fr11_f1,fr14_d2).
contrary(fr18_f1,fr14_d2).
head(r_fr11_0,fr11_y2).
body(r_fr11_0,fr20_b2).
body(r_fr11_0,fr11_a2).
body(r_fr11_0,fr13_f2).
body(r_fr11_0,fr11_b2).
body(r_fr11_0,fr11_c1).
body(r_fr11_0,fr14_c1).
body(r_fr11_0,fr11_p3).
body(r_fr11_0,fr6_p1).
body(r_fr11_0,fr11_s3).
body(r_fr11_0,fr11_u2).
body(r_fr11_0,fr11_w2).
head(r_fr11_1,fr11_y2).
body(r_fr11_1,fr20_b2).
body(r_fr11_1,fr11_a2).
body(r_fr11_1,fr11_c2).
body(r_fr11_1,fr11_e1).
body(r_fr11_1,fr11_e2).
body(r_fr11_1,fr18_f1).
body(r_fr11_1,fr11_p1).
body(r_fr11_1,fr11_p3).
body(r_fr11_1,fr11_q1).
body(r_fr11_1,fr11_s2).
head(r_fr11_2,fr11_s2).
body(r_fr11_2,fr11_b2).
body(r_fr11_2,fr14_d2).
body(r_fr11_2,fr11_e2).
body(r_fr11_2,fr23_y2).
body(r_fr11_2,fr6_p1).
body(r_fr11_2,fr11_s1).
body(r_fr11_2,fr11_s3).
body(r_fr11_2,fr20_z1).
body(r_fr11_2,fr23_y2).
body(r_fr11_2,fr11_y2).
body(r_fr11_2,fr2_q2).
head(r_fr11_3,fr11_s2).
body(r_fr11_3,fr11_b2).
body(r_fr11_3,fr11_c1).
body(r_fr11_3,fr11_q4).
body(r_fr11_3,fr24_t4).
body(r_fr11_3,fr11_s1).
body(r_fr11_3,fr20_z1).
body(r_fr11_3,fr11_t3).
body(r_fr11_3,fr11_w2).
body(r_fr11_3,fr11_x1).
body(r_fr11_3,fr1_z3).
body(r_fr11_3,fr11_y2).
body(r_fr11_3,fr15_y1).
head(r_fr11_4,fr23_y2).
body(r_fr11_4,fr11_b1).
body(r_fr11_4,fr14_d2).
body(r_fr11_4,fr11_p1).
body(r_fr11_4,fr11_q1).
body(r_fr11_4,fr13_z1).
body(r_fr11_4,fr11_q4).
body(r_fr11_4,fr6_p1).
body(r_fr11_4,fr23_y2).
body(r_fr11_4,fr11_x1).
body(r_fr11_4,fr4_x2).
body(r_fr11_4,fr11_z1).
head(r_fr11_5,fr23_y2).
body(r_fr11_5,fr13_f2).
body(r_fr11_5,fr11_b1).
body(r_fr11_5,fr11_c2).
body(r_fr11_5,fr14_d2).
body(r_fr11_5,fr18_f1).
body(r_fr11_5,fr24_t4).
body(r_fr11_5,fr20_z1).
body(r_fr11_5,fr22_p2).
body(r_fr11_5,fr1_z3).
head(r_fr11_6,fr23_y2).
body(r_fr11_6,fr24_t4).
body(r_fr11_6,fr11_s2).
body(r_fr11_6,fr20_x2).
body(r_fr11_6,fr11_t3).
body(r_fr11_6,fr13_z1).
body(r_fr11_6,fr11_u2).
body(r_fr11_6,fr22_p2).
body(r_fr11_6,fr11_x1).
body(r_fr11_6,fr22_p2).
head(r_fr11_7,fr20_x2).
body(r_fr11_7,fr11_b3).
body(r_fr11_7,fr11_c1).
body(r_fr11_7,fr11_e1).
body(r_fr11_7,fr11_q1).
body(r_fr11_7,fr11_s2).
body(r_fr11_7,fr11_w2).
body(r_fr11_7,fr4_x2).
body(r_fr11_7,fr11_y1).
body(r_fr11_7,fr11_z1).
head(r_fr11_8,fr20_x2).
body(r_fr11_8,fr13_f2).
body(r_fr11_8,fr11_b2).
body(r_fr11_8,fr13_f2).
body(r_fr11_8,fr23_y2).
body(r_fr11_8,fr13_z1).
body(r_fr11_8,fr20_z1).
body(r_fr11_8,fr11_t3).
body(r_fr11_8,fr13_z1).
body(r_fr11_8,fr23_y2).
body(r_fr11_8,fr11_w2).
body(r_fr11_8,fr11_x1).
body(r_fr11_8,fr15_y1).
head(r_fr11_9,fr20_x2).
body(r_fr11_9,fr13_f2).
body(r_fr11_9,fr11_b3).
body(r_fr11_9,fr14_d2).
body(r_fr11_9,fr14_c1).
body(r_fr11_9,fr11_e2).
body(r_fr11_9,fr11_p1).
body(r_fr11_9,fr11_p3).
body(r_fr11_9,fr6_p1).
body(r_fr11_9,fr11_u2).
body(r_fr11_9,fr23_y2).
body(r_fr11_9,fr11_y1).
head(r_fr11_10,fr2_q2).
body(r_fr11_10,fr11_b2).
body(r_fr11_10,fr11_b3).
body(r_fr11_10,fr11_c2).
body(r_fr11_10,fr14_d2).
body(r_fr11_10,fr11_p1).
body(r_fr11_10,fr13_z1).
body(r_fr11_10,fr11_s3).
body(r_fr11_10,fr20_x2).
body(r_fr11_10,fr11_t3).
body(r_fr11_10,fr22_p2).
body(r_fr11_10,fr11_y1).
head(r_fr11_11,fr2_q2).
body(r_fr11_11,fr23_y2).
body(r_fr11_11,fr24_t4).
body(r_fr11_11,fr11_s2).
body(r_fr11_11,fr20_z1).
body(r_fr11_11,fr20_x2).
body(r_fr11_11,fr11_t3).
body(r_fr11_11,fr23_y2).
body(r_fr11_11,fr11_v2).
body(r_fr11_11,fr22_p2).
body(r_fr11_11,fr11_w2).
body(r_fr11_11,fr4_x2).
head(r_fr11_12,fr2_q2).
body(r_fr11_12,fr11_a2).
body(r_fr11_12,fr11_p1).
body(r_fr11_12,fr6_p1).
body(r_fr11_12,fr11_s3).
body(r_fr11_12,fr20_x2).
body(r_fr11_12,fr11_v1).
body(r_fr11_12,fr11_v2).
body(r_fr11_12,fr23_y2).
body(r_fr11_12,fr11_w2).
body(r_fr11_12,fr11_y1).
body(r_fr11_12,fr15_y1).
head(r_fr11_13,fr22_p2).
body(r_fr11_13,fr20_b2).
body(r_fr11_13,fr13_f2).
body(r_fr11_13,fr11_b2).
body(r_fr11_13,fr11_e1).
body(r_fr11_13,fr11_e2).
body(r_fr11_13,fr11_f1).
body(r_fr11_13,fr13_z1).
body(r_fr11_13,fr11_s2).
body(r_fr11_13,fr20_x2).
body(r_fr11_13,fr23_y2).
body(r_fr11_13,fr11_v2).
head(r_fr11_14,fr22_p2).
body(r_fr11_14,fr11_p1).
body(r_fr11_14,fr23_y2).
body(r_fr11_14,fr23_y2).
body(r_fr11_14,fr11_r2).
body(r_fr11_14,fr11_s2).
body(r_fr11_14,fr11_u2).
body(r_fr11_14,fr23_y2).
body(r_fr11_14,fr11_w2).
body(r_fr11_14,fr23_y2).
body(r_fr11_14,fr11_x1).
body(r_fr11_14,fr1_z3).
head(r_fr11_15,fr22_p2).
body(r_fr11_15,fr20_b2).
body(r_fr11_15,fr13_f2).
body(r_fr11_15,fr11_b1).
body(r_fr11_15,fr14_d2).
body(r_fr11_15,fr11_p1).
body(r_fr11_15,fr11_p3).
body(r_fr11_15,fr11_s1).
body(r_fr11_15,fr13_z1).
body(r_fr11_15,fr23_y2).
body(r_fr11_15,fr22_p2).
body(r_fr11_15,fr4_x2).
body(r_fr11_15,fr11_y1).
head(r_fr11_16,fr23_y2).
body(r_fr11_16,fr11_a2).
body(r_fr11_16,fr13_f2).
body(r_fr11_16,fr11_b2).
body(r_fr11_16,fr14_d2).
body(r_fr11_16,fr14_c1).
body(r_fr11_16,fr11_e1).
body(r_fr11_16,fr13_z1).
body(r_fr11_16,fr4_x2).
body(r_fr11_16,fr15_y1).
head(r_fr11_17,fr23_y2).
body(r_fr11_17,fr11_p3).
body(r_fr11_17,fr23_y2).
body(r_fr11_17,fr11_q1).
body(r_fr11_17,fr24_t4).
body(r_fr11_17,fr11_s1).
body(r_fr11_17,fr11_s3).
body(r_fr11_17,fr22_p2).
body(r_fr11_17,fr11_w2).
body(r_fr11_17,fr4_x2).
body(r_fr11_17,fr11_y1).
body(r_fr11_17,fr15_y1).
head(r_fr11_18,fr23_y2).
body(r_fr11_18,fr11_b3).
body(r_fr11_18,fr23_y2).
body(r_fr11_18,fr11_q4).
body(r_fr11_18,fr11_s1).
body(r_fr11_18,fr11_s2).
body(r_fr11_18,fr20_x2).
body(r_fr11_18,fr23_y2).
body(r_fr11_18,fr11_y1).
body(r_fr11_18,fr11_y2).
body(r_fr11_18,fr22_p2).
head(r_fr11_19,fr23_y2).
body(r_fr11_19,fr11_b3).
body(r_fr11_19,fr11_c1).
body(r_fr11_19,fr14_d2).
body(r_fr11_19,fr13_f2).
body(r_fr11_19,fr14_c1).
body(r_fr11_19,fr11_f1).
body(r_fr11_19,fr6_p1).
body(r_fr11_19,fr4_x2).
body(r_fr11_19,fr22_p2).
head(r_fr11_20,fr23_y2).
body(r_fr11_20,fr11_a2).
body(r_fr11_20,fr14_d2).
body(r_fr11_20,fr11_f1).
body(r_fr11_20,fr11_p1).
body(r_fr11_20,fr6_p1).
body(r_fr11_20,fr11_s3).
body(r_fr11_20,fr22_p2).
body(r_fr11_20,fr11_y1).
body(r_fr11_20,fr11_y2).
body(r_fr11_20,fr22_p2).
body(r_fr11_20,fr2_q2).
head(r_fr11_21,fr23_y2).
body(r_fr11_21,fr23_y2).
body(r_fr11_21,fr23_y2).
body(r_fr11_21,fr6_p1).
body(r_fr11_21,fr11_s2).
body(r_fr11_21,fr11_s3).
body(r_fr11_21,fr23_y2).
body(r_fr11_21,fr11_w2).
body(r_fr11_21,fr4_x2).
body(r_fr11_21,fr11_y2).
head(r_fr11_22,fr23_y2).
body(r_fr11_22,fr20_b2).
body(r_fr11_22,fr11_b2).
body(r_fr11_22,fr14_d2).
body(r_fr11_22,fr11_e1).
body(r_fr11_22,fr11_f1).
body(r_fr11_22,fr11_p1).
body(r_fr11_22,fr20_z1).
body(r_fr11_22,fr11_w2).
body(r_fr11_22,fr1_z3).
body(r_fr11_22,fr15_y1).
head(r_fr11_23,fr23_y2).
body(r_fr11_23,fr13_f2).
body(r_fr11_23,fr11_c2).
body(r_fr11_23,fr13_f2).
body(r_fr11_23,fr18_f1).
body(r_fr11_23,fr11_p3).
body(r_fr11_23,fr11_q1).
body(r_fr11_23,fr13_z1).
body(r_fr11_23,fr23_y2).
body(r_fr11_23,fr11_q4).
body(r_fr11_23,fr23_y2).
body(r_fr11_23,fr15_y1).
head(r_fr11_24,fr23_y2).
body(r_fr11_24,fr11_a2).
body(r_fr11_24,fr13_f2).
body(r_fr11_24,fr11_c2).
body(r_fr11_24,fr11_e1).
body(r_fr11_24,fr11_f1).
body(r_fr11_24,fr23_y2).
body(r_fr11_24,fr11_s2).
body(r_fr11_24,fr20_z1).
body(r_fr11_24,fr20_x2).
body(r_fr11_24,fr11_v1).
body(r_fr11_24,fr23_y2).
head(r_fr11_25,fr23_y2).
body(r_fr11_25,fr20_b2).
body(r_fr11_25,fr11_b2).
body(r_fr11_25,fr14_d2).
body(r_fr11_25,fr11_e2).
body(r_fr11_25,fr23_y2).
body(r_fr11_25,fr11_r2).
body(r_fr11_25,fr11_s2).
body(r_fr11_25,fr11_v1).
body(r_fr11_25,fr11_y2).
body(r_fr11_25,fr15_y1).
head(r_fr11_26,fr23_y2).
body(r_fr11_26,fr11_a2).
body(r_fr11_26,fr13_f2).
body(r_fr11_26,fr11_b2).
body(r_fr11_26,fr18_f1).
body(r_fr11_26,fr11_p1).
body(r_fr11_26,fr11_s1).
body(r_fr11_26,fr11_s3).
body(r_fr11_26,fr22_p2).
body(r_fr11_26,fr23_y2).
head(r_fr11_27,fr23_y2).
body(r_fr11_27,fr20_b2).
body(r_fr11_27,fr11_a2).
body(r_fr11_27,fr11_b2).
body(r_fr11_27,fr13_z1).
body(r_fr11_27,fr20_z1).
body(r_fr11_27,fr11_t3).
body(r_fr11_27,fr13_z1).
body(r_fr11_27,fr11_u2).
body(r_fr11_27,fr11_v1).
body(r_fr11_27,fr23_y2).
body(r_fr11_27,fr11_x1).
head(r_fr11_28,fr4_x2).
body(r_fr11_28,fr14_d2).
body(r_fr11_28,fr11_p1).
body(r_fr11_28,fr23_y2).
body(r_fr11_28,fr11_q1).
body(r_fr11_28,fr6_p1).
body(r_fr11_28,fr11_s1).
body(r_fr11_28,fr11_s3).
body(r_fr11_28,fr23_y2).
body(r_fr11_28,fr23_y2).
body(r_fr11_28,fr1_z3).
body(r_fr11_28,fr11_y1).
body(r_fr11_28,fr11_y2).
head(r_fr11_29,fr4_x2).
body(r_fr11_29,fr11_p3).
body(r_fr11_29,fr23_y2).
body(r_fr11_29,fr11_q4).
body(r_fr11_29,fr6_p1).
body(r_fr11_29,fr11_s3).
body(r_fr11_29,fr11_t3).
body(r_fr11_29,fr11_y1).
body(r_fr11_29,fr11_y2).
body(r_fr11_29,fr22_p2).
head(r_fr11_30,fr11_x1).
body(r_fr11_30,fr13_f2).
body(r_fr11_30,fr14_d2).
body(r_fr11_30,fr18_f1).
body(r_fr11_30,fr23_y2).
body(r_fr11_30,fr24_t4).
body(r_fr11_30,fr23_y2).
body(r_fr11_30,fr15_y1).
body(r_fr11_30,fr11_z1).
body(r_fr11_30,fr2_q2).
head(r_fr11_31,fr11_x1).
body(r_fr11_31,fr20_b2).
body(r_fr11_31,fr11_a2).
body(r_fr11_31,fr11_b1).
body(r_fr11_31,fr14_d2).
body(r_fr11_31,fr14_c1).
body(r_fr11_31,fr24_t4).
body(r_fr11_31,fr6_p1).
body(r_fr11_31,fr20_x2).
body(r_fr11_31,fr11_v1).
body(r_fr11_31,fr11_w2).
body(r_fr11_31,fr4_x2).
body(r_fr11_31,fr2_q2).
head(r_fr11_32,fr11_x1).
body(r_fr11_32,fr11_q1).
body(r_fr11_32,fr11_q4).
body(r_fr11_32,fr11_s1).
body(r_fr11_32,fr11_s2).
body(r_fr11_32,fr23_y2).
body(r_fr11_32,fr1_z3).
body(r_fr11_32,fr11_y1).
body(r_fr11_32,fr11_y2).
body(r_fr11_32,fr15_y1).
body(r_fr11_32,fr11_z1).
head(r_fr11_33,fr11_x1).
body(r_fr11_33,fr20_b2).
body(r_fr11_33,fr14_c1).
body(r_fr11_33,fr11_p1).
body(r_fr11_33,fr11_q1).
body(r_fr11_33,fr23_y2).
body(r_fr11_33,fr6_p1).
body(r_fr11_33,fr11_s1).
body(r_fr11_33,fr11_t3).
body(r_fr11_33,fr23_y2).
body(r_fr11_33,fr23_y2).
body(r_fr11_33,fr4_x2).
body(r_fr11_33,fr22_p2).
head(r_fr11_34,fr11_r2).
body(r_fr11_34,fr11_f1).
body(r_fr11_34,fr24_t4).
body(r_fr11_34,fr6_p1).
body(r_fr11_34,fr11_s2).
body(r_fr11_34,fr13_z1).
body(r_fr11_34,fr11_u2).
body(r_fr11_34,fr23_y2).
body(r_fr11_34,fr23_y2).
body(r_fr11_34,fr11_x1).
body(r_fr11_34,fr11_z1).
head(r_fr11_35,fr11_r2).
body(r_fr11_35,fr20_b2).
body(r_fr11_35,fr13_f2).
body(r_fr11_35,fr11_b3).
body(r_fr11_35,fr11_e1).
body(r_fr11_35,fr13_z1).
body(r_fr11_35,fr6_p1).
body(r_fr11_35,fr23_y2).
body(r_fr11_35,fr11_v1).
body(r_fr11_35,fr11_v2).
body(r_fr11_35,fr11_y2).
body(r_fr11_35,fr11_z1).
body(r_fr11_35,fr22_p2).
head(r_fr11_36,fr11_r2).
body(r_fr11_36,fr11_a2).
body(r_fr11_36,fr13_f2).
body(r_fr11_36,fr11_b1).
body(r_fr11_36,fr11_b2).
body(r_fr11_36,fr11_e1).
body(r_fr11_36,fr11_f1).
body(r_fr11_36,fr11_q4).
body(r_fr11_36,fr11_t3).
body(r_fr11_36,fr4_x2).
head(r_fr11_37,fr11_r2).
body(r_fr11_37,fr11_a2).
body(r_fr11_37,fr11_e2).
body(r_fr11_37,fr23_y2).
body(r_fr11_37,fr24_t4).
body(r_fr11_37,fr11_s1).
body(r_fr11_37,fr11_u2).
body(r_fr11_37,fr23_y2).
body(r_fr11_37,fr22_p2).
body(r_fr11_37,fr23_y2).
body(r_fr11_37,fr4_x2).
body(r_fr11_37,fr11_y1).
body(r_fr11_37,fr11_z1).
head(r_fr11_38,fr11_r2).
body(r_fr11_38,fr20_b2).
body(r_fr11_38,fr11_f1).
body(r_fr11_38,fr24_t4).
body(r_fr11_38,fr20_z1).
body(r_fr11_38,fr20_x2).
body(r_fr11_38,fr11_t3).
body(r_fr11_38,fr13_z1).
body(r_fr11_38,fr11_v1).
body(r_fr11_38,fr11_v2).
body(r_fr11_38,fr4_x2).
head(r_fr11_39,fr15_y1).
body(r_fr11_39,fr11_p3).
body(r_fr11_39,fr11_q1).
body(r_fr11_39,fr13_z1).
body(r_fr11_39,fr24_t4).
body(r_fr11_39,fr11_s2).
body(r_fr11_39,fr20_x2).
body(r_fr11_39,fr11_t3).
body(r_fr11_39,fr22_p2).
body(r_fr11_39,fr11_w2).
body(r_fr11_39,fr23_y2).
body(r_fr11_39,fr11_z1).
head(r_fr11_40,fr15_y1).
body(r_fr11_40,fr11_c2).
body(r_fr11_40,fr11_e1).
body(r_fr11_40,fr11_e2).
body(r_fr11_40,fr23_y2).
body(r_fr11_40,fr11_q4).
body(r_fr11_40,fr20_z1).
body(r_fr11_40,fr23_y2).
body(r_fr11_40,fr11_v1).
body(r_fr11_40,fr23_y2).
body(r_fr11_40,fr22_p2).
body(r_fr11_40,fr11_y1).
head(r_fr11_41,fr15_y1).
body(r_fr11_41,fr20_b2).
body(r_fr11_41,fr11_b2).
body(r_fr11_41,fr11_c1).
body(r_fr11_41,fr14_d2).
body(r_fr11_41,fr13_f2).
body(r_fr11_41,fr11_f1).
body(r_fr11_41,fr11_v2).
body(r_fr11_41,fr4_x2).
body(r_fr11_41,fr22_p2).
body(r_fr11_41,fr2_q2).
head(r_fr11_42,fr15_y1).
body(r_fr11_42,fr11_a2).
body(r_fr11_42,fr11_c1).
body(r_fr11_42,fr14_c1).
body(r_fr11_42,fr11_s3).
body(r_fr11_42,fr11_v1).
body(r_fr11_42,fr11_w2).
body(r_fr11_42,fr23_y2).
body(r_fr11_42,fr11_y1).
body(r_fr11_42,fr22_p2).
head(r_fr11_43,fr15_y1).
body(r_fr11_43,fr20_b2).
body(r_fr11_43,fr11_c1).
body(r_fr11_43,fr11_e2).
body(r_fr11_43,fr23_y2).
body(r_fr11_43,fr23_y2).
body(r_fr11_43,fr11_q4).
body(r_fr11_43,fr20_x2).
body(r_fr11_43,fr1_z3).
body(r_fr11_43,fr11_y1).
body(r_fr11_43,fr11_y2).
body(r_fr11_43,fr11_z1).
head(r_fr11_44,fr11_t3).
body(r_fr11_44,fr20_b2).
body(r_fr11_44,fr23_y2).
body(r_fr11_44,fr11_p3).
body(r_fr11_44,fr13_z1).
body(r_fr11_44,fr11_s3).
body(r_fr11_44,fr13_z1).
body(r_fr11_44,fr11_u2).
body(r_fr11_44,fr23_y2).
body(r_fr11_44,fr4_x2).
body(r_fr11_44,fr15_y1).
head(r_fr11_45,fr11_t3).
body(r_fr11_45,fr20_b2).
body(r_fr11_45,fr11_b3).
body(r_fr11_45,fr13_f2).
body(r_fr11_45,fr11_e1).
body(r_fr11_45,fr11_e2).
body(r_fr11_45,fr18_f1).
body(r_fr11_45,fr11_q4).
body(r_fr11_45,fr11_u2).
body(r_fr11_45,fr11_v1).
body(r_fr11_45,fr23_y2).
body(r_fr11_45,fr11_y1).
body(r_fr11_45,fr2_q2).
head(r_fr11_46,fr11_t3).
body(r_fr11_46,fr13_f2).
body(r_fr11_46,fr14_d2).
body(r_fr11_46,fr23_y2).
body(r_fr11_46,fr11_p3).
body(r_fr11_46,fr11_s2).
body(r_fr11_46,fr11_s3).
body(r_fr11_46,fr20_x2).
body(r_fr11_46,fr23_y2).
body(r_fr11_46,fr1_z3).
body(r_fr11_46,fr11_z1).
head(r_fr11_47,fr13_z1).
body(r_fr11_47,fr13_f2).
body(r_fr11_47,fr11_c1).
body(r_fr11_47,fr14_d2).
body(r_fr11_47,fr13_f2).
body(r_fr11_47,fr11_s1).
body(r_fr11_47,fr13_z1).
body(r_fr11_47,fr11_u2).
body(r_fr11_47,fr11_w2).
body(r_fr11_47,fr11_x1).
body(r_fr11_47,fr15_y1).
body(r_fr11_47,fr11_z1).
head(r_fr11_48,fr13_z1).
body(r_fr11_48,fr11_p3).
body(r_fr11_48,fr11_q1).
body(r_fr11_48,fr6_p1).
body(r_fr11_48,fr11_s2).
body(r_fr11_48,fr20_z1).
body(r_fr11_48,fr11_u2).
body(r_fr11_48,fr23_y2).
body(r_fr11_48,fr4_x2).
body(r_fr11_48,fr11_y2).
head(r_fr11_49,fr13_z1).
body(r_fr11_49,fr23_y2).
body(r_fr11_49,fr24_t4).
body(r_fr11_49,fr11_s2).
body(r_fr11_49,fr11_u2).
body(r_fr11_49,fr11_v2).
body(r_fr11_49,fr4_x2).
body(r_fr11_49,fr15_y1).
body(r_fr11_49,fr11_z1).
body(r_fr11_49,fr2_q2).
head(r_fr11_50,fr11_s3).
body(r_fr11_50,fr11_p1).
body(r_fr11_50,fr13_z1).
body(r_fr11_50,fr11_q4).
body(r_fr11_50,fr11_r2).
body(r_fr11_50,fr11_s2).
body(r_fr11_50,fr20_z1).
body(r_fr11_50,fr11_w2).
body(r_fr11_50,fr1_z3).
body(r_fr11_50,fr11_y1).
body(r_fr11_50,fr11_y2).
body(r_fr11_50,fr22_p2).
body(r_fr11_50,fr2_q2).
head(r_fr11_51,fr11_s3).
body(r_fr11_51,fr11_b1).
body(r_fr11_51,fr11_b2).
body(r_fr11_51,fr11_c1).
body(r_fr11_51,fr11_c2).
body(r_fr11_51,fr13_f2).
body(r_fr11_51,fr18_f1).
body(r_fr11_51,fr11_p1).
body(r_fr11_51,fr13_z1).
body(r_fr11_51,fr24_t4).
body(r_fr11_51,fr11_s1).
body(r_fr11_51,fr13_z1).
body(r_fr11_51,fr23_y2).
head(r_fr11_52,fr13_z1).
body(r_fr11_52,fr11_f1).
body(r_fr11_52,fr11_p1).
body(r_fr11_52,fr23_y2).
body(r_fr11_52,fr11_q1).
body(r_fr11_52,fr13_z1).
body(r_fr11_52,fr23_y2).
body(r_fr11_52,fr11_s1).
body(r_fr11_52,fr23_y2).
body(r_fr11_52,fr1_z3).
body(r_fr11_52,fr11_y2).
head(r_fr11_53,fr13_z1).
body(r_fr11_53,fr11_f1).
body(r_fr11_53,fr23_y2).
body(r_fr11_53,fr23_y2).
body(r_fr11_53,fr11_q4).
body(r_fr11_53,fr11_r2).
body(r_fr11_53,fr20_z1).
body(r_fr11_53,fr11_t3).
body(r_fr11_53,fr23_y2).
body(r_fr11_53,fr11_w2).
body(r_fr11_53,fr11_y1).
body(r_fr11_53,fr11_y2).
body(r_fr11_53,fr22_p2).
head(r_fr11_54,fr13_z1).
body(r_fr11_54,fr13_f2).
body(r_fr11_54,fr11_p1).
body(r_fr11_54,fr23_y2).
body(r_fr11_54,fr13_z1).
body(r_fr11_54,fr11_s3).
body(r_fr11_54,fr11_t3).
body(r_fr11_54,fr11_w2).
body(r_fr11_54,fr11_x1).
body(r_fr11_54,fr11_y1).
head(r_fr11_55,fr11_p1).
body(r_fr11_55,fr11_e2).
body(r_fr11_55,fr18_f1).
body(r_fr11_55,fr11_p3).
body(r_fr11_55,fr23_y2).
body(r_fr11_55,fr11_q4).
body(r_fr11_55,fr11_r2).
body(r_fr11_55,fr11_v1).
body(r_fr11_55,fr11_v2).
body(r_fr11_55,fr22_p2).
body(r_fr11_55,fr11_x1).
body(r_fr11_55,fr11_y2).
head(r_fr11_56,fr11_p1).
body(r_fr11_56,fr11_a2).
body(r_fr11_56,fr11_b3).
body(r_fr11_56,fr11_c2).
body(r_fr11_56,fr14_d2).
body(r_fr11_56,fr14_c1).
body(r_fr11_56,fr24_t4).
body(r_fr11_56,fr11_s2).
body(r_fr11_56,fr22_p2).
body(r_fr11_56,fr11_x1).
body(r_fr11_56,fr11_z1).
body(r_fr11_56,fr2_q2).
head(r_fr11_57,fr11_v1).
body(r_fr11_57,fr11_b3).
body(r_fr11_57,fr11_c1).
body(r_fr11_57,fr11_c2).
body(r_fr11_57,fr11_e1).
body(r_fr11_57,fr11_p1).
body(r_fr11_57,fr23_y2).
body(r_fr11_57,fr11_q1).
body(r_fr11_57,fr13_z1).
body(r_fr11_57,fr11_r2).
body(r_fr11_57,fr11_s2).
body(r_fr11_57,fr20_z1).
body(r_fr11_57,fr15_y1).
head(r_fr11_58,fr11_v1).
body(r_fr11_58,fr13_f2).
body(r_fr11_58,fr11_b3).
body(r_fr11_58,fr11_c1).
body(r_fr11_58,fr14_d2).
body(r_fr11_58,fr11_e2).
body(r_fr11_58,fr6_p1).
body(r_fr11_58,fr11_s1).
body(r_fr11_58,fr23_y2).
body(r_fr11_58,fr1_z3).
body(r_fr11_58,fr15_y1).
head(r_fr11_59,fr11_v1).
body(r_fr11_59,fr13_f2).
body(r_fr11_59,fr11_b2).
body(r_fr11_59,fr11_b3).
body(r_fr11_59,fr14_d2).
body(r_fr11_59,fr11_f1).
body(r_fr11_59,fr18_f1).
body(r_fr11_59,fr23_y2).
body(r_fr11_59,fr20_z1).
body(r_fr11_59,fr22_p2).
head(r_fr11_60,fr11_v1).
body(r_fr11_60,fr13_f2).
body(r_fr11_60,fr11_b1).
body(r_fr11_60,fr11_c1).
body(r_fr11_60,fr14_d2).
body(r_fr11_60,fr11_e1).
body(r_fr11_60,fr11_f1).
body(r_fr11_60,fr6_p1).
body(r_fr11_60,fr11_t3).
body(r_fr11_60,fr1_z3).
body(r_fr11_60,fr11_y1).
head(r_fr11_61,fr11_v1).
body(r_fr11_61,fr11_e2).
body(r_fr11_61,fr23_y2).
body(r_fr11_61,fr11_q1).
body(r_fr11_61,fr13_z1).
body(r_fr11_61,fr23_y2).
body(r_fr11_61,fr11_s2).
body(r_fr11_61,fr20_x2).
body(r_fr11_61,fr23_y2).
body(r_fr11_61,fr4_x2).
body(r_fr11_61,fr11_z1).
head(r_fr11_62,fr11_y1).
body(r_fr11_62,fr20_b2).
body(r_fr11_62,fr11_b3).
body(r_fr11_62,fr14_d2).
body(r_fr11_62,fr11_e1).
body(r_fr11_62,fr11_r2).
body(r_fr11_62,fr6_p1).
body(r_fr11_62,fr11_v1).
body(r_fr11_62,fr22_p2).
body(r_fr11_62,fr11_w2).
body(r_fr11_62,fr23_y2).
body(r_fr11_62,fr4_x2).
body(r_fr11_62,fr22_p2).
head(r_fr11_63,fr11_y1).
body(r_fr11_63,fr20_b2).
body(r_fr11_63,fr11_a2).
body(r_fr11_63,fr13_f2).
body(r_fr11_63,fr11_b1).
body(r_fr11_63,fr11_b3).
body(r_fr11_63,fr13_f2).
body(r_fr11_63,fr11_p3).
body(r_fr11_63,fr11_r2).
body(r_fr11_63,fr22_p2).
head(r_fr11_64,fr11_y1).
body(r_fr11_64,fr11_c2).
body(r_fr11_64,fr11_f1).
body(r_fr11_64,fr23_y2).
body(r_fr11_64,fr13_z1).
body(r_fr11_64,fr6_p1).
body(r_fr11_64,fr11_s2).
body(r_fr11_64,fr11_s3).
body(r_fr11_64,fr11_u2).
body(r_fr11_64,fr23_y2).
body(r_fr11_64,fr11_v1).
body(r_fr11_64,fr4_x2).

assumption(fr25_f2).
assumption(fr12_b1).
assumption(fr25_a3).
assumption(fr12_d1).
assumption(fr20_b2).
assumption(fr13_f1).
assumption(fr12_a2).
assumption(fr12_b2).
assumption(fr12_c2).
assumption(fr14_d2).
assumption(fr12_e2).
assumption(fr13_f2).
assumption(fr12_a3).
assumption(fr9_b4).
assumption(fr13_f2).
contrary(fr25_f2,fr12_p2).
contrary(fr12_a2,fr12_c2).
contrary(fr12_a3,fr25_f2).
contrary(fr12_b1,fr13_f2).
contrary(fr12_b2,fr12_a3).
contrary(fr9_b4,fr12_a3).
contrary(fr25_a3,fr12_q2).
contrary(fr12_c2,fr12_q2).
contrary(fr13_f2,fr9_t5).
contrary(fr12_d1,fr12_p3).
contrary(fr14_d2,fr13_v2).
contrary(fr20_b2,fr14_d2).
contrary(fr12_e2,fr2_q2).
contrary(fr13_f1,fr12_t3).
contrary(fr13_f2,fr12_e2).
head(r_fr12_0,fr19_y1).
body(r_fr12_0,fr20_b2).
body(r_fr12_0,fr13_f2).
body(r_fr12_0,fr12_p3).
body(r_fr12_0,fr23_y2).
body(r_fr12_0,fr11_t3).
body(r_fr12_0,fr13_z1).
body(r_fr12_0,fr12_t3).
body(r_fr12_0,fr12_u2).
body(r_fr12_0,fr23_y2).
body(r_fr12_0,fr12_w2).
body(r_fr12_0,fr2_q2).
body(r_fr12_0,fr12_x1).
body(r_fr12_0,fr9_t5).
head(r_fr12_1,fr19_y1).
body(r_fr12_1,fr25_f2).
body(r_fr12_1,fr13_f2).
body(r_fr12_1,fr13_z1).
body(r_fr12_1,fr12_p2).
body(r_fr12_1,fr12_q1).
body(r_fr12_1,fr12_q2).
body(r_fr12_1,fr12_q3).
body(r_fr12_1,fr13_v2).
body(r_fr12_1,fr13_z1).
body(r_fr12_1,fr12_t1).
body(r_fr12_1,fr12_v1).
body(r_fr12_1,fr12_x1).
body(r_fr12_1,fr2_q2).
body(r_fr12_1,fr12_z2).
head(r_fr12_2,fr19_y1).
body(r_fr12_2,fr12_a3).
body(r_fr12_2,fr12_c2).
body(r_fr12_2,fr14_d2).
body(r_fr12_2,fr12_q1).
body(r_fr12_2,fr12_q2).
body(r_fr12_2,fr4_s2).
body(r_fr12_2,fr12_t1).
body(r_fr12_2,fr20_v2).
body(r_fr12_2,fr12_u2).
body(r_fr12_2,fr23_y2).
body(r_fr12_2,fr12_x3).
body(r_fr12_2,fr12_z2).
body(r_fr12_2,fr12_z3).
head(r_fr12_3,fr23_y2).
body(r_fr12_3,fr20_b2).
body(r_fr12_3,fr12_p2).
body(r_fr12_3,fr12_p4).
body(r_fr12_3,fr12_q1).
body(r_fr12_3,fr12_q2).
body(r_fr12_3,fr12_q3).
body(r_fr12_3,fr13_v2).
body(r_fr12_3,fr4_s2).
body(r_fr12_3,fr12_t3).
body(r_fr12_3,fr12_u3).
body(r_fr12_3,fr23_y2).
body(r_fr12_3,fr12_w2).
body(r_fr12_3,fr12_x1).
body(r_fr12_3,fr9_t5).
body(r_fr12_3,fr2_q2).
head(r_fr12_4,fr23_y2).
body(r_fr12_4,fr12_b2).
body(r_fr12_4,fr13_z1).
body(r_fr12_4,fr12_p4).
body(r_fr12_4,fr12_q1).
body(r_fr12_4,fr4_s2).
body(r_fr12_4,fr25_z2).
body(r_fr12_4,fr12_w2).
body(r_fr12_4,fr12_x2).
body(r_fr12_4,fr12_x3).
body(r_fr12_4,fr9_t5).
body(r_fr12_4,fr2_q2).
body(r_fr12_4,fr12_z1).
body(r_fr12_4,fr12_z2).
body(r_fr12_4,fr12_z3).
head(r_fr12_5,fr23_y2).
body(r_fr12_5,fr12_a2).
body(r_fr12_5,fr12_q3).
body(r_fr12_5,fr11_t3).
body(r_fr12_5,fr12_t3).
body(r_fr12_5,fr20_v2).
body(r_fr12_5,fr12_u3).
body(r_fr12_5,fr12_v1).
body(r_fr12_5,fr12_w2).
body(r_fr12_5,fr12_x2).
body(r_fr12_5,fr12_x3).
body(r_fr12_5,fr2_q2).
body(r_fr12_5,fr12_z1).
body(r_fr12_5,fr12_z3).
head(r_fr12_6,fr23_y2).
body(r_fr12_6,fr12_q1).
body(r_fr12_6,fr12_q2).
body(r_fr12_6,fr12_q3).
body(r_fr12_6,fr4_s2).
body(r_fr12_6,fr12_s1).
body(r_fr12_6,fr12_t1).
body(r_fr12_6,fr25_s2).
body(r_fr12_6,fr20_v2).
body(r_fr12_6,fr12_v1).
body(r_fr12_6,fr23_y2).
body(r_fr12_6,fr12_x3).
body(r_fr12_6,fr9_t5).
head(r_fr12_7,fr23_y2).
body(r_fr12_7,fr12_b1).
body(r_fr12_7,fr25_a3).
body(r_fr12_7,fr13_f2).
body(r_fr12_7,fr12_e2).
body(r_fr12_7,fr13_f2).
body(r_fr12_7,fr12_q2).
body(r_fr12_7,fr23_y2).
body(r_fr12_7,fr13_v2).
body(r_fr12_7,fr4_s2).
body(r_fr12_7,fr12_u2).
body(r_fr12_7,fr12_x3).
body(r_fr12_7,fr9_t5).
body(r_fr12_7,fr2_q2).
head(r_fr12_8,fr12_q1).
body(r_fr12_8,fr25_f2).
body(r_fr12_8,fr12_b1).
body(r_fr12_8,fr12_b2).
body(r_fr12_8,fr25_a3).
body(r_fr12_8,fr13_f2).
body(r_fr12_8,fr12_q2).
body(r_fr12_8,fr12_q3).
body(r_fr12_8,fr13_v2).
body(r_fr12_8,fr4_s2).
body(r_fr12_8,fr11_t3).
body(r_fr12_8,fr12_u3).
body(r_fr12_8,fr12_w2).
head(r_fr12_9,fr12_q1).
body(r_fr12_9,fr12_b2).
body(r_fr12_9,fr13_f2).
body(r_fr12_9,fr20_b2).
body(r_fr12_9,fr13_f2).
body(r_fr12_9,fr12_p2).
body(r_fr12_9,fr12_q2).
body(r_fr12_9,fr12_s1).
body(r_fr12_9,fr12_v1).
body(r_fr12_9,fr23_y2).
body(r_fr12_9,fr12_x1).
body(r_fr12_9,fr12_z2).
body(r_fr12_9,fr12_z3).
head(r_fr12_10,fr12_q1).
body(r_fr12_10,fr12_b2).
body(r_fr12_10,fr13_f2).
body(r_fr12_10,fr20_b2).
body(r_fr12_10,fr13_f2).
body(r_fr12_10,fr23_y2).
body(r_fr12_10,fr4_s2).
body(r_fr12_10,fr13_z1).
body(r_fr12_10,fr25_s2).
body(r_fr12_10,fr12_t3).
body(r_fr12_10,fr12_u3).
body(r_fr12_10,fr12_v1).
body(r_fr12_10,fr12_x3).
body(r_fr12_10,fr2_q2).
body(r_fr12_10,fr12_z1).
body(r_fr12_10,fr12_z3).
head(r_fr12_11,fr12_v1).
body(r_fr12_11,fr12_a3).
body(r_fr12_11,fr9_b4).
body(r_fr12_11,fr25_a3).
body(r_fr12_11,fr12_c2).
body(r_fr12_11,fr14_d2).
body(r_fr12_11,fr20_b2).
body(r_fr12_11,fr12_p3).
body(r_fr12_11,fr12_q2).
body(r_fr12_11,fr23_y2).
body(r_fr12_11,fr13_v2).
body(r_fr12_11,fr4_s2).
body(r_fr12_11,fr12_s1).
body(r_fr12_11,fr25_s2).
body(r_fr12_11,fr25_z2).
body(r_fr12_11,fr9_t5).
head(r_fr12_12,fr12_v1).
body(r_fr12_12,fr25_f2).
body(r_fr12_12,fr12_a2).
body(r_fr12_12,fr12_a3).
body(r_fr12_12,fr9_b4).
body(r_fr12_12,fr12_c2).
body(r_fr12_12,fr14_d2).
body(r_fr12_12,fr13_v2).
body(r_fr12_12,fr12_t3).
body(r_fr12_12,fr12_u2).
body(r_fr12_12,fr12_x1).
body(r_fr12_12,fr12_x2).
body(r_fr12_12,fr12_x3).
head(r_fr12_13,fr12_u2).
body(r_fr12_13,fr25_f2).
body(r_fr12_13,fr12_b2).
body(r_fr12_13,fr12_p2).
body(r_fr12_13,fr12_q3).
body(r_fr12_13,fr23_y2).
body(r_fr12_13,fr12_t3).
body(r_fr12_13,fr12_u3).
body(r_fr12_13,fr12_w2).
body(r_fr12_13,fr12_x2).
body(r_fr12_13,fr2_q2).
body(r_fr12_13,fr2_q2).
body(r_fr12_13,fr12_z1).
body(r_fr12_13,fr12_z3).
head(r_fr12_14,fr12_u2).
body(r_fr12_14,fr12_p2).
body(r_fr12_14,fr12_p4).
body(r_fr12_14,fr12_q3).
body(r_fr12_14,fr23_y2).
body(r_fr12_14,fr11_t3).
body(r_fr12_14,fr25_s2).
body(r_fr12_14,fr20_v2).
body(r_fr12_14,fr23_y2).
body(r_fr12_14,fr25_z2).
body(r_fr12_14,fr2_q2).
body(r_fr12_14,fr12_z1).
body(r_fr12_14,fr12_z3).
head(r_fr12_15,fr25_s2).
body(r_fr12_15,fr9_b4).
body(r_fr12_15,fr12_c2).
body(r_fr12_15,fr20_b2).
body(r_fr12_15,fr12_p2).
body(r_fr12_15,fr12_q3).
body(r_fr12_15,fr13_v2).
body(r_fr12_15,fr4_s2).
body(r_fr12_15,fr20_v2).
body(r_fr12_15,fr23_y2).
body(r_fr12_15,fr25_z2).
body(r_fr12_15,fr12_w2).
body(r_fr12_15,fr12_x2).
body(r_fr12_15,fr12_x3).
body(r_fr12_15,fr9_t5).
body(r_fr12_15,fr12_z3).
head(r_fr12_16,fr25_s2).
body(r_fr12_16,fr13_z1).
body(r_fr12_16,fr12_p2).
body(r_fr12_16,fr12_q2).
body(r_fr12_16,fr23_y2).
body(r_fr12_16,fr13_v2).
body(r_fr12_16,fr11_t3).
body(r_fr12_16,fr13_z1).
body(r_fr12_16,fr12_t3).
body(r_fr12_16,fr12_u3).
body(r_fr12_16,fr23_y2).
body(r_fr12_16,fr12_w2).
body(r_fr12_16,fr2_q2).
body(r_fr12_16,fr12_x2).
body(r_fr12_16,fr12_x3).
head(r_fr12_17,fr2_q2).
body(r_fr12_17,fr12_a2).
body(r_fr12_17,fr12_p3).
body(r_fr12_17,fr12_p4).
body(r_fr12_17,fr12_q2).
body(r_fr12_17,fr12_q3).
body(r_fr12_17,fr23_y2).
body(r_fr12_17,fr13_v2).
body(r_fr12_17,fr4_s2).
body(r_fr12_17,fr12_s1).
body(r_fr12_17,fr11_t3).
body(r_fr12_17,fr25_z2).
body(r_fr12_17,fr12_x3).
body(r_fr12_17,fr2_q2).
body(r_fr12_17,fr12_z1).
body(r_fr12_17,fr12_z2).
head(r_fr12_18,fr2_q2).
body(r_fr12_18,fr20_b2).
body(r_fr12_18,fr13_z1).
body(r_fr12_18,fr12_p4).
body(r_fr12_18,fr12_q3).
body(r_fr12_18,fr13_v2).
body(r_fr12_18,fr4_s2).
body(r_fr12_18,fr13_z1).
body(r_fr12_18,fr20_v2).
body(r_fr12_18,fr12_x1).
body(r_fr12_18,fr12_x2).
body(r_fr12_18,fr9_t5).
body(r_fr12_18,fr2_q2).
body(r_fr12_18,fr12_z2).
head(r_fr12_19,fr2_q2).
body(r_fr12_19,fr13_z1).
body(r_fr12_19,fr12_p2).
body(r_fr12_19,fr12_p3).
body(r_fr12_19,fr12_p4).
body(r_fr12_19,fr12_q3).
body(r_fr12_19,fr23_y2).
body(r_fr12_19,fr12_t1).
body(r_fr12_19,fr12_u3).
body(r_fr12_19,fr23_y2).
body(r_fr12_19,fr2_q2).
body(r_fr12_19,fr12_x1).
body(r_fr12_19,fr2_q2).
body(r_fr12_19,fr12_z3).
head(r_fr12_20,fr2_q2).
body(r_fr12_20,fr13_f2).
body(r_fr12_20,fr13_f1).
body(r_fr12_20,fr13_z1).
body(r_fr12_20,fr12_p2).
body(r_fr12_20,fr12_q3).
body(r_fr12_20,fr13_v2).
body(r_fr12_20,fr12_s1).
body(r_fr12_20,fr20_v2).
body(r_fr12_20,fr25_z2).
body(r_fr12_20,fr9_t5).
body(r_fr12_20,fr12_z2).
body(r_fr12_20,fr12_z3).
head(r_fr12_21,fr12_p2).
body(r_fr12_21,fr25_f2).
body(r_fr12_21,fr12_a2).
body(r_fr12_21,fr12_a3).
body(r_fr12_21,fr12_b1).
body(r_fr12_21,fr9_b4).
body(r_fr12_21,fr20_b2).
body(r_fr12_21,fr12_p3).
body(r_fr12_21,fr12_p4).
body(r_fr12_21,fr12_q2).
body(r_fr12_21,fr23_y2).
body(r_fr12_21,fr20_v2).
body(r_fr12_21,fr12_w2).
body(r_fr12_21,fr12_x1).
body(r_fr12_21,fr2_q2).
head(r_fr12_22,fr12_p2).
body(r_fr12_22,fr25_f2).
body(r_fr12_22,fr12_b1).
body(r_fr12_22,fr12_b2).
body(r_fr12_22,fr9_b4).
body(r_fr12_22,fr13_f2).
body(r_fr12_22,fr12_e2).
body(r_fr12_22,fr12_p3).
body(r_fr12_22,fr12_q3).
body(r_fr12_22,fr23_y2).
body(r_fr12_22,fr12_t3).
body(r_fr12_22,fr20_v2).
body(r_fr12_22,fr12_x3).
body(r_fr12_22,fr12_z2).
head(r_fr12_23,fr12_p2).
body(r_fr12_23,fr12_a3).
body(r_fr12_23,fr12_b1).
body(r_fr12_23,fr9_b4).
body(r_fr12_23,fr12_d1).
body(r_fr12_23,fr20_b2).
body(r_fr12_23,fr13_z1).
body(r_fr12_23,fr12_p4).
body(r_fr12_23,fr12_q3).
body(r_fr12_23,fr13_v2).
body(r_fr12_23,fr23_y2).
body(r_fr12_23,fr2_q2).
body(r_fr12_23,fr12_x3).
body(r_fr12_23,fr9_t5).
head(r_fr12_24,fr12_p2).
body(r_fr12_24,fr12_a2).
body(r_fr12_24,fr12_a3).
body(r_fr12_24,fr9_b4).
body(r_fr12_24,fr12_d1).
body(r_fr12_24,fr13_z1).
body(r_fr12_24,fr12_p4).
body(r_fr12_24,fr12_q2).
body(r_fr12_24,fr12_q3).
body(r_fr12_24,fr12_s1).
body(r_fr12_24,fr12_t1).
body(r_fr12_24,fr12_w2).
body(r_fr12_24,fr12_x2).
body(r_fr12_24,fr9_t5).
body(r_fr12_24,fr2_q2).
head(r_fr12_25,fr12_p2).
body(r_fr12_25,fr12_b2).
body(r_fr12_25,fr9_b4).
body(r_fr12_25,fr25_a3).
body(r_fr12_25,fr13_f2).
body(r_fr12_25,fr13_z1).
body(r_fr12_25,fr12_p3).
body(r_fr12_25,fr12_q2).
body(r_fr12_25,fr12_s1).
body(r_fr12_25,fr13_z1).
body(r_fr12_25,fr12_w2).
body(r_fr12_25,fr12_x2).
body(r_fr12_25,fr12_x3).
body(r_fr12_25,fr12_z1).
body(r_fr12_25,fr12_z3).
head(r_fr12_26,fr12_z3).
body(r_fr12_26,fr12_a3).
body(r_fr12_26,fr12_b2).
body(r_fr12_26,fr9_b4).
body(r_fr12_26,fr12_d1).
body(r_fr12_26,fr14_d2).
body(r_fr12_26,fr13_f2).
body(r_fr12_26,fr13_z1).
body(r_fr12_26,fr12_p3).
body(r_fr12_26,fr12_t1).
body(r_fr12_26,fr12_t3).
body(r_fr12_26,fr20_v2).
body(r_fr12_26,fr12_x1).
body(r_fr12_26,fr9_t5).
head(r_fr12_27,fr12_z3).
body(r_fr12_27,fr13_z1).
body(r_fr12_27,fr12_q2).
body(r_fr12_27,fr23_y2).
body(r_fr12_27,fr13_v2).
body(r_fr12_27,fr12_s1).
body(r_fr12_27,fr11_t3).
body(r_fr12_27,fr12_t3).
body(r_fr12_27,fr23_y2).
body(r_fr12_27,fr25_z2).
body(r_fr12_27,fr12_x1).
body(r_fr12_27,fr12_x2).
body(r_fr12_27,fr2_q2).
head(r_fr12_28,fr12_z3).
body(r_fr12_28,fr12_a2).
body(r_fr12_28,fr12_a3).
body(r_fr12_28,fr12_b2).
body(r_fr12_28,fr14_d2).
body(r_fr12_28,fr20_b2).
body(r_fr12_28,fr12_p3).
body(r_fr12_28,fr12_q3).
body(r_fr12_28,fr23_y2).
body(r_fr12_28,fr12_w2).
body(r_fr12_28,fr2_q2).
body(r_fr12_28,fr12_x2).
body(r_fr12_28,fr12_x3).
body(r_fr12_28,fr2_q2).
body(r_fr12_28,fr12_z2).
head(r_fr12_29,fr12_z3).
body(r_fr12_29,fr13_f1).
body(r_fr12_29,fr13_z1).
body(r_fr12_29,fr12_p3).
body(r_fr12_29,fr23_y2).
body(r_fr12_29,fr4_s2).
body(r_fr12_29,fr11_t3).
body(r_fr12_29,fr13_z1).
body(r_fr12_29,fr12_t1).
body(r_fr12_29,fr20_v2).
body(r_fr12_29,fr23_y2).
body(r_fr12_29,fr12_w2).
body(r_fr12_29,fr2_q2).
body(r_fr12_29,fr12_x3).
body(r_fr12_29,fr9_t5).
body(r_fr12_29,fr12_z1).
head(r_fr12_30,fr12_p3).
body(r_fr12_30,fr25_f2).
body(r_fr12_30,fr12_b2).
body(r_fr12_30,fr9_b4).
body(r_fr12_30,fr13_f2).
body(r_fr12_30,fr13_f1).
body(r_fr12_30,fr13_z1).
body(r_fr12_30,fr12_p4).
body(r_fr12_30,fr12_q2).
body(r_fr12_30,fr23_y2).
body(r_fr12_30,fr4_s2).
body(r_fr12_30,fr13_z1).
body(r_fr12_30,fr12_t3).
body(r_fr12_30,fr23_y2).
body(r_fr12_30,fr12_w2).
body(r_fr12_30,fr2_q2).
head(r_fr12_31,fr12_p3).
body(r_fr12_31,fr13_z1).
body(r_fr12_31,fr12_p4).
body(r_fr12_31,fr12_q3).
body(r_fr12_31,fr23_y2).
body(r_fr12_31,fr4_s2).
body(r_fr12_31,fr13_z1).
body(r_fr12_31,fr12_t3).
body(r_fr12_31,fr20_v2).
body(r_fr12_31,fr23_y2).
body(r_fr12_31,fr25_z2).
body(r_fr12_31,fr12_w2).
body(r_fr12_31,fr12_x1).
body(r_fr12_31,fr12_x2).
body(r_fr12_31,fr2_q2).
body(r_fr12_31,fr12_z2).
head(r_fr12_32,fr12_p3).
body(r_fr12_32,fr12_a3).
body(r_fr12_32,fr12_b2).
body(r_fr12_32,fr25_a3).
body(r_fr12_32,fr13_f2).
body(r_fr12_32,fr12_d1).
body(r_fr12_32,fr14_d2).
body(r_fr12_32,fr12_q2).
body(r_fr12_32,fr12_t3).
body(r_fr12_32,fr20_v2).
body(r_fr12_32,fr12_u3).
body(r_fr12_32,fr12_x3).
body(r_fr12_32,fr12_z1).
head(r_fr12_33,fr9_t5).
body(r_fr12_33,fr12_b1).
body(r_fr12_33,fr12_p4).
body(r_fr12_33,fr12_q3).
body(r_fr12_33,fr23_y2).
body(r_fr12_33,fr13_v2).
body(r_fr12_33,fr4_s2).
body(r_fr12_33,fr13_z1).
body(r_fr12_33,fr12_t3).
body(r_fr12_33,fr12_u3).
body(r_fr12_33,fr23_y2).
body(r_fr12_33,fr12_x2).
body(r_fr12_33,fr12_z2).
head(r_fr12_34,fr9_t5).
body(r_fr12_34,fr25_f2).
body(r_fr12_34,fr12_a3).
body(r_fr12_34,fr12_b1).
body(r_fr12_34,fr12_c2).
body(r_fr12_34,fr12_d1).
body(r_fr12_34,fr13_z1).
body(r_fr12_34,fr12_s1).
body(r_fr12_34,fr11_t3).
body(r_fr12_34,fr12_t1).
body(r_fr12_34,fr23_y2).
body(r_fr12_34,fr25_z2).
body(r_fr12_34,fr2_q2).
body(r_fr12_34,fr2_q2).
head(r_fr12_35,fr2_q2).
body(r_fr12_35,fr12_q3).
body(r_fr12_35,fr23_y2).
body(r_fr12_35,fr11_t3).
body(r_fr12_35,fr13_z1).
body(r_fr12_35,fr12_t3).
body(r_fr12_35,fr12_u3).
body(r_fr12_35,fr12_w2).
body(r_fr12_35,fr12_x1).
body(r_fr12_35,fr12_x2).
body(r_fr12_35,fr12_x3).
body(r_fr12_35,fr12_z1).
body(r_fr12_35,fr12_z2).
head(r_fr12_36,fr2_q2).
body(r_fr12_36,fr25_f2).
body(r_fr12_36,fr12_a2).
body(r_fr12_36,fr13_f1).
body(r_fr12_36,fr13_z1).
body(r_fr12_36,fr12_q3).
body(r_fr12_36,fr13_v2).
body(r_fr12_36,fr12_s1).
body(r_fr12_36,fr11_t3).
body(r_fr12_36,fr13_z1).
body(r_fr12_36,fr12_t3).
body(r_fr12_36,fr23_y2).
body(r_fr12_36,fr12_x1).
body(r_fr12_36,fr2_q2).
body(r_fr12_36,fr12_z2).
head(r_fr12_37,fr2_q2).
body(r_fr12_37,fr12_a3).
body(r_fr12_37,fr12_b2).
body(r_fr12_37,fr25_a3).
body(r_fr12_37,fr14_d2).
body(r_fr12_37,fr13_f2).
body(r_fr12_37,fr23_y2).
body(r_fr12_37,fr11_t3).
body(r_fr12_37,fr12_t1).
body(r_fr12_37,fr23_y2).
body(r_fr12_37,fr25_z2).
body(r_fr12_37,fr12_x1).
body(r_fr12_37,fr2_q2).
body(r_fr12_37,fr12_z1).
head(r_fr12_38,fr25_z2).
body(r_fr12_38,fr25_a3).
body(r_fr12_38,fr14_d2).
body(r_fr12_38,fr12_e2).
body(r_fr12_38,fr12_q3).
body(r_fr12_38,fr23_y2).
body(r_fr12_38,fr13_v2).
body(r_fr12_38,fr11_t3).
body(r_fr12_38,fr12_t1).
body(r_fr12_38,fr20_v2).
body(r_fr12_38,fr23_y2).
body(r_fr12_38,fr12_x1).
body(r_fr12_38,fr12_x3).
body(r_fr12_38,fr2_q2).
head(r_fr12_39,fr25_z2).
body(r_fr12_39,fr12_q2).
body(r_fr12_39,fr12_q3).
body(r_fr12_39,fr23_y2).
body(r_fr12_39,fr13_v2).
body(r_fr12_39,fr13_z1).
body(r_fr12_39,fr12_t3).
body(r_fr12_39,fr12_u3).
body(r_fr12_39,fr23_y2).
body(r_fr12_39,fr12_w2).
body(r_fr12_39,fr12_x1).
body(r_fr12_39,fr12_z1).
body(r_fr12_39,fr12_z2).
head(r_fr12_40,fr25_z2).
body(r_fr12_40,fr13_f1).
body(r_fr12_40,fr12_q2).
body(r_fr12_40,fr23_y2).
body(r_fr12_40,fr13_v2).
body(r_fr12_40,fr12_s1).
body(r_fr12_40,fr12_t1).
body(r_fr12_40,fr12_t3).
body(r_fr12_40,fr12_x1).
body(r_fr12_40,fr12_x2).
body(r_fr12_40,fr12_x3).
body(r_fr12_40,fr2_q2).
body(r_fr12_40,fr12_z2).
head(r_fr12_41,fr25_z2).
body(r_fr12_41,fr25_f2).
body(r_fr12_41,fr25_a3).
body(r_fr12_41,fr12_d1).
body(r_fr12_41,fr20_b2).
body(r_fr12_41,fr13_f1).
body(r_fr12_41,fr12_p4).
body(r_fr12_41,fr23_y2).
body(r_fr12_41,fr13_v2).
body(r_fr12_41,fr4_s2).
body(r_fr12_41,fr20_v2).
body(r_fr12_41,fr12_w2).
body(r_fr12_41,fr12_x1).
body(r_fr12_41,fr12_z2).
head(r_fr12_42,fr12_w2).
body(r_fr12_42,fr12_b1).
body(r_fr12_42,fr25_a3).
body(r_fr12_42,fr13_f1).
body(r_fr12_42,fr12_q2).
body(r_fr12_42,fr12_s1).
body(r_fr12_42,fr11_t3).
body(r_fr12_42,fr13_z1).
body(r_fr12_42,fr20_v2).
body(r_fr12_42,fr23_y2).
body(r_fr12_42,fr12_x1).
body(r_fr12_42,fr12_x2).
body(r_fr12_42,fr2_q2).
body(r_fr12_42,fr12_z2).
head(r_fr12_43,fr12_w2).
body(r_fr12_43,fr20_b2).
body(r_fr12_43,fr13_z1).
body(r_fr12_43,fr12_q3).
body(r_fr12_43,fr23_y2).
body(r_fr12_43,fr13_v2).
body(r_fr12_43,fr12_s1).
body(r_fr12_43,fr11_t3).
body(r_fr12_43,fr12_t1).
body(r_fr12_43,fr12_t3).
body(r_fr12_43,fr20_v2).
body(r_fr12_43,fr12_u3).
body(r_fr12_43,fr23_y2).
body(r_fr12_43,fr12_x2).
body(r_fr12_43,fr12_z2).
head(r_fr12_44,fr12_w2).
body(r_fr12_44,fr12_b1).
body(r_fr12_44,fr12_b2).
body(r_fr12_44,fr9_b4).
body(r_fr12_44,fr13_f2).
body(r_fr12_44,fr12_d1).
body(r_fr12_44,fr13_f1).
body(r_fr12_44,fr13_z1).
body(r_fr12_44,fr13_v2).
body(r_fr12_44,fr13_z1).
body(r_fr12_44,fr23_y2).
body(r_fr12_44,fr12_x1).
body(r_fr12_44,fr12_x2).
body(r_fr12_44,fr2_q2).
body(r_fr12_44,fr12_z1).
head(r_fr12_45,fr12_w2).
body(r_fr12_45,fr12_a2).
body(r_fr12_45,fr12_b1).
body(r_fr12_45,fr9_b4).
body(r_fr12_45,fr25_a3).
body(r_fr12_45,fr12_c2).
body(r_fr12_45,fr12_q3).
body(r_fr12_45,fr13_v2).
body(r_fr12_45,fr4_s2).
body(r_fr12_45,fr11_t3).
body(r_fr12_45,fr12_t3).
body(r_fr12_45,fr2_q2).
body(r_fr12_45,fr12_z1).
head(r_fr12_46,fr11_t3).
body(r_fr12_46,fr13_z1).
body(r_fr12_46,fr12_p4).
body(r_fr12_46,fr12_q2).
body(r_fr12_46,fr12_q3).
body(r_fr12_46,fr4_s2).
body(r_fr12_46,fr12_s1).
body(r_fr12_46,fr13_z1).
body(r_fr12_46,fr12_t3).
body(r_fr12_46,fr20_v2).
body(r_fr12_46,fr12_u3).
body(r_fr12_46,fr12_x1).
body(r_fr12_46,fr12_x2).
body(r_fr12_46,fr12_x3).
body(r_fr12_46,fr12_z2).
head(r_fr12_47,fr11_t3).
body(r_fr12_47,fr13_z1).
body(r_fr12_47,fr12_p4).
body(r_fr12_47,fr12_q3).
body(r_fr12_47,fr23_y2).
body(r_fr12_47,fr13_v2).
body(r_fr12_47,fr4_s2).
body(r_fr12_47,fr12_s1).
body(r_fr12_47,fr12_t1).
body(r_fr12_47,fr12_u3).
body(r_fr12_47,fr23_y2).
body(r_fr12_47,fr12_x1).
body(r_fr12_47,fr12_x2).
body(r_fr12_47,fr2_q2).
body(r_fr12_47,fr12_z1).
head(r_fr12_48,fr11_t3).
body(r_fr12_48,fr12_a3).
body(r_fr12_48,fr13_f2).
body(r_fr12_48,fr13_f1).
body(r_fr12_48,fr12_q3).
body(r_fr12_48,fr23_y2).
body(r_fr12_48,fr4_s2).
body(r_fr12_48,fr12_s1).
body(r_fr12_48,fr13_z1).
body(r_fr12_48,fr12_t3).
body(r_fr12_48,fr20_v2).
body(r_fr12_48,fr23_y2).
body(r_fr12_48,fr12_x2).
body(r_fr12_48,fr12_x3).
body(r_fr12_48,fr2_q2).
body(r_fr12_48,fr12_z2).
head(r_fr12_49,fr11_t3).
body(r_fr12_49,fr12_b2).
body(r_fr12_49,fr12_e2).
body(r_fr12_49,fr12_p4).
body(r_fr12_49,fr13_v2).
body(r_fr12_49,fr12_s1).
body(r_fr12_49,fr12_t1).
body(r_fr12_49,fr20_v2).
body(r_fr12_49,fr23_y2).
body(r_fr12_49,fr12_x1).
body(r_fr12_49,fr12_x2).
body(r_fr12_49,fr12_x3).
body(r_fr12_49,fr2_q2).
body(r_fr12_49,fr12_z1).
body(r_fr12_49,fr12_z2).
head(r_fr12_50,fr11_t3).
body(r_fr12_50,fr25_f2).
body(r_fr12_50,fr13_f2).
body(r_fr12_50,fr12_e2).
body(r_fr12_50,fr13_f1).
body(r_fr12_50,fr13_f2).
body(r_fr12_50,fr12_p4).
body(r_fr12_50,fr12_q2).
body(r_fr12_50,fr13_v2).
body(r_fr12_50,fr4_s2).
body(r_fr12_50,fr12_s1).
body(r_fr12_50,fr13_z1).
body(r_fr12_50,fr12_u3).
body(r_fr12_50,fr12_x1).
body(r_fr12_50,fr2_q2).
head(r_fr12_51,fr12_t1).
body(r_fr12_51,fr12_a2).
body(r_fr12_51,fr12_a3).
body(r_fr12_51,fr12_b1).
body(r_fr12_51,fr12_b2).
body(r_fr12_51,fr9_b4).
body(r_fr12_51,fr12_d1).
body(r_fr12_51,fr23_y2).
body(r_fr12_51,fr13_v2).
body(r_fr12_51,fr12_s1).
body(r_fr12_51,fr13_z1).
body(r_fr12_51,fr12_x2).
body(r_fr12_51,fr12_z2).
head(r_fr12_52,fr12_t1).
body(r_fr12_52,fr13_z1).
body(r_fr12_52,fr12_q2).
body(r_fr12_52,fr12_q3).
body(r_fr12_52,fr23_y2).
body(r_fr12_52,fr13_v2).
body(r_fr12_52,fr12_s1).
body(r_fr12_52,fr13_z1).
body(r_fr12_52,fr12_t3).
body(r_fr12_52,fr20_v2).
body(r_fr12_52,fr23_y2).
body(r_fr12_52,fr12_x3).
body(r_fr12_52,fr12_z1).
head(r_fr12_53,fr12_z1).
body(r_fr12_53,fr12_a2).
body(r_fr12_53,fr12_b1).
body(r_fr12_53,fr9_b4).
body(r_fr12_53,fr14_d2).
body(r_fr12_53,fr13_f1).
body(r_fr12_53,fr13_f2).
body(r_fr12_53,fr13_z1).
body(r_fr12_53,fr12_q2).
body(r_fr12_53,fr12_q3).
body(r_fr12_53,fr20_v2).
body(r_fr12_53,fr12_u3).
body(r_fr12_53,fr23_y2).
body(r_fr12_53,fr2_q2).
head(r_fr12_54,fr12_z1).
body(r_fr12_54,fr13_z1).
body(r_fr12_54,fr12_p4).
body(r_fr12_54,fr12_q3).
body(r_fr12_54,fr23_y2).
body(r_fr12_54,fr13_v2).
body(r_fr12_54,fr4_s2).
body(r_fr12_54,fr12_s1).
body(r_fr12_54,fr13_z1).
body(r_fr12_54,fr12_t3).
body(r_fr12_54,fr23_y2).
body(r_fr12_54,fr12_x1).
body(r_fr12_54,fr12_x2).
body(r_fr12_54,fr12_x3).
body(r_fr12_54,fr2_q2).
body(r_fr12_54,fr12_z2).
head(r_fr12_55,fr12_z1).
body(r_fr12_55,fr12_q2).
body(r_fr12_55,fr12_q3).
body(r_fr12_55,fr23_y2).
body(r_fr12_55,fr13_v2).
body(r_fr12_55,fr4_s2).
body(r_fr12_55,fr12_s1).
body(r_fr12_55,fr13_z1).
body(r_fr12_55,fr20_v2).
body(r_fr12_55,fr12_u3).
body(r_fr12_55,fr12_x2).
body(r_fr12_55,fr12_x3).
body(r_fr12_55,fr2_q2).
head(r_fr12_56,fr4_s2).
body(r_fr12_56,fr25_f2).
body(r_fr12_56,fr12_c2).
body(r_fr12_56,fr12_p4).
body(r_fr12_56,fr12_q2).
body(r_fr12_56,fr12_q3).
body(r_fr12_56,fr23_y2).
body(r_fr12_56,fr12_s1).
body(r_fr12_56,fr20_v2).
body(r_fr12_56,fr23_y2).
body(r_fr12_56,fr12_x1).
body(r_fr12_56,fr12_x2).
body(r_fr12_56,fr2_q2).
body(r_fr12_56,fr12_z2).
head(r_fr12_57,fr4_s2).
body(r_fr12_57,fr25_f2).
body(r_fr12_57,fr12_a3).
body(r_fr12_57,fr12_b1).
body(r_fr12_57,fr12_e2).
body(r_fr12_57,fr13_f1).
body(r_fr12_57,fr13_z1).
body(r_fr12_57,fr23_y2).
body(r_fr12_57,fr12_t3).
body(r_fr12_57,fr12_u3).
body(r_fr12_57,fr23_y2).
body(r_fr12_57,fr12_x2).
body(r_fr12_57,fr2_q2).
body(r_fr12_57,fr12_z2).
head(r_fr12_58,fr4_s2).
body(r_fr12_58,fr12_a3).
body(r_fr12_58,fr13_z1).
body(r_fr12_58,fr12_q2).
body(r_fr12_58,fr12_q3).
body(r_fr12_58,fr23_y2).
body(r_fr12_58,fr13_v2).
body(r_fr12_58,fr13_z1).
body(r_fr12_58,fr12_u3).
body(r_fr12_58,fr23_y2).
body(r_fr12_58,fr12_x1).
body(r_fr12_58,fr12_x2).
body(r_fr12_58,fr12_x3).
body(r_fr12_58,fr2_q2).
body(r_fr12_58,fr12_z2).
head(r_fr12_59,fr4_s2).
body(r_fr12_59,fr25_f2).
body(r_fr12_59,fr9_b4).
body(r_fr12_59,fr12_p4).
body(r_fr12_59,fr12_q2).
body(r_fr12_59,fr12_q3).
body(r_fr12_59,fr23_y2).
body(r_fr12_59,fr13_v2).
body(r_fr12_59,fr12_s1).
body(r_fr12_59,fr13_z1).
body(r_fr12_59,fr20_v2).
body(r_fr12_59,fr12_u3).
body(r_fr12_59,fr12_x2).
body(r_fr12_59,fr12_x3).
body(r_fr12_59,fr12_z2).
head(r_fr12_60,fr4_s2).
body(r_fr12_60,fr12_a3).
body(r_fr12_60,fr25_a3).
body(r_fr12_60,fr12_d1).
body(r_fr12_60,fr13_z1).
body(r_fr12_60,fr12_q2).
body(r_fr12_60,fr13_z1).
body(r_fr12_60,fr12_t3).
body(r_fr12_60,fr12_u3).
body(r_fr12_60,fr23_y2).
body(r_fr12_60,fr12_x1).
body(r_fr12_60,fr12_x2).
body(r_fr12_60,fr12_x3).
body(r_fr12_60,fr12_z2).
head(r_fr12_61,fr13_v2).
body(r_fr12_61,fr12_a2).
body(r_fr12_61,fr9_b4).
body(r_fr12_61,fr12_d1).
body(r_fr12_61,fr12_q2).
body(r_fr12_61,fr23_y2).
body(r_fr12_61,fr12_s1).
body(r_fr12_61,fr12_t3).
body(r_fr12_61,fr20_v2).
body(r_fr12_61,fr12_u3).
body(r_fr12_61,fr23_y2).
body(r_fr12_61,fr12_x1).
body(r_fr12_61,fr12_x2).
body(r_fr12_61,fr12_x3).
body(r_fr12_61,fr2_q2).
body(r_fr12_61,fr12_z2).
head(r_fr12_62,fr13_v2).
body(r_fr12_62,fr12_a2).
body(r_fr12_62,fr20_b2).
body(r_fr12_62,fr13_f2).
body(r_fr12_62,fr13_z1).
body(r_fr12_62,fr12_p4).
body(r_fr12_62,fr12_q3).
body(r_fr12_62,fr23_y2).
body(r_fr12_62,fr12_s1).
body(r_fr12_62,fr12_t3).
body(r_fr12_62,fr20_v2).
body(r_fr12_62,fr12_u3).
body(r_fr12_62,fr23_y2).
body(r_fr12_62,fr12_x1).
body(r_fr12_62,fr12_x2).
body(r_fr12_62,fr12_x3).
head(r_fr12_63,fr13_v2).
body(r_fr12_63,fr9_b4).
body(r_fr12_63,fr25_a3).
body(r_fr12_63,fr12_c2).
body(r_fr12_63,fr14_d2).
body(r_fr12_63,fr13_z1).
body(r_fr12_63,fr12_p4).
body(r_fr12_63,fr12_q2).
body(r_fr12_63,fr13_z1).
body(r_fr12_63,fr12_t3).
body(r_fr12_63,fr20_v2).
body(r_fr12_63,fr12_u3).
body(r_fr12_63,fr23_y2).
body(r_fr12_63,fr12_x1).
body(r_fr12_63,fr12_x2).
head(r_fr12_64,fr13_v2).
body(r_fr12_64,fr12_a2).
body(r_fr12_64,fr12_a3).
body(r_fr12_64,fr12_b2).
body(r_fr12_64,fr12_p4).
body(r_fr12_64,fr12_q2).
body(r_fr12_64,fr12_q3).
body(r_fr12_64,fr23_y2).
body(r_fr12_64,fr12_s1).
body(r_fr12_64,fr13_z1).
body(r_fr12_64,fr12_u3).
body(r_fr12_64,fr23_y2).
body(r_fr12_64,fr12_x1).
body(r_fr12_64,fr12_x2).
body(r_fr12_64,fr12_x3).
body(r_fr12_64,fr2_q2).
head(r_fr12_65,fr13_v2).
body(r_fr12_65,fr25_f2).
body(r_fr12_65,fr12_a2).
body(r_fr12_65,fr12_a3).
body(r_fr12_65,fr12_b1).
body(r_fr12_65,fr25_a3).
body(r_fr12_65,fr13_f2).
body(r_fr12_65,fr13_z1).
body(r_fr12_65,fr20_v2).
body(r_fr12_65,fr12_u3).
body(r_fr12_65,fr23_y2).
body(r_fr12_65,fr12_x2).
body(r_fr12_65,fr12_x3).
head(r_fr12_66,fr23_y2).
body(r_fr12_66,fr13_z1).
body(r_fr12_66,fr12_p4).
body(r_fr12_66,fr12_q2).
body(r_fr12_66,fr12_q3).
body(r_fr12_66,fr23_y2).
body(r_fr12_66,fr12_s1).
body(r_fr12_66,fr13_z1).
body(r_fr12_66,fr12_t3).
body(r_fr12_66,fr20_v2).
body(r_fr12_66,fr12_u3).
body(r_fr12_66,fr12_x1).
body(r_fr12_66,fr12_x2).
body(r_fr12_66,fr12_x3).
body(r_fr12_66,fr2_q2).
body(r_fr12_66,fr12_z2).
head(r_fr12_67,fr23_y2).
body(r_fr12_67,fr12_a2).
body(r_fr12_67,fr12_c2).
body(r_fr12_67,fr13_f2).
body(r_fr12_67,fr13_f2).
body(r_fr12_67,fr12_p4).
body(r_fr12_67,fr12_q2).
body(r_fr12_67,fr12_q3).
body(r_fr12_67,fr12_s1).
body(r_fr12_67,fr13_z1).
body(r_fr12_67,fr12_t3).
body(r_fr12_67,fr20_v2).
body(r_fr12_67,fr12_u3).
body(r_fr12_67,fr12_x2).
body(r_fr12_67,fr12_z2).
head(r_fr12_68,fr23_y2).
body(r_fr12_68,fr25_f2).
body(r_fr12_68,fr12_a2).
body(r_fr12_68,fr13_z1).
body(r_fr12_68,fr12_p4).
body(r_fr12_68,fr12_q2).
body(r_fr12_68,fr12_q3).
body(r_fr12_68,fr23_y2).
body(r_fr12_68,fr12_s1).
body(r_fr12_68,fr13_z1).
body(r_fr12_68,fr12_t3).
body(r_fr12_68,fr20_v2).
body(r_fr12_68,fr12_u3).
body(r_fr12_68,fr12_x2).
body(r_fr12_68,fr12_x3).
body(r_fr12_68,fr2_q2).
head(r_fr12_69,fr23_y2).
body(r_fr12_69,fr20_b2).
body(r_fr12_69,fr13_z1).
body(r_fr12_69,fr12_p4).
body(r_fr12_69,fr12_q3).
body(r_fr12_69,fr23_y2).
body(r_fr12_69,fr12_s1).
body(r_fr12_69,fr13_z1).
body(r_fr12_69,fr20_v2).
body(r_fr12_69,fr12_x1).
body(r_fr12_69,fr12_x2).
body(r_fr12_69,fr12_x3).
body(r_fr12_69,fr2_q2).
body(r_fr12_69,fr12_z2).

assumption(fr19_c1).
assumption(fr13_f2).
assumption(fr13_f2).
assumption(fr20_b1).
assumption(fr13_e1).
assumption(fr13_f1).
assumption(fr13_a2).
assumption(fr17_e2).
assumption(fr13_c2).
assumption(fr23_b3).
assumption(fr13_f2).
assumption(fr13_f2).
assumption(fr7_c1).
assumption(fr14_c1).
assumption(fr6_c2).
contrary(fr19_c1,fr6_c2).
contrary(fr13_a2,fr13_f2).
contrary(fr7_c1,fr23_y2).
contrary(fr13_f2,fr13_v2).
contrary(fr17_e2,fr13_x2).
contrary(fr14_c1,fr8_u1).
contrary(fr13_f2,fr20_b1).
contrary(fr13_c2,fr13_f2).
contrary(fr6_c2,fr2_q2).
contrary(fr20_b1,fr13_f2).
contrary(fr23_b3,fr13_s2).
contrary(fr13_e1,fr6_c2).
contrary(fr13_f2,fr13_z1).
contrary(fr13_f1,fr13_y2).
contrary(fr13_f2,fr23_y2).
head(r_fr13_0,fr13_x2).
body(r_fr13_0,fr17_e2).
body(r_fr13_0,fr13_s2).
head(r_fr13_1,fr13_x2).
body(r_fr13_1,fr7_c1).
body(r_fr13_1,fr13_f2).
body(r_fr13_1,fr13_f2).
body(r_fr13_1,fr13_e1).
body(r_fr13_1,fr13_z1).
head(r_fr13_2,fr13_x2).
body(r_fr13_2,fr13_a2).
body(r_fr13_2,fr13_f2).
body(r_fr13_2,fr13_c2).
body(r_fr13_2,fr13_f2).
head(r_fr13_3,fr13_x2).
body(r_fr13_3,fr23_y2).
body(r_fr13_3,fr13_r2).
body(r_fr13_3,fr13_u1).
body(r_fr13_3,fr9_w5).
body(r_fr13_3,fr13_v2).
body(r_fr13_3,fr23_y2).
head(r_fr13_4,fr13_x2).
body(r_fr13_4,fr23_y2).
body(r_fr13_4,fr22_p2).
body(r_fr13_4,fr13_r2).
body(r_fr13_4,fr13_r3).
body(r_fr13_4,fr22_p2).
head(r_fr13_5,fr13_x2).
head(r_fr13_6,fr13_x2).
body(r_fr13_6,fr13_a2).
body(r_fr13_6,fr14_c1).
body(r_fr13_6,fr13_f2).
head(r_fr13_7,fr13_x2).
body(r_fr13_7,fr19_c1).
body(r_fr13_7,fr14_c1).
head(r_fr13_8,fr13_x2).
body(r_fr13_8,fr19_c1).
body(r_fr13_8,fr7_c1).
body(r_fr13_8,fr23_y2).
body(r_fr13_8,fr13_x1).
head(r_fr13_9,fr13_u1).
body(r_fr13_9,fr8_u1).
body(r_fr13_9,fr13_s1).
body(r_fr13_9,fr9_w5).
body(r_fr13_9,fr23_y2).
body(r_fr13_9,fr11_p3).
head(r_fr13_10,fr13_u1).
body(r_fr13_10,fr13_f2).
body(r_fr13_10,fr20_b1).
body(r_fr13_10,fr13_f2).
body(r_fr13_10,fr13_x2).
head(r_fr13_11,fr13_u1).
body(r_fr13_11,fr17_e2).
body(r_fr13_11,fr8_u1).
head(r_fr13_12,fr13_u1).
body(r_fr13_12,fr19_c1).
body(r_fr13_12,fr13_c2).
body(r_fr13_12,fr23_b3).
body(r_fr13_12,fr13_f1).
body(r_fr13_12,fr13_f2).
head(r_fr13_13,fr13_u1).
body(r_fr13_13,fr17_e2).
body(r_fr13_13,fr20_b1).
head(r_fr13_14,fr13_u1).
body(r_fr13_14,fr13_f2).
body(r_fr13_14,fr14_c1).
body(r_fr13_14,fr13_f2).
body(r_fr13_14,fr6_c2).
body(r_fr13_14,fr13_e1).
body(r_fr13_14,fr13_f2).
head(r_fr13_15,fr13_u1).
body(r_fr13_15,fr17_e2).
body(r_fr13_15,fr13_f2).
head(r_fr13_16,fr13_u1).
head(r_fr13_17,fr13_u1).
body(r_fr13_17,fr13_s2).
head(r_fr13_18,fr13_u1).
body(r_fr13_18,fr13_s1).
head(r_fr13_19,fr13_u1).
body(r_fr13_19,fr13_c2).
body(r_fr13_19,fr13_s2).
body(r_fr13_19,fr13_x1).
head(r_fr13_20,fr8_u1).
body(r_fr13_20,fr13_c2).
body(r_fr13_20,fr20_b1).
body(r_fr13_20,fr23_b3).
body(r_fr13_20,fr13_e1).
body(r_fr13_20,fr2_q2).
head(r_fr13_21,fr8_u1).
body(r_fr13_21,fr13_p1).
body(r_fr13_21,fr23_y2).
body(r_fr13_21,fr13_r3).
body(r_fr13_21,fr13_x2).
body(r_fr13_21,fr13_y2).
body(r_fr13_21,fr13_z1).
head(r_fr13_22,fr8_u1).
body(r_fr13_22,fr13_f2).
body(r_fr13_22,fr2_q2).
body(r_fr13_22,fr13_r3).
head(r_fr13_23,fr8_u1).
body(r_fr13_23,fr13_s2).
head(r_fr13_24,fr8_u1).
body(r_fr13_24,fr19_c1).
body(r_fr13_24,fr13_a2).
body(r_fr13_24,fr13_r2).
head(r_fr13_25,fr8_u1).
body(r_fr13_25,fr14_c1).
body(r_fr13_25,fr13_c2).
body(r_fr13_25,fr6_c2).
body(r_fr13_25,fr13_s1).
body(r_fr13_25,fr8_u1).
head(r_fr13_26,fr8_u1).
head(r_fr13_27,fr8_u1).
body(r_fr13_27,fr19_c1).
body(r_fr13_27,fr14_c1).
body(r_fr13_27,fr23_y2).
body(r_fr13_27,fr23_y2).
body(r_fr13_27,fr23_y2).
body(r_fr13_27,fr11_p3).
head(r_fr13_28,fr8_u1).
body(r_fr13_28,fr13_r2).
body(r_fr13_28,fr9_w5).
head(r_fr13_29,fr8_u1).
body(r_fr13_29,fr13_f2).
body(r_fr13_29,fr14_c1).
body(r_fr13_29,fr13_c2).
body(r_fr13_29,fr23_b3).
body(r_fr13_29,fr13_e1).
body(r_fr13_29,fr13_f2).
head(r_fr13_30,fr11_p3).
body(r_fr13_30,fr13_p1).
head(r_fr13_31,fr11_p3).
body(r_fr13_31,fr17_e2).
body(r_fr13_31,fr13_s2).
head(r_fr13_32,fr11_p3).
body(r_fr13_32,fr19_c1).
body(r_fr13_32,fr13_f2).
body(r_fr13_32,fr13_f2).
body(r_fr13_32,fr13_p1).
body(r_fr13_32,fr13_v2).
body(r_fr13_32,fr23_y2).
head(r_fr13_33,fr11_p3).
body(r_fr13_33,fr23_b3).
body(r_fr13_33,fr13_u1).
head(r_fr13_34,fr11_p3).
body(r_fr13_34,fr7_c1).
body(r_fr13_34,fr20_b1).
body(r_fr13_34,fr13_f2).
body(r_fr13_34,fr13_f1).
head(r_fr13_35,fr11_p3).
body(r_fr13_35,fr23_y2).
body(r_fr13_35,fr13_x2).
head(r_fr13_36,fr11_p3).
body(r_fr13_36,fr13_a2).
body(r_fr13_36,fr13_y2).
head(r_fr13_37,fr11_p3).
body(r_fr13_37,fr13_r2).
head(r_fr13_38,fr11_p3).
body(r_fr13_38,fr19_c1).
body(r_fr13_38,fr7_c1).
body(r_fr13_38,fr17_e2).
body(r_fr13_38,fr13_f2).
body(r_fr13_38,fr6_c2).
body(r_fr13_38,fr20_b1).
head(r_fr13_39,fr11_p3).
body(r_fr13_39,fr22_p2).
head(r_fr13_40,fr13_r2).
body(r_fr13_40,fr8_u1).
body(r_fr13_40,fr13_x1).
head(r_fr13_41,fr13_r2).
head(r_fr13_42,fr13_r2).
body(r_fr13_42,fr13_a2).
body(r_fr13_42,fr7_c1).
body(r_fr13_42,fr13_f1).
body(r_fr13_42,fr13_z1).
body(r_fr13_42,fr13_v2).
head(r_fr13_43,fr13_r2).
body(r_fr13_43,fr13_a2).
body(r_fr13_43,fr13_f2).
body(r_fr13_43,fr13_e1).
body(r_fr13_43,fr13_z1).
head(r_fr13_44,fr13_r2).
body(r_fr13_44,fr13_a2).
body(r_fr13_44,fr23_b3).
body(r_fr13_44,fr13_e1).
body(r_fr13_44,fr13_f1).
body(r_fr13_44,fr13_z1).
head(r_fr13_45,fr13_r2).
body(r_fr13_45,fr13_f2).
body(r_fr13_45,fr6_c2).
body(r_fr13_45,fr13_e1).
body(r_fr13_45,fr23_y2).
body(r_fr13_45,fr13_x2).
head(r_fr13_46,fr13_r2).
body(r_fr13_46,fr17_e2).
body(r_fr13_46,fr14_c1).
body(r_fr13_46,fr13_c2).
body(r_fr13_46,fr13_f2).
head(r_fr13_47,fr13_r2).
body(r_fr13_47,fr17_e2).
body(r_fr13_47,fr20_b1).
body(r_fr13_47,fr13_f2).
body(r_fr13_47,fr13_f2).
head(r_fr13_48,fr13_r2).
body(r_fr13_48,fr13_a2).
body(r_fr13_48,fr13_c2).
body(r_fr13_48,fr6_c2).
body(r_fr13_48,fr13_e1).
body(r_fr13_48,fr13_r3).
body(r_fr13_48,fr13_s1).
head(r_fr13_49,fr13_r2).
body(r_fr13_49,fr13_p1).
body(r_fr13_49,fr13_z1).
body(r_fr13_49,fr13_y2).
head(r_fr13_50,fr9_w5).
body(r_fr13_50,fr14_c1).
body(r_fr13_50,fr13_f2).
body(r_fr13_50,fr13_e1).
body(r_fr13_50,fr13_f2).
body(r_fr13_50,fr13_f2).
body(r_fr13_50,fr13_s1).
head(r_fr13_51,fr9_w5).
body(r_fr13_51,fr13_f2).
body(r_fr13_51,fr13_s2).
body(r_fr13_51,fr13_v2).
body(r_fr13_51,fr13_x2).
head(r_fr13_52,fr9_w5).
body(r_fr13_52,fr13_e1).
head(r_fr13_53,fr9_w5).
body(r_fr13_53,fr20_b1).
body(r_fr13_53,fr8_u1).
body(r_fr13_53,fr13_z1).
body(r_fr13_53,fr11_p3).
head(r_fr13_54,fr9_w5).
body(r_fr13_54,fr13_c2).
body(r_fr13_54,fr23_y2).
head(r_fr13_55,fr9_w5).
head(r_fr13_56,fr9_w5).
body(r_fr13_56,fr13_f2).
body(r_fr13_56,fr13_f2).
body(r_fr13_56,fr23_b3).
head(r_fr13_57,fr9_w5).
body(r_fr13_57,fr14_c1).
body(r_fr13_57,fr6_c2).
body(r_fr13_57,fr13_f2).
head(r_fr13_58,fr9_w5).
body(r_fr13_58,fr13_s2).
head(r_fr13_59,fr9_w5).
body(r_fr13_59,fr13_f2).
body(r_fr13_59,fr13_f1).
body(r_fr13_59,fr13_s1).
body(r_fr13_59,fr13_s2).
head(r_fr13_60,fr9_w5).
body(r_fr13_60,fr13_f2).
head(r_fr13_61,fr13_s2).
body(r_fr13_61,fr13_f1).
body(r_fr13_61,fr13_p1).
body(r_fr13_61,fr23_y2).
body(r_fr13_61,fr13_z1).
body(r_fr13_61,fr13_u1).
body(r_fr13_61,fr13_z1).
head(r_fr13_62,fr13_s2).
body(r_fr13_62,fr13_z1).
head(r_fr13_63,fr13_s2).
body(r_fr13_63,fr19_c1).
body(r_fr13_63,fr13_c2).
body(r_fr13_63,fr23_b3).
body(r_fr13_63,fr13_f2).
body(r_fr13_63,fr13_f2).
head(r_fr13_64,fr13_s2).
body(r_fr13_64,fr14_c1).
body(r_fr13_64,fr13_f1).
head(r_fr13_65,fr13_s2).
body(r_fr13_65,fr13_f2).
body(r_fr13_65,fr20_b1).
body(r_fr13_65,fr13_f2).
head(r_fr13_66,fr13_s2).
body(r_fr13_66,fr13_t2).
body(r_fr13_66,fr22_p2).
body(r_fr13_66,fr13_x2).
head(r_fr13_67,fr13_s2).
head(r_fr13_68,fr13_s2).
body(r_fr13_68,fr13_e1).
body(r_fr13_68,fr23_y2).
body(r_fr13_68,fr13_u1).
body(r_fr13_68,fr23_y2).
body(r_fr13_68,fr13_v2).
head(r_fr13_69,fr13_s2).
body(r_fr13_69,fr13_a2).
body(r_fr13_69,fr13_c2).
body(r_fr13_69,fr2_q2).
body(r_fr13_69,fr13_r2).
head(r_fr13_70,fr13_s2).
body(r_fr13_70,fr23_y2).
body(r_fr13_70,fr22_p2).
body(r_fr13_70,fr13_r2).
body(r_fr13_70,fr13_s1).
body(r_fr13_70,fr13_y2).
body(r_fr13_70,fr11_p3).
head(r_fr13_71,fr13_z1).
body(r_fr13_71,fr13_r3).
head(r_fr13_72,fr13_z1).
body(r_fr13_72,fr13_p1).
body(r_fr13_72,fr23_y2).
body(r_fr13_72,fr23_y2).
body(r_fr13_72,fr23_y2).
body(r_fr13_72,fr22_p2).
head(r_fr13_73,fr13_z1).
body(r_fr13_73,fr6_c2).
body(r_fr13_73,fr23_y2).
body(r_fr13_73,fr13_x2).
head(r_fr13_74,fr13_z1).
body(r_fr13_74,fr6_c2).
body(r_fr13_74,fr23_b3).
body(r_fr13_74,fr13_f1).
body(r_fr13_74,fr13_f2).
body(r_fr13_74,fr13_t2).
head(r_fr13_75,fr13_z1).
body(r_fr13_75,fr7_c1).
body(r_fr13_75,fr13_e1).
body(r_fr13_75,fr8_u1).
body(r_fr13_75,fr13_s1).
head(r_fr13_76,fr13_z1).
body(r_fr13_76,fr6_c2).
body(r_fr13_76,fr20_b1).
body(r_fr13_76,fr23_b3).
body(r_fr13_76,fr13_f2).
head(r_fr13_77,fr13_z1).
body(r_fr13_77,fr13_f2).
body(r_fr13_77,fr17_e2).
body(r_fr13_77,fr13_t2).
head(r_fr13_78,fr13_z1).
head(r_fr13_79,fr13_z1).
body(r_fr13_79,fr23_y2).
body(r_fr13_79,fr23_y2).
head(r_fr13_80,fr23_y2).
head(r_fr13_81,fr23_y2).
body(r_fr13_81,fr13_c2).
body(r_fr13_81,fr23_b3).
head(r_fr13_82,fr23_y2).
body(r_fr13_82,fr19_c1).
body(r_fr13_82,fr13_f2).
body(r_fr13_82,fr6_c2).
body(r_fr13_82,fr20_b1).
body(r_fr13_82,fr23_y2).
body(r_fr13_82,fr23_y2).
head(r_fr13_83,fr23_y2).
body(r_fr13_83,fr7_c1).
body(r_fr13_83,fr17_e2).
body(r_fr13_83,fr13_c2).
body(r_fr13_83,fr20_b1).
body(r_fr13_83,fr13_f1).
head(r_fr13_84,fr23_y2).
body(r_fr13_84,fr19_c1).
body(r_fr13_84,fr13_f2).
body(r_fr13_84,fr14_c1).
body(r_fr13_84,fr23_b3).
head(r_fr13_85,fr23_y2).
body(r_fr13_85,fr23_y2).
body(r_fr13_85,fr2_q2).
body(r_fr13_85,fr13_r2).
body(r_fr13_85,fr13_z1).
body(r_fr13_85,fr22_p2).
head(r_fr13_86,fr23_y2).
body(r_fr13_86,fr13_a2).
body(r_fr13_86,fr13_f2).
body(r_fr13_86,fr23_b3).
body(r_fr13_86,fr23_y2).
body(r_fr13_86,fr13_z1).
body(r_fr13_86,fr13_x2).
head(r_fr13_87,fr23_y2).
body(r_fr13_87,fr23_y2).
body(r_fr13_87,fr2_q2).
body(r_fr13_87,fr23_y2).
body(r_fr13_87,fr13_x1).
head(r_fr13_88,fr23_y2).
body(r_fr13_88,fr13_s1).
head(r_fr13_89,fr8_u1).
body(r_fr13_89,fr13_a2).
body(r_fr13_89,fr17_e2).
body(r_fr13_89,fr14_c1).
body(r_fr13_89,fr13_f2).
body(r_fr13_89,fr2_q2).
body(r_fr13_89,fr13_s1).
head(r_fr13_90,fr8_u1).
body(r_fr13_90,fr13_f2).
body(r_fr13_90,fr14_c1).
body(r_fr13_90,fr6_c2).
body(r_fr13_90,fr23_y2).
head(r_fr13_91,fr8_u1).
body(r_fr13_91,fr13_f2).
body(r_fr13_91,fr13_f2).
head(r_fr13_92,fr8_u1).
body(r_fr13_92,fr20_b1).
body(r_fr13_92,fr13_f1).
body(r_fr13_92,fr13_p1).
body(r_fr13_92,fr13_x2).
head(r_fr13_93,fr8_u1).
body(r_fr13_93,fr19_c1).
body(r_fr13_93,fr6_c2).
head(r_fr13_94,fr8_u1).
head(r_fr13_95,fr8_u1).
body(r_fr13_95,fr22_p2).
body(r_fr13_95,fr13_s1).
body(r_fr13_95,fr13_t2).
body(r_fr13_95,fr13_u1).
body(r_fr13_95,fr9_w5).
head(r_fr13_96,fr8_u1).
body(r_fr13_96,fr19_c1).
body(r_fr13_96,fr9_w5).
body(r_fr13_96,fr13_x2).
head(r_fr13_97,fr8_u1).
body(r_fr13_97,fr19_c1).
body(r_fr13_97,fr7_c1).
body(r_fr13_97,fr20_b1).
body(r_fr13_97,fr23_b3).
body(r_fr13_97,fr13_e1).
body(r_fr13_97,fr13_y2).
head(r_fr13_98,fr8_u1).
body(r_fr13_98,fr13_c2).
head(r_fr13_99,fr8_u1).
body(r_fr13_99,fr19_c1).
body(r_fr13_99,fr13_a2).
body(r_fr13_99,fr13_f2).
body(r_fr13_99,fr23_b3).
head(r_fr13_100,fr22_p2).
body(r_fr13_100,fr13_f2).
body(r_fr13_100,fr13_c2).
body(r_fr13_100,fr13_x2).
head(r_fr13_101,fr22_p2).
body(r_fr13_101,fr17_e2).
body(r_fr13_101,fr23_y2).
body(r_fr13_101,fr13_z1).
body(r_fr13_101,fr13_v2).
body(r_fr13_101,fr13_y2).
body(r_fr13_101,fr11_p3).
head(r_fr13_102,fr22_p2).
body(r_fr13_102,fr14_c1).
body(r_fr13_102,fr13_f2).
body(r_fr13_102,fr6_c2).
body(r_fr13_102,fr13_f1).
head(r_fr13_103,fr22_p2).
body(r_fr13_103,fr23_b3).
body(r_fr13_103,fr13_r2).
body(r_fr13_103,fr8_u1).
head(r_fr13_104,fr22_p2).
body(r_fr13_104,fr13_f2).
body(r_fr13_104,fr13_e1).
body(r_fr13_104,fr9_w5).
body(r_fr13_104,fr13_x1).
head(r_fr13_105,fr22_p2).
body(r_fr13_105,fr6_c2).
body(r_fr13_105,fr13_f1).
head(r_fr13_106,fr22_p2).
body(r_fr13_106,fr7_c1).
body(r_fr13_106,fr14_c1).
body(r_fr13_106,fr20_b1).
body(r_fr13_106,fr8_u1).
head(r_fr13_107,fr22_p2).
head(r_fr13_108,fr22_p2).
body(r_fr13_108,fr13_s1).
head(r_fr13_109,fr13_s1).
body(r_fr13_109,fr13_t2).
body(r_fr13_109,fr13_u1).
body(r_fr13_109,fr13_v2).
head(r_fr13_110,fr13_s1).
body(r_fr13_110,fr13_e1).
head(r_fr13_111,fr13_s1).
body(r_fr13_111,fr7_c1).
body(r_fr13_111,fr13_z1).
body(r_fr13_111,fr13_t2).
body(r_fr13_111,fr13_u1).
body(r_fr13_111,fr13_x1).
body(r_fr13_111,fr13_x2).
head(r_fr13_112,fr13_s1).
body(r_fr13_112,fr13_f2).
body(r_fr13_112,fr13_x1).
head(r_fr13_113,fr13_s1).
body(r_fr13_113,fr13_z1).
body(r_fr13_113,fr9_w5).
body(r_fr13_113,fr13_z1).
body(r_fr13_113,fr11_p3).
head(r_fr13_114,fr13_s1).
body(r_fr13_114,fr13_f2).
head(r_fr13_115,fr13_s1).
body(r_fr13_115,fr8_u1).
body(r_fr13_115,fr23_y2).
body(r_fr13_115,fr13_x1).
body(r_fr13_115,fr13_x2).
head(r_fr13_116,fr13_s1).
head(r_fr13_117,fr13_v2).
body(r_fr13_117,fr19_c1).
body(r_fr13_117,fr13_f2).
body(r_fr13_117,fr13_f2).
body(r_fr13_117,fr13_x2).
head(r_fr13_118,fr13_v2).
body(r_fr13_118,fr2_q2).
head(r_fr13_119,fr13_v2).
body(r_fr13_119,fr23_y2).
body(r_fr13_119,fr8_u1).
head(r_fr13_120,fr13_v2).
body(r_fr13_120,fr7_c1).
body(r_fr13_120,fr17_e2).
body(r_fr13_120,fr13_f2).
body(r_fr13_120,fr9_w5).
body(r_fr13_120,fr22_p2).
head(r_fr13_121,fr13_v2).
body(r_fr13_121,fr14_c1).
body(r_fr13_121,fr13_f2).
body(r_fr13_121,fr22_p2).
head(r_fr13_122,fr13_v2).
body(r_fr13_122,fr19_c1).
body(r_fr13_122,fr13_a2).
body(r_fr13_122,fr13_e1).
body(r_fr13_122,fr8_u1).
head(r_fr13_123,fr13_v2).
body(r_fr13_123,fr13_a2).
body(r_fr13_123,fr13_p1).
body(r_fr13_123,fr22_p2).
body(r_fr13_123,fr8_u1).
body(r_fr13_123,fr22_p2).
body(r_fr13_123,fr23_y2).
head(r_fr13_124,fr13_v2).
body(r_fr13_124,fr13_a2).
body(r_fr13_124,fr2_q2).
body(r_fr13_124,fr13_x1).
body(r_fr13_124,fr13_y2).
head(r_fr13_125,fr13_v2).
body(r_fr13_125,fr7_c1).
body(r_fr13_125,fr17_e2).
body(r_fr13_125,fr13_c2).
head(r_fr13_126,fr13_v2).
body(r_fr13_126,fr20_b1).
body(r_fr13_126,fr13_z1).
head(r_fr13_127,fr13_v2).
body(r_fr13_127,fr14_c1).
body(r_fr13_127,fr6_c2).
body(r_fr13_127,fr13_f1).
head(r_fr13_128,fr13_x1).
head(r_fr13_129,fr13_x1).
body(r_fr13_129,fr13_f2).
body(r_fr13_129,fr13_f2).
body(r_fr13_129,fr8_u1).
body(r_fr13_129,fr9_w5).
body(r_fr13_129,fr8_u1).
head(r_fr13_130,fr13_x1).
body(r_fr13_130,fr13_f1).
head(r_fr13_131,fr13_x1).
body(r_fr13_131,fr13_a2).
body(r_fr13_131,fr13_p1).
body(r_fr13_131,fr9_w5).
head(r_fr13_132,fr13_x1).
body(r_fr13_132,fr19_c1).
body(r_fr13_132,fr17_e2).
body(r_fr13_132,fr13_c2).
body(r_fr13_132,fr20_b1).
body(r_fr13_132,fr13_e1).
body(r_fr13_132,fr13_v2).
head(r_fr13_133,fr13_x1).
body(r_fr13_133,fr19_c1).
body(r_fr13_133,fr13_p1).
body(r_fr13_133,fr2_q2).
body(r_fr13_133,fr13_u1).
body(r_fr13_133,fr13_y2).
body(r_fr13_133,fr11_p3).
head(r_fr13_134,fr13_x1).
body(r_fr13_134,fr17_e2).
body(r_fr13_134,fr14_c1).
body(r_fr13_134,fr13_e1).
body(r_fr13_134,fr13_f2).
head(r_fr13_135,fr13_x1).
body(r_fr13_135,fr19_c1).
body(r_fr13_135,fr7_c1).
body(r_fr13_135,fr14_c1).
body(r_fr13_135,fr13_e1).
body(r_fr13_135,fr13_f1).
body(r_fr13_135,fr13_f2).
head(r_fr13_136,fr13_x1).
body(r_fr13_136,fr23_y2).
body(r_fr13_136,fr2_q2).
body(r_fr13_136,fr13_u1).
head(r_fr13_137,fr13_t2).
body(r_fr13_137,fr19_c1).
body(r_fr13_137,fr13_v2).
head(r_fr13_138,fr13_t2).
body(r_fr13_138,fr7_c1).
body(r_fr13_138,fr13_f2).
body(r_fr13_138,fr13_f2).
body(r_fr13_138,fr20_b1).
body(r_fr13_138,fr23_b3).
body(r_fr13_138,fr13_e1).
head(r_fr13_139,fr13_t2).
body(r_fr13_139,fr23_y2).
head(r_fr13_140,fr13_t2).
body(r_fr13_140,fr13_f2).
body(r_fr13_140,fr14_c1).
body(r_fr13_140,fr13_f2).
body(r_fr13_140,fr13_c2).
body(r_fr13_140,fr6_c2).
body(r_fr13_140,fr13_f2).
head(r_fr13_141,fr13_t2).
body(r_fr13_141,fr13_e1).
body(r_fr13_141,fr23_y2).
body(r_fr13_141,fr13_y2).
head(r_fr13_142,fr13_t2).
body(r_fr13_142,fr20_b1).
body(r_fr13_142,fr13_f1).
body(r_fr13_142,fr13_f2).
head(r_fr13_143,fr13_t2).
head(r_fr13_144,fr13_t2).
body(r_fr13_144,fr17_e2).
body(r_fr13_144,fr13_c2).
body(r_fr13_144,fr23_b3).
body(r_fr13_144,fr13_f1).
body(r_fr13_144,fr9_w5).
body(r_fr13_144,fr23_y2).
head(r_fr13_145,fr13_t2).
body(r_fr13_145,fr7_c1).
body(r_fr13_145,fr23_y2).
body(r_fr13_145,fr22_p2).
body(r_fr13_145,fr13_s2).
body(r_fr13_145,fr23_y2).
body(r_fr13_145,fr11_p3).
head(r_fr13_146,fr13_t2).
body(r_fr13_146,fr13_f2).
body(r_fr13_146,fr13_f2).
body(r_fr13_146,fr22_p2).
body(r_fr13_146,fr13_r3).
body(r_fr13_146,fr13_s1).
body(r_fr13_146,fr13_z1).
head(r_fr13_147,fr13_t2).
body(r_fr13_147,fr13_f2).
body(r_fr13_147,fr23_y2).
body(r_fr13_147,fr13_r3).
body(r_fr13_147,fr13_z1).
body(r_fr13_147,fr22_p2).
head(r_fr13_148,fr13_z1).
body(r_fr13_148,fr13_a2).
body(r_fr13_148,fr13_f2).
body(r_fr13_148,fr17_e2).
body(r_fr13_148,fr22_p2).
head(r_fr13_149,fr13_z1).
body(r_fr13_149,fr7_c1).
head(r_fr13_150,fr13_z1).
body(r_fr13_150,fr13_c2).
body(r_fr13_150,fr23_y2).
body(r_fr13_150,fr13_s1).
body(r_fr13_150,fr23_y2).
body(r_fr13_150,fr11_p3).
head(r_fr13_151,fr13_z1).
body(r_fr13_151,fr23_y2).
body(r_fr13_151,fr22_p2).
body(r_fr13_151,fr23_y2).
body(r_fr13_151,fr13_u1).
body(r_fr13_151,fr23_y2).
body(r_fr13_151,fr13_y2).
head(r_fr13_152,fr13_z1).
body(r_fr13_152,fr13_a2).
body(r_fr13_152,fr13_f2).
body(r_fr13_152,fr6_c2).
body(r_fr13_152,fr13_e1).
head(r_fr13_153,fr13_z1).
head(r_fr13_154,fr13_z1).
body(r_fr13_154,fr20_b1).
body(r_fr13_154,fr13_f2).
head(r_fr13_155,fr13_z1).
body(r_fr13_155,fr19_c1).
body(r_fr13_155,fr13_r2).
body(r_fr13_155,fr13_v2).
body(r_fr13_155,fr8_u1).
body(r_fr13_155,fr11_p3).
head(r_fr13_156,fr13_z1).
body(r_fr13_156,fr13_f2).
body(r_fr13_156,fr13_c2).
body(r_fr13_156,fr13_e1).
head(r_fr13_157,fr13_z1).
body(r_fr13_157,fr19_c1).
body(r_fr13_157,fr17_e2).
body(r_fr13_157,fr13_c2).
body(r_fr13_157,fr23_b3).
body(r_fr13_157,fr13_e1).
body(r_fr13_157,fr13_f2).
head(r_fr13_158,fr13_r3).
body(r_fr13_158,fr17_e2).
body(r_fr13_158,fr14_c1).
body(r_fr13_158,fr20_b1).
body(r_fr13_158,fr23_y2).
body(r_fr13_158,fr13_x2).
head(r_fr13_159,fr13_r3).
body(r_fr13_159,fr17_e2).
body(r_fr13_159,fr13_e1).
body(r_fr13_159,fr8_u1).
body(r_fr13_159,fr13_r2).
body(r_fr13_159,fr13_x1).
head(r_fr13_160,fr13_r3).
body(r_fr13_160,fr23_y2).
body(r_fr13_160,fr23_y2).
body(r_fr13_160,fr13_s2).
body(r_fr13_160,fr8_u1).
head(r_fr13_161,fr13_r3).
body(r_fr13_161,fr19_c1).
body(r_fr13_161,fr13_a2).
body(r_fr13_161,fr7_c1).
body(r_fr13_161,fr13_c2).
body(r_fr13_161,fr13_f2).
body(r_fr13_161,fr13_f1).
head(r_fr13_162,fr13_r3).
head(r_fr13_163,fr13_r3).
body(r_fr13_163,fr7_c1).
body(r_fr13_163,fr23_y2).
body(r_fr13_163,fr22_p2).
body(r_fr13_163,fr9_w5).
body(r_fr13_163,fr8_u1).
body(r_fr13_163,fr13_y2).
head(r_fr13_164,fr13_r3).
body(r_fr13_164,fr19_c1).
body(r_fr13_164,fr13_a2).
body(r_fr13_164,fr13_f1).
body(r_fr13_164,fr22_p2).
body(r_fr13_164,fr8_u1).
body(r_fr13_164,fr13_z1).
head(r_fr13_165,fr13_r3).
body(r_fr13_165,fr14_c1).
body(r_fr13_165,fr23_b3).
body(r_fr13_165,fr13_f2).
head(r_fr13_166,fr13_r3).
body(r_fr13_166,fr17_e2).
body(r_fr13_166,fr13_v2).
body(r_fr13_166,fr13_x2).
body(r_fr13_166,fr13_y2).
body(r_fr13_166,fr11_p3).
head(r_fr13_167,fr13_r3).
body(r_fr13_167,fr19_c1).
body(r_fr13_167,fr17_e2).
body(r_fr13_167,fr8_u1).
body(r_fr13_167,fr13_v2).
head(r_fr13_168,fr13_r3).
body(r_fr13_168,fr19_c1).
body(r_fr13_168,fr13_f1).
body(r_fr13_168,fr23_y2).
body(r_fr13_168,fr11_p3).
head(r_fr13_169,fr13_p1).
head(r_fr13_170,fr13_p1).
body(r_fr13_170,fr13_s1).
body(r_fr13_170,fr13_t2).
body(r_fr13_170,fr23_y2).
body(r_fr13_170,fr13_v2).
body(r_fr13_170,fr13_x2).
head(r_fr13_171,fr13_p1).
body(r_fr13_171,fr19_c1).
body(r_fr13_171,fr14_c1).
body(r_fr13_171,fr13_z1).
head(r_fr13_172,fr13_p1).
body(r_fr13_172,fr14_c1).
head(r_fr13_173,fr13_p1).
body(r_fr13_173,fr13_f1).
body(r_fr13_173,fr13_f2).
body(r_fr13_173,fr13_r3).
head(r_fr13_174,fr13_p1).
body(r_fr13_174,fr19_c1).
body(r_fr13_174,fr13_f2).
body(r_fr13_174,fr2_q2).
body(r_fr13_174,fr23_y2).
head(r_fr13_175,fr13_p1).
body(r_fr13_175,fr7_c1).
body(r_fr13_175,fr13_c2).
body(r_fr13_175,fr20_b1).
body(r_fr13_175,fr23_b3).
body(r_fr13_175,fr13_f2).
body(r_fr13_175,fr13_x1).
head(r_fr13_176,fr13_p1).
body(r_fr13_176,fr19_c1).
body(r_fr13_176,fr23_b3).
body(r_fr13_176,fr23_y2).
head(r_fr13_177,fr13_p1).
body(r_fr13_177,fr19_c1).
body(r_fr13_177,fr7_c1).
body(r_fr13_177,fr13_e1).
body(r_fr13_177,fr13_f2).
body(r_fr13_177,fr9_w5).
head(r_fr13_178,fr13_p1).
body(r_fr13_178,fr13_u1).
head(r_fr13_179,fr23_y2).
body(r_fr13_179,fr6_c2).
body(r_fr13_179,fr13_z1).
body(r_fr13_179,fr13_x2).
head(r_fr13_180,fr23_y2).
head(r_fr13_181,fr23_y2).
body(r_fr13_181,fr13_a2).
body(r_fr13_181,fr6_c2).
head(r_fr13_182,fr23_y2).
body(r_fr13_182,fr13_x1).
head(r_fr13_183,fr23_y2).
body(r_fr13_183,fr7_c1).
body(r_fr13_183,fr17_e2).
body(r_fr13_183,fr13_c2).
body(r_fr13_183,fr13_f2).
body(r_fr13_183,fr13_x2).
head(r_fr13_184,fr23_y2).
body(r_fr13_184,fr13_c2).
body(r_fr13_184,fr20_b1).
body(r_fr13_184,fr23_b3).
body(r_fr13_184,fr13_u1).
head(r_fr13_185,fr23_y2).
body(r_fr13_185,fr13_f2).
body(r_fr13_185,fr13_e1).
body(r_fr13_185,fr13_u1).
body(r_fr13_185,fr23_y2).
body(r_fr13_185,fr22_p2).
head(r_fr13_186,fr23_y2).
body(r_fr13_186,fr13_s1).
head(r_fr13_187,fr23_y2).
body(r_fr13_187,fr6_c2).
body(r_fr13_187,fr23_b3).
body(r_fr13_187,fr13_f2).
head(r_fr13_188,fr23_y2).
body(r_fr13_188,fr23_y2).
head(r_fr13_189,fr2_q2).
body(r_fr13_189,fr13_z1).
head(r_fr13_190,fr2_q2).
body(r_fr13_190,fr13_f2).
body(r_fr13_190,fr20_b1).
body(r_fr13_190,fr13_s1).
body(r_fr13_190,fr13_s2).
body(r_fr13_190,fr8_u1).
body(r_fr13_190,fr11_p3).
head(r_fr13_191,fr2_q2).
body(r_fr13_191,fr19_c1).
body(r_fr13_191,fr9_w5).
body(r_fr13_191,fr23_y2).
head(r_fr13_192,fr2_q2).
body(r_fr13_192,fr23_b3).
body(r_fr13_192,fr13_f2).
body(r_fr13_192,fr13_f1).
body(r_fr13_192,fr13_f2).
body(r_fr13_192,fr23_y2).
body(r_fr13_192,fr23_y2).
head(r_fr13_193,fr2_q2).
body(r_fr13_193,fr17_e2).
head(r_fr13_194,fr2_q2).
body(r_fr13_194,fr13_r3).
body(r_fr13_194,fr13_u1).
body(r_fr13_194,fr22_p2).
body(r_fr13_194,fr13_x1).
body(r_fr13_194,fr13_y2).
body(r_fr13_194,fr13_z1).
head(r_fr13_195,fr2_q2).
body(r_fr13_195,fr23_y2).
head(r_fr13_196,fr2_q2).
body(r_fr13_196,fr22_p2).
body(r_fr13_196,fr13_s1).
body(r_fr13_196,fr13_x2).
body(r_fr13_196,fr13_z1).
head(r_fr13_197,fr2_q2).
body(r_fr13_197,fr23_y2).
body(r_fr13_197,fr13_s2).
head(r_fr13_198,fr2_q2).
body(r_fr13_198,fr19_c1).
body(r_fr13_198,fr13_f2).
body(r_fr13_198,fr23_y2).
body(r_fr13_198,fr23_y2).
body(r_fr13_198,fr13_s2).
head(r_fr13_199,fr2_q2).

assumption(fr13_f2).
assumption(fr13_f2).
assumption(fr14_c1).
assumption(fr9_b4).
assumption(fr14_e1).
assumption(fr14_f1).
assumption(fr14_a2).
assumption(fr14_b2).
assumption(fr17_e2).
assumption(fr14_d2).
assumption(fr13_f2).
assumption(fr14_f2).
assumption(fr13_f2).
assumption(fr13_f2).
assumption(fr13_f2).
contrary(fr13_f2,fr22_p2).
contrary(fr14_a2,fr23_y2).
contrary(fr13_f2,fr14_s2).
contrary(fr13_f2,fr14_s1).
contrary(fr14_b2,fr13_f2).
contrary(fr13_f2,fr14_u1).
contrary(fr14_c1,fr17_t1).
contrary(fr17_e2,fr13_f2).
contrary(fr13_f2,fr14_p2).
contrary(fr9_b4,fr13_f2).
contrary(fr14_d2,fr20_w2).
contrary(fr14_e1,fr14_z2).
contrary(fr13_f2,fr21_p2).
contrary(fr14_f1,fr14_p2).
contrary(fr14_f2,fr22_v1).
head(r_fr14_0,fr17_t1).
body(r_fr14_0,fr14_a2).
body(r_fr14_0,fr23_y2).
body(r_fr14_0,fr2_q2).
head(r_fr14_1,fr17_t1).
body(r_fr14_1,fr13_f2).
head(r_fr14_2,fr17_t1).
body(r_fr14_2,fr13_f2).
body(r_fr14_2,fr13_f2).
body(r_fr14_2,fr14_f1).
head(r_fr14_3,fr17_t1).
body(r_fr14_3,fr22_p2).
body(r_fr14_3,fr23_y2).
body(r_fr14_3,fr14_v2).
body(r_fr14_3,fr21_x3).
head(r_fr14_4,fr17_t1).
body(r_fr14_4,fr14_p2).
body(r_fr14_4,fr14_s1).
body(r_fr14_4,fr14_u1).
body(r_fr14_4,fr21_p2).
body(r_fr14_4,fr14_v2).
head(r_fr14_5,fr17_t1).
body(r_fr14_5,fr13_f2).
body(r_fr14_5,fr14_a2).
body(r_fr14_5,fr13_f2).
body(r_fr14_5,fr14_f2).
head(r_fr14_6,fr17_t1).
body(r_fr14_6,fr14_b2).
body(r_fr14_6,fr9_b4).
head(r_fr14_7,fr17_t1).
body(r_fr14_7,fr9_b4).
body(r_fr14_7,fr14_e1).
body(r_fr14_7,fr20_w2).
body(r_fr14_7,fr14_t1).
head(r_fr14_8,fr17_t1).
body(r_fr14_8,fr13_f2).
body(r_fr14_8,fr14_a2).
body(r_fr14_8,fr13_f2).
body(r_fr14_8,fr14_c1).
body(r_fr14_8,fr9_b4).
body(r_fr14_8,fr14_f1).
head(r_fr14_9,fr17_t1).
body(r_fr14_9,fr14_c1).
body(r_fr14_9,fr21_p2).
head(r_fr14_10,fr17_t1).
body(r_fr14_10,fr13_f2).
body(r_fr14_10,fr14_c1).
body(r_fr14_10,fr13_f2).
body(r_fr14_10,fr14_f1).
body(r_fr14_10,fr14_f2).
head(r_fr14_11,fr17_t1).
body(r_fr14_11,fr13_f2).
body(r_fr14_11,fr14_x1).
head(r_fr14_12,fr17_t1).
body(r_fr14_12,fr14_c1).
body(r_fr14_12,fr23_y2).
body(r_fr14_12,fr14_p3).
body(r_fr14_12,fr22_v1).
body(r_fr14_12,fr23_y2).
head(r_fr14_13,fr17_t1).
body(r_fr14_13,fr14_a2).
body(r_fr14_13,fr14_c1).
body(r_fr14_13,fr13_f2).
body(r_fr14_13,fr13_f2).
body(r_fr14_13,fr13_s1).
body(r_fr14_13,fr14_z2).
head(r_fr14_14,fr17_t1).
body(r_fr14_14,fr20_w2).
body(r_fr14_14,fr23_y2).
body(r_fr14_14,fr21_p2).
body(r_fr14_14,fr21_x3).
head(r_fr14_15,fr17_t1).
body(r_fr14_15,fr13_f2).
body(r_fr14_15,fr14_b2).
body(r_fr14_15,fr9_b4).
body(r_fr14_15,fr23_y2).
body(r_fr14_15,fr21_x3).
head(r_fr14_16,fr17_t1).
body(r_fr14_16,fr13_f2).
body(r_fr14_16,fr13_f2).
body(r_fr14_16,fr13_f2).
body(r_fr14_16,fr9_b4).
head(r_fr14_17,fr17_t1).
body(r_fr14_17,fr14_w1).
head(r_fr14_18,fr17_t1).
body(r_fr14_18,fr13_f2).
body(r_fr14_18,fr14_p3).
body(r_fr14_18,fr14_s2).
body(r_fr14_18,fr14_w1).
body(r_fr14_18,fr14_y1).
body(r_fr14_18,fr13_s1).
head(r_fr14_19,fr17_t1).
head(r_fr14_20,fr17_t1).
body(r_fr14_20,fr14_s2).
body(r_fr14_20,fr14_y1).
body(r_fr14_20,fr14_z2).
head(r_fr14_21,fr17_t1).
body(r_fr14_21,fr14_a2).
head(r_fr14_22,fr17_t1).
body(r_fr14_22,fr17_e2).
body(r_fr14_22,fr14_f1).
body(r_fr14_22,fr14_p2).
head(r_fr14_23,fr14_p3).
body(r_fr14_23,fr20_w2).
body(r_fr14_23,fr14_v2).
body(r_fr14_23,fr2_q2).
body(r_fr14_23,fr14_x1).
body(r_fr14_23,fr21_x3).
body(r_fr14_23,fr13_s1).
head(r_fr14_24,fr14_p3).
body(r_fr14_24,fr23_y2).
body(r_fr14_24,fr23_y2).
head(r_fr14_25,fr14_p3).
body(r_fr14_25,fr17_e2).
body(r_fr14_25,fr13_f2).
body(r_fr14_25,fr21_x3).
body(r_fr14_25,fr23_y2).
head(r_fr14_26,fr14_p3).
body(r_fr14_26,fr14_b2).
head(r_fr14_27,fr14_p3).
body(r_fr14_27,fr14_b2).
body(r_fr14_27,fr23_y2).
body(r_fr14_27,fr20_w2).
body(r_fr14_27,fr14_t2).
body(r_fr14_27,fr14_w1).
head(r_fr14_28,fr14_p3).
body(r_fr14_28,fr13_f2).
body(r_fr14_28,fr14_b2).
body(r_fr14_28,fr13_f2).
head(r_fr14_29,fr14_p3).
body(r_fr14_29,fr14_a2).
body(r_fr14_29,fr14_z2).
head(r_fr14_30,fr14_p3).
body(r_fr14_30,fr13_f2).
body(r_fr14_30,fr14_f2).
body(r_fr14_30,fr14_t1).
body(r_fr14_30,fr14_y1).
head(r_fr14_31,fr14_p3).
body(r_fr14_31,fr14_a2).
body(r_fr14_31,fr17_e2).
body(r_fr14_31,fr13_f2).
body(r_fr14_31,fr14_e1).
body(r_fr14_31,fr14_f1).
body(r_fr14_31,fr23_y2).
head(r_fr14_32,fr14_p3).
body(r_fr14_32,fr22_p2).
body(r_fr14_32,fr14_u1).
body(r_fr14_32,fr21_x3).
head(r_fr14_33,fr14_p3).
body(r_fr14_33,fr14_t2).
body(r_fr14_33,fr21_x3).
head(r_fr14_34,fr14_p3).
body(r_fr14_34,fr13_f2).
body(r_fr14_34,fr14_a2).
body(r_fr14_34,fr13_f2).
body(r_fr14_34,fr13_f2).
head(r_fr14_35,fr14_p3).
body(r_fr14_35,fr13_f2).
body(r_fr14_35,fr9_b4).
head(r_fr14_36,fr14_p3).
body(r_fr14_36,fr14_p2).
body(r_fr14_36,fr21_p2).
body(r_fr14_36,fr14_x1).
head(r_fr14_37,fr14_p3).
body(r_fr14_37,fr14_a2).
body(r_fr14_37,fr13_f2).
body(r_fr14_37,fr13_f2).
body(r_fr14_37,fr9_b4).
body(r_fr14_37,fr13_f2).
head(r_fr14_38,fr14_p3).
body(r_fr14_38,fr13_f2).
head(r_fr14_39,fr14_p3).
body(r_fr14_39,fr23_y2).
body(r_fr14_39,fr14_r3).
body(r_fr14_39,fr14_v2).
body(r_fr14_39,fr14_x1).
body(r_fr14_39,fr14_y1).
head(r_fr14_40,fr14_p3).
body(r_fr14_40,fr14_v2).
head(r_fr14_41,fr14_p3).
body(r_fr14_41,fr13_f2).
body(r_fr14_41,fr13_f2).
body(r_fr14_41,fr14_c1).
body(r_fr14_41,fr17_e2).
body(r_fr14_41,fr14_e1).
body(r_fr14_41,fr14_f2).
head(r_fr14_42,fr14_p3).
body(r_fr14_42,fr13_f2).
body(r_fr14_42,fr13_f2).
body(r_fr14_42,fr13_f2).
body(r_fr14_42,fr9_b4).
body(r_fr14_42,fr14_d2).
body(r_fr14_42,fr14_f2).
head(r_fr14_43,fr14_p3).
head(r_fr14_44,fr14_p3).
body(r_fr14_44,fr14_e1).
body(r_fr14_44,fr22_v1).
body(r_fr14_44,fr20_w2).
body(r_fr14_44,fr14_v2).
body(r_fr14_44,fr14_z2).
head(r_fr14_45,fr14_p3).
body(r_fr14_45,fr13_f2).
body(r_fr14_45,fr14_f1).
head(r_fr14_46,fr22_p2).
body(r_fr14_46,fr14_b2).
body(r_fr14_46,fr20_w2).
body(r_fr14_46,fr21_p2).
body(r_fr14_46,fr23_y2).
head(r_fr14_47,fr22_p2).
body(r_fr14_47,fr14_w1).
body(r_fr14_47,fr21_x3).
head(r_fr14_48,fr22_p2).
body(r_fr14_48,fr17_e2).
body(r_fr14_48,fr14_f2).
body(r_fr14_48,fr14_p2).
body(r_fr14_48,fr21_p2).
body(r_fr14_48,fr13_s1).
head(r_fr14_49,fr22_p2).
body(r_fr14_49,fr13_f2).
body(r_fr14_49,fr13_f2).
body(r_fr14_49,fr14_f1).
body(r_fr14_49,fr14_x1).
head(r_fr14_50,fr22_p2).
body(r_fr14_50,fr13_f2).
body(r_fr14_50,fr23_y2).
body(r_fr14_50,fr14_r3).
body(r_fr14_50,fr14_t1).
body(r_fr14_50,fr21_p2).
head(r_fr14_51,fr22_p2).
body(r_fr14_51,fr13_f2).
body(r_fr14_51,fr23_y2).
body(r_fr14_51,fr20_w2).
body(r_fr14_51,fr14_r3).
body(r_fr14_51,fr21_x3).
body(r_fr14_51,fr23_y2).
head(r_fr14_52,fr22_p2).
body(r_fr14_52,fr23_y2).
body(r_fr14_52,fr14_s2).
body(r_fr14_52,fr21_p2).
head(r_fr14_53,fr22_p2).
body(r_fr14_53,fr14_a2).
body(r_fr14_53,fr14_b2).
body(r_fr14_53,fr13_f2).
body(r_fr14_53,fr14_d2).
body(r_fr14_53,fr13_f2).
head(r_fr14_54,fr22_p2).
body(r_fr14_54,fr13_f2).
body(r_fr14_54,fr13_f2).
body(r_fr14_54,fr14_r3).
body(r_fr14_54,fr14_u1).
body(r_fr14_54,fr21_x3).
head(r_fr14_55,fr22_p2).
body(r_fr14_55,fr14_b2).
body(r_fr14_55,fr9_b4).
body(r_fr14_55,fr14_d2).
body(r_fr14_55,fr14_e1).
body(r_fr14_55,fr14_f2).
head(r_fr14_56,fr22_p2).
body(r_fr14_56,fr22_v1).
body(r_fr14_56,fr14_r3).
body(r_fr14_56,fr14_t1).
body(r_fr14_56,fr14_t2).
body(r_fr14_56,fr21_x3).
head(r_fr14_57,fr22_p2).
body(r_fr14_57,fr13_f2).
body(r_fr14_57,fr17_e2).
body(r_fr14_57,fr14_t2).
head(r_fr14_58,fr22_p2).
body(r_fr14_58,fr14_p2).
body(r_fr14_58,fr22_v1).
body(r_fr14_58,fr21_p2).
body(r_fr14_58,fr14_v2).
body(r_fr14_58,fr23_y2).
body(r_fr14_58,fr14_z2).
head(r_fr14_59,fr22_p2).
body(r_fr14_59,fr13_f2).
body(r_fr14_59,fr14_f2).
body(r_fr14_59,fr14_t2).
head(r_fr14_60,fr22_p2).
body(r_fr14_60,fr14_a2).
body(r_fr14_60,fr14_c1).
body(r_fr14_60,fr14_f1).
body(r_fr14_60,fr14_f2).
head(r_fr14_61,fr22_p2).
body(r_fr14_61,fr14_d2).
body(r_fr14_61,fr13_f2).
head(r_fr14_62,fr22_p2).
body(r_fr14_62,fr17_e2).
body(r_fr14_62,fr14_d2).
body(r_fr14_62,fr14_f2).
head(r_fr14_63,fr22_p2).
body(r_fr14_63,fr14_c1).
body(r_fr14_63,fr23_y2).
body(r_fr14_63,fr14_w1).
body(r_fr14_63,fr2_q2).
head(r_fr14_64,fr22_p2).
body(r_fr14_64,fr13_f2).
head(r_fr14_65,fr22_p2).
body(r_fr14_65,fr23_y2).
body(r_fr14_65,fr2_q2).
head(r_fr14_66,fr22_p2).
body(r_fr14_66,fr14_a2).
body(r_fr14_66,fr13_f2).
body(r_fr14_66,fr13_f2).
body(r_fr14_66,fr14_e1).
body(r_fr14_66,fr14_y1).
head(r_fr14_67,fr22_p2).
body(r_fr14_67,fr14_d2).
head(r_fr14_68,fr22_p2).
body(r_fr14_68,fr13_f2).
body(r_fr14_68,fr14_r3).
body(r_fr14_68,fr14_t2).
body(r_fr14_68,fr2_q2).
head(r_fr14_69,fr22_p2).
head(r_fr14_70,fr22_p2).
body(r_fr14_70,fr23_y2).
body(r_fr14_70,fr14_v2).
head(r_fr14_71,fr22_p2).
body(r_fr14_71,fr13_f2).
body(r_fr14_71,fr14_d2).
body(r_fr14_71,fr14_f1).
head(r_fr14_72,fr20_w2).
body(r_fr14_72,fr22_v1).
body(r_fr14_72,fr14_t2).
body(r_fr14_72,fr14_w1).
body(r_fr14_72,fr14_y1).
head(r_fr14_73,fr20_w2).
body(r_fr14_73,fr22_v1).
body(r_fr14_73,fr14_y1).
head(r_fr14_74,fr20_w2).
body(r_fr14_74,fr13_f2).
body(r_fr14_74,fr17_e2).
body(r_fr14_74,fr23_y2).
body(r_fr14_74,fr23_y2).
head(r_fr14_75,fr20_w2).
body(r_fr14_75,fr2_q2).
body(r_fr14_75,fr14_x1).
body(r_fr14_75,fr21_x3).
body(r_fr14_75,fr23_y2).
head(r_fr14_76,fr20_w2).
body(r_fr14_76,fr13_f2).
body(r_fr14_76,fr14_p2).
body(r_fr14_76,fr14_t1).
body(r_fr14_76,fr14_w1).
body(r_fr14_76,fr14_x1).
body(r_fr14_76,fr13_s1).
head(r_fr14_77,fr20_w2).
body(r_fr14_77,fr23_y2).
body(r_fr14_77,fr14_t2).
body(r_fr14_77,fr14_v2).
body(r_fr14_77,fr14_y1).
head(r_fr14_78,fr20_w2).
body(r_fr14_78,fr14_e1).
body(r_fr14_78,fr13_f2).
body(r_fr14_78,fr14_f2).
head(r_fr14_79,fr20_w2).
body(r_fr14_79,fr14_a2).
body(r_fr14_79,fr14_c1).
body(r_fr14_79,fr13_f2).
body(r_fr14_79,fr14_e1).
body(r_fr14_79,fr14_x1).
head(r_fr14_80,fr20_w2).
body(r_fr14_80,fr13_f2).
body(r_fr14_80,fr14_f1).
body(r_fr14_80,fr23_y2).
body(r_fr14_80,fr14_t2).
head(r_fr14_81,fr20_w2).
body(r_fr14_81,fr17_e2).
body(r_fr14_81,fr14_s2).
body(r_fr14_81,fr13_s1).
head(r_fr14_82,fr20_w2).
body(r_fr14_82,fr14_x1).
body(r_fr14_82,fr14_z2).
head(r_fr14_83,fr20_w2).
body(r_fr14_83,fr14_d2).
head(r_fr14_84,fr20_w2).
body(r_fr14_84,fr13_f2).
body(r_fr14_84,fr14_b2).
body(r_fr14_84,fr17_e2).
body(r_fr14_84,fr13_f2).
body(r_fr14_84,fr2_q2).
head(r_fr14_85,fr20_w2).
body(r_fr14_85,fr13_s1).
head(r_fr14_86,fr20_w2).
body(r_fr14_86,fr14_t1).
body(r_fr14_86,fr21_p2).
body(r_fr14_86,fr14_w1).
body(r_fr14_86,fr2_q2).
body(r_fr14_86,fr21_x3).
head(r_fr14_87,fr20_w2).
body(r_fr14_87,fr14_d2).
body(r_fr14_87,fr14_e1).
body(r_fr14_87,fr13_f2).
body(r_fr14_87,fr14_f1).
body(r_fr14_87,fr14_f2).
body(r_fr14_87,fr14_p2).
head(r_fr14_88,fr20_w2).
head(r_fr14_89,fr20_w2).
body(r_fr14_89,fr21_p2).
body(r_fr14_89,fr14_v2).
head(r_fr14_90,fr20_w2).
body(r_fr14_90,fr13_f2).
body(r_fr14_90,fr13_f2).
body(r_fr14_90,fr23_y2).
body(r_fr14_90,fr14_r3).
head(r_fr14_91,fr20_w2).
body(r_fr14_91,fr14_y1).
head(r_fr14_92,fr20_w2).
body(r_fr14_92,fr13_f2).
body(r_fr14_92,fr14_e1).
body(r_fr14_92,fr13_f2).
body(r_fr14_92,fr14_p2).
body(r_fr14_92,fr14_u1).
head(r_fr14_93,fr20_w2).
body(r_fr14_93,fr13_f2).
body(r_fr14_93,fr14_s1).
body(r_fr14_93,fr14_s2).
body(r_fr14_93,fr14_x1).
body(r_fr14_93,fr14_y1).
head(r_fr14_94,fr20_w2).
body(r_fr14_94,fr9_b4).
body(r_fr14_94,fr14_f2).
body(r_fr14_94,fr23_y2).
body(r_fr14_94,fr14_s1).
body(r_fr14_94,fr21_x3).
body(r_fr14_94,fr14_z2).
head(r_fr14_95,fr20_w2).
body(r_fr14_95,fr13_f2).
body(r_fr14_95,fr14_d2).
body(r_fr14_95,fr14_f2).
head(r_fr14_96,fr23_y2).
body(r_fr14_96,fr13_f2).
body(r_fr14_96,fr14_y1).
body(r_fr14_96,fr23_y2).
head(r_fr14_97,fr23_y2).
body(r_fr14_97,fr9_b4).
body(r_fr14_97,fr14_r3).
body(r_fr14_97,fr2_q2).
head(r_fr14_98,fr23_y2).
body(r_fr14_98,fr23_y2).
body(r_fr14_98,fr14_p2).
body(r_fr14_98,fr14_u1).
body(r_fr14_98,fr21_p2).
head(r_fr14_99,fr23_y2).
body(r_fr14_99,fr14_a2).
body(r_fr14_99,fr13_f2).
body(r_fr14_99,fr23_y2).
body(r_fr14_99,fr14_t1).
body(r_fr14_99,fr2_q2).
head(r_fr14_100,fr23_y2).
body(r_fr14_100,fr14_d2).
body(r_fr14_100,fr14_e1).
head(r_fr14_101,fr23_y2).
body(r_fr14_101,fr13_f2).
body(r_fr14_101,fr13_f2).
body(r_fr14_101,fr17_e2).
body(r_fr14_101,fr13_f2).
body(r_fr14_101,fr14_f1).
body(r_fr14_101,fr22_v1).
head(r_fr14_102,fr23_y2).
body(r_fr14_102,fr14_d2).
body(r_fr14_102,fr14_f2).
body(r_fr14_102,fr14_p2).
body(r_fr14_102,fr14_t1).
body(r_fr14_102,fr14_u1).
head(r_fr14_103,fr23_y2).
body(r_fr14_103,fr14_d2).
body(r_fr14_103,fr14_y1).
head(r_fr14_104,fr23_y2).
body(r_fr14_104,fr14_a2).
body(r_fr14_104,fr13_f2).
body(r_fr14_104,fr13_f2).
body(r_fr14_104,fr9_b4).
body(r_fr14_104,fr14_t1).
head(r_fr14_105,fr23_y2).
body(r_fr14_105,fr13_f2).
body(r_fr14_105,fr13_f2).
body(r_fr14_105,fr14_b2).
body(r_fr14_105,fr9_b4).
body(r_fr14_105,fr14_d2).
body(r_fr14_105,fr21_x3).
head(r_fr14_106,fr23_y2).
body(r_fr14_106,fr13_f2).
body(r_fr14_106,fr9_b4).
body(r_fr14_106,fr14_f2).
body(r_fr14_106,fr23_y2).
body(r_fr14_106,fr14_t1).
body(r_fr14_106,fr21_x3).
head(r_fr14_107,fr23_y2).
body(r_fr14_107,fr2_q2).
head(r_fr14_108,fr23_y2).
body(r_fr14_108,fr14_d2).
body(r_fr14_108,fr14_w1).
body(r_fr14_108,fr14_x1).
body(r_fr14_108,fr14_z2).
head(r_fr14_109,fr23_y2).
body(r_fr14_109,fr23_y2).
body(r_fr14_109,fr21_p2).
head(r_fr14_110,fr23_y2).
body(r_fr14_110,fr17_e2).
body(r_fr14_110,fr9_b4).
body(r_fr14_110,fr14_e1).
body(r_fr14_110,fr13_f2).
body(r_fr14_110,fr14_f1).
body(r_fr14_110,fr14_f2).
head(r_fr14_111,fr23_y2).
body(r_fr14_111,fr13_f2).
body(r_fr14_111,fr13_f2).
body(r_fr14_111,fr14_s1).
head(r_fr14_112,fr23_y2).
body(r_fr14_112,fr14_f2).
body(r_fr14_112,fr14_s1).
body(r_fr14_112,fr21_p2).
head(r_fr14_113,fr23_y2).
body(r_fr14_113,fr14_a2).
body(r_fr14_113,fr14_c1).
body(r_fr14_113,fr14_d2).
body(r_fr14_113,fr14_r3).
body(r_fr14_113,fr14_s2).
body(r_fr14_113,fr14_v2).
head(r_fr14_114,fr23_y2).
body(r_fr14_114,fr13_f2).
body(r_fr14_114,fr14_y1).
body(r_fr14_114,fr14_z2).
head(r_fr14_115,fr23_y2).
head(r_fr14_116,fr23_y2).
body(r_fr14_116,fr14_b2).
body(r_fr14_116,fr14_f1).
head(r_fr14_117,fr23_y2).
body(r_fr14_117,fr9_b4).
body(r_fr14_117,fr14_t2).
body(r_fr14_117,fr13_s1).
head(r_fr14_118,fr23_y2).
body(r_fr14_118,fr14_p2).
body(r_fr14_118,fr14_v2).
head(r_fr14_119,fr23_y2).
body(r_fr14_119,fr14_a2).
body(r_fr14_119,fr13_f2).
body(r_fr14_119,fr14_e1).
body(r_fr14_119,fr14_f1).
body(r_fr14_119,fr14_f2).
head(r_fr14_120,fr23_y2).
body(r_fr14_120,fr14_p2).
head(r_fr14_121,fr23_y2).
body(r_fr14_121,fr13_f2).
body(r_fr14_121,fr14_t2).
head(r_fr14_122,fr23_y2).
body(r_fr14_122,fr13_f2).
body(r_fr14_122,fr14_c1).
body(r_fr14_122,fr14_s2).
body(r_fr14_122,fr14_y1).
head(r_fr14_123,fr23_y2).
body(r_fr14_123,fr13_f2).
body(r_fr14_123,fr14_f2).
body(r_fr14_123,fr14_r3).
head(r_fr14_124,fr23_y2).
body(r_fr14_124,fr14_b2).
body(r_fr14_124,fr14_e1).
head(r_fr14_125,fr23_y2).
body(r_fr14_125,fr14_r3).
body(r_fr14_125,fr14_t1).
body(r_fr14_125,fr14_w1).
head(r_fr14_126,fr23_y2).
body(r_fr14_126,fr13_f2).
body(r_fr14_126,fr13_f2).
body(r_fr14_126,fr17_e2).
body(r_fr14_126,fr14_d2).
body(r_fr14_126,fr14_e1).
body(r_fr14_126,fr13_f2).
head(r_fr14_127,fr23_y2).
body(r_fr14_127,fr9_b4).
head(r_fr14_128,fr23_y2).
body(r_fr14_128,fr13_f2).
body(r_fr14_128,fr14_d2).
body(r_fr14_128,fr14_t2).
body(r_fr14_128,fr21_p2).
body(r_fr14_128,fr14_y1).
body(r_fr14_128,fr23_y2).
head(r_fr14_129,fr23_y2).
body(r_fr14_129,fr14_d2).
body(r_fr14_129,fr23_y2).
body(r_fr14_129,fr14_s2).
body(r_fr14_129,fr14_t1).
head(r_fr14_130,fr23_y2).
body(r_fr14_130,fr14_e1).
body(r_fr14_130,fr13_f2).
head(r_fr14_131,fr23_y2).
body(r_fr14_131,fr14_t2).
head(r_fr14_132,fr23_y2).
body(r_fr14_132,fr14_y1).
body(r_fr14_132,fr23_y2).
head(r_fr14_133,fr23_y2).
body(r_fr14_133,fr17_e2).
body(r_fr14_133,fr23_y2).
body(r_fr14_133,fr14_t2).
body(r_fr14_133,fr2_q2).
body(r_fr14_133,fr23_y2).
head(r_fr14_134,fr23_y2).
body(r_fr14_134,fr14_c1).
body(r_fr14_134,fr13_f2).
head(r_fr14_135,fr23_y2).
body(r_fr14_135,fr13_f2).
body(r_fr14_135,fr13_f2).
body(r_fr14_135,fr13_f2).
body(r_fr14_135,fr14_p2).
head(r_fr14_136,fr23_y2).
body(r_fr14_136,fr14_b2).
body(r_fr14_136,fr21_p2).
head(r_fr14_137,fr23_y2).
body(r_fr14_137,fr13_f2).
head(r_fr14_138,fr23_y2).
body(r_fr14_138,fr21_p2).
body(r_fr14_138,fr14_w1).
head(r_fr14_139,fr23_y2).
body(r_fr14_139,fr13_f2).
body(r_fr14_139,fr13_f2).
body(r_fr14_139,fr17_e2).
body(r_fr14_139,fr14_p2).
body(r_fr14_139,fr21_p2).
body(r_fr14_139,fr14_w1).
head(r_fr14_140,fr23_y2).
body(r_fr14_140,fr13_f2).
body(r_fr14_140,fr14_b2).
body(r_fr14_140,fr13_f2).
body(r_fr14_140,fr14_c1).
body(r_fr14_140,fr2_q2).
head(r_fr14_141,fr23_y2).
body(r_fr14_141,fr13_f2).
body(r_fr14_141,fr13_f2).
body(r_fr14_141,fr14_c1).
body(r_fr14_141,fr14_f2).
body(r_fr14_141,fr14_s1).
head(r_fr14_142,fr23_y2).
body(r_fr14_142,fr17_e2).
head(r_fr14_143,fr23_y2).
head(r_fr14_144,fr23_y2).
body(r_fr14_144,fr14_t2).
body(r_fr14_144,fr2_q2).
body(r_fr14_144,fr14_y1).
head(r_fr14_145,fr23_y2).
body(r_fr14_145,fr14_d2).
body(r_fr14_145,fr22_v1).
body(r_fr14_145,fr13_s1).
head(r_fr14_146,fr14_r3).
body(r_fr14_146,fr13_f2).
body(r_fr14_146,fr14_c1).
body(r_fr14_146,fr13_f2).
body(r_fr14_146,fr14_e1).
body(r_fr14_146,fr13_f2).
body(r_fr14_146,fr14_f2).
head(r_fr14_147,fr14_r3).
body(r_fr14_147,fr13_f2).
body(r_fr14_147,fr17_e2).
body(r_fr14_147,fr14_f2).
body(r_fr14_147,fr14_w1).
head(r_fr14_148,fr14_r3).
body(r_fr14_148,fr14_s1).
body(r_fr14_148,fr14_w1).
head(r_fr14_149,fr14_r3).
body(r_fr14_149,fr14_b2).
body(r_fr14_149,fr9_b4).
body(r_fr14_149,fr14_p2).
body(r_fr14_149,fr21_p2).
body(r_fr14_149,fr2_q2).
head(r_fr14_150,fr14_r3).
body(r_fr14_150,fr14_a2).
body(r_fr14_150,fr22_v1).
body(r_fr14_150,fr14_u1).
body(r_fr14_150,fr21_x3).
head(r_fr14_151,fr14_r3).
body(r_fr14_151,fr13_f2).
body(r_fr14_151,fr14_f1).
body(r_fr14_151,fr14_p2).
body(r_fr14_151,fr14_t2).
body(r_fr14_151,fr14_x1).
head(r_fr14_152,fr14_r3).
body(r_fr14_152,fr23_y2).
head(r_fr14_153,fr14_r3).
body(r_fr14_153,fr13_f2).
body(r_fr14_153,fr13_f2).
body(r_fr14_153,fr14_t2).
body(r_fr14_153,fr14_z2).
head(r_fr14_154,fr14_r3).
body(r_fr14_154,fr21_p2).
head(r_fr14_155,fr14_r3).
body(r_fr14_155,fr13_f2).
body(r_fr14_155,fr13_f2).
body(r_fr14_155,fr13_f2).
body(r_fr14_155,fr17_e2).
body(r_fr14_155,fr9_b4).
head(r_fr14_156,fr14_r3).
body(r_fr14_156,fr14_a2).
body(r_fr14_156,fr17_e2).
body(r_fr14_156,fr14_w1).
body(r_fr14_156,fr23_y2).
head(r_fr14_157,fr14_r3).
body(r_fr14_157,fr13_f2).
body(r_fr14_157,fr14_z2).
head(r_fr14_158,fr14_r3).
body(r_fr14_158,fr23_y2).
body(r_fr14_158,fr14_s2).
body(r_fr14_158,fr21_p2).
body(r_fr14_158,fr14_w1).
body(r_fr14_158,fr2_q2).
head(r_fr14_159,fr14_r3).
body(r_fr14_159,fr14_p2).
body(r_fr14_159,fr22_v1).
body(r_fr14_159,fr14_s1).
body(r_fr14_159,fr14_y1).
body(r_fr14_159,fr23_y2).
head(r_fr14_160,fr14_r3).
body(r_fr14_160,fr14_t1).
body(r_fr14_160,fr14_t2).
body(r_fr14_160,fr14_x1).
body(r_fr14_160,fr14_y1).
head(r_fr14_161,fr14_r3).
body(r_fr14_161,fr14_s2).
body(r_fr14_161,fr2_q2).
head(r_fr14_162,fr14_r3).
body(r_fr14_162,fr13_f2).
head(r_fr14_163,fr14_r3).
body(r_fr14_163,fr14_b2).
body(r_fr14_163,fr14_p2).
body(r_fr14_163,fr14_s1).
body(r_fr14_163,fr14_t2).
body(r_fr14_163,fr2_q2).
body(r_fr14_163,fr14_x1).
head(r_fr14_164,fr14_r3).
body(r_fr14_164,fr14_s1).
body(r_fr14_164,fr14_s2).
body(r_fr14_164,fr14_t2).
body(r_fr14_164,fr2_q2).
body(r_fr14_164,fr21_x3).
body(r_fr14_164,fr14_z2).
head(r_fr14_165,fr14_r3).
body(r_fr14_165,fr13_f2).
body(r_fr14_165,fr14_b2).
body(r_fr14_165,fr14_f2).
body(r_fr14_165,fr23_y2).
body(r_fr14_165,fr14_s2).
body(r_fr14_165,fr13_s1).
head(r_fr14_166,fr14_r3).
body(r_fr14_166,fr13_f2).
body(r_fr14_166,fr14_c1).
body(r_fr14_166,fr9_b4).
body(r_fr14_166,fr2_q2).
head(r_fr14_167,fr14_r3).
body(r_fr14_167,fr13_f2).
body(r_fr14_167,fr14_b2).
body(r_fr14_167,fr13_f2).
body(r_fr14_167,fr14_f2).
head(r_fr14_168,fr14_r3).
body(r_fr14_168,fr13_f2).
body(r_fr14_168,fr13_f2).
body(r_fr14_168,fr14_b2).
head(r_fr14_169,fr14_r3).
body(r_fr14_169,fr21_x3).
head(r_fr14_170,fr14_r3).
body(r_fr14_170,fr13_f2).
body(r_fr14_170,fr13_f2).
body(r_fr14_170,fr9_b4).
body(r_fr14_170,fr13_f2).
body(r_fr14_170,fr14_f1).
body(r_fr14_170,fr14_y1).
head(r_fr14_171,fr14_r3).
head(r_fr14_172,fr14_u1).
body(r_fr14_172,fr13_f2).
body(r_fr14_172,fr14_a2).
body(r_fr14_172,fr13_f2).
body(r_fr14_172,fr14_c1).
body(r_fr14_172,fr14_z2).
head(r_fr14_173,fr14_u1).
body(r_fr14_173,fr13_f2).
body(r_fr14_173,fr9_b4).
head(r_fr14_174,fr14_u1).
body(r_fr14_174,fr14_a2).
body(r_fr14_174,fr22_v1).
body(r_fr14_174,fr14_s2).
body(r_fr14_174,fr14_v2).
body(r_fr14_174,fr14_x1).
body(r_fr14_174,fr23_y2).
head(r_fr14_175,fr14_u1).
body(r_fr14_175,fr13_f2).
body(r_fr14_175,fr2_q2).
body(r_fr14_175,fr21_x3).
body(r_fr14_175,fr14_y1).
head(r_fr14_176,fr14_u1).
body(r_fr14_176,fr22_v1).
body(r_fr14_176,fr14_t1).
body(r_fr14_176,fr14_t2).
body(r_fr14_176,fr14_z2).
head(r_fr14_177,fr14_u1).
body(r_fr14_177,fr14_w1).
head(r_fr14_178,fr14_u1).
body(r_fr14_178,fr13_f2).
body(r_fr14_178,fr14_c1).
body(r_fr14_178,fr17_e2).
body(r_fr14_178,fr14_x1).
head(r_fr14_179,fr14_u1).
body(r_fr14_179,fr2_q2).
body(r_fr14_179,fr13_s1).
head(r_fr14_180,fr14_u1).
body(r_fr14_180,fr13_f2).
head(r_fr14_181,fr14_u1).
body(r_fr14_181,fr14_t2).
body(r_fr14_181,fr23_y2).
body(r_fr14_181,fr14_z2).
head(r_fr14_182,fr14_u1).
body(r_fr14_182,fr14_c1).
body(r_fr14_182,fr13_f2).
body(r_fr14_182,fr14_f1).
body(r_fr14_182,fr14_f2).
body(r_fr14_182,fr23_y2).
body(r_fr14_182,fr14_z2).
head(r_fr14_183,fr14_u1).
body(r_fr14_183,fr17_e2).
body(r_fr14_183,fr14_f2).
body(r_fr14_183,fr21_x3).
head(r_fr14_184,fr14_u1).
body(r_fr14_184,fr9_b4).
head(r_fr14_185,fr14_u1).
body(r_fr14_185,fr17_e2).
body(r_fr14_185,fr14_p2).
body(r_fr14_185,fr14_s2).
head(r_fr14_186,fr14_u1).
body(r_fr14_186,fr14_a2).
body(r_fr14_186,fr14_t2).
head(r_fr14_187,fr14_u1).
body(r_fr14_187,fr13_f2).
body(r_fr14_187,fr14_a2).
body(r_fr14_187,fr13_f2).
body(r_fr14_187,fr14_c1).
body(r_fr14_187,fr9_b4).
body(r_fr14_187,fr14_f2).
head(r_fr14_188,fr14_u1).
body(r_fr14_188,fr14_b2).
body(r_fr14_188,fr14_c1).
body(r_fr14_188,fr14_y1).
head(r_fr14_189,fr14_u1).
body(r_fr14_189,fr13_f2).
head(r_fr14_190,fr14_u1).
body(r_fr14_190,fr13_f2).
body(r_fr14_190,fr14_d2).
body(r_fr14_190,fr21_x3).
head(r_fr14_191,fr14_u1).
body(r_fr14_191,fr14_a2).
body(r_fr14_191,fr17_e2).
body(r_fr14_191,fr13_f2).
body(r_fr14_191,fr14_p2).
body(r_fr14_191,fr23_y2).
body(r_fr14_191,fr14_z2).
head(r_fr14_192,fr14_u1).
body(r_fr14_192,fr14_p2).
body(r_fr14_192,fr14_w1).
body(r_fr14_192,fr2_q2).
body(r_fr14_192,fr14_x1).
body(r_fr14_192,fr13_s1).
body(r_fr14_192,fr23_y2).
head(r_fr14_193,fr14_u1).
head(r_fr14_194,fr14_u1).
body(r_fr14_194,fr14_d2).
head(r_fr14_195,fr14_u1).
body(r_fr14_195,fr13_f2).
body(r_fr14_195,fr14_a2).
body(r_fr14_195,fr13_f2).
body(r_fr14_195,fr13_f2).
body(r_fr14_195,fr14_b2).
body(r_fr14_195,fr13_f2).
head(r_fr14_196,fr14_u1).
body(r_fr14_196,fr14_d2).
body(r_fr14_196,fr14_s2).
body(r_fr14_196,fr14_x1).
head(r_fr14_197,fr14_u1).
body(r_fr14_197,fr14_y1).
head(r_fr14_198,fr14_w1).
body(r_fr14_198,fr14_a2).
body(r_fr14_198,fr17_e2).
body(r_fr14_198,fr13_f2).
body(r_fr14_198,fr14_d2).
body(r_fr14_198,fr14_e1).
body(r_fr14_198,fr13_f2).
head(r_fr14_199,fr14_w1).
body(r_fr14_199,fr14_e1).
body(r_fr14_199,fr14_s1).
body(r_fr14_199,fr14_y1).
head(r_fr14_200,fr14_w1).
body(r_fr14_200,fr14_p2).
head(r_fr14_201,fr14_w1).
body(r_fr14_201,fr23_y2).
body(r_fr14_201,fr21_x3).
head(r_fr14_202,fr14_w1).
body(r_fr14_202,fr14_e1).
head(r_fr14_203,fr14_w1).
body(r_fr14_203,fr13_f2).
head(r_fr14_204,fr14_w1).
body(r_fr14_204,fr14_f2).
head(r_fr14_205,fr14_w1).
body(r_fr14_205,fr13_f2).
body(r_fr14_205,fr13_f2).
body(r_fr14_205,fr23_y2).
head(r_fr14_206,fr14_w1).
body(r_fr14_206,fr14_a2).
body(r_fr14_206,fr13_f2).
body(r_fr14_206,fr13_f2).
body(r_fr14_206,fr14_c1).
body(r_fr14_206,fr17_e2).
head(r_fr14_207,fr14_w1).
body(r_fr14_207,fr14_a2).
body(r_fr14_207,fr14_c1).
body(r_fr14_207,fr14_f2).
body(r_fr14_207,fr14_p2).
body(r_fr14_207,fr22_v1).
body(r_fr14_207,fr21_x3).
head(r_fr14_208,fr14_w1).
body(r_fr14_208,fr13_f2).
body(r_fr14_208,fr13_f2).
head(r_fr14_209,fr14_w1).
body(r_fr14_209,fr13_f2).
body(r_fr14_209,fr14_d2).
head(r_fr14_210,fr14_w1).
body(r_fr14_210,fr13_f2).
body(r_fr14_210,fr14_d2).
body(r_fr14_210,fr14_e1).
body(r_fr14_210,fr13_f2).
head(r_fr14_211,fr14_w1).
body(r_fr14_211,fr13_f2).
body(r_fr14_211,fr13_f2).
body(r_fr14_211,fr14_c1).
body(r_fr14_211,fr13_f2).
body(r_fr14_211,fr14_p2).
body(r_fr14_211,fr14_s1).
head(r_fr14_212,fr14_w1).
body(r_fr14_212,fr21_p2).
head(r_fr14_213,fr14_w1).
body(r_fr14_213,fr14_c1).
body(r_fr14_213,fr21_p2).
body(r_fr14_213,fr23_y2).
head(r_fr14_214,fr14_w1).
body(r_fr14_214,fr14_d2).
body(r_fr14_214,fr14_p2).
body(r_fr14_214,fr21_x3).
body(r_fr14_214,fr23_y2).
body(r_fr14_214,fr14_z2).
head(r_fr14_215,fr14_w1).
body(r_fr14_215,fr13_f2).
body(r_fr14_215,fr14_b2).
body(r_fr14_215,fr14_e1).
body(r_fr14_215,fr2_q2).
head(r_fr14_216,fr14_w1).
body(r_fr14_216,fr23_y2).
body(r_fr14_216,fr14_v2).
body(r_fr14_216,fr2_q2).
body(r_fr14_216,fr14_y1).
head(r_fr14_217,fr14_w1).
body(r_fr14_217,fr13_f2).
body(r_fr14_217,fr13_f2).
body(r_fr14_217,fr14_c1).
body(r_fr14_217,fr14_d2).
body(r_fr14_217,fr14_t2).
head(r_fr14_218,fr14_w1).
body(r_fr14_218,fr13_f2).
body(r_fr14_218,fr17_e2).
body(r_fr14_218,fr14_d2).
body(r_fr14_218,fr14_e1).
body(r_fr14_218,fr2_q2).
body(r_fr14_218,fr14_y1).
head(r_fr14_219,fr14_w1).
body(r_fr14_219,fr13_f2).
body(r_fr14_219,fr13_f2).
body(r_fr14_219,fr14_e1).
body(r_fr14_219,fr13_f2).
body(r_fr14_219,fr14_v2).
head(r_fr14_220,fr14_w1).
body(r_fr14_220,fr22_v1).
head(r_fr14_221,fr14_w1).
body(r_fr14_221,fr23_y2).
body(r_fr14_221,fr14_v2).
body(r_fr14_221,fr14_z2).
head(r_fr14_222,fr14_w1).
body(r_fr14_222,fr14_a2).
body(r_fr14_222,fr21_p2).
head(r_fr14_223,fr14_w1).
body(r_fr14_223,fr14_s2).
head(r_fr14_224,fr23_y2).
body(r_fr14_224,fr13_f2).
body(r_fr14_224,fr23_y2).
body(r_fr14_224,fr14_t2).
body(r_fr14_224,fr21_p2).
body(r_fr14_224,fr21_x3).
head(r_fr14_225,fr23_y2).
body(r_fr14_225,fr14_a2).
body(r_fr14_225,fr13_f2).
body(r_fr14_225,fr14_c1).
body(r_fr14_225,fr13_f2).
body(r_fr14_225,fr14_e1).
body(r_fr14_225,fr14_f1).
head(r_fr14_226,fr23_y2).
body(r_fr14_226,fr13_f2).
body(r_fr14_226,fr14_a2).
body(r_fr14_226,fr13_f2).
body(r_fr14_226,fr14_b2).
body(r_fr14_226,fr13_f2).
body(r_fr14_226,fr14_f1).
head(r_fr14_227,fr23_y2).
body(r_fr14_227,fr13_f2).
body(r_fr14_227,fr14_c1).
body(r_fr14_227,fr22_v1).
body(r_fr14_227,fr14_t2).
body(r_fr14_227,fr14_v2).
body(r_fr14_227,fr21_x3).
head(r_fr14_228,fr23_y2).
body(r_fr14_228,fr14_a2).
body(r_fr14_228,fr13_f2).
body(r_fr14_228,fr13_f2).
body(r_fr14_228,fr17_e2).
body(r_fr14_228,fr14_d2).
body(r_fr14_228,fr14_f2).
head(r_fr14_229,fr23_y2).
body(r_fr14_229,fr14_p2).
body(r_fr14_229,fr14_v2).
body(r_fr14_229,fr14_y1).
body(r_fr14_229,fr13_s1).
body(r_fr14_229,fr14_z2).
head(r_fr14_230,fr23_y2).
body(r_fr14_230,fr14_a2).
body(r_fr14_230,fr13_f2).
body(r_fr14_230,fr13_f2).
head(r_fr14_231,fr23_y2).
body(r_fr14_231,fr13_f2).
body(r_fr14_231,fr14_b2).
body(r_fr14_231,fr14_e1).
body(r_fr14_231,fr23_y2).
body(r_fr14_231,fr14_x1).
head(r_fr14_232,fr23_y2).
body(r_fr14_232,fr22_v1).
head(r_fr14_233,fr23_y2).
body(r_fr14_233,fr14_e1).
body(r_fr14_233,fr23_y2).
body(r_fr14_233,fr22_v1).
body(r_fr14_233,fr14_s2).
body(r_fr14_233,fr21_p2).
head(r_fr14_234,fr23_y2).
body(r_fr14_234,fr14_p2).
head(r_fr14_235,fr23_y2).
body(r_fr14_235,fr14_b2).
head(r_fr14_236,fr23_y2).
body(r_fr14_236,fr14_d2).
body(r_fr14_236,fr14_e1).
body(r_fr14_236,fr13_f2).
body(r_fr14_236,fr14_z2).
head(r_fr14_237,fr23_y2).
body(r_fr14_237,fr13_f2).
body(r_fr14_237,fr13_f2).
body(r_fr14_237,fr14_b2).
body(r_fr14_237,fr14_c1).
body(r_fr14_237,fr17_e2).
body(r_fr14_237,fr14_e1).
head(r_fr14_238,fr23_y2).
body(r_fr14_238,fr14_s2).
head(r_fr14_239,fr23_y2).
body(r_fr14_239,fr13_f2).
body(r_fr14_239,fr14_s1).
body(r_fr14_239,fr14_t2).
body(r_fr14_239,fr21_p2).
body(r_fr14_239,fr14_x1).
head(r_fr14_240,fr23_y2).
body(r_fr14_240,fr14_b2).
body(r_fr14_240,fr14_f1).
body(r_fr14_240,fr14_p2).
body(r_fr14_240,fr14_z2).
head(r_fr14_241,fr23_y2).
body(r_fr14_241,fr14_v2).
head(r_fr14_242,fr23_y2).
body(r_fr14_242,fr17_e2).
body(r_fr14_242,fr21_p2).
body(r_fr14_242,fr14_v2).
body(r_fr14_242,fr14_x1).
head(r_fr14_243,fr23_y2).
body(r_fr14_243,fr13_f2).
body(r_fr14_243,fr14_c1).
body(r_fr14_243,fr13_f2).
body(r_fr14_243,fr14_f1).
body(r_fr14_243,fr14_f2).
head(r_fr14_244,fr23_y2).
body(r_fr14_244,fr9_b4).
body(r_fr14_244,fr23_y2).
body(r_fr14_244,fr14_s1).
body(r_fr14_244,fr14_s2).
body(r_fr14_244,fr2_q2).
head(r_fr14_245,fr23_y2).
head(r_fr14_246,fr23_y2).
body(r_fr14_246,fr14_p2).
body(r_fr14_246,fr14_s2).
body(r_fr14_246,fr14_y1).
head(r_fr14_247,fr23_y2).
body(r_fr14_247,fr14_c1).
body(r_fr14_247,fr14_d2).
body(r_fr14_247,fr14_f1).
body(r_fr14_247,fr23_y2).
body(r_fr14_247,fr14_y1).
body(r_fr14_247,fr14_z2).
head(r_fr14_248,fr14_v2).
body(r_fr14_248,fr14_a2).
body(r_fr14_248,fr13_f2).
body(r_fr14_248,fr13_f2).
body(r_fr14_248,fr14_y1).
body(r_fr14_248,fr14_z2).
head(r_fr14_249,fr14_v2).
body(r_fr14_249,fr13_f2).
body(r_fr14_249,fr14_b2).
body(r_fr14_249,fr17_e2).
body(r_fr14_249,fr13_f2).
body(r_fr14_249,fr14_e1).
head(r_fr14_250,fr14_v2).
body(r_fr14_250,fr13_f2).
body(r_fr14_250,fr13_f2).
body(r_fr14_250,fr13_f2).
body(r_fr14_250,fr14_c1).
body(r_fr14_250,fr14_e1).
body(r_fr14_250,fr14_z2).
head(r_fr14_251,fr14_v2).
body(r_fr14_251,fr13_f2).
body(r_fr14_251,fr13_f2).
body(r_fr14_251,fr9_b4).
body(r_fr14_251,fr14_f1).
head(r_fr14_252,fr14_v2).
body(r_fr14_252,fr14_e1).
body(r_fr14_252,fr14_t1).
body(r_fr14_252,fr21_p2).
body(r_fr14_252,fr14_x1).
body(r_fr14_252,fr14_y1).
head(r_fr14_253,fr14_v2).
body(r_fr14_253,fr13_s1).
head(r_fr14_254,fr14_v2).
body(r_fr14_254,fr13_f2).
body(r_fr14_254,fr14_e1).
body(r_fr14_254,fr14_f1).
head(r_fr14_255,fr14_v2).
body(r_fr14_255,fr13_f2).
body(r_fr14_255,fr13_f2).
body(r_fr14_255,fr14_b2).
body(r_fr14_255,fr14_f2).
body(r_fr14_255,fr14_y1).
body(r_fr14_255,fr13_s1).
head(r_fr14_256,fr14_v2).
body(r_fr14_256,fr13_f2).
body(r_fr14_256,fr13_f2).
body(r_fr14_256,fr9_b4).
head(r_fr14_257,fr14_v2).
body(r_fr14_257,fr14_f1).
body(r_fr14_257,fr14_s2).
body(r_fr14_257,fr21_x3).
head(r_fr14_258,fr14_v2).
body(r_fr14_258,fr13_f2).
body(r_fr14_258,fr13_f2).
body(r_fr14_258,fr9_b4).
body(r_fr14_258,fr14_s1).
body(r_fr14_258,fr14_t1).
body(r_fr14_258,fr14_t2).
head(r_fr14_259,fr14_v2).
body(r_fr14_259,fr14_b2).
body(r_fr14_259,fr23_y2).
body(r_fr14_259,fr14_x1).
head(r_fr14_260,fr14_v2).
body(r_fr14_260,fr14_s2).
body(r_fr14_260,fr14_t1).
body(r_fr14_260,fr21_p2).
head(r_fr14_261,fr14_v2).
body(r_fr14_261,fr14_p2).
body(r_fr14_261,fr22_v1).
body(r_fr14_261,fr14_t2).
body(r_fr14_261,fr21_p2).
body(r_fr14_261,fr2_q2).
body(r_fr14_261,fr14_x1).
head(r_fr14_262,fr14_v2).
body(r_fr14_262,fr13_f2).
body(r_fr14_262,fr14_a2).
body(r_fr14_262,fr14_c1).
head(r_fr14_263,fr14_v2).
body(r_fr14_263,fr13_f2).
body(r_fr14_263,fr22_v1).
head(r_fr14_264,fr14_v2).
body(r_fr14_264,fr13_f2).
body(r_fr14_264,fr17_e2).
body(r_fr14_264,fr14_e1).
body(r_fr14_264,fr14_f2).
head(r_fr14_265,fr14_v2).
body(r_fr14_265,fr13_f2).
body(r_fr14_265,fr14_c1).
body(r_fr14_265,fr14_e1).
body(r_fr14_265,fr13_f2).
body(r_fr14_265,fr14_f2).
head(r_fr14_266,fr14_v2).
body(r_fr14_266,fr22_v1).
body(r_fr14_266,fr14_s2).
body(r_fr14_266,fr14_t2).
body(r_fr14_266,fr14_y1).
body(r_fr14_266,fr13_s1).
body(r_fr14_266,fr14_z2).
head(r_fr14_267,fr14_v2).
body(r_fr14_267,fr14_p2).
body(r_fr14_267,fr14_s1).
body(r_fr14_267,fr14_s2).
body(r_fr14_267,fr14_t1).
body(r_fr14_267,fr2_q2).
body(r_fr14_267,fr14_y1).
head(r_fr14_268,fr14_v2).
head(r_fr14_269,fr14_v2).
body(r_fr14_269,fr14_c1).
body(r_fr14_269,fr14_t1).
body(r_fr14_269,fr14_y1).
body(r_fr14_269,fr14_z2).
head(r_fr14_270,fr14_v2).
body(r_fr14_270,fr14_f2).
body(r_fr14_270,fr14_s1).
head(r_fr14_271,fr14_v2).
body(r_fr14_271,fr14_c1).
body(r_fr14_271,fr14_t1).
head(r_fr14_272,fr14_p2).
body(r_fr14_272,fr14_b2).
body(r_fr14_272,fr22_v1).
body(r_fr14_272,fr14_s1).
body(r_fr14_272,fr21_p2).
body(r_fr14_272,fr13_s1).
head(r_fr14_273,fr14_p2).
body(r_fr14_273,fr22_v1).
body(r_fr14_273,fr14_s1).
body(r_fr14_273,fr14_t2).
body(r_fr14_273,fr21_p2).
body(r_fr14_273,fr21_x3).
body(r_fr14_273,fr14_y1).
head(r_fr14_274,fr14_p2).
body(r_fr14_274,fr13_f2).
head(r_fr14_275,fr14_p2).
body(r_fr14_275,fr13_f2).
body(r_fr14_275,fr9_b4).
body(r_fr14_275,fr13_f2).
body(r_fr14_275,fr14_f1).
body(r_fr14_275,fr14_f2).
body(r_fr14_275,fr14_s2).
head(r_fr14_276,fr14_p2).
body(r_fr14_276,fr21_p2).
head(r_fr14_277,fr14_p2).
body(r_fr14_277,fr14_s1).
body(r_fr14_277,fr14_s2).
body(r_fr14_277,fr14_t2).
head(r_fr14_278,fr14_p2).
body(r_fr14_278,fr14_c1).
body(r_fr14_278,fr2_q2).
body(r_fr14_278,fr14_x1).
body(r_fr14_278,fr14_z2).
head(r_fr14_279,fr14_p2).
body(r_fr14_279,fr13_f2).
body(r_fr14_279,fr14_a2).
body(r_fr14_279,fr14_b2).
body(r_fr14_279,fr14_s1).
body(r_fr14_279,fr14_t1).
body(r_fr14_279,fr21_x3).
head(r_fr14_280,fr14_p2).
body(r_fr14_280,fr14_b2).
body(r_fr14_280,fr13_f2).
head(r_fr14_281,fr14_p2).
body(r_fr14_281,fr13_f2).
body(r_fr14_281,fr14_f2).
body(r_fr14_281,fr14_x1).
head(r_fr14_282,fr14_p2).
body(r_fr14_282,fr14_d2).
body(r_fr14_282,fr14_z2).
head(r_fr14_283,fr14_p2).
body(r_fr14_283,fr14_b2).
body(r_fr14_283,fr22_v1).
body(r_fr14_283,fr14_s1).
body(r_fr14_283,fr21_p2).
body(r_fr14_283,fr14_y1).
body(r_fr14_283,fr14_z2).
head(r_fr14_284,fr14_p2).
body(r_fr14_284,fr13_f2).
body(r_fr14_284,fr14_d2).
body(r_fr14_284,fr13_f2).
body(r_fr14_284,fr22_v1).
body(r_fr14_284,fr14_t1).
head(r_fr14_285,fr14_p2).
body(r_fr14_285,fr14_a2).
body(r_fr14_285,fr14_c1).
body(r_fr14_285,fr14_s1).
body(r_fr14_285,fr14_t2).
body(r_fr14_285,fr2_q2).
body(r_fr14_285,fr21_x3).
head(r_fr14_286,fr14_p2).
body(r_fr14_286,fr14_f2).
head(r_fr14_287,fr14_p2).
head(r_fr14_288,fr14_p2).
body(r_fr14_288,fr14_a2).
body(r_fr14_288,fr9_b4).
body(r_fr14_288,fr13_f2).
body(r_fr14_288,fr23_y2).
body(r_fr14_288,fr14_s2).
body(r_fr14_288,fr21_x3).
head(r_fr14_289,fr14_p2).
body(r_fr14_289,fr13_f2).
body(r_fr14_289,fr14_d2).
body(r_fr14_289,fr14_f1).
head(r_fr14_290,fr14_p2).
body(r_fr14_290,fr13_f2).
body(r_fr14_290,fr22_v1).
head(r_fr14_291,fr14_p2).
body(r_fr14_291,fr14_b2).
body(r_fr14_291,fr13_f2).
body(r_fr14_291,fr13_f2).
body(r_fr14_291,fr21_x3).
body(r_fr14_291,fr13_s1).
head(r_fr14_292,fr14_p2).
body(r_fr14_292,fr13_f2).
body(r_fr14_292,fr2_q2).
body(r_fr14_292,fr21_x3).
body(r_fr14_292,fr14_y1).
body(r_fr14_292,fr14_z2).
head(r_fr14_293,fr14_p2).
body(r_fr14_293,fr14_a2).
body(r_fr14_293,fr13_f2).
body(r_fr14_293,fr14_c1).
body(r_fr14_293,fr14_f1).
head(r_fr14_294,fr14_p2).
body(r_fr14_294,fr14_a2).
body(r_fr14_294,fr13_f2).
body(r_fr14_294,fr14_c1).
body(r_fr14_294,fr9_b4).
body(r_fr14_294,fr14_d2).
head(r_fr14_295,fr14_p2).
body(r_fr14_295,fr13_f2).
body(r_fr14_295,fr13_f2).
body(r_fr14_295,fr14_c1).
body(r_fr14_295,fr14_f1).
head(r_fr14_296,fr14_p2).
body(r_fr14_296,fr13_f2).
body(r_fr14_296,fr14_s1).
body(r_fr14_296,fr14_s2).
head(r_fr14_297,fr14_p2).
body(r_fr14_297,fr14_b2).
body(r_fr14_297,fr14_c1).
body(r_fr14_297,fr2_q2).
body(r_fr14_297,fr14_x1).
head(r_fr14_298,fr14_t1).
body(r_fr14_298,fr13_f2).
head(r_fr14_299,fr14_t1).
body(r_fr14_299,fr14_d2).
body(r_fr14_299,fr14_e1).
body(r_fr14_299,fr14_f2).
head(r_fr14_300,fr14_t1).
body(r_fr14_300,fr14_c1).
body(r_fr14_300,fr14_s2).
body(r_fr14_300,fr21_p2).
body(r_fr14_300,fr2_q2).
head(r_fr14_301,fr14_t1).
body(r_fr14_301,fr22_v1).
body(r_fr14_301,fr2_q2).
body(r_fr14_301,fr21_x3).
body(r_fr14_301,fr13_s1).
head(r_fr14_302,fr14_t1).
body(r_fr14_302,fr13_f2).
body(r_fr14_302,fr14_a2).
body(r_fr14_302,fr13_f2).
body(r_fr14_302,fr14_d2).
body(r_fr14_302,fr14_e1).
head(r_fr14_303,fr14_t1).
body(r_fr14_303,fr2_q2).
head(r_fr14_304,fr14_t1).
body(r_fr14_304,fr14_s1).
head(r_fr14_305,fr14_t1).
body(r_fr14_305,fr14_a2).
body(r_fr14_305,fr14_c1).
body(r_fr14_305,fr14_d2).
body(r_fr14_305,fr14_e1).
body(r_fr14_305,fr14_f2).
body(r_fr14_305,fr14_y1).
head(r_fr14_306,fr14_t1).
body(r_fr14_306,fr13_f2).
body(r_fr14_306,fr13_f2).
body(r_fr14_306,fr2_q2).
body(r_fr14_306,fr14_y1).
head(r_fr14_307,fr14_t1).
body(r_fr14_307,fr13_f2).
body(r_fr14_307,fr14_b2).
body(r_fr14_307,fr17_e2).
body(r_fr14_307,fr13_f2).
body(r_fr14_307,fr14_e1).
head(r_fr14_308,fr14_t1).
body(r_fr14_308,fr13_f2).
body(r_fr14_308,fr13_f2).
body(r_fr14_308,fr13_f2).
body(r_fr14_308,fr9_b4).
body(r_fr14_308,fr14_d2).
body(r_fr14_308,fr14_e1).
head(r_fr14_309,fr14_t1).
body(r_fr14_309,fr13_f2).
body(r_fr14_309,fr13_f2).
body(r_fr14_309,fr14_d2).
body(r_fr14_309,fr23_y2).
head(r_fr14_310,fr14_t1).
body(r_fr14_310,fr13_f2).
head(r_fr14_311,fr14_t1).
body(r_fr14_311,fr13_f2).
body(r_fr14_311,fr13_f2).
body(r_fr14_311,fr9_b4).
body(r_fr14_311,fr14_e1).
body(r_fr14_311,fr14_z2).
head(r_fr14_312,fr14_t1).
body(r_fr14_312,fr13_f2).
body(r_fr14_312,fr14_f1).
body(r_fr14_312,fr14_s1).
head(r_fr14_313,fr14_t1).
body(r_fr14_313,fr13_f2).
body(r_fr14_313,fr9_b4).
body(r_fr14_313,fr22_v1).
body(r_fr14_313,fr14_s1).
body(r_fr14_313,fr21_x3).
body(r_fr14_313,fr14_z2).
head(r_fr14_314,fr14_t1).
body(r_fr14_314,fr13_f2).
body(r_fr14_314,fr14_f2).
body(r_fr14_314,fr14_x1).
body(r_fr14_314,fr14_y1).
head(r_fr14_315,fr14_t1).
body(r_fr14_315,fr21_p2).
body(r_fr14_315,fr2_q2).
body(r_fr14_315,fr14_z2).
head(r_fr14_316,fr14_t1).
body(r_fr14_316,fr17_e2).
body(r_fr14_316,fr14_s1).
body(r_fr14_316,fr14_s2).
body(r_fr14_316,fr14_t2).
body(r_fr14_316,fr21_p2).
body(r_fr14_316,fr21_x3).
head(r_fr14_317,fr14_t1).
head(r_fr14_318,fr14_t1).
body(r_fr14_318,fr14_f1).
body(r_fr14_318,fr2_q2).
body(r_fr14_318,fr14_y1).
body(r_fr14_318,fr14_z2).
head(r_fr14_319,fr14_t1).
body(r_fr14_319,fr13_f2).
body(r_fr14_319,fr14_b2).
body(r_fr14_319,fr13_f2).
body(r_fr14_319,fr14_d2).
body(r_fr14_319,fr23_y2).
body(r_fr14_319,fr21_x3).
head(r_fr14_320,fr14_t1).
body(r_fr14_320,fr13_f2).
head(r_fr14_321,fr14_t1).
body(r_fr14_321,fr14_f1).
body(r_fr14_321,fr14_s1).
head(r_fr14_322,fr14_t1).
body(r_fr14_322,fr22_v1).
body(r_fr14_322,fr14_s1).
body(r_fr14_322,fr14_s2).
body(r_fr14_322,fr14_x1).
head(r_fr14_323,fr14_t1).
body(r_fr14_323,fr14_f1).
body(r_fr14_323,fr14_s2).
body(r_fr14_323,fr14_t2).
head(r_fr14_324,fr14_y1).
body(r_fr14_324,fr13_f2).
body(r_fr14_324,fr13_f2).
body(r_fr14_324,fr14_d2).
body(r_fr14_324,fr14_t2).
head(r_fr14_325,fr14_y1).
body(r_fr14_325,fr14_c1).
body(r_fr14_325,fr14_f1).
body(r_fr14_325,fr14_s1).
body(r_fr14_325,fr14_z2).
head(r_fr14_326,fr14_y1).
body(r_fr14_326,fr17_e2).
body(r_fr14_326,fr14_d2).
body(r_fr14_326,fr13_f2).
body(r_fr14_326,fr22_v1).
body(r_fr14_326,fr21_p2).
body(r_fr14_326,fr13_s1).
head(r_fr14_327,fr14_y1).
body(r_fr14_327,fr13_f2).
body(r_fr14_327,fr22_v1).
body(r_fr14_327,fr14_s2).
body(r_fr14_327,fr2_q2).
body(r_fr14_327,fr21_x3).
body(r_fr14_327,fr13_s1).
head(r_fr14_328,fr14_y1).
body(r_fr14_328,fr2_q2).
head(r_fr14_329,fr14_y1).
body(r_fr14_329,fr13_f2).
body(r_fr14_329,fr14_a2).
body(r_fr14_329,fr14_b2).
body(r_fr14_329,fr14_f1).
head(r_fr14_330,fr14_y1).
body(r_fr14_330,fr13_f2).
body(r_fr14_330,fr14_z2).
head(r_fr14_331,fr14_y1).
body(r_fr14_331,fr13_f2).
body(r_fr14_331,fr13_f2).
head(r_fr14_332,fr14_y1).
head(r_fr14_333,fr14_y1).
body(r_fr14_333,fr13_f2).
body(r_fr14_333,fr13_f2).
body(r_fr14_333,fr21_p2).
body(r_fr14_333,fr13_s1).
body(r_fr14_333,fr14_z2).
head(r_fr14_334,fr14_y1).
body(r_fr14_334,fr13_f2).
body(r_fr14_334,fr22_v1).
body(r_fr14_334,fr14_s1).
body(r_fr14_334,fr14_z2).
head(r_fr14_335,fr14_y1).
body(r_fr14_335,fr13_f2).
body(r_fr14_335,fr14_e1).
head(r_fr14_336,fr14_y1).
body(r_fr14_336,fr14_e1).
head(r_fr14_337,fr14_y1).
body(r_fr14_337,fr13_f2).
body(r_fr14_337,fr14_c1).
body(r_fr14_337,fr14_f1).
body(r_fr14_337,fr14_f2).
head(r_fr14_338,fr14_y1).
body(r_fr14_338,fr14_s1).
body(r_fr14_338,fr21_x3).
head(r_fr14_339,fr14_y1).
body(r_fr14_339,fr14_a2).
body(r_fr14_339,fr13_f2).
body(r_fr14_339,fr14_c1).
body(r_fr14_339,fr13_f2).
body(r_fr14_339,fr14_f2).
body(r_fr14_339,fr14_s1).
head(r_fr14_340,fr14_y1).
body(r_fr14_340,fr13_f2).
body(r_fr14_340,fr13_f2).
head(r_fr14_341,fr14_y1).
body(r_fr14_341,fr17_e2).
body(r_fr14_341,fr9_b4).
body(r_fr14_341,fr14_d2).
body(r_fr14_341,fr14_s2).
body(r_fr14_341,fr21_p2).
body(r_fr14_341,fr14_z2).
head(r_fr14_342,fr14_y1).
body(r_fr14_342,fr9_b4).
body(r_fr14_342,fr13_f2).
body(r_fr14_342,fr14_s2).
body(r_fr14_342,fr2_q2).
body(r_fr14_342,fr14_x1).
body(r_fr14_342,fr14_z2).
head(r_fr14_343,fr14_y1).
body(r_fr14_343,fr14_a2).
body(r_fr14_343,fr14_d2).
body(r_fr14_343,fr2_q2).
head(r_fr14_344,fr14_y1).
body(r_fr14_344,fr14_s1).
body(r_fr14_344,fr14_s2).
head(r_fr14_345,fr14_y1).
body(r_fr14_345,fr17_e2).
body(r_fr14_345,fr13_f2).
head(r_fr14_346,fr14_y1).
body(r_fr14_346,fr14_f2).
head(r_fr14_347,fr14_y1).
body(r_fr14_347,fr13_f2).
head(r_fr14_348,fr14_y1).
body(r_fr14_348,fr14_c1).
body(r_fr14_348,fr17_e2).
body(r_fr14_348,fr14_d2).
body(r_fr14_348,fr14_f2).
body(r_fr14_348,fr21_x3).
head(r_fr14_349,fr23_y2).
body(r_fr14_349,fr22_v1).
head(r_fr14_350,fr23_y2).
body(r_fr14_350,fr13_f2).
body(r_fr14_350,fr14_s1).
body(r_fr14_350,fr14_t2).
body(r_fr14_350,fr14_x1).
body(r_fr14_350,fr13_s1).
head(r_fr14_351,fr23_y2).
body(r_fr14_351,fr14_b2).
head(r_fr14_352,fr23_y2).
body(r_fr14_352,fr13_f2).
body(r_fr14_352,fr14_a2).
body(r_fr14_352,fr13_f2).
body(r_fr14_352,fr14_e1).
body(r_fr14_352,fr13_f2).
head(r_fr14_353,fr23_y2).
body(r_fr14_353,fr13_f2).
body(r_fr14_353,fr9_b4).
head(r_fr14_354,fr23_y2).
body(r_fr14_354,fr14_t2).
body(r_fr14_354,fr14_x1).
body(r_fr14_354,fr13_s1).
body(r_fr14_354,fr14_z2).
head(r_fr14_355,fr23_y2).
body(r_fr14_355,fr14_s1).
head(r_fr14_356,fr23_y2).
body(r_fr14_356,fr13_f2).
body(r_fr14_356,fr21_p2).
body(r_fr14_356,fr21_x3).
head(r_fr14_357,fr23_y2).
body(r_fr14_357,fr14_a2).
body(r_fr14_357,fr13_f2).
body(r_fr14_357,fr14_b2).
body(r_fr14_357,fr14_c1).
body(r_fr14_357,fr14_e1).
body(r_fr14_357,fr14_f2).
head(r_fr14_358,fr23_y2).
body(r_fr14_358,fr22_v1).
body(r_fr14_358,fr14_s2).
body(r_fr14_358,fr14_t2).
body(r_fr14_358,fr2_q2).
body(r_fr14_358,fr14_x1).
body(r_fr14_358,fr14_z2).
head(r_fr14_359,fr23_y2).
body(r_fr14_359,fr13_f2).
body(r_fr14_359,fr14_a2).
body(r_fr14_359,fr13_f2).
body(r_fr14_359,fr9_b4).
body(r_fr14_359,fr14_f1).
head(r_fr14_360,fr23_y2).
body(r_fr14_360,fr22_v1).
body(r_fr14_360,fr14_s2).
body(r_fr14_360,fr14_x1).
body(r_fr14_360,fr21_x3).
body(r_fr14_360,fr14_z2).
head(r_fr14_361,fr23_y2).
body(r_fr14_361,fr13_f2).
body(r_fr14_361,fr14_t2).
head(r_fr14_362,fr23_y2).
body(r_fr14_362,fr14_s1).
body(r_fr14_362,fr14_t2).
body(r_fr14_362,fr2_q2).
body(r_fr14_362,fr14_x1).
body(r_fr14_362,fr13_s1).
head(r_fr14_363,fr23_y2).
body(r_fr14_363,fr13_f2).
body(r_fr14_363,fr13_f2).
body(r_fr14_363,fr14_c1).
body(r_fr14_363,fr14_s1).
body(r_fr14_363,fr14_s2).
body(r_fr14_363,fr14_t2).
head(r_fr14_364,fr23_y2).
body(r_fr14_364,fr14_s2).
body(r_fr14_364,fr21_p2).
head(r_fr14_365,fr23_y2).
body(r_fr14_365,fr22_v1).
body(r_fr14_365,fr14_s1).
body(r_fr14_365,fr14_t2).
body(r_fr14_365,fr21_p2).
body(r_fr14_365,fr2_q2).
body(r_fr14_365,fr14_x1).
head(r_fr14_366,fr23_y2).
body(r_fr14_366,fr14_a2).
body(r_fr14_366,fr13_f2).
body(r_fr14_366,fr14_e1).
body(r_fr14_366,fr14_f1).
body(r_fr14_366,fr14_f2).
body(r_fr14_366,fr2_q2).
head(r_fr14_367,fr23_y2).
body(r_fr14_367,fr14_a2).
body(r_fr14_367,fr13_f2).
body(r_fr14_367,fr14_f1).
body(r_fr14_367,fr14_f2).
head(r_fr14_368,fr23_y2).
head(r_fr14_369,fr23_y2).
body(r_fr14_369,fr13_f2).
body(r_fr14_369,fr13_f2).
body(r_fr14_369,fr14_c1).
body(r_fr14_369,fr14_e1).
head(r_fr14_370,fr23_y2).
body(r_fr14_370,fr13_f2).
head(r_fr14_371,fr23_y2).
body(r_fr14_371,fr21_x3).
head(r_fr14_372,fr13_s1).
body(r_fr14_372,fr14_f2).
body(r_fr14_372,fr2_q2).
head(r_fr14_373,fr13_s1).
body(r_fr14_373,fr13_f2).
body(r_fr14_373,fr22_v1).
head(r_fr14_374,fr13_s1).
body(r_fr14_374,fr17_e2).
body(r_fr14_374,fr14_e1).
body(r_fr14_374,fr14_s1).
body(r_fr14_374,fr21_p2).
body(r_fr14_374,fr14_x1).
body(r_fr14_374,fr21_x3).
head(r_fr14_375,fr13_s1).
body(r_fr14_375,fr14_f1).
body(r_fr14_375,fr14_s2).
head(r_fr14_376,fr13_s1).
body(r_fr14_376,fr14_s1).
body(r_fr14_376,fr21_x3).
head(r_fr14_377,fr13_s1).
body(r_fr14_377,fr14_a2).
body(r_fr14_377,fr13_f2).
body(r_fr14_377,fr13_f2).
body(r_fr14_377,fr13_f2).
body(r_fr14_377,fr14_z2).
head(r_fr14_378,fr13_s1).
body(r_fr14_378,fr14_d2).
body(r_fr14_378,fr13_f2).
body(r_fr14_378,fr14_f1).
body(r_fr14_378,fr14_s1).
body(r_fr14_378,fr14_s2).
body(r_fr14_378,fr21_p2).
head(r_fr14_379,fr13_s1).
body(r_fr14_379,fr13_f2).
body(r_fr14_379,fr14_b2).
body(r_fr14_379,fr9_b4).
body(r_fr14_379,fr14_e1).
body(r_fr14_379,fr14_f2).
body(r_fr14_379,fr21_p2).
head(r_fr14_380,fr13_s1).
body(r_fr14_380,fr14_b2).
body(r_fr14_380,fr17_e2).
body(r_fr14_380,fr9_b4).
body(r_fr14_380,fr13_f2).
head(r_fr14_381,fr13_s1).
body(r_fr14_381,fr14_c1).
body(r_fr14_381,fr17_e2).
body(r_fr14_381,fr13_f2).
body(r_fr14_381,fr14_e1).
body(r_fr14_381,fr14_f1).
head(r_fr14_382,fr13_s1).
body(r_fr14_382,fr14_d2).
head(r_fr14_383,fr13_s1).
body(r_fr14_383,fr13_f2).
body(r_fr14_383,fr13_f2).
body(r_fr14_383,fr13_f2).
body(r_fr14_383,fr14_d2).
body(r_fr14_383,fr22_v1).
body(r_fr14_383,fr14_t2).
head(r_fr14_384,fr13_s1).
body(r_fr14_384,fr21_p2).
head(r_fr14_385,fr13_s1).
body(r_fr14_385,fr14_a2).
body(r_fr14_385,fr13_f2).
body(r_fr14_385,fr14_c1).
body(r_fr14_385,fr14_d2).
body(r_fr14_385,fr14_s1).
head(r_fr14_386,fr13_s1).
body(r_fr14_386,fr13_f2).
body(r_fr14_386,fr17_e2).
body(r_fr14_386,fr9_b4).
body(r_fr14_386,fr14_d2).
body(r_fr14_386,fr13_f2).
head(r_fr14_387,fr13_s1).
body(r_fr14_387,fr9_b4).
head(r_fr14_388,fr13_s1).
body(r_fr14_388,fr22_v1).
head(r_fr14_389,fr13_s1).
body(r_fr14_389,fr13_f2).
body(r_fr14_389,fr9_b4).
body(r_fr14_389,fr14_e1).
body(r_fr14_389,fr14_s2).
head(r_fr14_390,fr13_s1).
body(r_fr14_390,fr14_a2).
head(r_fr14_391,fr13_s1).
body(r_fr14_391,fr13_f2).
body(r_fr14_391,fr22_v1).
body(r_fr14_391,fr14_s1).
body(r_fr14_391,fr14_t2).
body(r_fr14_391,fr21_p2).
body(r_fr14_391,fr14_z2).
head(r_fr14_392,fr13_s1).
head(r_fr14_393,fr13_s1).
body(r_fr14_393,fr14_t2).
head(r_fr14_394,fr13_s1).
body(r_fr14_394,fr14_t2).
body(r_fr14_394,fr21_x3).
head(r_fr14_395,fr13_s1).
body(r_fr14_395,fr14_s1).
body(r_fr14_395,fr21_p2).
body(r_fr14_395,fr21_x3).
body(r_fr14_395,fr14_z2).
head(r_fr14_396,fr21_x3).
body(r_fr14_396,fr13_f2).
body(r_fr14_396,fr14_a2).
body(r_fr14_396,fr13_f2).
body(r_fr14_396,fr9_b4).
body(r_fr14_396,fr13_f2).
body(r_fr14_396,fr14_f1).
head(r_fr14_397,fr21_x3).
body(r_fr14_397,fr13_f2).
body(r_fr14_397,fr14_s2).
head(r_fr14_398,fr21_x3).
body(r_fr14_398,fr13_f2).
body(r_fr14_398,fr17_e2).
body(r_fr14_398,fr22_v1).
body(r_fr14_398,fr21_p2).
body(r_fr14_398,fr14_x1).
head(r_fr14_399,fr21_x3).
body(r_fr14_399,fr13_f2).
body(r_fr14_399,fr14_c1).
body(r_fr14_399,fr13_f2).
body(r_fr14_399,fr14_s2).
head(r_fr14_400,fr21_x3).
body(r_fr14_400,fr17_e2).
body(r_fr14_400,fr22_v1).
body(r_fr14_400,fr14_t2).
body(r_fr14_400,fr21_p2).
head(r_fr14_401,fr21_x3).
body(r_fr14_401,fr13_f2).
head(r_fr14_402,fr21_x3).
body(r_fr14_402,fr13_f2).
body(r_fr14_402,fr13_f2).
body(r_fr14_402,fr21_p2).
head(r_fr14_403,fr21_x3).
body(r_fr14_403,fr21_p2).
body(r_fr14_403,fr14_x1).
body(r_fr14_403,fr14_z2).
head(r_fr14_404,fr21_x3).
body(r_fr14_404,fr14_f1).
body(r_fr14_404,fr14_s1).
head(r_fr14_405,fr21_x3).
body(r_fr14_405,fr13_f2).
body(r_fr14_405,fr14_e1).
body(r_fr14_405,fr14_f2).
body(r_fr14_405,fr14_s1).
body(r_fr14_405,fr14_s2).
body(r_fr14_405,fr14_z2).
head(r_fr14_406,fr21_x3).
body(r_fr14_406,fr13_f2).
body(r_fr14_406,fr14_e1).
body(r_fr14_406,fr22_v1).
body(r_fr14_406,fr14_s1).
body(r_fr14_406,fr2_q2).
body(r_fr14_406,fr14_x1).
head(r_fr14_407,fr21_x3).
body(r_fr14_407,fr14_s1).
head(r_fr14_408,fr21_x3).
body(r_fr14_408,fr14_a2).
body(r_fr14_408,fr13_f2).
body(r_fr14_408,fr13_f2).
body(r_fr14_408,fr13_f2).
body(r_fr14_408,fr14_f1).
head(r_fr14_409,fr21_x3).
body(r_fr14_409,fr13_f2).
body(r_fr14_409,fr14_c1).
body(r_fr14_409,fr17_e2).
body(r_fr14_409,fr14_s1).
body(r_fr14_409,fr14_s2).
body(r_fr14_409,fr21_p2).
head(r_fr14_410,fr21_x3).
body(r_fr14_410,fr17_e2).
body(r_fr14_410,fr14_f2).
body(r_fr14_410,fr21_p2).
body(r_fr14_410,fr14_x1).
head(r_fr14_411,fr21_x3).
body(r_fr14_411,fr14_x1).
head(r_fr14_412,fr21_x3).
body(r_fr14_412,fr14_d2).
body(r_fr14_412,fr14_s1).
body(r_fr14_412,fr14_z2).
head(r_fr14_413,fr21_x3).
body(r_fr14_413,fr14_a2).
body(r_fr14_413,fr13_f2).
body(r_fr14_413,fr17_e2).
body(r_fr14_413,fr14_d2).
body(r_fr14_413,fr14_f1).
head(r_fr14_414,fr21_x3).
body(r_fr14_414,fr14_a2).
body(r_fr14_414,fr14_d2).
body(r_fr14_414,fr22_v1).
body(r_fr14_414,fr14_s1).
body(r_fr14_414,fr14_t2).
body(r_fr14_414,fr21_p2).
head(r_fr14_415,fr21_x3).
body(r_fr14_415,fr14_c1).
head(r_fr14_416,fr21_x3).
head(r_fr14_417,fr21_x3).
body(r_fr14_417,fr13_f2).
body(r_fr14_417,fr13_f2).
body(r_fr14_417,fr14_e1).
head(r_fr14_418,fr21_x3).
body(r_fr14_418,fr13_f2).
body(r_fr14_418,fr13_f2).
body(r_fr14_418,fr14_b2).
body(r_fr14_418,fr17_e2).
body(r_fr14_418,fr14_d2).
body(r_fr14_418,fr14_f1).
head(r_fr14_419,fr21_x3).
body(r_fr14_419,fr9_b4).
head(r_fr14_420,fr14_x1).
body(r_fr14_420,fr13_f2).
body(r_fr14_420,fr14_f1).
head(r_fr14_421,fr14_x1).
body(r_fr14_421,fr14_a2).
body(r_fr14_421,fr14_d2).
body(r_fr14_421,fr14_s1).
body(r_fr14_421,fr14_t2).
body(r_fr14_421,fr21_p2).
body(r_fr14_421,fr2_q2).
head(r_fr14_422,fr14_x1).
body(r_fr14_422,fr14_a2).
body(r_fr14_422,fr17_e2).
body(r_fr14_422,fr14_f2).
body(r_fr14_422,fr2_q2).
head(r_fr14_423,fr14_x1).
body(r_fr14_423,fr14_s1).
body(r_fr14_423,fr2_q2).
head(r_fr14_424,fr14_x1).
body(r_fr14_424,fr13_f2).
body(r_fr14_424,fr13_f2).
body(r_fr14_424,fr9_b4).
body(r_fr14_424,fr13_f2).
head(r_fr14_425,fr14_x1).
body(r_fr14_425,fr14_s2).
head(r_fr14_426,fr14_x1).
body(r_fr14_426,fr14_s1).
body(r_fr14_426,fr14_s2).
body(r_fr14_426,fr14_t2).
body(r_fr14_426,fr21_p2).
body(r_fr14_426,fr2_q2).
head(r_fr14_427,fr14_x1).
body(r_fr14_427,fr13_f2).
head(r_fr14_428,fr14_x1).
body(r_fr14_428,fr14_a2).
body(r_fr14_428,fr22_v1).
body(r_fr14_428,fr14_t2).
body(r_fr14_428,fr2_q2).
body(r_fr14_428,fr14_z2).
head(r_fr14_429,fr14_x1).
body(r_fr14_429,fr22_v1).
body(r_fr14_429,fr14_s1).
body(r_fr14_429,fr14_s2).
body(r_fr14_429,fr21_p2).
head(r_fr14_430,fr14_x1).
body(r_fr14_430,fr14_b2).
body(r_fr14_430,fr9_b4).
body(r_fr14_430,fr13_f2).
body(r_fr14_430,fr22_v1).
body(r_fr14_430,fr14_z2).
head(r_fr14_431,fr14_x1).
body(r_fr14_431,fr22_v1).
body(r_fr14_431,fr14_s1).
body(r_fr14_431,fr14_s2).
body(r_fr14_431,fr14_t2).
body(r_fr14_431,fr2_q2).
body(r_fr14_431,fr14_z2).
head(r_fr14_432,fr14_x1).
body(r_fr14_432,fr13_f2).
body(r_fr14_432,fr2_q2).
head(r_fr14_433,fr14_x1).
body(r_fr14_433,fr13_f2).
body(r_fr14_433,fr22_v1).
body(r_fr14_433,fr21_p2).
body(r_fr14_433,fr2_q2).
head(r_fr14_434,fr14_x1).
body(r_fr14_434,fr13_f2).
body(r_fr14_434,fr13_f2).
body(r_fr14_434,fr14_f1).
body(r_fr14_434,fr14_t2).
head(r_fr14_435,fr14_x1).
body(r_fr14_435,fr14_f2).
head(r_fr14_436,fr14_x1).
body(r_fr14_436,fr14_b2).
body(r_fr14_436,fr13_f2).
body(r_fr14_436,fr9_b4).
body(r_fr14_436,fr14_s2).
body(r_fr14_436,fr14_t2).
body(r_fr14_436,fr14_z2).
head(r_fr14_437,fr14_x1).
body(r_fr14_437,fr13_f2).
body(r_fr14_437,fr14_s1).
head(r_fr14_438,fr14_x1).
body(r_fr14_438,fr14_a2).
body(r_fr14_438,fr9_b4).
body(r_fr14_438,fr14_e1).
body(r_fr14_438,fr14_s1).
body(r_fr14_438,fr14_t2).
head(r_fr14_439,fr14_x1).
body(r_fr14_439,fr13_f2).
body(r_fr14_439,fr13_f2).
body(r_fr14_439,fr14_e1).
body(r_fr14_439,fr13_f2).
body(r_fr14_439,fr2_q2).
body(r_fr14_439,fr14_z2).
head(r_fr14_440,fr14_x1).
body(r_fr14_440,fr13_f2).
body(r_fr14_440,fr14_c1).
body(r_fr14_440,fr17_e2).
body(r_fr14_440,fr14_e1).
body(r_fr14_440,fr14_f1).
body(r_fr14_440,fr14_f2).
head(r_fr14_441,fr14_x1).
body(r_fr14_441,fr9_b4).
head(r_fr14_442,fr14_x1).
body(r_fr14_442,fr13_f2).
body(r_fr14_442,fr14_f1).
body(r_fr14_442,fr14_z2).
head(r_fr14_443,fr14_x1).
body(r_fr14_443,fr14_b2).
body(r_fr14_443,fr13_f2).
body(r_fr14_443,fr21_p2).
head(r_fr14_444,fr14_x1).
body(r_fr14_444,fr13_f2).
body(r_fr14_444,fr9_b4).
body(r_fr14_444,fr14_d2).
body(r_fr14_444,fr14_e1).
body(r_fr14_444,fr14_s2).
body(r_fr14_444,fr14_z2).
head(r_fr14_445,fr14_x1).
head(r_fr14_446,fr2_q2).
body(r_fr14_446,fr14_a2).
body(r_fr14_446,fr22_v1).
body(r_fr14_446,fr21_p2).
body(r_fr14_446,fr14_z2).
head(r_fr14_447,fr2_q2).
body(r_fr14_447,fr13_f2).
body(r_fr14_447,fr9_b4).
head(r_fr14_448,fr2_q2).
body(r_fr14_448,fr21_p2).
head(r_fr14_449,fr2_q2).
body(r_fr14_449,fr22_v1).
body(r_fr14_449,fr14_s1).
body(r_fr14_449,fr14_s2).
body(r_fr14_449,fr21_p2).
body(r_fr14_449,fr14_z2).
head(r_fr14_450,fr2_q2).
body(r_fr14_450,fr9_b4).
body(r_fr14_450,fr14_s2).
head(r_fr14_451,fr2_q2).
body(r_fr14_451,fr14_t2).
body(r_fr14_451,fr21_p2).
head(r_fr14_452,fr2_q2).
body(r_fr14_452,fr13_f2).
body(r_fr14_452,fr14_b2).
body(r_fr14_452,fr13_f2).
body(r_fr14_452,fr17_e2).
head(r_fr14_453,fr2_q2).
head(r_fr14_454,fr2_q2).
body(r_fr14_454,fr14_f1).
head(r_fr14_455,fr2_q2).
body(r_fr14_455,fr14_a2).
body(r_fr14_455,fr14_c1).
body(r_fr14_455,fr9_b4).
body(r_fr14_455,fr13_f2).
body(r_fr14_455,fr14_s1).
head(r_fr14_456,fr2_q2).
body(r_fr14_456,fr13_f2).
body(r_fr14_456,fr14_f1).
body(r_fr14_456,fr14_f2).
body(r_fr14_456,fr14_t2).
head(r_fr14_457,fr2_q2).
body(r_fr14_457,fr14_t2).
head(r_fr14_458,fr2_q2).
body(r_fr14_458,fr17_e2).
body(r_fr14_458,fr14_f1).
body(r_fr14_458,fr14_s1).
body(r_fr14_458,fr14_s2).
body(r_fr14_458,fr14_t2).
body(r_fr14_458,fr21_p2).
head(r_fr14_459,fr2_q2).
body(r_fr14_459,fr14_z2).
head(r_fr14_460,fr2_q2).
body(r_fr14_460,fr13_f2).
body(r_fr14_460,fr13_f2).
body(r_fr14_460,fr14_f2).
body(r_fr14_460,fr14_z2).
head(r_fr14_461,fr2_q2).
body(r_fr14_461,fr17_e2).
body(r_fr14_461,fr14_e1).
body(r_fr14_461,fr14_f1).
body(r_fr14_461,fr14_s1).
head(r_fr14_462,fr2_q2).
body(r_fr14_462,fr14_f2).
body(r_fr14_462,fr22_v1).
body(r_fr14_462,fr14_z2).
head(r_fr14_463,fr2_q2).
body(r_fr14_463,fr14_a2).
body(r_fr14_463,fr13_f2).
body(r_fr14_463,fr14_b2).
body(r_fr14_463,fr14_e1).
body(r_fr14_463,fr14_t2).
head(r_fr14_464,fr2_q2).
body(r_fr14_464,fr9_b4).
body(r_fr14_464,fr14_s1).
head(r_fr14_465,fr2_q2).
body(r_fr14_465,fr13_f2).
body(r_fr14_465,fr13_f2).
body(r_fr14_465,fr13_f2).
head(r_fr14_466,fr2_q2).
body(r_fr14_466,fr13_f2).
body(r_fr14_466,fr14_c1).
body(r_fr14_466,fr22_v1).
body(r_fr14_466,fr14_s1).
head(r_fr14_467,fr2_q2).
body(r_fr14_467,fr9_b4).
body(r_fr14_467,fr22_v1).
head(r_fr14_468,fr2_q2).
body(r_fr14_468,fr22_v1).
body(r_fr14_468,fr14_s1).
body(r_fr14_468,fr14_s2).
body(r_fr14_468,fr21_p2).
head(r_fr14_469,fr14_t2).
body(r_fr14_469,fr14_s1).
head(r_fr14_470,fr14_t2).
body(r_fr14_470,fr13_f2).
body(r_fr14_470,fr13_f2).
body(r_fr14_470,fr14_b2).
body(r_fr14_470,fr14_e1).
body(r_fr14_470,fr22_v1).
body(r_fr14_470,fr14_z2).
head(r_fr14_471,fr14_t2).
body(r_fr14_471,fr14_c1).
body(r_fr14_471,fr22_v1).
body(r_fr14_471,fr21_p2).
head(r_fr14_472,fr14_t2).
body(r_fr14_472,fr14_f1).
body(r_fr14_472,fr14_f2).
body(r_fr14_472,fr14_z2).
head(r_fr14_473,fr14_t2).
body(r_fr14_473,fr13_f2).
head(r_fr14_474,fr14_t2).
body(r_fr14_474,fr13_f2).
body(r_fr14_474,fr13_f2).
body(r_fr14_474,fr14_d2).
body(r_fr14_474,fr14_s1).
body(r_fr14_474,fr21_p2).
head(r_fr14_475,fr14_t2).
body(r_fr14_475,fr14_d2).
body(r_fr14_475,fr14_s1).
head(r_fr14_476,fr14_t2).
body(r_fr14_476,fr13_f2).
body(r_fr14_476,fr14_z2).
head(r_fr14_477,fr14_t2).
body(r_fr14_477,fr14_s2).
body(r_fr14_477,fr14_z2).
head(r_fr14_478,fr14_t2).
body(r_fr14_478,fr9_b4).
body(r_fr14_478,fr21_p2).
head(r_fr14_479,fr14_t2).
body(r_fr14_479,fr13_f2).
body(r_fr14_479,fr21_p2).
head(r_fr14_480,fr14_t2).
body(r_fr14_480,fr13_f2).
head(r_fr14_481,fr14_t2).
body(r_fr14_481,fr13_f2).
body(r_fr14_481,fr14_s2).
body(r_fr14_481,fr21_p2).
body(r_fr14_481,fr14_z2).
head(r_fr14_482,fr14_t2).
body(r_fr14_482,fr13_f2).
body(r_fr14_482,fr13_f2).
body(r_fr14_482,fr14_e1).
head(r_fr14_483,fr14_t2).
body(r_fr14_483,fr14_a2).
body(r_fr14_483,fr13_f2).
body(r_fr14_483,fr17_e2).
body(r_fr14_483,fr13_f2).
body(r_fr14_483,fr14_d2).
body(r_fr14_483,fr14_f1).
head(r_fr14_484,fr14_t2).
body(r_fr14_484,fr13_f2).
body(r_fr14_484,fr13_f2).
body(r_fr14_484,fr14_s2).
body(r_fr14_484,fr21_p2).
body(r_fr14_484,fr14_z2).
head(r_fr14_485,fr14_t2).
body(r_fr14_485,fr14_s1).
body(r_fr14_485,fr21_p2).
body(r_fr14_485,fr14_z2).
head(r_fr14_486,fr14_t2).
body(r_fr14_486,fr14_f1).
body(r_fr14_486,fr22_v1).
head(r_fr14_487,fr14_t2).
body(r_fr14_487,fr13_f2).
body(r_fr14_487,fr22_v1).
body(r_fr14_487,fr14_s1).
body(r_fr14_487,fr21_p2).
head(r_fr14_488,fr14_t2).
body(r_fr14_488,fr14_c1).
body(r_fr14_488,fr9_b4).
body(r_fr14_488,fr14_d2).
body(r_fr14_488,fr14_f2).
head(r_fr14_489,fr14_t2).
body(r_fr14_489,fr13_f2).
body(r_fr14_489,fr14_f1).
body(r_fr14_489,fr14_f2).
body(r_fr14_489,fr22_v1).
body(r_fr14_489,fr14_s1).
body(r_fr14_489,fr14_z2).
head(r_fr14_490,fr14_t2).
body(r_fr14_490,fr13_f2).
body(r_fr14_490,fr13_f2).
body(r_fr14_490,fr17_e2).
body(r_fr14_490,fr13_f2).
body(r_fr14_490,fr14_s1).
body(r_fr14_490,fr14_z2).
head(r_fr14_491,fr14_t2).
head(r_fr14_492,fr14_t2).
body(r_fr14_492,fr14_s1).
body(r_fr14_492,fr14_s2).
body(r_fr14_492,fr21_p2).
body(r_fr14_492,fr14_z2).
head(r_fr14_493,fr14_t2).
body(r_fr14_493,fr13_f2).
body(r_fr14_493,fr14_f2).
body(r_fr14_493,fr14_s1).
body(r_fr14_493,fr14_z2).

assumption(fr13_f2).
assumption(fr13_f2).
assumption(fr13_f2).
assumption(fr13_f2).
assumption(fr13_f2).
assumption(fr14_c1).
contrary(fr13_f2,fr23_y2).
contrary(fr13_f2,fr13_z1).
contrary(fr13_f2,fr15_y1).
contrary(fr13_f2,fr25_q2).
contrary(fr13_f2,fr14_c1).
contrary(fr14_c1,fr23_y2).
head(r_fr15_0,fr15_y1).
body(r_fr15_0,fr13_f2).
body(r_fr15_0,fr14_c1).
head(r_fr15_1,fr15_y1).
body(r_fr15_1,fr13_z1).
head(r_fr15_2,fr2_q2).
body(r_fr15_2,fr23_y2).
head(r_fr15_3,fr2_q2).
head(r_fr15_4,fr25_q2).
head(r_fr15_5,fr25_q2).
body(r_fr15_5,fr13_f2).
head(r_fr15_6,fr23_u2).
body(r_fr15_6,fr23_y2).
head(r_fr15_7,fr23_u2).
head(r_fr15_8,fr13_z1).
body(r_fr15_8,fr13_f2).
head(r_fr15_9,fr13_z1).
head(r_fr15_10,fr13_z1).
body(r_fr15_10,fr13_f2).
body(r_fr15_10,fr13_z1).
head(r_fr15_11,fr13_z1).
body(r_fr15_11,fr13_f2).
head(r_fr15_12,fr13_z1).
body(r_fr15_12,fr13_f2).
body(r_fr15_12,fr14_c1).
head(r_fr15_13,fr13_z1).
body(r_fr15_13,fr13_f2).
head(r_fr15_14,fr23_y2).
body(r_fr15_14,fr13_f2).
head(r_fr15_15,fr23_y2).
body(r_fr15_15,fr13_f2).
body(r_fr15_15,fr2_q2).

assumption(fr16_a1).
assumption(fr16_b1).
assumption(fr16_c1).
assumption(fr13_f2).
assumption(fr13_f2).
assumption(fr16_f1).
assumption(fr16_a2).
assumption(fr13_f2).
assumption(fr14_c1).
assumption(fr14_d2).
assumption(fr16_e2).
assumption(fr14_c1).
assumption(fr16_a3).
assumption(fr14_d2).
assumption(fr14_d2).
assumption(fr13_f2).
assumption(fr9_b5).
assumption(fr16_f3).
contrary(fr16_a1,fr13_f2).
contrary(fr16_a2,fr16_w1).
contrary(fr16_a3,fr14_d2).
contrary(fr16_b1,fr16_x2).
contrary(fr13_f2,fr16_p2).
contrary(fr14_d2,fr14_c1).
contrary(fr16_c1,fr13_f2).
contrary(fr14_c1,fr16_p3).
contrary(fr14_d2,fr17_z1).
contrary(fr13_f2,fr16_y2).
contrary(fr14_d2,fr13_f2).
contrary(fr13_f2,fr13_t2).
contrary(fr13_f2,fr16_e2).
contrary(fr16_e2,fr16_q3).
contrary(fr9_b5,fr16_x1).
contrary(fr16_f1,fr16_y2).
contrary(fr14_c1,fr13_t2).
contrary(fr16_f3,fr16_q3).
head(r_fr16_0,fr16_w1).
body(r_fr16_0,fr16_f1).
head(r_fr16_1,fr16_w1).
body(r_fr16_1,fr16_b1).
body(r_fr16_1,fr14_c1).
body(r_fr16_1,fr14_d2).
body(r_fr16_1,fr13_f2).
head(r_fr16_2,fr16_w1).
body(r_fr16_2,fr14_d2).
body(r_fr16_2,fr13_f2).
body(r_fr16_2,fr16_f1).
body(r_fr16_2,fr14_c1).
head(r_fr16_3,fr16_w1).
body(r_fr16_3,fr13_f2).
body(r_fr16_3,fr14_d2).
body(r_fr16_3,fr9_b5).
head(r_fr16_4,fr16_w1).
body(r_fr16_4,fr16_b1).
body(r_fr16_4,fr9_b5).
body(r_fr16_4,fr9_x2).
body(r_fr16_4,fr16_z1).
head(r_fr16_5,fr16_w1).
body(r_fr16_5,fr14_d2).
body(r_fr16_5,fr13_t2).
body(r_fr16_5,fr16_t2).
body(r_fr16_5,fr16_y2).
body(r_fr16_5,fr22_p2).
head(r_fr16_6,fr16_t2).
body(r_fr16_6,fr13_f2).
body(r_fr16_6,fr13_f2).
head(r_fr16_7,fr16_t2).
body(r_fr16_7,fr13_f2).
body(r_fr16_7,fr13_f2).
body(r_fr16_7,fr9_b5).
body(r_fr16_7,fr14_c1).
body(r_fr16_7,fr16_u3).
body(r_fr16_7,fr1_p4).
body(r_fr16_7,fr16_y2).
head(r_fr16_8,fr16_t2).
body(r_fr16_8,fr16_p2).
body(r_fr16_8,fr16_r1).
head(r_fr16_9,fr13_z1).
head(r_fr16_10,fr13_z1).
body(r_fr16_10,fr14_d2).
body(r_fr16_10,fr16_e2).
head(r_fr16_11,fr13_z1).
body(r_fr16_11,fr14_c1).
body(r_fr16_11,fr14_d2).
body(r_fr16_11,fr16_f3).
body(r_fr16_11,fr16_r3).
body(r_fr16_11,fr16_u1).
head(r_fr16_12,fr16_r1).
body(r_fr16_12,fr16_q2).
body(r_fr16_12,fr17_z1).
body(r_fr16_12,fr9_x2).
body(r_fr16_12,fr16_u1).
head(r_fr16_13,fr16_r1).
body(r_fr16_13,fr16_b1).
body(r_fr16_13,fr13_f2).
body(r_fr16_13,fr16_u1).
body(r_fr16_13,fr16_w2).
body(r_fr16_13,fr16_x1).
head(r_fr16_14,fr16_r1).
body(r_fr16_14,fr16_b1).
body(r_fr16_14,fr14_d2).
body(r_fr16_14,fr9_b5).
body(r_fr16_14,fr14_c1).
head(r_fr16_15,fr16_r1).
body(r_fr16_15,fr16_a3).
body(r_fr16_15,fr14_d2).
body(r_fr16_15,fr14_d2).
body(r_fr16_15,fr13_f2).
body(r_fr16_15,fr14_c1).
head(r_fr16_16,fr16_r1).
body(r_fr16_16,fr16_a2).
body(r_fr16_16,fr13_f2).
body(r_fr16_16,fr16_c1).
body(r_fr16_16,fr14_c1).
body(r_fr16_16,fr9_b5).
body(r_fr16_16,fr16_q2).
body(r_fr16_16,fr16_y2).
head(r_fr16_17,fr16_r1).
body(r_fr16_17,fr13_f2).
body(r_fr16_17,fr16_p3).
body(r_fr16_17,fr16_u2).
head(r_fr16_18,fr16_u1).
body(r_fr16_18,fr13_f2).
body(r_fr16_18,fr16_e2).
head(r_fr16_19,fr16_u1).
body(r_fr16_19,fr13_t2).
body(r_fr16_19,fr16_u2).
body(r_fr16_19,fr16_w2).
head(r_fr16_20,fr16_u1).
body(r_fr16_20,fr16_a2).
body(r_fr16_20,fr14_d2).
body(r_fr16_20,fr16_c1).
body(r_fr16_20,fr14_d2).
body(r_fr16_20,fr9_b5).
body(r_fr16_20,fr16_f3).
head(r_fr16_21,fr16_u1).
body(r_fr16_21,fr13_t2).
body(r_fr16_21,fr16_s3).
body(r_fr16_21,fr16_x1).
head(r_fr16_22,fr16_u1).
body(r_fr16_22,fr16_a1).
body(r_fr16_22,fr16_e2).
body(r_fr16_22,fr16_s3).
head(r_fr16_23,fr16_u1).
head(r_fr16_24,fr23_y2).
body(r_fr16_24,fr14_c1).
body(r_fr16_24,fr14_c1).
head(r_fr16_25,fr23_y2).
body(r_fr16_25,fr15_y1).
head(r_fr16_26,fr23_y2).
head(r_fr16_27,fr23_y2).
body(r_fr16_27,fr16_b1).
body(r_fr16_27,fr13_f2).
body(r_fr16_27,fr16_e2).
body(r_fr16_27,fr14_c1).
body(r_fr16_27,fr16_p3).
body(r_fr16_27,fr16_q3).
body(r_fr16_27,fr9_x2).
head(r_fr16_28,fr16_q3).
body(r_fr16_28,fr13_f2).
body(r_fr16_28,fr17_z1).
head(r_fr16_29,fr16_q3).
body(r_fr16_29,fr23_y2).
body(r_fr16_29,fr16_r3).
body(r_fr16_29,fr23_y2).
body(r_fr16_29,fr16_u2).
body(r_fr16_29,fr16_x1).
head(r_fr16_30,fr16_q3).
body(r_fr16_30,fr16_u2).
head(r_fr16_31,fr16_q3).
body(r_fr16_31,fr14_d2).
body(r_fr16_31,fr9_x2).
head(r_fr16_32,fr16_q3).
body(r_fr16_32,fr23_y2).
body(r_fr16_32,fr16_s3).
body(r_fr16_32,fr16_u3).
body(r_fr16_32,fr16_v1).
body(r_fr16_32,fr1_p4).
body(r_fr16_32,fr16_w2).
body(r_fr16_32,fr16_y2).
head(r_fr16_33,fr1_p4).
head(r_fr16_34,fr1_p4).
body(r_fr16_34,fr16_b1).
body(r_fr16_34,fr14_d2).
body(r_fr16_34,fr16_p2).
body(r_fr16_34,fr23_y2).
body(r_fr16_34,fr9_x2).
body(r_fr16_34,fr1_p4).
body(r_fr16_34,fr16_x2).
head(r_fr16_35,fr1_p4).
body(r_fr16_35,fr16_r3).
body(r_fr16_35,fr9_x2).
body(r_fr16_35,fr23_y2).
head(r_fr16_36,fr17_z1).
body(r_fr16_36,fr16_q2).
body(r_fr16_36,fr16_u3).
body(r_fr16_36,fr16_w2).
body(r_fr16_36,fr16_z1).
body(r_fr16_36,fr22_p2).
head(r_fr16_37,fr17_z1).
body(r_fr16_37,fr16_a3).
body(r_fr16_37,fr14_d2).
body(r_fr16_37,fr16_p2).
body(r_fr16_37,fr15_y1).
body(r_fr16_37,fr15_y1).
body(r_fr16_37,fr16_y2).
head(r_fr16_38,fr17_z1).
body(r_fr16_38,fr16_f3).
body(r_fr16_38,fr16_q2).
head(r_fr16_39,fr17_z1).
body(r_fr16_39,fr13_f2).
head(r_fr16_40,fr13_t2).
body(r_fr16_40,fr16_a1).
body(r_fr16_40,fr16_f3).
head(r_fr16_41,fr13_t2).
body(r_fr16_41,fr16_p2).
body(r_fr16_41,fr23_y2).
body(r_fr16_41,fr16_v1).
head(r_fr16_42,fr13_t2).
head(r_fr16_43,fr16_v1).
body(r_fr16_43,fr14_c1).
body(r_fr16_43,fr16_u2).
body(r_fr16_43,fr1_p4).
head(r_fr16_44,fr16_v1).
body(r_fr16_44,fr23_y2).
body(r_fr16_44,fr16_u3).
body(r_fr16_44,fr16_x1).
body(r_fr16_44,fr16_x2).
body(r_fr16_44,fr15_y1).
body(r_fr16_44,fr22_p2).
head(r_fr16_45,fr16_u2).
body(r_fr16_45,fr16_a3).
head(r_fr16_46,fr16_u2).
head(r_fr16_47,fr16_u2).
body(r_fr16_47,fr13_f2).
body(r_fr16_47,fr14_d2).
head(r_fr16_48,fr16_u2).
body(r_fr16_48,fr16_p2).
head(r_fr16_49,fr23_y2).
body(r_fr16_49,fr14_c1).
body(r_fr16_49,fr13_f2).
head(r_fr16_50,fr23_y2).
body(r_fr16_50,fr13_f2).
body(r_fr16_50,fr16_y2).
head(r_fr16_51,fr23_y2).
body(r_fr16_51,fr16_b1).
body(r_fr16_51,fr16_c1).
body(r_fr16_51,fr13_f2).
body(r_fr16_51,fr16_e2).
body(r_fr16_51,fr14_c1).
head(r_fr16_52,fr23_y2).
body(r_fr16_52,fr23_y2).
body(r_fr16_52,fr16_w2).
body(r_fr16_52,fr16_y2).
body(r_fr16_52,fr22_p2).
head(r_fr16_53,fr15_y1).
head(r_fr16_54,fr15_y1).
body(r_fr16_54,fr16_a2).
body(r_fr16_54,fr14_d2).
body(r_fr16_54,fr14_c1).
head(r_fr16_55,fr15_y1).
body(r_fr16_55,fr16_p2).
body(r_fr16_55,fr23_y2).
body(r_fr16_55,fr16_r3).
body(r_fr16_55,fr16_x1).
body(r_fr16_55,fr22_p2).
head(r_fr16_56,fr15_y1).
body(r_fr16_56,fr16_r3).
body(r_fr16_56,fr16_u3).
head(r_fr16_57,fr15_y1).
body(r_fr16_57,fr13_f2).
body(r_fr16_57,fr16_c1).
body(r_fr16_57,fr13_f2).
body(r_fr16_57,fr16_e2).
head(r_fr16_58,fr15_y1).
body(r_fr16_58,fr15_y1).
body(r_fr16_58,fr16_x1).
head(r_fr16_59,fr16_w2).
body(r_fr16_59,fr16_a2).
body(r_fr16_59,fr13_f2).
body(r_fr16_59,fr16_s3).
body(r_fr16_59,fr16_u3).
body(r_fr16_59,fr16_x1).
body(r_fr16_59,fr16_y2).
body(r_fr16_59,fr22_p2).
head(r_fr16_60,fr16_w2).
head(r_fr16_61,fr16_w2).
body(r_fr16_61,fr16_p2).
body(r_fr16_61,fr16_p3).
body(r_fr16_61,fr16_q2).
body(r_fr16_61,fr16_r3).
body(r_fr16_61,fr16_x2).
head(r_fr16_62,fr16_q2).
body(r_fr16_62,fr16_a3).
body(r_fr16_62,fr13_f2).
body(r_fr16_62,fr14_d2).
body(r_fr16_62,fr14_c1).
body(r_fr16_62,fr13_f2).
body(r_fr16_62,fr16_e2).
head(r_fr16_63,fr16_q2).
body(r_fr16_63,fr14_d2).
body(r_fr16_63,fr16_r3).
body(r_fr16_63,fr15_y1).
body(r_fr16_63,fr16_x1).
body(r_fr16_63,fr16_y2).
body(r_fr16_63,fr22_p2).
head(r_fr16_64,fr16_s3).
body(r_fr16_64,fr16_a2).
body(r_fr16_64,fr14_d2).
body(r_fr16_64,fr14_d2).
body(r_fr16_64,fr16_e2).
body(r_fr16_64,fr14_c1).
body(r_fr16_64,fr16_y2).
head(r_fr16_65,fr16_s3).
body(r_fr16_65,fr16_b1).
body(r_fr16_65,fr9_b5).
body(r_fr16_65,fr16_f3).
body(r_fr16_65,fr16_p3).
body(r_fr16_65,fr16_r3).
body(r_fr16_65,fr16_u3).
body(r_fr16_65,fr1_p4).
head(r_fr16_66,fr16_s3).
body(r_fr16_66,fr16_p2).
body(r_fr16_66,fr23_y2).
body(r_fr16_66,fr16_r3).
body(r_fr16_66,fr16_x2).
body(r_fr16_66,fr16_y2).
body(r_fr16_66,fr16_z1).
head(r_fr16_67,fr16_s3).
body(r_fr16_67,fr13_f2).
body(r_fr16_67,fr16_f1).
body(r_fr16_67,fr16_r3).
body(r_fr16_67,fr16_u3).
body(r_fr16_67,fr16_x2).
head(r_fr16_68,fr16_p2).
body(r_fr16_68,fr16_a3).
body(r_fr16_68,fr16_b1).
body(r_fr16_68,fr14_d2).
body(r_fr16_68,fr13_f2).
body(r_fr16_68,fr13_f2).
body(r_fr16_68,fr16_f1).
body(r_fr16_68,fr1_p4).
head(r_fr16_69,fr16_p2).
head(r_fr16_70,fr16_p2).
body(r_fr16_70,fr16_b1).
body(r_fr16_70,fr13_f2).
body(r_fr16_70,fr23_y2).
head(r_fr16_71,fr16_p2).
body(r_fr16_71,fr16_a3).
body(r_fr16_71,fr23_y2).
head(r_fr16_72,fr16_p2).
body(r_fr16_72,fr16_a1).
body(r_fr16_72,fr16_b1).
body(r_fr16_72,fr16_e2).
body(r_fr16_72,fr16_f1).
body(r_fr16_72,fr23_y2).
body(r_fr16_72,fr15_y1).
head(r_fr16_73,fr16_p2).
body(r_fr16_73,fr13_f2).
body(r_fr16_73,fr16_x2).
head(r_fr16_74,fr16_z1).
head(r_fr16_75,fr16_z1).
body(r_fr16_75,fr16_a2).
body(r_fr16_75,fr16_b1).
body(r_fr16_75,fr14_d2).
body(r_fr16_75,fr13_f2).
body(r_fr16_75,fr9_b5).
body(r_fr16_75,fr14_c1).
body(r_fr16_75,fr9_x2).
head(r_fr16_76,fr16_z1).
body(r_fr16_76,fr16_a2).
body(r_fr16_76,fr14_d2).
body(r_fr16_76,fr16_f1).
body(r_fr16_76,fr16_x2).
head(r_fr16_77,fr15_y1).
head(r_fr16_78,fr15_y1).
body(r_fr16_78,fr16_r3).
body(r_fr16_78,fr9_x2).
body(r_fr16_78,fr16_u3).
body(r_fr16_78,fr1_p4).
body(r_fr16_78,fr16_x1).
head(r_fr16_79,fr15_y1).
body(r_fr16_79,fr14_d2).
body(r_fr16_79,fr16_c1).
body(r_fr16_79,fr14_c1).
body(r_fr16_79,fr16_p3).
body(r_fr16_79,fr16_x1).
head(r_fr16_80,fr15_y1).
body(r_fr16_80,fr14_d2).
body(r_fr16_80,fr14_d2).
body(r_fr16_80,fr14_c1).
head(r_fr16_81,fr15_y1).
body(r_fr16_81,fr23_y2).
body(r_fr16_81,fr1_p4).
body(r_fr16_81,fr16_y2).
head(r_fr16_82,fr16_u3).
body(r_fr16_82,fr14_d2).
body(r_fr16_82,fr14_c1).
body(r_fr16_82,fr9_b5).
body(r_fr16_82,fr16_r3).
head(r_fr16_83,fr16_u3).
head(r_fr16_84,fr16_u3).
body(r_fr16_84,fr14_c1).
body(r_fr16_84,fr9_x2).
head(r_fr16_85,fr16_u3).
body(r_fr16_85,fr16_p3).
body(r_fr16_85,fr16_r3).
head(r_fr16_86,fr16_x2).
body(r_fr16_86,fr16_a2).
body(r_fr16_86,fr16_b1).
body(r_fr16_86,fr14_d2).
body(r_fr16_86,fr14_d2).
body(r_fr16_86,fr13_f2).
body(r_fr16_86,fr16_e2).
body(r_fr16_86,fr14_c1).
head(r_fr16_87,fr16_x2).
body(r_fr16_87,fr16_a2).
body(r_fr16_87,fr16_a3).
body(r_fr16_87,fr13_f2).
body(r_fr16_87,fr13_f2).
body(r_fr16_87,fr9_b5).
body(r_fr16_87,fr22_p2).
head(r_fr16_88,fr16_x2).
body(r_fr16_88,fr13_f2).
head(r_fr16_89,fr16_x2).
body(r_fr16_89,fr13_f2).
body(r_fr16_89,fr16_y2).
head(r_fr16_90,fr16_x2).
body(r_fr16_90,fr23_y2).
body(r_fr16_90,fr9_x2).
body(r_fr16_90,fr22_p2).
head(r_fr16_91,fr16_x2).
body(r_fr16_91,fr16_a1).
body(r_fr16_91,fr13_f2).
body(r_fr16_91,fr23_y2).
head(r_fr16_92,fr16_p3).
body(r_fr16_92,fr23_y2).
body(r_fr16_92,fr1_p4).
head(r_fr16_93,fr16_p3).
body(r_fr16_93,fr13_f2).
body(r_fr16_93,fr14_d2).
body(r_fr16_93,fr16_c1).
body(r_fr16_93,fr14_c1).
body(r_fr16_93,fr13_f2).
body(r_fr16_93,fr16_e2).
head(r_fr16_94,fr16_p3).
body(r_fr16_94,fr14_d2).
body(r_fr16_94,fr13_f2).
body(r_fr16_94,fr9_x2).
body(r_fr16_94,fr1_p4).
head(r_fr16_95,fr16_p3).
head(r_fr16_96,fr16_p3).
body(r_fr16_96,fr23_y2).
body(r_fr16_96,fr1_p4).
body(r_fr16_96,fr16_y2).
head(r_fr16_97,fr16_r3).
body(r_fr16_97,fr16_a1).
body(r_fr16_97,fr16_a3).
body(r_fr16_97,fr9_b5).
body(r_fr16_97,fr23_y2).
body(r_fr16_97,fr9_x2).
body(r_fr16_97,fr16_x1).
body(r_fr16_97,fr16_y2).
head(r_fr16_98,fr16_r3).
body(r_fr16_98,fr16_a3).
head(r_fr16_99,fr16_r3).
head(r_fr16_100,fr16_r3).
body(r_fr16_100,fr13_f2).
body(r_fr16_100,fr16_c1).
body(r_fr16_100,fr16_e2).

assumption(fr14_e1).
assumption(fr11_b3).
assumption(fr13_f2).
assumption(fr14_c1).
assumption(fr17_e1).
assumption(fr23_f2).
assumption(fr17_a2).
assumption(fr17_b2).
assumption(fr17_c2).
assumption(fr6_c2).
assumption(fr17_e2).
assumption(fr17_f2).
assumption(fr17_a3).
assumption(fr13_f2).
assumption(fr14_c1).
contrary(fr14_e1,fr2_q2).
contrary(fr17_a2,fr17_r2).
contrary(fr17_a3,fr13_f2).
contrary(fr11_b3,fr22_v1).
contrary(fr17_b2,fr17_a3).
contrary(fr13_f2,fr8_u1).
contrary(fr13_f2,fr17_t1).
contrary(fr17_c2,fr14_c1).
contrary(fr14_c1,fr22_p2).
contrary(fr14_c1,fr20_z1).
contrary(fr6_c2,fr14_e1).
contrary(fr17_e1,fr22_p2).
contrary(fr17_e2,fr17_z2).
contrary(fr23_f2,fr22_p2).
contrary(fr17_f2,fr17_q1).
head(r_fr17_0,fr17_r1).
body(r_fr17_0,fr17_c2).
head(r_fr17_1,fr17_r1).
body(r_fr17_1,fr13_f2).
body(r_fr17_1,fr17_c2).
body(r_fr17_1,fr17_s2).
head(r_fr17_2,fr17_r1).
body(r_fr17_2,fr17_q1).
head(r_fr17_3,fr17_r1).
body(r_fr17_3,fr17_a2).
body(r_fr17_3,fr14_c1).
body(r_fr17_3,fr6_c2).
head(r_fr17_4,fr17_r1).
body(r_fr17_4,fr11_b3).
body(r_fr17_4,fr13_f2).
body(r_fr17_4,fr20_u3).
body(r_fr17_4,fr17_t2).
body(r_fr17_4,fr2_q2).
body(r_fr17_4,fr22_p2).
head(r_fr17_5,fr22_v1).
body(r_fr17_5,fr14_c1).
body(r_fr17_5,fr17_p2).
body(r_fr17_5,fr17_q2).
body(r_fr17_5,fr17_s1).
body(r_fr17_5,fr17_t1).
body(r_fr17_5,fr21_z2).
head(r_fr17_6,fr22_v1).
body(r_fr17_6,fr17_b2).
body(r_fr17_6,fr14_c1).
body(r_fr17_6,fr14_c1).
body(r_fr17_6,fr17_e1).
body(r_fr17_6,fr23_y2).
head(r_fr17_7,fr22_v1).
body(r_fr17_7,fr17_p3).
body(r_fr17_7,fr17_u2).
body(r_fr17_7,fr23_y2).
body(r_fr17_7,fr21_z2).
body(r_fr17_7,fr22_p2).
body(r_fr17_7,fr23_y2).
head(r_fr17_8,fr22_v1).
head(r_fr17_9,fr17_s2).
body(r_fr17_9,fr17_b2).
body(r_fr17_9,fr23_f2).
body(r_fr17_9,fr20_z1).
head(r_fr17_10,fr17_s2).
head(r_fr17_11,fr17_s2).
body(r_fr17_11,fr13_f2).
body(r_fr17_11,fr13_f2).
body(r_fr17_11,fr17_c2).
body(r_fr17_11,fr23_f2).
head(r_fr17_12,fr17_s2).
body(r_fr17_12,fr6_c2).
body(r_fr17_12,fr8_u1).
body(r_fr17_12,fr2_q2).
body(r_fr17_12,fr23_y2).
body(r_fr17_12,fr17_z1).
body(r_fr17_12,fr17_z2).
head(r_fr17_13,fr17_r2).
body(r_fr17_13,fr6_c2).
head(r_fr17_14,fr17_r2).
body(r_fr17_14,fr14_e1).
body(r_fr17_14,fr11_b3).
body(r_fr17_14,fr17_b2).
body(r_fr17_14,fr13_f2).
body(r_fr17_14,fr17_s1).
head(r_fr17_15,fr17_r2).
body(r_fr17_15,fr17_t1).
head(r_fr17_16,fr17_r2).
body(r_fr17_16,fr13_f2).
body(r_fr17_16,fr13_f2).
body(r_fr17_16,fr17_e1).
head(r_fr17_17,fr17_p2).
body(r_fr17_17,fr13_f2).
body(r_fr17_17,fr14_c1).
body(r_fr17_17,fr17_p3).
body(r_fr17_17,fr22_p2).
body(r_fr17_17,fr20_z1).
body(r_fr17_17,fr23_y2).
head(r_fr17_18,fr17_p2).
body(r_fr17_18,fr17_a2).
body(r_fr17_18,fr17_b2).
body(r_fr17_18,fr14_c1).
body(r_fr17_18,fr17_e1).
body(r_fr17_18,fr17_f2).
head(r_fr17_19,fr17_p2).
body(r_fr17_19,fr17_a2).
body(r_fr17_19,fr14_c1).
body(r_fr17_19,fr14_c1).
head(r_fr17_20,fr17_p2).
body(r_fr17_20,fr13_f2).
body(r_fr17_20,fr20_u3).
body(r_fr17_20,fr17_t2).
body(r_fr17_20,fr20_z1).
body(r_fr17_20,fr17_z2).
head(r_fr17_21,fr17_p2).
body(r_fr17_21,fr17_q1).
body(r_fr17_21,fr17_q2).
body(r_fr17_21,fr17_z1).
head(r_fr17_22,fr17_t1).
body(r_fr17_22,fr20_u3).
head(r_fr17_23,fr17_t1).
body(r_fr17_23,fr11_b3).
body(r_fr17_23,fr17_c2).
body(r_fr17_23,fr17_e2).
body(r_fr17_23,fr8_u1).
head(r_fr17_24,fr17_t1).
body(r_fr17_24,fr13_f2).
body(r_fr17_24,fr17_f2).
head(r_fr17_25,fr17_t1).
body(r_fr17_25,fr17_a3).
body(r_fr17_25,fr11_b3).
body(r_fr17_25,fr17_f2).
head(r_fr17_26,fr17_t1).
head(r_fr17_27,fr23_y2).
body(r_fr17_27,fr14_e1).
body(r_fr17_27,fr17_c2).
body(r_fr17_27,fr19_q1).
head(r_fr17_28,fr23_y2).
body(r_fr17_28,fr17_a2).
body(r_fr17_28,fr17_a3).
body(r_fr17_28,fr6_c2).
body(r_fr17_28,fr23_f2).
body(r_fr17_28,fr22_p2).
head(r_fr17_29,fr23_y2).
body(r_fr17_29,fr8_u1).
head(r_fr17_30,fr19_q1).
body(r_fr17_30,fr14_c1).
body(r_fr17_30,fr17_q2).
body(r_fr17_30,fr20_u3).
head(r_fr17_31,fr19_q1).
body(r_fr17_31,fr22_p2).
head(r_fr17_32,fr22_p2).
body(r_fr17_32,fr8_u1).
body(r_fr17_32,fr17_z2).
head(r_fr17_33,fr22_p2).
body(r_fr17_33,fr17_a3).
body(r_fr17_33,fr23_f2).
head(r_fr17_34,fr22_p2).
body(r_fr17_34,fr17_e1).
body(r_fr17_34,fr17_f2).
body(r_fr17_34,fr17_q1).
body(r_fr17_34,fr17_z1).
head(r_fr17_35,fr22_p2).
body(r_fr17_35,fr11_b3).
body(r_fr17_35,fr17_c2).
body(r_fr17_35,fr14_c1).
body(r_fr17_35,fr14_c1).
body(r_fr17_35,fr6_c2).
head(r_fr17_36,fr21_z2).
body(r_fr17_36,fr17_q2).
body(r_fr17_36,fr17_u2).
body(r_fr17_36,fr2_q2).
body(r_fr17_36,fr8_u1).
head(r_fr17_37,fr21_z2).
body(r_fr17_37,fr17_c2).
body(r_fr17_37,fr6_c2).
head(r_fr17_38,fr21_z2).
head(r_fr17_39,fr21_z2).
body(r_fr17_39,fr17_q2).
head(r_fr17_40,fr21_z2).
body(r_fr17_40,fr17_b2).
body(r_fr17_40,fr23_f2).
body(r_fr17_40,fr17_q1).
body(r_fr17_40,fr22_p2).
head(r_fr17_41,fr8_u1).
body(r_fr17_41,fr14_e1).
body(r_fr17_41,fr17_a3).
body(r_fr17_41,fr17_e1).
body(r_fr17_41,fr23_f2).
head(r_fr17_42,fr8_u1).
body(r_fr17_42,fr17_e2).
head(r_fr17_43,fr8_u1).
body(r_fr17_43,fr11_b3).
body(r_fr17_43,fr13_f2).
body(r_fr17_43,fr14_c1).
body(r_fr17_43,fr17_e1).
body(r_fr17_43,fr17_z2).
head(r_fr17_44,fr8_u1).
body(r_fr17_44,fr17_a3).
body(r_fr17_44,fr8_u1).
body(r_fr17_44,fr17_q1).
body(r_fr17_44,fr23_y2).
head(r_fr17_45,fr8_u1).
body(r_fr17_45,fr17_a3).
body(r_fr17_45,fr14_c1).
head(r_fr17_46,fr22_p2).
body(r_fr17_46,fr14_c1).
body(r_fr17_46,fr17_p3).
body(r_fr17_46,fr23_y2).
head(r_fr17_47,fr22_p2).
body(r_fr17_47,fr17_e2).
head(r_fr17_48,fr22_p2).
head(r_fr17_49,fr22_p2).
body(r_fr17_49,fr23_f2).
body(r_fr17_49,fr17_f2).
body(r_fr17_49,fr17_p3).
head(r_fr17_50,fr8_u1).
body(r_fr17_50,fr23_f2).
body(r_fr17_50,fr17_p3).
body(r_fr17_50,fr17_q2).
body(r_fr17_50,fr20_z1).
body(r_fr17_50,fr2_q2).
head(r_fr17_51,fr8_u1).
body(r_fr17_51,fr17_a3).
body(r_fr17_51,fr17_t2).
body(r_fr17_51,fr17_z2).
head(r_fr17_52,fr8_u1).
body(r_fr17_52,fr17_a3).
body(r_fr17_52,fr13_f2).
body(r_fr17_52,fr14_c1).
body(r_fr17_52,fr23_f2).
head(r_fr17_53,fr8_u1).
body(r_fr17_53,fr14_e1).
body(r_fr17_53,fr17_e1).
body(r_fr17_53,fr20_u3).
head(r_fr17_54,fr8_u1).
body(r_fr17_54,fr17_q1).
head(r_fr17_55,fr20_z1).
head(r_fr17_56,fr20_z1).
body(r_fr17_56,fr17_s1).
body(r_fr17_56,fr17_t2).
body(r_fr17_56,fr23_y2).
body(r_fr17_56,fr17_z1).
body(r_fr17_56,fr17_z2).
head(r_fr17_57,fr17_p3).
body(r_fr17_57,fr13_f2).
body(r_fr17_57,fr14_c1).
body(r_fr17_57,fr23_y2).
head(r_fr17_58,fr17_p3).
body(r_fr17_58,fr14_e1).
body(r_fr17_58,fr11_b3).
body(r_fr17_58,fr6_c2).
body(r_fr17_58,fr17_e2).
body(r_fr17_58,fr17_t2).
head(r_fr17_59,fr17_p3).
body(r_fr17_59,fr17_q1).
head(r_fr17_60,fr17_p3).
body(r_fr17_60,fr17_u2).
head(r_fr17_61,fr20_u3).
body(r_fr17_61,fr14_c1).
body(r_fr17_61,fr17_e1).
body(r_fr17_61,fr17_s1).
body(r_fr17_61,fr23_y2).
body(r_fr17_61,fr17_z1).
body(r_fr17_61,fr17_z2).
head(r_fr17_62,fr20_u3).
body(r_fr17_62,fr11_b3).
body(r_fr17_62,fr17_q2).
head(r_fr17_63,fr20_u3).
body(r_fr17_63,fr13_f2).
body(r_fr17_63,fr17_q1).
body(r_fr17_63,fr17_q2).
body(r_fr17_63,fr2_q2).
body(r_fr17_63,fr23_y2).
head(r_fr17_64,fr2_q2).
body(r_fr17_64,fr17_c2).
body(r_fr17_64,fr14_c1).
body(r_fr17_64,fr23_y2).
head(r_fr17_65,fr2_q2).
body(r_fr17_65,fr13_f2).
head(r_fr17_66,fr2_q2).
body(r_fr17_66,fr14_e1).
body(r_fr17_66,fr6_c2).
body(r_fr17_66,fr23_f2).
body(r_fr17_66,fr17_q2).
body(r_fr17_66,fr17_u2).
body(r_fr17_66,fr17_z2).
head(r_fr17_67,fr2_q2).
body(r_fr17_67,fr23_y2).
head(r_fr17_68,fr2_q2).
body(r_fr17_68,fr14_e1).
body(r_fr17_68,fr17_a2).
body(r_fr17_68,fr17_a3).
body(r_fr17_68,fr13_f2).
body(r_fr17_68,fr17_e2).
body(r_fr17_68,fr17_u2).
head(r_fr17_69,fr17_z1).
body(r_fr17_69,fr17_a2).
body(r_fr17_69,fr13_f2).
body(r_fr17_69,fr6_c2).
head(r_fr17_70,fr17_z1).
body(r_fr17_70,fr13_f2).
body(r_fr17_70,fr14_c1).
body(r_fr17_70,fr14_c1).
body(r_fr17_70,fr6_c2).
body(r_fr17_70,fr17_s1).
head(r_fr17_71,fr17_z1).
body(r_fr17_71,fr17_a2).
body(r_fr17_71,fr13_f2).
body(r_fr17_71,fr14_c1).
body(r_fr17_71,fr17_e1).
body(r_fr17_71,fr17_s1).
head(r_fr17_72,fr17_z1).
body(r_fr17_72,fr17_c2).
body(r_fr17_72,fr23_f2).
body(r_fr17_72,fr17_q1).
body(r_fr17_72,fr17_s1).
head(r_fr17_73,fr17_z1).
body(r_fr17_73,fr17_u2).
head(r_fr17_74,fr17_s1).
head(r_fr17_75,fr17_s1).
body(r_fr17_75,fr14_e1).
body(r_fr17_75,fr13_f2).
body(r_fr17_75,fr17_c2).
body(r_fr17_75,fr23_f2).
head(r_fr17_76,fr17_s1).
body(r_fr17_76,fr13_f2).
body(r_fr17_76,fr17_c2).
body(r_fr17_76,fr14_c1).
body(r_fr17_76,fr23_f2).
body(r_fr17_76,fr17_q2).
head(r_fr17_77,fr17_s1).
body(r_fr17_77,fr17_b2).
body(r_fr17_77,fr6_c2).
body(r_fr17_77,fr17_e1).
body(r_fr17_77,fr23_y2).
head(r_fr17_78,fr17_s1).
body(r_fr17_78,fr23_f2).
body(r_fr17_78,fr17_q2).
body(r_fr17_78,fr17_t2).
body(r_fr17_78,fr17_u2).
body(r_fr17_78,fr23_y2).
body(r_fr17_78,fr17_z2).
head(r_fr17_79,fr17_t2).
body(r_fr17_79,fr17_a3).
body(r_fr17_79,fr11_b3).
body(r_fr17_79,fr6_c2).
head(r_fr17_80,fr17_t2).
body(r_fr17_80,fr17_b2).
body(r_fr17_80,fr23_f2).
body(r_fr17_80,fr17_q1).
body(r_fr17_80,fr23_y2).
head(r_fr17_81,fr17_t2).
body(r_fr17_81,fr11_b3).
body(r_fr17_81,fr17_b2).
body(r_fr17_81,fr6_c2).
body(r_fr17_81,fr17_z2).

assumption(fr20_b2).
assumption(fr13_f2).
assumption(fr18_c1).
assumption(fr13_a2).
assumption(fr18_e1).
assumption(fr18_f1).
assumption(fr18_a2).
assumption(fr18_b2).
assumption(fr13_f2).
assumption(fr18_d2).
assumption(fr18_e2).
assumption(fr14_c1).
assumption(fr13_f2).
assumption(fr23_b3).
assumption(fr18_c3).
contrary(fr20_b2,fr18_z2).
contrary(fr18_a2,fr14_c1).
contrary(fr13_f2,fr18_r2).
contrary(fr13_f2,fr18_v1).
contrary(fr18_b2,fr13_a2).
contrary(fr23_b3,fr13_z1).
contrary(fr18_c1,fr18_e1).
contrary(fr13_f2,fr4_s2).
contrary(fr18_c3,fr23_x1).
contrary(fr13_a2,fr13_z1).
contrary(fr18_d2,fr13_a2).
contrary(fr18_e1,fr18_c1).
contrary(fr18_e2,fr21_v3).
contrary(fr18_f1,fr18_c3).
contrary(fr14_c1,fr9_t5).
head(r_fr18_0,fr18_r2).
body(r_fr18_0,fr13_a2).
body(r_fr18_0,fr18_t2).
head(r_fr18_1,fr18_r2).
body(r_fr18_1,fr18_e1).
body(r_fr18_1,fr14_c1).
body(r_fr18_1,fr4_s2).
head(r_fr18_2,fr18_r2).
body(r_fr18_2,fr23_b3).
body(r_fr18_2,fr9_w5).
body(r_fr18_2,fr23_x1).
body(r_fr18_2,fr23_y2).
body(r_fr18_2,fr21_s2).
head(r_fr18_3,fr22_p2).
head(r_fr18_4,fr22_p2).
body(r_fr18_4,fr13_f2).
body(r_fr18_4,fr13_f2).
body(r_fr18_4,fr23_b3).
body(r_fr18_4,fr18_c1).
body(r_fr18_4,fr18_c3).
body(r_fr18_4,fr18_f1).
head(r_fr18_5,fr22_p2).
body(r_fr18_5,fr13_f2).
body(r_fr18_5,fr23_b3).
body(r_fr18_5,fr18_e1).
body(r_fr18_5,fr18_f1).
head(r_fr18_6,fr22_p2).
body(r_fr18_6,fr13_f2).
body(r_fr18_6,fr18_e2).
head(r_fr18_7,fr22_p2).
body(r_fr18_7,fr18_c1).
body(r_fr18_7,fr13_z1).
body(r_fr18_7,fr18_q2).
body(r_fr18_7,fr18_t1).
body(r_fr18_7,fr13_z1).
body(r_fr18_7,fr18_z2).
head(r_fr18_8,fr9_w5).
body(r_fr18_8,fr23_b3).
body(r_fr18_8,fr13_f2).
body(r_fr18_8,fr13_a2).
body(r_fr18_8,fr18_d2).
body(r_fr18_8,fr18_f1).
head(r_fr18_9,fr9_w5).
body(r_fr18_9,fr21_v3).
body(r_fr18_9,fr18_v1).
head(r_fr18_10,fr9_w5).
body(r_fr18_10,fr18_t1).
body(r_fr18_10,fr18_t2).
body(r_fr18_10,fr23_y2).
head(r_fr18_11,fr9_w5).
body(r_fr18_11,fr13_f2).
body(r_fr18_11,fr13_f2).
body(r_fr18_11,fr23_b3).
body(r_fr18_11,fr18_c3).
body(r_fr18_11,fr13_a2).
body(r_fr18_11,fr18_d2).
head(r_fr18_12,fr9_w5).
body(r_fr18_12,fr21_v3).
head(r_fr18_13,fr18_p2).
body(r_fr18_13,fr13_z1).
head(r_fr18_14,fr18_p2).
body(r_fr18_14,fr21_v3).
body(r_fr18_14,fr21_s2).
body(r_fr18_14,fr18_z2).
head(r_fr18_15,fr18_p2).
body(r_fr18_15,fr18_c1).
body(r_fr18_15,fr13_z1).
body(r_fr18_15,fr18_z2).
head(r_fr18_16,fr18_p2).
body(r_fr18_16,fr23_b3).
body(r_fr18_16,fr18_c1).
body(r_fr18_16,fr13_a2).
body(r_fr18_16,fr18_e2).
body(r_fr18_16,fr21_v3).
head(r_fr18_17,fr18_p2).
body(r_fr18_17,fr18_z2).
head(r_fr18_18,fr18_v1).
body(r_fr18_18,fr18_c1).
body(r_fr18_18,fr13_f2).
body(r_fr18_18,fr18_d2).
body(r_fr18_18,fr9_t5).
body(r_fr18_18,fr13_z1).
body(r_fr18_18,fr23_y2).
head(r_fr18_19,fr18_v1).
body(r_fr18_19,fr18_a2).
body(r_fr18_19,fr18_c3).
body(r_fr18_19,fr13_a2).
body(r_fr18_19,fr18_e2).
body(r_fr18_19,fr18_s1).
body(r_fr18_19,fr4_s2).
head(r_fr18_20,fr18_v1).
body(r_fr18_20,fr13_z1).
head(r_fr18_21,fr18_v1).
body(r_fr18_21,fr18_b2).
body(r_fr18_21,fr18_c3).
body(r_fr18_21,fr13_a2).
body(r_fr18_21,fr23_y2).
head(r_fr18_22,fr13_z1).
head(r_fr18_23,fr13_z1).
body(r_fr18_23,fr21_s2).
head(r_fr18_24,fr13_z1).
body(r_fr18_24,fr18_q2).
body(r_fr18_24,fr23_x1).
body(r_fr18_24,fr4_s2).
body(r_fr18_24,fr18_z1).
body(r_fr18_24,fr18_z2).
head(r_fr18_25,fr13_z1).
body(r_fr18_25,fr18_a2).
body(r_fr18_25,fr18_b2).
body(r_fr18_25,fr23_b3).
body(r_fr18_25,fr18_e2).
body(r_fr18_25,fr18_q2).
head(r_fr18_26,fr13_z1).
body(r_fr18_26,fr20_b2).
body(r_fr18_26,fr13_f2).
body(r_fr18_26,fr13_a2).
body(r_fr18_26,fr18_e2).
body(r_fr18_26,fr9_t5).
head(r_fr18_27,fr13_z1).
body(r_fr18_27,fr20_b2).
body(r_fr18_27,fr23_b3).
body(r_fr18_27,fr18_c1).
body(r_fr18_27,fr18_c3).
body(r_fr18_27,fr18_e1).
head(r_fr18_28,fr13_z1).
body(r_fr18_28,fr23_b3).
body(r_fr18_28,fr18_d2).
body(r_fr18_28,fr18_e1).
body(r_fr18_28,fr18_q1).
head(r_fr18_29,fr13_z1).
body(r_fr18_29,fr20_u3).
body(r_fr18_29,fr13_z1).
body(r_fr18_29,fr21_s2).
head(r_fr18_30,fr13_z1).
head(r_fr18_31,fr13_z1).
body(r_fr18_31,fr13_f2).
body(r_fr18_31,fr18_q2).
head(r_fr18_32,fr23_y2).
body(r_fr18_32,fr13_f2).
head(r_fr18_33,fr23_y2).
body(r_fr18_33,fr13_f2).
body(r_fr18_33,fr18_f1).
body(r_fr18_33,fr18_q1).
body(r_fr18_33,fr18_z2).
head(r_fr18_34,fr23_y2).
body(r_fr18_34,fr18_t2).
body(r_fr18_34,fr23_y2).
body(r_fr18_34,fr14_r3).
head(r_fr18_35,fr23_y2).
head(r_fr18_36,fr20_u3).
body(r_fr18_36,fr18_t1).
body(r_fr18_36,fr23_y2).
head(r_fr18_37,fr20_u3).
body(r_fr18_37,fr18_q1).
body(r_fr18_37,fr13_z1).
head(r_fr18_38,fr20_u3).
head(r_fr18_39,fr18_q2).
body(r_fr18_39,fr18_c3).
body(r_fr18_39,fr14_c1).
head(r_fr18_40,fr18_q2).
body(r_fr18_40,fr18_b2).
body(r_fr18_40,fr18_s1).
head(r_fr18_41,fr23_x1).
body(r_fr18_41,fr18_c1).
body(r_fr18_41,fr18_e2).
head(r_fr18_42,fr23_x1).
body(r_fr18_42,fr18_c3).
body(r_fr18_42,fr21_v3).
body(r_fr18_42,fr18_s1).
body(r_fr18_42,fr18_t1).
body(r_fr18_42,fr18_z2).
head(r_fr18_43,fr23_x1).
body(r_fr18_43,fr18_a2).
body(r_fr18_43,fr18_c3).
body(r_fr18_43,fr13_a2).
body(r_fr18_43,fr18_e1).
body(r_fr18_43,fr18_s1).
head(r_fr18_44,fr18_t1).
body(r_fr18_44,fr21_v3).
body(r_fr18_44,fr18_t2).
head(r_fr18_45,fr18_t1).
body(r_fr18_45,fr23_b3).
body(r_fr18_45,fr13_a2).
body(r_fr18_45,fr18_s1).
body(r_fr18_45,fr23_y2).
body(r_fr18_45,fr18_z1).
head(r_fr18_46,fr18_t1).
head(r_fr18_47,fr21_v3).
head(r_fr18_48,fr21_v3).
body(r_fr18_48,fr18_c1).
body(r_fr18_48,fr18_c3).
body(r_fr18_48,fr14_c1).
head(r_fr18_49,fr18_q1).
body(r_fr18_49,fr18_d2).
body(r_fr18_49,fr18_r1).
body(r_fr18_49,fr4_s2).
body(r_fr18_49,fr21_s2).
body(r_fr18_49,fr18_z2).
head(r_fr18_50,fr18_q1).
body(r_fr18_50,fr18_b2).
body(r_fr18_50,fr18_f1).
body(r_fr18_50,fr13_z1).
body(r_fr18_50,fr18_s1).
body(r_fr18_50,fr23_y2).
body(r_fr18_50,fr18_z2).
head(r_fr18_51,fr18_q1).
body(r_fr18_51,fr18_c1).
body(r_fr18_51,fr13_f2).
body(r_fr18_51,fr14_c1).
body(r_fr18_51,fr18_t2).
body(r_fr18_51,fr18_z2).
head(r_fr18_52,fr18_r1).
body(r_fr18_52,fr18_c1).
body(r_fr18_52,fr18_d2).
body(r_fr18_52,fr18_f1).
body(r_fr18_52,fr23_y2).
body(r_fr18_52,fr18_z2).
head(r_fr18_53,fr18_r1).
body(r_fr18_53,fr13_f2).
body(r_fr18_53,fr18_b2).
body(r_fr18_53,fr13_z1).
body(r_fr18_53,fr18_s1).
body(r_fr18_53,fr23_y2).
body(r_fr18_53,fr14_r3).
head(r_fr18_54,fr18_z1).
body(r_fr18_54,fr13_z1).
body(r_fr18_54,fr4_s2).
body(r_fr18_54,fr21_s2).
head(r_fr18_55,fr18_z1).
body(r_fr18_55,fr18_t2).
body(r_fr18_55,fr4_s2).
head(r_fr18_56,fr9_t5).
body(r_fr18_56,fr23_b3).
head(r_fr18_57,fr9_t5).
head(r_fr18_58,fr9_t5).
body(r_fr18_58,fr13_f2).
body(r_fr18_58,fr13_f2).
body(r_fr18_58,fr18_s1).
head(r_fr18_59,fr9_t5).
body(r_fr18_59,fr14_r3).
head(r_fr18_60,fr9_t5).
body(r_fr18_60,fr13_f2).
body(r_fr18_60,fr13_z1).
body(r_fr18_60,fr18_s1).
body(r_fr18_60,fr23_y2).
body(r_fr18_60,fr18_z2).
head(r_fr18_61,fr14_r3).
body(r_fr18_61,fr18_a2).
body(r_fr18_61,fr18_s1).
head(r_fr18_62,fr14_r3).
body(r_fr18_62,fr18_b2).
body(r_fr18_62,fr18_e1).
body(r_fr18_62,fr4_s2).
head(r_fr18_63,fr4_s2).
body(r_fr18_63,fr13_z1).
body(r_fr18_63,fr18_s1).
body(r_fr18_63,fr18_t2).
body(r_fr18_63,fr23_y2).
body(r_fr18_63,fr21_s2).
body(r_fr18_63,fr18_z2).
head(r_fr18_64,fr4_s2).
body(r_fr18_64,fr20_b2).
head(r_fr18_65,fr18_s1).
body(r_fr18_65,fr18_t2).
body(r_fr18_65,fr23_y2).
body(r_fr18_65,fr21_s2).
head(r_fr18_66,fr18_s1).
head(r_fr18_67,fr18_s1).
body(r_fr18_67,fr18_a2).
body(r_fr18_67,fr18_b2).
body(r_fr18_67,fr18_t2).
body(r_fr18_67,fr21_s2).

assumption(fr13_f2).
assumption(fr19_b1).
assumption(fr19_c1).
assumption(fr13_f2).
assumption(fr20_b2).
assumption(fr13_f2).
contrary(fr13_f2,fr8_u1).
contrary(fr19_b1,fr8_u1).
contrary(fr19_c1,fr19_b1).
contrary(fr13_f2,fr2_q2).
contrary(fr20_b2,fr23_y2).
contrary(fr13_f2,fr2_q2).
head(r_fr19_0,fr19_y1).
body(r_fr19_0,fr13_f2).
head(r_fr19_1,fr19_y1).
head(r_fr19_2,fr13_z1).
body(r_fr19_2,fr19_q1).
body(r_fr19_2,fr23_y2).
head(r_fr19_3,fr13_z1).
head(r_fr19_4,fr2_q2).
body(r_fr19_4,fr13_f2).
head(r_fr19_5,fr2_q2).
head(r_fr19_6,fr20_z1).
body(r_fr19_6,fr13_f2).
head(r_fr19_7,fr20_z1).
head(r_fr19_8,fr19_q1).
head(r_fr19_9,fr19_q1).
body(r_fr19_9,fr22_p2).
body(r_fr19_9,fr8_u1).
head(r_fr19_10,fr19_v1).
head(r_fr19_11,fr19_v1).
body(r_fr19_11,fr13_f2).
body(r_fr19_11,fr20_b2).
head(r_fr19_12,fr22_p2).
head(r_fr19_13,fr22_p2).
body(r_fr19_13,fr19_c1).
body(r_fr19_13,fr23_y2).
head(r_fr19_14,fr8_u1).
body(r_fr19_14,fr23_y2).
body(r_fr19_14,fr23_y2).
head(r_fr19_15,fr8_u1).
body(r_fr19_15,fr19_b1).
body(r_fr19_15,fr23_y2).

assumption(fr20_a1).
assumption(fr20_b1).
assumption(fr13_f2).
assumption(fr20_d1).
assumption(fr13_f2).
assumption(fr14_c1).
assumption(fr13_f2).
assumption(fr20_b2).
assumption(fr20_c2).
assumption(fr23_f2).
assumption(fr20_b2).
assumption(fr14_c1).
assumption(fr20_a3).
assumption(fr20_b3).
assumption(fr20_c3).
contrary(fr20_a1,fr13_f2).
contrary(fr13_f2,fr20_c2).
contrary(fr20_a3,fr13_z1).
contrary(fr20_b1,fr20_s1).
contrary(fr20_b2,fr20_q1).
contrary(fr20_b3,fr20_a1).
contrary(fr13_f2,fr20_z3).
contrary(fr20_c2,fr20_s1).
contrary(fr20_c3,fr23_y2).
contrary(fr20_d1,fr20_t3).
contrary(fr23_f2,fr20_q4).
contrary(fr13_f2,fr20_s1).
contrary(fr20_b2,fr20_v1).
contrary(fr14_c1,fr20_r1).
contrary(fr14_c1,fr13_f2).
head(r_fr20_0,fr20_x3).
body(r_fr20_0,fr13_f2).
body(r_fr20_0,fr20_c2).
body(r_fr20_0,fr23_f2).
body(r_fr20_0,fr20_b2).
body(r_fr20_0,fr14_c1).
body(r_fr20_0,fr20_r2).
body(r_fr20_0,fr20_s2).
head(r_fr20_1,fr20_x3).
body(r_fr20_1,fr4_s2).
body(r_fr20_1,fr20_r3).
body(r_fr20_1,fr20_t3).
body(r_fr20_1,fr13_z1).
body(r_fr20_1,fr20_z2).
body(r_fr20_1,fr20_z3).
head(r_fr20_2,fr20_x3).
body(r_fr20_2,fr20_a1).
body(r_fr20_2,fr13_f2).
body(r_fr20_2,fr13_f2).
body(r_fr20_2,fr20_c3).
body(r_fr20_2,fr13_f2).
body(r_fr20_2,fr20_t1).
body(r_fr20_2,fr12_x3).
body(r_fr20_2,fr20_w3).
head(r_fr20_3,fr13_z1).
body(r_fr20_3,fr20_b2).
body(r_fr20_3,fr20_b3).
body(r_fr20_3,fr14_c1).
body(r_fr20_3,fr20_t3).
body(r_fr20_3,fr20_u3).
body(r_fr20_3,fr20_x3).
body(r_fr20_3,fr23_y2).
body(r_fr20_3,fr20_z3).
head(r_fr20_4,fr13_z1).
body(r_fr20_4,fr20_a1).
body(r_fr20_4,fr13_f2).
body(r_fr20_4,fr22_p2).
body(r_fr20_4,fr20_q2).
body(r_fr20_4,fr20_r3).
body(r_fr20_4,fr13_z1).
body(r_fr20_4,fr12_x3).
body(r_fr20_4,fr23_y2).
head(r_fr20_5,fr13_z1).
body(r_fr20_5,fr20_b2).
body(r_fr20_5,fr14_c1).
body(r_fr20_5,fr20_q2).
body(r_fr20_5,fr20_t1).
body(r_fr20_5,fr20_t3).
body(r_fr20_5,fr20_u3).
body(r_fr20_5,fr20_v1).
body(r_fr20_5,fr20_w2).
body(r_fr20_5,fr20_y1).
head(r_fr20_6,fr13_z1).
body(r_fr20_6,fr20_a3).
body(r_fr20_6,fr20_q1).
body(r_fr20_6,fr23_x1).
body(r_fr20_6,fr13_z1).
body(r_fr20_6,fr23_u2).
body(r_fr20_6,fr20_x3).
body(r_fr20_6,fr20_y1).
body(r_fr20_6,fr20_z3).
head(r_fr20_7,fr20_y1).
body(r_fr20_7,fr20_b1).
body(r_fr20_7,fr20_b3).
body(r_fr20_7,fr20_c3).
body(r_fr20_7,fr20_d1).
body(r_fr20_7,fr23_y2).
body(r_fr20_7,fr20_q2).
body(r_fr20_7,fr20_t1).
body(r_fr20_7,fr13_z1).
body(r_fr20_7,fr20_u3).
head(r_fr20_8,fr20_y1).
body(r_fr20_8,fr20_a1).
body(r_fr20_8,fr20_c2).
body(r_fr20_8,fr23_y2).
body(r_fr20_8,fr20_q1).
body(r_fr20_8,fr20_u3).
body(r_fr20_8,fr13_z1).
body(r_fr20_8,fr20_w2).
body(r_fr20_8,fr20_z2).
head(r_fr20_9,fr12_x3).
body(r_fr20_9,fr13_f2).
body(r_fr20_9,fr23_y2).
body(r_fr20_9,fr20_w2).
body(r_fr20_9,fr20_x2).
body(r_fr20_9,fr20_y1).
body(r_fr20_9,fr23_y2).
body(r_fr20_9,fr20_z3).
head(r_fr20_10,fr12_x3).
body(r_fr20_10,fr20_a1).
body(r_fr20_10,fr20_b2).
body(r_fr20_10,fr9_t5).
body(r_fr20_10,fr23_u2).
body(r_fr20_10,fr20_x3).
body(r_fr20_10,fr23_y2).
head(r_fr20_11,fr12_x3).
body(r_fr20_11,fr20_a1).
body(r_fr20_11,fr20_b2).
body(r_fr20_11,fr13_f2).
body(r_fr20_11,fr20_c3).
body(r_fr20_11,fr13_f2).
body(r_fr20_11,fr20_q1).
body(r_fr20_11,fr21_z2).
head(r_fr20_12,fr12_x3).
body(r_fr20_12,fr20_a3).
body(r_fr20_12,fr20_d1).
body(r_fr20_12,fr20_r1).
body(r_fr20_12,fr20_t3).
body(r_fr20_12,fr20_v1).
body(r_fr20_12,fr23_y2).
body(r_fr20_12,fr23_y2).
head(r_fr20_13,fr12_x3).
body(r_fr20_13,fr20_a1).
body(r_fr20_13,fr20_b2).
body(r_fr20_13,fr13_f2).
body(r_fr20_13,fr4_s2).
body(r_fr20_13,fr20_r1).
body(r_fr20_13,fr13_z1).
body(r_fr20_13,fr20_v1).
body(r_fr20_13,fr20_z1).
body(r_fr20_13,fr20_z3).
head(r_fr20_14,fr20_t3).
body(r_fr20_14,fr20_a1).
body(r_fr20_14,fr20_b2).
body(r_fr20_14,fr20_c2).
body(r_fr20_14,fr23_f2).
body(r_fr20_14,fr13_f2).
body(r_fr20_14,fr14_c1).
head(r_fr20_15,fr20_t3).
body(r_fr20_15,fr13_f2).
body(r_fr20_15,fr20_a3).
body(r_fr20_15,fr20_b2).
body(r_fr20_15,fr20_r3).
body(r_fr20_15,fr20_t1).
body(r_fr20_15,fr13_z1).
body(r_fr20_15,fr20_w3).
body(r_fr20_15,fr23_y2).
head(r_fr20_16,fr20_t3).
body(r_fr20_16,fr20_c2).
body(r_fr20_16,fr13_z1).
body(r_fr20_16,fr23_y2).
body(r_fr20_16,fr20_q4).
body(r_fr20_16,fr20_r3).
body(r_fr20_16,fr21_z2).
body(r_fr20_16,fr20_t1).
body(r_fr20_16,fr23_u2).
head(r_fr20_17,fr20_s1).
body(r_fr20_17,fr20_a1).
body(r_fr20_17,fr20_b2).
body(r_fr20_17,fr14_c1).
body(r_fr20_17,fr20_r3).
body(r_fr20_17,fr20_s2).
body(r_fr20_17,fr20_x3).
body(r_fr20_17,fr23_y2).
head(r_fr20_18,fr20_s1).
body(r_fr20_18,fr13_f2).
body(r_fr20_18,fr20_a3).
body(r_fr20_18,fr20_b2).
body(r_fr20_18,fr20_c2).
body(r_fr20_18,fr14_c1).
body(r_fr20_18,fr9_t5).
body(r_fr20_18,fr20_q4).
head(r_fr20_19,fr20_s1).
body(r_fr20_19,fr13_f2).
body(r_fr20_19,fr4_s2).
body(r_fr20_19,fr20_r1).
body(r_fr20_19,fr13_z1).
body(r_fr20_19,fr20_x2).
body(r_fr20_19,fr20_z1).
head(r_fr20_20,fr20_s1).
body(r_fr20_20,fr20_a1).
body(r_fr20_20,fr13_f2).
body(r_fr20_20,fr20_b2).
body(r_fr20_20,fr14_c1).
body(r_fr20_20,fr14_c1).
body(r_fr20_20,fr9_t5).
body(r_fr20_20,fr23_y2).
head(r_fr20_21,fr20_z3).
body(r_fr20_21,fr20_a3).
body(r_fr20_21,fr20_b3).
body(r_fr20_21,fr13_f2).
body(r_fr20_21,fr14_c1).
body(r_fr20_21,fr20_s2).
body(r_fr20_21,fr12_x3).
body(r_fr20_21,fr20_v2).
body(r_fr20_21,fr23_u2).
head(r_fr20_22,fr20_z3).
body(r_fr20_22,fr13_f2).
body(r_fr20_22,fr20_b2).
body(r_fr20_22,fr20_b2).
body(r_fr20_22,fr14_c1).
body(r_fr20_22,fr20_s2).
body(r_fr20_22,fr13_z1).
body(r_fr20_22,fr20_y1).
head(r_fr20_23,fr20_z3).
body(r_fr20_23,fr20_a3).
body(r_fr20_23,fr20_b3).
body(r_fr20_23,fr13_f2).
body(r_fr20_23,fr14_c1).
body(r_fr20_23,fr20_r2).
body(r_fr20_23,fr20_s2).
body(r_fr20_23,fr20_w3).
body(r_fr20_23,fr23_y2).
head(r_fr20_24,fr20_z3).
body(r_fr20_24,fr20_a1).
body(r_fr20_24,fr20_b1).
body(r_fr20_24,fr20_b2).
body(r_fr20_24,fr20_c2).
body(r_fr20_24,fr20_c3).
body(r_fr20_24,fr14_c1).
head(r_fr20_25,fr23_y2).
body(r_fr20_25,fr20_a3).
body(r_fr20_25,fr20_b1).
body(r_fr20_25,fr20_c3).
body(r_fr20_25,fr23_f2).
body(r_fr20_25,fr20_b2).
body(r_fr20_25,fr14_c1).
body(r_fr20_25,fr20_r1).
body(r_fr20_25,fr20_t1).
head(r_fr20_26,fr23_y2).
body(r_fr20_26,fr13_f2).
body(r_fr20_26,fr20_q1).
body(r_fr20_26,fr9_t5).
body(r_fr20_26,fr21_z2).
body(r_fr20_26,fr13_z1).
body(r_fr20_26,fr23_x1).
body(r_fr20_26,fr20_w2).
body(r_fr20_26,fr20_w3).
body(r_fr20_26,fr23_y2).
head(r_fr20_27,fr23_y2).
body(r_fr20_27,fr20_q4).
body(r_fr20_27,fr20_t1).
body(r_fr20_27,fr20_t3).
body(r_fr20_27,fr12_x3).
body(r_fr20_27,fr20_v2).
body(r_fr20_27,fr20_y1).
body(r_fr20_27,fr20_z2).
head(r_fr20_28,fr23_y2).
body(r_fr20_28,fr20_b1).
body(r_fr20_28,fr20_c2).
body(r_fr20_28,fr20_d1).
body(r_fr20_28,fr13_f2).
body(r_fr20_28,fr20_r1).
body(r_fr20_28,fr20_t1).
body(r_fr20_28,fr13_z1).
head(r_fr20_29,fr20_q1).
body(r_fr20_29,fr20_a1).
body(r_fr20_29,fr13_z1).
body(r_fr20_29,fr23_y2).
body(r_fr20_29,fr20_r2).
body(r_fr20_29,fr20_s1).
body(r_fr20_29,fr20_s2).
body(r_fr20_29,fr20_t1).
body(r_fr20_29,fr20_w3).
body(r_fr20_29,fr23_y2).
head(r_fr20_30,fr20_q1).
body(r_fr20_30,fr13_f2).
body(r_fr20_30,fr20_a3).
body(r_fr20_30,fr20_c2).
body(r_fr20_30,fr20_c3).
body(r_fr20_30,fr22_p2).
body(r_fr20_30,fr9_t5).
body(r_fr20_30,fr20_r2).
body(r_fr20_30,fr21_z2).
body(r_fr20_30,fr23_y2).
head(r_fr20_31,fr9_t5).
body(r_fr20_31,fr20_b1).
body(r_fr20_31,fr20_c3).
body(r_fr20_31,fr20_d1).
body(r_fr20_31,fr13_f2).
body(r_fr20_31,fr20_b2).
body(r_fr20_31,fr14_c1).
body(r_fr20_31,fr20_r2).
body(r_fr20_31,fr20_v2).
head(r_fr20_32,fr9_t5).
body(r_fr20_32,fr13_f2).
body(r_fr20_32,fr13_f2).
body(r_fr20_32,fr13_z1).
body(r_fr20_32,fr20_q2).
body(r_fr20_32,fr20_s2).
body(r_fr20_32,fr23_x1).
body(r_fr20_32,fr13_z1).
body(r_fr20_32,fr23_y2).
body(r_fr20_32,fr20_z1).
head(r_fr20_33,fr9_t5).
body(r_fr20_33,fr20_b1).
body(r_fr20_33,fr20_c3).
body(r_fr20_33,fr20_q2).
body(r_fr20_33,fr21_z2).
body(r_fr20_33,fr20_t3).
body(r_fr20_33,fr13_z1).
body(r_fr20_33,fr8_u1).
body(r_fr20_33,fr23_y2).
head(r_fr20_34,fr20_r2).
body(r_fr20_34,fr20_b3).
body(r_fr20_34,fr20_q1).
body(r_fr20_34,fr9_t5).
body(r_fr20_34,fr20_v2).
body(r_fr20_34,fr20_w2).
body(r_fr20_34,fr23_y2).
head(r_fr20_35,fr20_r2).
body(r_fr20_35,fr20_b1).
body(r_fr20_35,fr20_b3).
body(r_fr20_35,fr13_z1).
body(r_fr20_35,fr20_q2).
body(r_fr20_35,fr20_s2).
body(r_fr20_35,fr20_w2).
body(r_fr20_35,fr20_x2).
body(r_fr20_35,fr23_y2).
head(r_fr20_36,fr20_r2).
body(r_fr20_36,fr20_b3).
body(r_fr20_36,fr9_t5).
body(r_fr20_36,fr20_v1).
body(r_fr20_36,fr13_z1).
body(r_fr20_36,fr23_y2).
body(r_fr20_36,fr23_y2).
body(r_fr20_36,fr20_z3).
head(r_fr20_37,fr20_r2).
body(r_fr20_37,fr20_b1).
body(r_fr20_37,fr20_q2).
body(r_fr20_37,fr21_z2).
body(r_fr20_37,fr20_t1).
body(r_fr20_37,fr20_t3).
body(r_fr20_37,fr12_x3).
body(r_fr20_37,fr23_y2).
head(r_fr20_38,fr13_z1).
body(r_fr20_38,fr20_b2).
body(r_fr20_38,fr9_t5).
body(r_fr20_38,fr20_s2).
body(r_fr20_38,fr12_x3).
body(r_fr20_38,fr13_z1).
body(r_fr20_38,fr8_u1).
body(r_fr20_38,fr20_x2).
body(r_fr20_38,fr23_y2).
body(r_fr20_38,fr20_z3).
head(r_fr20_39,fr13_z1).
body(r_fr20_39,fr13_f2).
body(r_fr20_39,fr20_b2).
body(r_fr20_39,fr14_c1).
body(r_fr20_39,fr14_c1).
body(r_fr20_39,fr20_t1).
body(r_fr20_39,fr23_u2).
body(r_fr20_39,fr20_z2).
head(r_fr20_40,fr13_z1).
body(r_fr20_40,fr20_a1).
body(r_fr20_40,fr13_f2).
body(r_fr20_40,fr20_a3).
body(r_fr20_40,fr20_b1).
body(r_fr20_40,fr13_f2).
body(r_fr20_40,fr20_t1).
body(r_fr20_40,fr20_w2).
body(r_fr20_40,fr20_z1).
head(r_fr20_41,fr13_z1).
body(r_fr20_41,fr20_b1).
body(r_fr20_41,fr20_b3).
body(r_fr20_41,fr20_c3).
body(r_fr20_41,fr14_c1).
body(r_fr20_41,fr9_t5).
body(r_fr20_41,fr20_r3).
body(r_fr20_41,fr20_s2).
body(r_fr20_41,fr20_u3).
body(r_fr20_41,fr20_w3).
head(r_fr20_42,fr8_u1).
body(r_fr20_42,fr20_c3).
body(r_fr20_42,fr20_t3).
body(r_fr20_42,fr23_x1).
body(r_fr20_42,fr20_u3).
body(r_fr20_42,fr20_w3).
body(r_fr20_42,fr20_x2).
body(r_fr20_42,fr20_x3).
body(r_fr20_42,fr23_y2).
head(r_fr20_43,fr8_u1).
body(r_fr20_43,fr20_b3).
body(r_fr20_43,fr20_c2).
body(r_fr20_43,fr20_c3).
body(r_fr20_43,fr20_d1).
body(r_fr20_43,fr20_b2).
body(r_fr20_43,fr14_c1).
body(r_fr20_43,fr20_q2).
body(r_fr20_43,fr20_u3).
body(r_fr20_43,fr20_w3).
head(r_fr20_44,fr8_u1).
body(r_fr20_44,fr20_b2).
body(r_fr20_44,fr20_b3).
body(r_fr20_44,fr20_c3).
body(r_fr20_44,fr9_t5).
body(r_fr20_44,fr20_w2).
body(r_fr20_44,fr20_x2).
head(r_fr20_45,fr8_u1).
body(r_fr20_45,fr20_a1).
body(r_fr20_45,fr20_a3).
body(r_fr20_45,fr20_b3).
body(r_fr20_45,fr20_d1).
body(r_fr20_45,fr13_f2).
body(r_fr20_45,fr20_b2).
body(r_fr20_45,fr13_z1).
body(r_fr20_45,fr20_z1).
body(r_fr20_45,fr20_z2).
head(r_fr20_46,fr8_u1).
body(r_fr20_46,fr20_b1).
body(r_fr20_46,fr20_b3).
body(r_fr20_46,fr13_f2).
body(r_fr20_46,fr20_d1).
body(r_fr20_46,fr13_f2).
body(r_fr20_46,fr20_t3).
head(r_fr20_47,fr21_z2).
body(r_fr20_47,fr20_b1).
body(r_fr20_47,fr20_b3).
body(r_fr20_47,fr4_s2).
body(r_fr20_47,fr9_t5).
body(r_fr20_47,fr20_r3).
body(r_fr20_47,fr8_u1).
head(r_fr20_48,fr21_z2).
body(r_fr20_48,fr13_f2).
body(r_fr20_48,fr20_b2).
body(r_fr20_48,fr13_f2).
body(r_fr20_48,fr20_c2).
body(r_fr20_48,fr14_c1).
body(r_fr20_48,fr22_p2).
body(r_fr20_48,fr20_u3).
body(r_fr20_48,fr23_y2).
head(r_fr20_49,fr21_z2).
body(r_fr20_49,fr13_f2).
body(r_fr20_49,fr20_a3).
body(r_fr20_49,fr13_f2).
body(r_fr20_49,fr13_f2).
body(r_fr20_49,fr20_r2).
body(r_fr20_49,fr13_z1).
body(r_fr20_49,fr23_u2).
body(r_fr20_49,fr20_y1).
body(r_fr20_49,fr23_y2).
head(r_fr20_50,fr21_z2).
body(r_fr20_50,fr20_b1).
body(r_fr20_50,fr20_b3).
body(r_fr20_50,fr20_c2).
body(r_fr20_50,fr20_d1).
body(r_fr20_50,fr23_f2).
body(r_fr20_50,fr14_c1).
head(r_fr20_51,fr21_z2).
body(r_fr20_51,fr20_a1).
body(r_fr20_51,fr13_f2).
body(r_fr20_51,fr13_z1).
body(r_fr20_51,fr23_y2).
body(r_fr20_51,fr20_q1).
body(r_fr20_51,fr20_s2).
head(r_fr20_52,fr20_r3).
body(r_fr20_52,fr20_a1).
body(r_fr20_52,fr23_f2).
body(r_fr20_52,fr20_b2).
body(r_fr20_52,fr4_s2).
body(r_fr20_52,fr20_w2).
body(r_fr20_52,fr20_x3).
body(r_fr20_52,fr20_z1).
head(r_fr20_53,fr20_r3).
body(r_fr20_53,fr20_a1).
body(r_fr20_53,fr20_b2).
body(r_fr20_53,fr20_d1).
body(r_fr20_53,fr23_f2).
body(r_fr20_53,fr13_f2).
body(r_fr20_53,fr20_b2).
body(r_fr20_53,fr20_q4).
head(r_fr20_54,fr20_r3).
body(r_fr20_54,fr13_f2).
body(r_fr20_54,fr14_c1).
body(r_fr20_54,fr20_q2).
body(r_fr20_54,fr9_t5).
body(r_fr20_54,fr20_s1).
body(r_fr20_54,fr23_x1).
body(r_fr20_54,fr12_x3).
body(r_fr20_54,fr20_v1).
body(r_fr20_54,fr20_w2).
head(r_fr20_55,fr20_r3).
body(r_fr20_55,fr14_c1).
body(r_fr20_55,fr14_c1).
body(r_fr20_55,fr4_s2).
body(r_fr20_55,fr20_q1).
body(r_fr20_55,fr9_t5).
body(r_fr20_55,fr20_r2).
body(r_fr20_55,fr20_s1).
body(r_fr20_55,fr23_u2).
body(r_fr20_55,fr23_y2).
head(r_fr20_56,fr20_r1).
body(r_fr20_56,fr20_b1).
body(r_fr20_56,fr20_b2).
body(r_fr20_56,fr20_b3).
body(r_fr20_56,fr20_d1).
body(r_fr20_56,fr20_b2).
body(r_fr20_56,fr14_c1).
body(r_fr20_56,fr13_z1).
body(r_fr20_56,fr20_s1).
body(r_fr20_56,fr20_s2).
head(r_fr20_57,fr20_r1).
body(r_fr20_57,fr20_a3).
body(r_fr20_57,fr23_f2).
body(r_fr20_57,fr20_b2).
body(r_fr20_57,fr14_c1).
body(r_fr20_57,fr14_c1).
body(r_fr20_57,fr23_y2).
body(r_fr20_57,fr20_t3).
body(r_fr20_57,fr23_y2).
body(r_fr20_57,fr20_z1).
head(r_fr20_58,fr20_r1).
body(r_fr20_58,fr20_a1).
body(r_fr20_58,fr20_b2).
body(r_fr20_58,fr13_f2).
body(r_fr20_58,fr20_c2).
body(r_fr20_58,fr20_d1).
body(r_fr20_58,fr13_f2).
body(r_fr20_58,fr13_z1).
body(r_fr20_58,fr23_y2).
body(r_fr20_58,fr20_x3).
head(r_fr20_59,fr20_w2).
body(r_fr20_59,fr20_a3).
body(r_fr20_59,fr20_b2).
body(r_fr20_59,fr20_c2).
body(r_fr20_59,fr13_f2).
body(r_fr20_59,fr20_x2).
body(r_fr20_59,fr20_y1).
head(r_fr20_60,fr20_w2).
body(r_fr20_60,fr22_p2).
body(r_fr20_60,fr4_s2).
body(r_fr20_60,fr20_t1).
body(r_fr20_60,fr23_x1).
body(r_fr20_60,fr20_v1).
body(r_fr20_60,fr8_u1).
body(r_fr20_60,fr23_u2).
body(r_fr20_60,fr20_x2).
body(r_fr20_60,fr20_x3).
head(r_fr20_61,fr20_w2).
body(r_fr20_61,fr13_f2).
body(r_fr20_61,fr20_b1).
body(r_fr20_61,fr20_c2).
body(r_fr20_61,fr20_b2).
body(r_fr20_61,fr13_z1).
body(r_fr20_61,fr20_q4).
body(r_fr20_61,fr20_r3).
body(r_fr20_61,fr13_z1).
head(r_fr20_62,fr20_v1).
body(r_fr20_62,fr20_b3).
body(r_fr20_62,fr14_c1).
body(r_fr20_62,fr20_q2).
body(r_fr20_62,fr20_r2).
body(r_fr20_62,fr20_s1).
body(r_fr20_62,fr20_u3).
body(r_fr20_62,fr13_z1).
body(r_fr20_62,fr20_z3).
head(r_fr20_63,fr20_v1).
body(r_fr20_63,fr20_b1).
body(r_fr20_63,fr4_s2).
body(r_fr20_63,fr20_q1).
body(r_fr20_63,fr20_v2).
body(r_fr20_63,fr13_z1).
body(r_fr20_63,fr20_x3).
body(r_fr20_63,fr23_y2).
body(r_fr20_63,fr20_z1).
head(r_fr20_64,fr20_v1).
body(r_fr20_64,fr20_a1).
body(r_fr20_64,fr20_b1).
body(r_fr20_64,fr20_b2).
body(r_fr20_64,fr20_b3).
body(r_fr20_64,fr20_c3).
body(r_fr20_64,fr20_d1).
body(r_fr20_64,fr23_f2).
head(r_fr20_65,fr20_v1).
body(r_fr20_65,fr13_f2).
body(r_fr20_65,fr14_c1).
body(r_fr20_65,fr4_s2).
body(r_fr20_65,fr20_s1).
body(r_fr20_65,fr23_x1).
body(r_fr20_65,fr23_y2).
head(r_fr20_66,fr20_v1).
body(r_fr20_66,fr20_a1).
body(r_fr20_66,fr4_s2).
body(r_fr20_66,fr20_q4).
body(r_fr20_66,fr20_r1).
body(r_fr20_66,fr20_t3).
body(r_fr20_66,fr20_u3).
body(r_fr20_66,fr23_y2).
body(r_fr20_66,fr20_z1).
head(r_fr20_67,fr20_q4).
body(r_fr20_67,fr13_f2).
body(r_fr20_67,fr20_a3).
body(r_fr20_67,fr20_c2).
body(r_fr20_67,fr20_d1).
body(r_fr20_67,fr23_f2).
body(r_fr20_67,fr13_f2).
body(r_fr20_67,fr14_c1).
head(r_fr20_68,fr20_q4).
body(r_fr20_68,fr20_a1).
body(r_fr20_68,fr13_f2).
body(r_fr20_68,fr20_b1).
body(r_fr20_68,fr13_f2).
body(r_fr20_68,fr20_b2).
body(r_fr20_68,fr20_r1).
body(r_fr20_68,fr20_r2).
body(r_fr20_68,fr20_x2).
head(r_fr20_69,fr20_q4).
body(r_fr20_69,fr20_b2).
body(r_fr20_69,fr14_c1).
body(r_fr20_69,fr23_y2).
body(r_fr20_69,fr20_q2).
body(r_fr20_69,fr20_r2).
body(r_fr20_69,fr20_y1).
head(r_fr20_70,fr20_q4).
body(r_fr20_70,fr13_f2).
body(r_fr20_70,fr20_a3).
body(r_fr20_70,fr20_b1).
body(r_fr20_70,fr20_d1).
body(r_fr20_70,fr13_f2).
body(r_fr20_70,fr20_b2).
body(r_fr20_70,fr14_c1).
head(r_fr20_71,fr20_u3).
body(r_fr20_71,fr20_b2).
body(r_fr20_71,fr20_b3).
body(r_fr20_71,fr20_c3).
body(r_fr20_71,fr20_d1).
body(r_fr20_71,fr21_z2).
body(r_fr20_71,fr20_w2).
body(r_fr20_71,fr23_u2).
body(r_fr20_71,fr23_y2).
head(r_fr20_72,fr20_u3).
body(r_fr20_72,fr20_a1).
body(r_fr20_72,fr20_b2).
body(r_fr20_72,fr13_f2).
body(r_fr20_72,fr23_f2).
body(r_fr20_72,fr14_c1).
body(r_fr20_72,fr21_z2).
body(r_fr20_72,fr23_u2).
body(r_fr20_72,fr20_z3).
head(r_fr20_73,fr20_u3).
body(r_fr20_73,fr20_a1).
body(r_fr20_73,fr13_f2).
body(r_fr20_73,fr20_a3).
body(r_fr20_73,fr13_f2).
body(r_fr20_73,fr20_b2).
body(r_fr20_73,fr14_c1).
head(r_fr20_74,fr20_u3).
body(r_fr20_74,fr20_b2).
body(r_fr20_74,fr20_q2).
body(r_fr20_74,fr20_q4).
body(r_fr20_74,fr20_s1).
body(r_fr20_74,fr20_t3).
body(r_fr20_74,fr20_v2).
body(r_fr20_74,fr20_x3).
body(r_fr20_74,fr23_y2).

assumption(fr14_c1).
assumption(fr21_b1).
assumption(fr20_b2).
assumption(fr3_f2).
assumption(fr13_f2).
assumption(fr21_f1).
assumption(fr21_a2).
assumption(fr21_b2).
assumption(fr21_c2).
assumption(fr21_d2).
assumption(fr14_f1).
assumption(fr14_c1).
assumption(fr13_f2).
assumption(fr14_c1).
assumption(fr17_e2).
contrary(fr14_c1,fr21_w2).
contrary(fr21_a2,fr20_b2).
contrary(fr13_f2,fr21_t1).
contrary(fr21_b1,fr21_t1).
contrary(fr21_b2,fr21_f1).
contrary(fr14_c1,fr21_z1).
contrary(fr20_b2,fr20_z1).
contrary(fr21_c2,fr13_f2).
contrary(fr17_e2,fr22_p2).
contrary(fr3_f2,fr20_u3).
contrary(fr21_d2,fr21_u1).
contrary(fr13_f2,fr22_p2).
contrary(fr14_f1,fr21_f1).
contrary(fr21_f1,fr21_r3).
contrary(fr14_c1,fr22_p2).
head(r_fr21_0,fr21_q1).
body(r_fr21_0,fr21_a2).
body(r_fr21_0,fr21_b2).
body(r_fr21_0,fr20_b2).
body(r_fr21_0,fr21_d2).
body(r_fr21_0,fr21_f1).
body(r_fr21_0,fr14_c1).
body(r_fr21_0,fr19_q1).
body(r_fr21_0,fr21_p2).
body(r_fr21_0,fr8_u1).
body(r_fr21_0,fr21_p4).
body(r_fr21_0,fr23_y2).
body(r_fr21_0,fr23_y2).
body(r_fr21_0,fr8_u1).
body(r_fr21_0,fr20_z1).
body(r_fr21_0,fr21_w1).
body(r_fr21_0,fr22_p2).
body(r_fr21_0,fr20_u3).
body(r_fr21_0,fr21_z1).
body(r_fr21_0,fr23_y2).
head(r_fr21_1,fr21_q1).
body(r_fr21_1,fr21_b1).
body(r_fr21_1,fr21_c2).
body(r_fr21_1,fr14_f1).
body(r_fr21_1,fr21_f1).
body(r_fr21_1,fr14_c1).
body(r_fr21_1,fr19_q1).
body(r_fr21_1,fr8_u1).
body(r_fr21_1,fr21_p4).
body(r_fr21_1,fr23_y2).
body(r_fr21_1,fr22_p2).
body(r_fr21_1,fr23_y2).
body(r_fr21_1,fr21_s2).
body(r_fr21_1,fr21_t1).
body(r_fr21_1,fr21_t3).
body(r_fr21_1,fr21_u1).
body(r_fr21_1,fr21_v2).
body(r_fr21_1,fr21_v3).
body(r_fr21_1,fr21_w1).
body(r_fr21_1,fr21_w3).
body(r_fr21_1,fr21_z1).
body(r_fr21_1,fr23_y2).
head(r_fr21_2,fr21_q1).
body(r_fr21_2,fr8_u1).
body(r_fr21_2,fr23_y2).
body(r_fr21_2,fr13_z1).
body(r_fr21_2,fr23_y2).
body(r_fr21_2,fr22_p2).
body(r_fr21_2,fr23_y2).
body(r_fr21_2,fr21_s2).
body(r_fr21_2,fr16_x1).
body(r_fr21_2,fr8_u1).
body(r_fr21_2,fr21_t3).
body(r_fr21_2,fr21_u1).
body(r_fr21_2,fr21_u2).
body(r_fr21_2,fr20_z1).
body(r_fr21_2,fr21_w1).
body(r_fr21_2,fr21_w2).
body(r_fr21_2,fr21_w3).
body(r_fr21_2,fr22_p2).
body(r_fr21_2,fr22_p2).
body(r_fr21_2,fr20_u3).
body(r_fr21_2,fr21_z2).
body(r_fr21_2,fr23_y2).
head(r_fr21_3,fr21_q1).
body(r_fr21_3,fr14_c1).
body(r_fr21_3,fr20_b2).
body(r_fr21_3,fr17_e2).
body(r_fr21_3,fr21_p2).
body(r_fr21_3,fr8_u1).
body(r_fr21_3,fr21_p4).
body(r_fr21_3,fr23_y2).
body(r_fr21_3,fr23_y2).
body(r_fr21_3,fr23_y2).
body(r_fr21_3,fr22_p2).
body(r_fr21_3,fr21_t3).
body(r_fr21_3,fr21_u1).
body(r_fr21_3,fr21_u2).
body(r_fr21_3,fr20_z1).
body(r_fr21_3,fr21_v3).
body(r_fr21_3,fr21_w1).
body(r_fr21_3,fr21_w3).
body(r_fr21_3,fr22_p2).
body(r_fr21_3,fr22_p2).
body(r_fr21_3,fr20_u3).
body(r_fr21_3,fr23_y2).
head(r_fr21_4,fr21_z1).
body(r_fr21_4,fr21_b2).
body(r_fr21_4,fr14_c1).
body(r_fr21_4,fr20_b2).
body(r_fr21_4,fr3_f2).
body(r_fr21_4,fr14_c1).
body(r_fr21_4,fr8_u1).
body(r_fr21_4,fr21_q1).
body(r_fr21_4,fr23_y2).
body(r_fr21_4,fr13_z1).
body(r_fr21_4,fr22_p2).
body(r_fr21_4,fr16_x1).
body(r_fr21_4,fr21_t1).
body(r_fr21_4,fr21_u2).
body(r_fr21_4,fr21_v3).
body(r_fr21_4,fr21_w2).
body(r_fr21_4,fr22_p2).
body(r_fr21_4,fr22_p2).
body(r_fr21_4,fr22_p2).
body(r_fr21_4,fr22_p2).
head(r_fr21_5,fr21_z1).
body(r_fr21_5,fr21_a2).
body(r_fr21_5,fr14_f1).
body(r_fr21_5,fr19_q1).
body(r_fr21_5,fr23_y2).
body(r_fr21_5,fr23_y2).
body(r_fr21_5,fr13_z1).
body(r_fr21_5,fr22_p2).
body(r_fr21_5,fr23_y2).
body(r_fr21_5,fr21_s2).
body(r_fr21_5,fr8_u1).
body(r_fr21_5,fr12_x3).
body(r_fr21_5,fr20_z1).
body(r_fr21_5,fr21_v2).
body(r_fr21_5,fr21_v3).
body(r_fr21_5,fr21_w1).
body(r_fr21_5,fr21_w2).
body(r_fr21_5,fr22_p2).
body(r_fr21_5,fr22_p2).
body(r_fr21_5,fr22_p2).
body(r_fr21_5,fr21_z2).
body(r_fr21_5,fr23_y2).
head(r_fr21_6,fr19_q1).
body(r_fr21_6,fr13_f2).
body(r_fr21_6,fr21_f1).
body(r_fr21_6,fr14_c1).
body(r_fr21_6,fr8_u1).
body(r_fr21_6,fr23_y2).
body(r_fr21_6,fr13_z1).
body(r_fr21_6,fr22_p2).
body(r_fr21_6,fr21_s2).
body(r_fr21_6,fr16_x1).
body(r_fr21_6,fr21_u2).
body(r_fr21_6,fr12_x3).
body(r_fr21_6,fr20_z1).
body(r_fr21_6,fr21_v2).
body(r_fr21_6,fr21_v3).
body(r_fr21_6,fr21_w2).
body(r_fr21_6,fr21_w3).
body(r_fr21_6,fr22_p2).
body(r_fr21_6,fr21_x3).
body(r_fr21_6,fr22_p2).
body(r_fr21_6,fr20_u3).
body(r_fr21_6,fr23_y2).
head(r_fr21_7,fr19_q1).
body(r_fr21_7,fr21_a2).
body(r_fr21_7,fr21_p2).
body(r_fr21_7,fr23_y2).
body(r_fr21_7,fr23_y2).
body(r_fr21_7,fr13_z1).
body(r_fr21_7,fr23_y2).
body(r_fr21_7,fr22_p2).
body(r_fr21_7,fr21_s2).
body(r_fr21_7,fr8_u1).
body(r_fr21_7,fr21_u2).
body(r_fr21_7,fr12_x3).
body(r_fr21_7,fr21_w1).
body(r_fr21_7,fr21_w2).
body(r_fr21_7,fr22_p2).
body(r_fr21_7,fr22_p2).
body(r_fr21_7,fr22_p2).
body(r_fr21_7,fr21_z2).
body(r_fr21_7,fr23_y2).
head(r_fr21_8,fr16_x1).
body(r_fr21_8,fr14_c1).
body(r_fr21_8,fr19_q1).
body(r_fr21_8,fr21_p2).
body(r_fr21_8,fr8_u1).
body(r_fr21_8,fr23_y2).
body(r_fr21_8,fr23_y2).
body(r_fr21_8,fr23_y2).
body(r_fr21_8,fr21_t1).
body(r_fr21_8,fr8_u1).
body(r_fr21_8,fr21_t3).
body(r_fr21_8,fr21_u1).
body(r_fr21_8,fr20_z1).
body(r_fr21_8,fr21_v3).
body(r_fr21_8,fr21_w1).
body(r_fr21_8,fr21_w2).
body(r_fr21_8,fr21_w3).
body(r_fr21_8,fr22_p2).
body(r_fr21_8,fr22_p2).
body(r_fr21_8,fr21_z1).
body(r_fr21_8,fr21_z2).
head(r_fr21_9,fr16_x1).
body(r_fr21_9,fr14_c1).
body(r_fr21_9,fr13_f2).
body(r_fr21_9,fr14_c1).
body(r_fr21_9,fr20_b2).
body(r_fr21_9,fr13_f2).
body(r_fr21_9,fr14_f1).
body(r_fr21_9,fr19_q1).
body(r_fr21_9,fr21_p4).
body(r_fr21_9,fr23_y2).
body(r_fr21_9,fr23_y2).
body(r_fr21_9,fr13_z1).
body(r_fr21_9,fr22_p2).
body(r_fr21_9,fr8_u1).
body(r_fr21_9,fr21_t3).
body(r_fr21_9,fr21_u1).
body(r_fr21_9,fr12_x3).
body(r_fr21_9,fr20_z1).
body(r_fr21_9,fr22_p2).
body(r_fr21_9,fr20_u3).
body(r_fr21_9,fr21_z1).
body(r_fr21_9,fr23_y2).
head(r_fr21_10,fr23_y2).
body(r_fr21_10,fr14_c1).
body(r_fr21_10,fr3_f2).
body(r_fr21_10,fr21_f1).
body(r_fr21_10,fr19_q1).
body(r_fr21_10,fr8_u1).
body(r_fr21_10,fr21_p4).
body(r_fr21_10,fr21_q1).
body(r_fr21_10,fr23_y2).
body(r_fr21_10,fr13_z1).
body(r_fr21_10,fr21_s2).
body(r_fr21_10,fr16_x1).
body(r_fr21_10,fr21_t1).
body(r_fr21_10,fr21_t3).
body(r_fr21_10,fr21_v3).
body(r_fr21_10,fr21_w2).
body(r_fr21_10,fr22_p2).
body(r_fr21_10,fr21_z1).
body(r_fr21_10,fr23_y2).
head(r_fr21_11,fr23_y2).
body(r_fr21_11,fr13_f2).
body(r_fr21_11,fr21_b1).
body(r_fr21_11,fr14_f1).
body(r_fr21_11,fr19_q1).
body(r_fr21_11,fr21_p2).
body(r_fr21_11,fr21_p4).
body(r_fr21_11,fr23_y2).
body(r_fr21_11,fr22_p2).
body(r_fr21_11,fr21_r3).
body(r_fr21_11,fr21_t1).
body(r_fr21_11,fr8_u1).
body(r_fr21_11,fr21_u1).
body(r_fr21_11,fr21_u2).
body(r_fr21_11,fr12_x3).
body(r_fr21_11,fr21_v3).
body(r_fr21_11,fr21_w3).
body(r_fr21_11,fr22_p2).
body(r_fr21_11,fr20_u3).
body(r_fr21_11,fr21_z2).
head(r_fr21_12,fr23_y2).
body(r_fr21_12,fr21_a2).
body(r_fr21_12,fr21_b1).
body(r_fr21_12,fr21_b2).
body(r_fr21_12,fr17_e2).
body(r_fr21_12,fr21_d2).
body(r_fr21_12,fr21_f1).
body(r_fr21_12,fr21_p2).
body(r_fr21_12,fr8_u1).
body(r_fr21_12,fr21_p4).
body(r_fr21_12,fr21_q1).
body(r_fr21_12,fr23_y2).
body(r_fr21_12,fr23_y2).
body(r_fr21_12,fr13_z1).
body(r_fr21_12,fr23_y2).
body(r_fr21_12,fr21_s2).
body(r_fr21_12,fr21_t1).
body(r_fr21_12,fr21_u1).
body(r_fr21_12,fr20_z1).
body(r_fr21_12,fr21_w1).
body(r_fr21_12,fr21_w3).
body(r_fr21_12,fr20_u3).
head(r_fr21_13,fr23_y2).
body(r_fr21_13,fr21_b1).
body(r_fr21_13,fr3_f2).
body(r_fr21_13,fr13_f2).
body(r_fr21_13,fr14_c1).
body(r_fr21_13,fr19_q1).
body(r_fr21_13,fr21_p2).
body(r_fr21_13,fr8_u1).
body(r_fr21_13,fr21_p4).
body(r_fr21_13,fr23_y2).
body(r_fr21_13,fr13_z1).
body(r_fr21_13,fr22_p2).
body(r_fr21_13,fr16_x1).
body(r_fr21_13,fr21_t1).
body(r_fr21_13,fr21_t3).
body(r_fr21_13,fr21_u1).
body(r_fr21_13,fr21_u2).
body(r_fr21_13,fr22_p2).
body(r_fr21_13,fr21_x3).
body(r_fr21_13,fr22_p2).
body(r_fr21_13,fr23_y2).
head(r_fr21_14,fr21_v3).
body(r_fr21_14,fr21_a2).
body(r_fr21_14,fr21_c2).
body(r_fr21_14,fr17_e2).
body(r_fr21_14,fr3_f2).
body(r_fr21_14,fr21_f1).
body(r_fr21_14,fr14_c1).
body(r_fr21_14,fr23_y2).
body(r_fr21_14,fr22_p2).
body(r_fr21_14,fr8_u1).
body(r_fr21_14,fr21_u1).
body(r_fr21_14,fr21_u2).
body(r_fr21_14,fr12_x3).
body(r_fr21_14,fr20_z1).
body(r_fr21_14,fr21_v2).
body(r_fr21_14,fr21_w1).
body(r_fr21_14,fr22_p2).
body(r_fr21_14,fr22_p2).
body(r_fr21_14,fr22_p2).
body(r_fr21_14,fr21_z1).
body(r_fr21_14,fr21_z2).
head(r_fr21_15,fr21_v3).
body(r_fr21_15,fr3_f2).
body(r_fr21_15,fr19_q1).
body(r_fr21_15,fr21_p2).
body(r_fr21_15,fr8_u1).
body(r_fr21_15,fr21_q1).
body(r_fr21_15,fr23_y2).
body(r_fr21_15,fr13_z1).
body(r_fr21_15,fr23_y2).
body(r_fr21_15,fr21_r3).
body(r_fr21_15,fr16_x1).
body(r_fr21_15,fr21_t1).
body(r_fr21_15,fr8_u1).
body(r_fr21_15,fr21_t3).
body(r_fr21_15,fr12_x3).
body(r_fr21_15,fr20_z1).
body(r_fr21_15,fr21_v2).
body(r_fr21_15,fr21_w3).
body(r_fr21_15,fr21_x3).
body(r_fr21_15,fr20_u3).
body(r_fr21_15,fr23_y2).
head(r_fr21_16,fr21_v3).
body(r_fr21_16,fr17_e2).
body(r_fr21_16,fr19_q1).
body(r_fr21_16,fr21_p4).
body(r_fr21_16,fr21_q1).
body(r_fr21_16,fr23_y2).
body(r_fr21_16,fr22_p2).
body(r_fr21_16,fr23_y2).
body(r_fr21_16,fr21_s2).
body(r_fr21_16,fr16_x1).
body(r_fr21_16,fr8_u1).
body(r_fr21_16,fr21_t3).
body(r_fr21_16,fr21_u2).
body(r_fr21_16,fr20_z1).
body(r_fr21_16,fr21_w1).
body(r_fr21_16,fr21_w2).
body(r_fr21_16,fr22_p2).
body(r_fr21_16,fr22_p2).
body(r_fr21_16,fr22_p2).
body(r_fr21_16,fr21_z2).
body(r_fr21_16,fr23_y2).
head(r_fr21_17,fr21_v3).
body(r_fr21_17,fr21_p2).
body(r_fr21_17,fr8_u1).
body(r_fr21_17,fr21_q1).
body(r_fr21_17,fr23_y2).
body(r_fr21_17,fr13_z1).
body(r_fr21_17,fr23_y2).
body(r_fr21_17,fr21_r3).
body(r_fr21_17,fr23_y2).
body(r_fr21_17,fr21_t1).
body(r_fr21_17,fr8_u1).
body(r_fr21_17,fr21_t3).
body(r_fr21_17,fr21_u1).
body(r_fr21_17,fr21_u2).
body(r_fr21_17,fr12_x3).
body(r_fr21_17,fr21_w1).
body(r_fr21_17,fr21_w2).
body(r_fr21_17,fr22_p2).
body(r_fr21_17,fr21_x3).
body(r_fr21_17,fr22_p2).
body(r_fr21_17,fr20_u3).
body(r_fr21_17,fr21_z1).
head(r_fr21_18,fr21_v3).
body(r_fr21_18,fr14_c1).
body(r_fr21_18,fr13_f2).
body(r_fr21_18,fr21_b1).
body(r_fr21_18,fr13_f2).
body(r_fr21_18,fr21_f1).
body(r_fr21_18,fr21_p2).
body(r_fr21_18,fr21_q1).
body(r_fr21_18,fr23_y2).
body(r_fr21_18,fr23_y2).
body(r_fr21_18,fr22_p2).
body(r_fr21_18,fr8_u1).
body(r_fr21_18,fr21_t3).
body(r_fr21_18,fr21_u1).
body(r_fr21_18,fr12_x3).
body(r_fr21_18,fr20_z1).
body(r_fr21_18,fr21_v2).
body(r_fr21_18,fr21_w1).
body(r_fr21_18,fr22_p2).
body(r_fr21_18,fr22_p2).
head(r_fr21_19,fr8_u1).
body(r_fr21_19,fr14_c1).
body(r_fr21_19,fr21_b2).
body(r_fr21_19,fr21_c2).
body(r_fr21_19,fr19_q1).
body(r_fr21_19,fr21_p2).
body(r_fr21_19,fr23_y2).
body(r_fr21_19,fr23_y2).
body(r_fr21_19,fr22_p2).
body(r_fr21_19,fr21_r3).
body(r_fr21_19,fr23_y2).
body(r_fr21_19,fr21_s2).
body(r_fr21_19,fr16_x1).
body(r_fr21_19,fr21_u1).
body(r_fr21_19,fr21_u2).
body(r_fr21_19,fr12_x3).
body(r_fr21_19,fr21_w2).
body(r_fr21_19,fr22_p2).
body(r_fr21_19,fr22_p2).
body(r_fr21_19,fr22_p2).
body(r_fr21_19,fr20_u3).
head(r_fr21_20,fr8_u1).
body(r_fr21_20,fr19_q1).
body(r_fr21_20,fr21_p2).
body(r_fr21_20,fr8_u1).
body(r_fr21_20,fr21_q1).
body(r_fr21_20,fr23_y2).
body(r_fr21_20,fr23_y2).
body(r_fr21_20,fr13_z1).
body(r_fr21_20,fr23_y2).
body(r_fr21_20,fr22_p2).
body(r_fr21_20,fr21_r3).
body(r_fr21_20,fr21_s2).
body(r_fr21_20,fr16_x1).
body(r_fr21_20,fr21_t1).
body(r_fr21_20,fr21_u2).
body(r_fr21_20,fr12_x3).
body(r_fr21_20,fr21_v2).
body(r_fr21_20,fr21_w2).
body(r_fr21_20,fr20_u3).
head(r_fr21_21,fr8_u1).
body(r_fr21_21,fr14_c1).
body(r_fr21_21,fr17_e2).
body(r_fr21_21,fr14_f1).
body(r_fr21_21,fr8_u1).
body(r_fr21_21,fr21_q1).
body(r_fr21_21,fr23_y2).
body(r_fr21_21,fr13_z1).
body(r_fr21_21,fr23_y2).
body(r_fr21_21,fr22_p2).
body(r_fr21_21,fr21_s2).
body(r_fr21_21,fr16_x1).
body(r_fr21_21,fr12_x3).
body(r_fr21_21,fr21_v2).
body(r_fr21_21,fr21_v3).
body(r_fr21_21,fr21_w2).
body(r_fr21_21,fr21_w3).
body(r_fr21_21,fr22_p2).
body(r_fr21_21,fr22_p2).
body(r_fr21_21,fr21_z1).
head(r_fr21_22,fr8_u1).
body(r_fr21_22,fr21_b1).
body(r_fr21_22,fr17_e2).
body(r_fr21_22,fr3_f2).
body(r_fr21_22,fr14_f1).
body(r_fr21_22,fr21_f1).
body(r_fr21_22,fr14_c1).
body(r_fr21_22,fr8_u1).
body(r_fr21_22,fr13_z1).
body(r_fr21_22,fr22_p2).
body(r_fr21_22,fr21_r3).
body(r_fr21_22,fr16_x1).
body(r_fr21_22,fr21_u1).
body(r_fr21_22,fr12_x3).
body(r_fr21_22,fr21_w1).
body(r_fr21_22,fr21_w3).
body(r_fr21_22,fr22_p2).
body(r_fr21_22,fr22_p2).
body(r_fr21_22,fr22_p2).
body(r_fr21_22,fr20_u3).
body(r_fr21_22,fr23_y2).
head(r_fr21_23,fr13_z1).
body(r_fr21_23,fr21_c2).
body(r_fr21_23,fr17_e2).
body(r_fr21_23,fr14_f1).
body(r_fr21_23,fr21_f1).
body(r_fr21_23,fr8_u1).
body(r_fr21_23,fr21_q1).
body(r_fr21_23,fr23_y2).
body(r_fr21_23,fr21_r3).
body(r_fr21_23,fr16_x1).
body(r_fr21_23,fr8_u1).
body(r_fr21_23,fr21_u1).
body(r_fr21_23,fr21_u2).
body(r_fr21_23,fr12_x3).
body(r_fr21_23,fr21_w1).
body(r_fr21_23,fr21_w2).
body(r_fr21_23,fr21_x3).
body(r_fr21_23,fr22_p2).
body(r_fr21_23,fr20_u3).
body(r_fr21_23,fr23_y2).
head(r_fr21_24,fr13_z1).
body(r_fr21_24,fr14_c1).
body(r_fr21_24,fr21_a2).
body(r_fr21_24,fr21_b1).
body(r_fr21_24,fr20_b2).
body(r_fr21_24,fr21_f1).
body(r_fr21_24,fr21_p2).
body(r_fr21_24,fr21_p4).
body(r_fr21_24,fr21_q1).
body(r_fr21_24,fr21_r3).
body(r_fr21_24,fr16_x1).
body(r_fr21_24,fr21_t1).
body(r_fr21_24,fr21_t3).
body(r_fr21_24,fr21_u1).
body(r_fr21_24,fr21_v2).
body(r_fr21_24,fr21_v3).
body(r_fr21_24,fr21_w1).
body(r_fr21_24,fr22_p2).
body(r_fr21_24,fr21_x3).
body(r_fr21_24,fr22_p2).
body(r_fr21_24,fr21_z2).
head(r_fr21_25,fr13_z1).
body(r_fr21_25,fr14_c1).
body(r_fr21_25,fr21_a2).
body(r_fr21_25,fr14_c1).
body(r_fr21_25,fr8_u1).
body(r_fr21_25,fr21_p4).
body(r_fr21_25,fr23_y2).
body(r_fr21_25,fr22_p2).
body(r_fr21_25,fr23_y2).
body(r_fr21_25,fr21_s2).
body(r_fr21_25,fr16_x1).
body(r_fr21_25,fr8_u1).
body(r_fr21_25,fr21_t3).
body(r_fr21_25,fr12_x3).
body(r_fr21_25,fr21_v2).
body(r_fr21_25,fr21_v3).
body(r_fr21_25,fr21_w3).
body(r_fr21_25,fr22_p2).
body(r_fr21_25,fr22_p2).
body(r_fr21_25,fr21_z2).
head(r_fr21_26,fr13_z1).
body(r_fr21_26,fr21_b2).
body(r_fr21_26,fr21_c2).
body(r_fr21_26,fr8_u1).
body(r_fr21_26,fr23_y2).
body(r_fr21_26,fr22_p2).
body(r_fr21_26,fr21_s2).
body(r_fr21_26,fr16_x1).
body(r_fr21_26,fr8_u1).
body(r_fr21_26,fr21_t3).
body(r_fr21_26,fr21_u1).
body(r_fr21_26,fr21_v2).
body(r_fr21_26,fr21_v3).
body(r_fr21_26,fr21_w2).
body(r_fr21_26,fr21_w3).
body(r_fr21_26,fr21_x3).
body(r_fr21_26,fr22_p2).
body(r_fr21_26,fr20_u3).
body(r_fr21_26,fr21_z1).
body(r_fr21_26,fr21_z2).
body(r_fr21_26,fr23_y2).
head(r_fr21_27,fr13_z1).
body(r_fr21_27,fr21_d2).
body(r_fr21_27,fr19_q1).
body(r_fr21_27,fr21_p2).
body(r_fr21_27,fr21_q1).
body(r_fr21_27,fr23_y2).
body(r_fr21_27,fr22_p2).
body(r_fr21_27,fr21_s2).
body(r_fr21_27,fr16_x1).
body(r_fr21_27,fr21_t1).
body(r_fr21_27,fr8_u1).
body(r_fr21_27,fr21_u1).
body(r_fr21_27,fr21_u2).
body(r_fr21_27,fr21_v3).
body(r_fr21_27,fr21_w1).
body(r_fr21_27,fr21_w2).
body(r_fr21_27,fr21_w3).
body(r_fr21_27,fr21_x3).
body(r_fr21_27,fr22_p2).
head(r_fr21_28,fr8_u1).
body(r_fr21_28,fr21_b1).
body(r_fr21_28,fr21_c2).
body(r_fr21_28,fr14_f1).
body(r_fr21_28,fr21_p2).
body(r_fr21_28,fr21_q1).
body(r_fr21_28,fr13_z1).
body(r_fr21_28,fr23_y2).
body(r_fr21_28,fr21_r3).
body(r_fr21_28,fr21_t1).
body(r_fr21_28,fr21_t3).
body(r_fr21_28,fr21_u1).
body(r_fr21_28,fr21_u2).
body(r_fr21_28,fr20_z1).
body(r_fr21_28,fr21_v2).
body(r_fr21_28,fr21_v3).
body(r_fr21_28,fr21_w1).
body(r_fr21_28,fr22_p2).
body(r_fr21_28,fr22_p2).
body(r_fr21_28,fr20_u3).
body(r_fr21_28,fr21_z1).
head(r_fr21_29,fr8_u1).
body(r_fr21_29,fr14_c1).
body(r_fr21_29,fr21_d2).
body(r_fr21_29,fr13_f2).
body(r_fr21_29,fr14_f1).
body(r_fr21_29,fr21_p2).
body(r_fr21_29,fr21_p4).
body(r_fr21_29,fr21_q1).
body(r_fr21_29,fr13_z1).
body(r_fr21_29,fr23_y2).
body(r_fr21_29,fr21_t1).
body(r_fr21_29,fr21_u1).
body(r_fr21_29,fr21_u2).
body(r_fr21_29,fr21_v3).
body(r_fr21_29,fr21_w1).
body(r_fr21_29,fr21_w2).
body(r_fr21_29,fr21_w3).
body(r_fr21_29,fr22_p2).
body(r_fr21_29,fr22_p2).
body(r_fr21_29,fr20_u3).
body(r_fr21_29,fr21_z1).
body(r_fr21_29,fr21_z2).
head(r_fr21_30,fr8_u1).
body(r_fr21_30,fr21_b2).
body(r_fr21_30,fr20_b2).
body(r_fr21_30,fr17_e2).
body(r_fr21_30,fr14_f1).
body(r_fr21_30,fr21_f1).
body(r_fr21_30,fr21_p2).
body(r_fr21_30,fr21_p4).
body(r_fr21_30,fr23_y2).
body(r_fr21_30,fr21_r3).
body(r_fr21_30,fr21_s2).
body(r_fr21_30,fr21_w3).
body(r_fr21_30,fr22_p2).
body(r_fr21_30,fr21_x3).
body(r_fr21_30,fr22_p2).
body(r_fr21_30,fr22_p2).
body(r_fr21_30,fr20_u3).
body(r_fr21_30,fr21_z2).
body(r_fr21_30,fr23_y2).
head(r_fr21_31,fr8_u1).
body(r_fr21_31,fr13_f2).
body(r_fr21_31,fr21_f1).
body(r_fr21_31,fr19_q1).
body(r_fr21_31,fr21_p2).
body(r_fr21_31,fr13_z1).
body(r_fr21_31,fr23_y2).
body(r_fr21_31,fr21_s2).
body(r_fr21_31,fr21_t1).
body(r_fr21_31,fr8_u1).
body(r_fr21_31,fr21_t3).
body(r_fr21_31,fr21_u1).
body(r_fr21_31,fr20_z1).
body(r_fr21_31,fr21_v3).
body(r_fr21_31,fr21_w1).
body(r_fr21_31,fr21_w2).
body(r_fr21_31,fr21_w3).
body(r_fr21_31,fr22_p2).
body(r_fr21_31,fr22_p2).
body(r_fr21_31,fr20_u3).
body(r_fr21_31,fr23_y2).
head(r_fr21_32,fr8_u1).
body(r_fr21_32,fr13_f2).
body(r_fr21_32,fr21_c2).
body(r_fr21_32,fr14_f1).
body(r_fr21_32,fr21_p4).
body(r_fr21_32,fr23_y2).
body(r_fr21_32,fr21_s2).
body(r_fr21_32,fr8_u1).
body(r_fr21_32,fr21_t3).
body(r_fr21_32,fr21_u1).
body(r_fr21_32,fr20_z1).
body(r_fr21_32,fr21_w1).
body(r_fr21_32,fr21_w3).
body(r_fr21_32,fr22_p2).
body(r_fr21_32,fr21_x3).
body(r_fr21_32,fr22_p2).
body(r_fr21_32,fr20_u3).
body(r_fr21_32,fr21_z1).
body(r_fr21_32,fr21_z2).
body(r_fr21_32,fr23_y2).
head(r_fr21_33,fr21_s2).
body(r_fr21_33,fr14_c1).
body(r_fr21_33,fr19_q1).
body(r_fr21_33,fr8_u1).
body(r_fr21_33,fr23_y2).
body(r_fr21_33,fr23_y2).
body(r_fr21_33,fr23_y2).
body(r_fr21_33,fr22_p2).
body(r_fr21_33,fr21_r3).
body(r_fr21_33,fr23_y2).
body(r_fr21_33,fr16_x1).
body(r_fr21_33,fr21_t3).
body(r_fr21_33,fr21_u1).
body(r_fr21_33,fr21_u2).
body(r_fr21_33,fr12_x3).
body(r_fr21_33,fr21_w1).
body(r_fr21_33,fr21_x3).
body(r_fr21_33,fr22_p2).
body(r_fr21_33,fr20_u3).
body(r_fr21_33,fr21_z1).
head(r_fr21_34,fr21_s2).
body(r_fr21_34,fr14_c1).
body(r_fr21_34,fr13_f2).
body(r_fr21_34,fr14_c1).
body(r_fr21_34,fr21_c2).
body(r_fr21_34,fr17_e2).
body(r_fr21_34,fr3_f2).
body(r_fr21_34,fr19_q1).
body(r_fr21_34,fr8_u1).
body(r_fr21_34,fr21_q1).
body(r_fr21_34,fr23_y2).
body(r_fr21_34,fr23_y2).
body(r_fr21_34,fr16_x1).
body(r_fr21_34,fr21_t3).
body(r_fr21_34,fr12_x3).
body(r_fr21_34,fr20_z1).
body(r_fr21_34,fr21_v3).
body(r_fr21_34,fr22_p2).
body(r_fr21_34,fr22_p2).
body(r_fr21_34,fr20_u3).
head(r_fr21_35,fr21_z2).
body(r_fr21_35,fr14_c1).
body(r_fr21_35,fr19_q1).
body(r_fr21_35,fr21_p2).
body(r_fr21_35,fr8_u1).
body(r_fr21_35,fr21_p4).
body(r_fr21_35,fr21_q1).
body(r_fr21_35,fr23_y2).
body(r_fr21_35,fr23_y2).
body(r_fr21_35,fr22_p2).
body(r_fr21_35,fr21_r3).
body(r_fr21_35,fr23_y2).
body(r_fr21_35,fr21_t1).
body(r_fr21_35,fr21_t3).
body(r_fr21_35,fr21_u1).
body(r_fr21_35,fr21_u2).
body(r_fr21_35,fr12_x3).
body(r_fr21_35,fr21_v2).
body(r_fr21_35,fr21_v3).
body(r_fr21_35,fr22_p2).
body(r_fr21_35,fr21_x3).
body(r_fr21_35,fr23_y2).
head(r_fr21_36,fr21_z2).
body(r_fr21_36,fr3_f2).
body(r_fr21_36,fr21_d2).
body(r_fr21_36,fr19_q1).
body(r_fr21_36,fr8_u1).
body(r_fr21_36,fr21_p4).
body(r_fr21_36,fr21_q1).
body(r_fr21_36,fr13_z1).
body(r_fr21_36,fr23_y2).
body(r_fr21_36,fr21_s2).
body(r_fr21_36,fr8_u1).
body(r_fr21_36,fr21_t3).
body(r_fr21_36,fr21_u1).
body(r_fr21_36,fr21_u2).
body(r_fr21_36,fr12_x3).
body(r_fr21_36,fr20_z1).
body(r_fr21_36,fr22_p2).
body(r_fr21_36,fr21_x3).
body(r_fr21_36,fr22_p2).
body(r_fr21_36,fr22_p2).
body(r_fr21_36,fr20_u3).
body(r_fr21_36,fr23_y2).
head(r_fr21_37,fr21_z2).
body(r_fr21_37,fr14_c1).
body(r_fr21_37,fr20_b2).
body(r_fr21_37,fr13_f2).
body(r_fr21_37,fr21_p2).
body(r_fr21_37,fr8_u1).
body(r_fr21_37,fr21_p4).
body(r_fr21_37,fr21_q1).
body(r_fr21_37,fr23_y2).
body(r_fr21_37,fr13_z1).
body(r_fr21_37,fr23_y2).
body(r_fr21_37,fr21_s2).
body(r_fr21_37,fr16_x1).
body(r_fr21_37,fr20_z1).
body(r_fr21_37,fr21_w1).
body(r_fr21_37,fr21_w2).
body(r_fr21_37,fr21_w3).
body(r_fr21_37,fr22_p2).
body(r_fr21_37,fr22_p2).
body(r_fr21_37,fr21_x3).
body(r_fr21_37,fr20_u3).
body(r_fr21_37,fr23_y2).
head(r_fr21_38,fr23_y2).
body(r_fr21_38,fr21_b2).
body(r_fr21_38,fr21_p2).
body(r_fr21_38,fr8_u1).
body(r_fr21_38,fr21_p4).
body(r_fr21_38,fr22_p2).
body(r_fr21_38,fr21_r3).
body(r_fr21_38,fr23_y2).
body(r_fr21_38,fr21_s2).
body(r_fr21_38,fr21_u1).
body(r_fr21_38,fr12_x3).
body(r_fr21_38,fr20_z1).
body(r_fr21_38,fr21_v2).
body(r_fr21_38,fr21_w3).
body(r_fr21_38,fr22_p2).
body(r_fr21_38,fr21_x3).
body(r_fr21_38,fr22_p2).
body(r_fr21_38,fr21_z1).
body(r_fr21_38,fr21_z2).
body(r_fr21_38,fr23_y2).
head(r_fr21_39,fr23_y2).
body(r_fr21_39,fr21_b1).
body(r_fr21_39,fr14_f1).
body(r_fr21_39,fr21_p4).
body(r_fr21_39,fr23_y2).
body(r_fr21_39,fr22_p2).
body(r_fr21_39,fr21_s2).
body(r_fr21_39,fr16_x1).
body(r_fr21_39,fr8_u1).
body(r_fr21_39,fr21_t3).
body(r_fr21_39,fr21_u1).
body(r_fr21_39,fr21_u2).
body(r_fr21_39,fr12_x3).
body(r_fr21_39,fr20_z1).
body(r_fr21_39,fr21_v3).
body(r_fr21_39,fr21_w1).
body(r_fr21_39,fr22_p2).
body(r_fr21_39,fr20_u3).
body(r_fr21_39,fr23_y2).
head(r_fr21_40,fr23_y2).
body(r_fr21_40,fr21_a2).
body(r_fr21_40,fr8_u1).
body(r_fr21_40,fr23_y2).
body(r_fr21_40,fr13_z1).
body(r_fr21_40,fr16_x1).
body(r_fr21_40,fr21_t1).
body(r_fr21_40,fr8_u1).
body(r_fr21_40,fr21_u1).
body(r_fr21_40,fr12_x3).
body(r_fr21_40,fr20_z1).
body(r_fr21_40,fr21_v2).
body(r_fr21_40,fr21_w1).
body(r_fr21_40,fr21_w2).
body(r_fr21_40,fr22_p2).
body(r_fr21_40,fr21_x3).
body(r_fr21_40,fr22_p2).
body(r_fr21_40,fr21_z2).
body(r_fr21_40,fr23_y2).
head(r_fr21_41,fr23_y2).
body(r_fr21_41,fr14_c1).
body(r_fr21_41,fr14_c1).
body(r_fr21_41,fr21_c2).
body(r_fr21_41,fr21_d2).
body(r_fr21_41,fr13_f2).
body(r_fr21_41,fr23_y2).
body(r_fr21_41,fr23_y2).
body(r_fr21_41,fr23_y2).
body(r_fr21_41,fr16_x1).
body(r_fr21_41,fr21_t1).
body(r_fr21_41,fr21_t3).
body(r_fr21_41,fr21_u1).
body(r_fr21_41,fr21_u2).
body(r_fr21_41,fr21_v2).
body(r_fr21_41,fr21_w1).
body(r_fr21_41,fr21_w3).
body(r_fr21_41,fr21_x3).
body(r_fr21_41,fr22_p2).
body(r_fr21_41,fr21_z2).
body(r_fr21_41,fr23_y2).
head(r_fr21_42,fr21_p4).
body(r_fr21_42,fr14_c1).
body(r_fr21_42,fr14_c1).
body(r_fr21_42,fr20_b2).
body(r_fr21_42,fr17_e2).
body(r_fr21_42,fr3_f2).
body(r_fr21_42,fr8_u1).
body(r_fr21_42,fr13_z1).
body(r_fr21_42,fr23_y2).
body(r_fr21_42,fr21_s2).
body(r_fr21_42,fr16_x1).
body(r_fr21_42,fr21_u2).
body(r_fr21_42,fr12_x3).
body(r_fr21_42,fr20_z1).
body(r_fr21_42,fr21_w2).
body(r_fr21_42,fr22_p2).
body(r_fr21_42,fr22_p2).
body(r_fr21_42,fr21_z1).
body(r_fr21_42,fr23_y2).
head(r_fr21_43,fr21_p4).
body(r_fr21_43,fr14_c1).
body(r_fr21_43,fr17_e2).
body(r_fr21_43,fr21_p2).
body(r_fr21_43,fr8_u1).
body(r_fr21_43,fr21_q1).
body(r_fr21_43,fr23_y2).
body(r_fr21_43,fr23_y2).
body(r_fr21_43,fr22_p2).
body(r_fr21_43,fr21_r3).
body(r_fr21_43,fr21_s2).
body(r_fr21_43,fr8_u1).
body(r_fr21_43,fr12_x3).
body(r_fr21_43,fr21_v2).
body(r_fr21_43,fr21_v3).
body(r_fr21_43,fr21_w3).
body(r_fr21_43,fr22_p2).
body(r_fr21_43,fr22_p2).
body(r_fr21_43,fr20_u3).
body(r_fr21_43,fr21_z1).
body(r_fr21_43,fr21_z2).
body(r_fr21_43,fr23_y2).
head(r_fr21_44,fr21_p4).
body(r_fr21_44,fr21_b1).
body(r_fr21_44,fr14_c1).
body(r_fr21_44,fr21_c2).
body(r_fr21_44,fr17_e2).
body(r_fr21_44,fr3_f2).
body(r_fr21_44,fr14_c1).
body(r_fr21_44,fr19_q1).
body(r_fr21_44,fr21_q1).
body(r_fr21_44,fr13_z1).
body(r_fr21_44,fr23_y2).
body(r_fr21_44,fr21_r3).
body(r_fr21_44,fr16_x1).
body(r_fr21_44,fr21_t3).
body(r_fr21_44,fr20_z1).
body(r_fr21_44,fr21_v2).
body(r_fr21_44,fr21_w2).
body(r_fr21_44,fr21_w3).
body(r_fr21_44,fr22_p2).
body(r_fr21_44,fr22_p2).
body(r_fr21_44,fr20_u3).
head(r_fr21_45,fr21_p4).
body(r_fr21_45,fr21_a2).
body(r_fr21_45,fr13_f2).
body(r_fr21_45,fr21_b2).
body(r_fr21_45,fr17_e2).
body(r_fr21_45,fr13_f2).
body(r_fr21_45,fr21_f1).
body(r_fr21_45,fr21_p2).
body(r_fr21_45,fr23_y2).
body(r_fr21_45,fr23_y2).
body(r_fr21_45,fr22_p2).
body(r_fr21_45,fr16_x1).
body(r_fr21_45,fr8_u1).
body(r_fr21_45,fr12_x3).
body(r_fr21_45,fr21_v2).
body(r_fr21_45,fr21_v3).
body(r_fr21_45,fr21_x3).
body(r_fr21_45,fr22_p2).
body(r_fr21_45,fr20_u3).
body(r_fr21_45,fr21_z1).
head(r_fr21_46,fr21_v2).
body(r_fr21_46,fr13_f2).
body(r_fr21_46,fr21_f1).
body(r_fr21_46,fr19_q1).
body(r_fr21_46,fr21_p2).
body(r_fr21_46,fr21_p4).
body(r_fr21_46,fr21_q1).
body(r_fr21_46,fr23_y2).
body(r_fr21_46,fr23_y2).
body(r_fr21_46,fr23_y2).
body(r_fr21_46,fr22_p2).
body(r_fr21_46,fr21_u2).
body(r_fr21_46,fr20_z1).
body(r_fr21_46,fr21_w1).
body(r_fr21_46,fr21_w3).
body(r_fr21_46,fr22_p2).
body(r_fr21_46,fr22_p2).
body(r_fr21_46,fr21_x3).
body(r_fr21_46,fr22_p2).
body(r_fr21_46,fr20_u3).
body(r_fr21_46,fr21_z1).
body(r_fr21_46,fr21_z2).
head(r_fr21_47,fr21_v2).
body(r_fr21_47,fr21_a2).
body(r_fr21_47,fr17_e2).
body(r_fr21_47,fr3_f2).
body(r_fr21_47,fr14_c1).
body(r_fr21_47,fr21_p2).
body(r_fr21_47,fr8_u1).
body(r_fr21_47,fr21_p4).
body(r_fr21_47,fr21_r3).
body(r_fr21_47,fr23_y2).
body(r_fr21_47,fr21_u1).
body(r_fr21_47,fr21_v3).
body(r_fr21_47,fr21_w1).
body(r_fr21_47,fr21_w2).
body(r_fr21_47,fr21_w3).
body(r_fr21_47,fr22_p2).
body(r_fr21_47,fr21_x3).
body(r_fr21_47,fr22_p2).
body(r_fr21_47,fr21_z1).
body(r_fr21_47,fr23_y2).
head(r_fr21_48,fr21_v2).
body(r_fr21_48,fr19_q1).
body(r_fr21_48,fr8_u1).
body(r_fr21_48,fr21_p4).
body(r_fr21_48,fr23_y2).
body(r_fr21_48,fr23_y2).
body(r_fr21_48,fr23_y2).
body(r_fr21_48,fr22_p2).
body(r_fr21_48,fr23_y2).
body(r_fr21_48,fr16_x1).
body(r_fr21_48,fr21_t1).
body(r_fr21_48,fr12_x3).
body(r_fr21_48,fr20_z1).
body(r_fr21_48,fr21_w1).
body(r_fr21_48,fr21_x3).
body(r_fr21_48,fr22_p2).
body(r_fr21_48,fr22_p2).
body(r_fr21_48,fr21_z1).
body(r_fr21_48,fr21_z2).
head(r_fr21_49,fr21_v2).
body(r_fr21_49,fr14_c1).
body(r_fr21_49,fr21_b2).
body(r_fr21_49,fr21_c2).
body(r_fr21_49,fr13_f2).
body(r_fr21_49,fr19_q1).
body(r_fr21_49,fr21_p4).
body(r_fr21_49,fr21_q1).
body(r_fr21_49,fr23_y2).
body(r_fr21_49,fr13_z1).
body(r_fr21_49,fr23_y2).
body(r_fr21_49,fr21_r3).
body(r_fr21_49,fr21_s2).
body(r_fr21_49,fr21_t3).
body(r_fr21_49,fr12_x3).
body(r_fr21_49,fr21_v3).
body(r_fr21_49,fr21_w1).
body(r_fr21_49,fr22_p2).
body(r_fr21_49,fr22_p2).
body(r_fr21_49,fr21_z2).
body(r_fr21_49,fr23_y2).
head(r_fr21_50,fr21_t3).
body(r_fr21_50,fr17_e2).
body(r_fr21_50,fr19_q1).
body(r_fr21_50,fr21_p2).
body(r_fr21_50,fr21_p4).
body(r_fr21_50,fr23_y2).
body(r_fr21_50,fr23_y2).
body(r_fr21_50,fr23_y2).
body(r_fr21_50,fr22_p2).
body(r_fr21_50,fr21_r3).
body(r_fr21_50,fr21_u1).
body(r_fr21_50,fr12_x3).
body(r_fr21_50,fr20_z1).
body(r_fr21_50,fr21_v2).
body(r_fr21_50,fr21_v3).
body(r_fr21_50,fr21_w2).
body(r_fr21_50,fr22_p2).
body(r_fr21_50,fr21_x3).
body(r_fr21_50,fr22_p2).
body(r_fr21_50,fr22_p2).
body(r_fr21_50,fr20_u3).
body(r_fr21_50,fr21_z2).
head(r_fr21_51,fr21_t3).
body(r_fr21_51,fr13_f2).
body(r_fr21_51,fr14_c1).
body(r_fr21_51,fr19_q1).
body(r_fr21_51,fr8_u1).
body(r_fr21_51,fr21_p4).
body(r_fr21_51,fr21_q1).
body(r_fr21_51,fr23_y2).
body(r_fr21_51,fr13_z1).
body(r_fr21_51,fr23_y2).
body(r_fr21_51,fr21_s2).
body(r_fr21_51,fr16_x1).
body(r_fr21_51,fr21_t1).
body(r_fr21_51,fr8_u1).
body(r_fr21_51,fr21_w1).
body(r_fr21_51,fr21_w3).
body(r_fr21_51,fr22_p2).
body(r_fr21_51,fr21_x3).
body(r_fr21_51,fr22_p2).
body(r_fr21_51,fr21_z2).
head(r_fr21_52,fr21_t3).
body(r_fr21_52,fr14_c1).
body(r_fr21_52,fr14_c1).
body(r_fr21_52,fr17_e2).
body(r_fr21_52,fr3_f2).
body(r_fr21_52,fr13_f2).
body(r_fr21_52,fr19_q1).
body(r_fr21_52,fr21_p4).
body(r_fr21_52,fr21_q1).
body(r_fr21_52,fr23_y2).
body(r_fr21_52,fr23_y2).
body(r_fr21_52,fr22_p2).
body(r_fr21_52,fr21_s2).
body(r_fr21_52,fr8_u1).
body(r_fr21_52,fr21_u1).
body(r_fr21_52,fr21_v3).
body(r_fr21_52,fr22_p2).
body(r_fr21_52,fr22_p2).
body(r_fr21_52,fr22_p2).
body(r_fr21_52,fr20_u3).
body(r_fr21_52,fr21_z1).
head(r_fr21_53,fr21_t3).
body(r_fr21_53,fr21_b1).
body(r_fr21_53,fr20_b2).
body(r_fr21_53,fr14_f1).
body(r_fr21_53,fr23_y2).
body(r_fr21_53,fr23_y2).
body(r_fr21_53,fr23_y2).
body(r_fr21_53,fr21_s2).
body(r_fr21_53,fr21_t1).
body(r_fr21_53,fr21_u1).
body(r_fr21_53,fr21_u2).
body(r_fr21_53,fr12_x3).
body(r_fr21_53,fr20_z1).
body(r_fr21_53,fr21_v2).
body(r_fr21_53,fr22_p2).
body(r_fr21_53,fr22_p2).
body(r_fr21_53,fr20_u3).
body(r_fr21_53,fr21_z1).
body(r_fr21_53,fr21_z2).
body(r_fr21_53,fr23_y2).
head(r_fr21_54,fr21_t3).
body(r_fr21_54,fr3_f2).
body(r_fr21_54,fr21_d2).
body(r_fr21_54,fr13_f2).
body(r_fr21_54,fr14_f1).
body(r_fr21_54,fr21_f1).
body(r_fr21_54,fr14_c1).
body(r_fr21_54,fr8_u1).
body(r_fr21_54,fr13_z1).
body(r_fr21_54,fr23_y2).
body(r_fr21_54,fr21_s2).
body(r_fr21_54,fr16_x1).
body(r_fr21_54,fr21_t1).
body(r_fr21_54,fr12_x3).
body(r_fr21_54,fr21_v2).
body(r_fr21_54,fr21_w3).
body(r_fr21_54,fr22_p2).
body(r_fr21_54,fr21_z1).
body(r_fr21_54,fr23_y2).
head(r_fr21_55,fr21_w3).
body(r_fr21_55,fr14_c1).
body(r_fr21_55,fr21_a2).
body(r_fr21_55,fr14_c1).
body(r_fr21_55,fr19_q1).
body(r_fr21_55,fr23_y2).
body(r_fr21_55,fr23_y2).
body(r_fr21_55,fr22_p2).
body(r_fr21_55,fr21_r3).
body(r_fr21_55,fr23_y2).
body(r_fr21_55,fr21_s2).
body(r_fr21_55,fr21_t1).
body(r_fr21_55,fr21_u1).
body(r_fr21_55,fr21_u2).
body(r_fr21_55,fr20_z1).
body(r_fr21_55,fr21_v2).
body(r_fr21_55,fr21_v3).
body(r_fr21_55,fr22_p2).
body(r_fr21_55,fr21_z1).
body(r_fr21_55,fr21_z2).
body(r_fr21_55,fr23_y2).
head(r_fr21_56,fr21_w3).
body(r_fr21_56,fr21_b1).
body(r_fr21_56,fr21_c2).
body(r_fr21_56,fr21_d2).
body(r_fr21_56,fr13_f2).
body(r_fr21_56,fr14_f1).
body(r_fr21_56,fr21_p2).
body(r_fr21_56,fr8_u1).
body(r_fr21_56,fr21_p4).
body(r_fr21_56,fr23_y2).
body(r_fr21_56,fr23_y2).
body(r_fr21_56,fr21_s2).
body(r_fr21_56,fr21_t1).
body(r_fr21_56,fr21_t3).
body(r_fr21_56,fr21_u1).
body(r_fr21_56,fr21_u2).
body(r_fr21_56,fr20_z1).
body(r_fr21_56,fr21_v3).
body(r_fr21_56,fr21_w1).
body(r_fr21_56,fr21_w2).
body(r_fr21_56,fr22_p2).
body(r_fr21_56,fr20_u3).
head(r_fr21_57,fr21_w3).
body(r_fr21_57,fr13_f2).
body(r_fr21_57,fr21_b2).
body(r_fr21_57,fr13_f2).
body(r_fr21_57,fr21_f1).
body(r_fr21_57,fr8_u1).
body(r_fr21_57,fr23_y2).
body(r_fr21_57,fr23_y2).
body(r_fr21_57,fr13_z1).
body(r_fr21_57,fr21_r3).
body(r_fr21_57,fr21_s2).
body(r_fr21_57,fr21_t1).
body(r_fr21_57,fr21_u2).
body(r_fr21_57,fr12_x3).
body(r_fr21_57,fr21_v3).
body(r_fr21_57,fr21_w2).
body(r_fr21_57,fr20_u3).
body(r_fr21_57,fr21_z2).
body(r_fr21_57,fr23_y2).
head(r_fr21_58,fr22_p2).
body(r_fr21_58,fr21_a2).
body(r_fr21_58,fr14_c1).
body(r_fr21_58,fr20_b2).
body(r_fr21_58,fr21_c2).
body(r_fr21_58,fr21_f1).
body(r_fr21_58,fr19_q1).
body(r_fr21_58,fr21_p2).
body(r_fr21_58,fr23_y2).
body(r_fr21_58,fr21_r3).
body(r_fr21_58,fr21_t1).
body(r_fr21_58,fr21_t3).
body(r_fr21_58,fr21_v2).
body(r_fr21_58,fr21_v3).
body(r_fr21_58,fr21_w2).
body(r_fr21_58,fr22_p2).
body(r_fr21_58,fr21_x3).
body(r_fr21_58,fr22_p2).
body(r_fr21_58,fr20_u3).
body(r_fr21_58,fr23_y2).
head(r_fr21_59,fr22_p2).
body(r_fr21_59,fr14_c1).
body(r_fr21_59,fr21_b2).
body(r_fr21_59,fr21_c2).
body(r_fr21_59,fr13_f2).
body(r_fr21_59,fr14_f1).
body(r_fr21_59,fr8_u1).
body(r_fr21_59,fr23_y2).
body(r_fr21_59,fr23_y2).
body(r_fr21_59,fr16_x1).
body(r_fr21_59,fr21_t1).
body(r_fr21_59,fr8_u1).
body(r_fr21_59,fr21_t3).
body(r_fr21_59,fr21_u2).
body(r_fr21_59,fr20_z1).
body(r_fr21_59,fr21_w2).
body(r_fr21_59,fr21_w3).
body(r_fr21_59,fr22_p2).
body(r_fr21_59,fr22_p2).
body(r_fr21_59,fr21_x3).
body(r_fr21_59,fr21_z2).
head(r_fr21_60,fr20_u3).
body(r_fr21_60,fr14_c1).
body(r_fr21_60,fr14_c1).
body(r_fr21_60,fr23_y2).
body(r_fr21_60,fr13_z1).
body(r_fr21_60,fr23_y2).
body(r_fr21_60,fr22_p2).
body(r_fr21_60,fr21_s2).
body(r_fr21_60,fr16_x1).
body(r_fr21_60,fr21_t1).
body(r_fr21_60,fr8_u1).
body(r_fr21_60,fr21_t3).
body(r_fr21_60,fr21_u2).
body(r_fr21_60,fr20_z1).
body(r_fr21_60,fr21_v2).
body(r_fr21_60,fr21_v3).
body(r_fr21_60,fr22_p2).
body(r_fr21_60,fr21_x3).
body(r_fr21_60,fr22_p2).
body(r_fr21_60,fr23_y2).
head(r_fr21_61,fr20_u3).
body(r_fr21_61,fr20_b2).
body(r_fr21_61,fr21_c2).
body(r_fr21_61,fr3_f2).
body(r_fr21_61,fr14_c1).
body(r_fr21_61,fr19_q1).
body(r_fr21_61,fr8_u1).
body(r_fr21_61,fr23_y2).
body(r_fr21_61,fr13_z1).
body(r_fr21_61,fr21_s2).
body(r_fr21_61,fr16_x1).
body(r_fr21_61,fr21_t1).
body(r_fr21_61,fr12_x3).
body(r_fr21_61,fr20_z1).
body(r_fr21_61,fr21_w2).
body(r_fr21_61,fr21_w3).
body(r_fr21_61,fr22_p2).
body(r_fr21_61,fr21_x3).
body(r_fr21_61,fr22_p2).
body(r_fr21_61,fr22_p2).
body(r_fr21_61,fr21_z1).
body(r_fr21_61,fr21_z2).
head(r_fr21_62,fr20_u3).
body(r_fr21_62,fr21_b1).
body(r_fr21_62,fr21_b2).
body(r_fr21_62,fr21_c2).
body(r_fr21_62,fr17_e2).
body(r_fr21_62,fr3_f2).
body(r_fr21_62,fr14_f1).
body(r_fr21_62,fr21_p2).
body(r_fr21_62,fr23_y2).
body(r_fr21_62,fr23_y2).
body(r_fr21_62,fr22_p2).
body(r_fr21_62,fr23_y2).
body(r_fr21_62,fr21_s2).
body(r_fr21_62,fr16_x1).
body(r_fr21_62,fr21_t1).
body(r_fr21_62,fr20_z1).
body(r_fr21_62,fr21_w1).
body(r_fr21_62,fr21_w3).
body(r_fr21_62,fr22_p2).
body(r_fr21_62,fr22_p2).
body(r_fr21_62,fr21_z2).
body(r_fr21_62,fr23_y2).
head(r_fr21_63,fr22_p2).
body(r_fr21_63,fr19_q1).
body(r_fr21_63,fr23_y2).
body(r_fr21_63,fr13_z1).
body(r_fr21_63,fr22_p2).
body(r_fr21_63,fr23_y2).
body(r_fr21_63,fr21_s2).
body(r_fr21_63,fr16_x1).
body(r_fr21_63,fr21_t1).
body(r_fr21_63,fr21_u1).
body(r_fr21_63,fr12_x3).
body(r_fr21_63,fr21_w1).
body(r_fr21_63,fr21_w3).
body(r_fr21_63,fr21_x3).
body(r_fr21_63,fr22_p2).
body(r_fr21_63,fr22_p2).
body(r_fr21_63,fr20_u3).
body(r_fr21_63,fr21_z2).
body(r_fr21_63,fr23_y2).
head(r_fr21_64,fr22_p2).
body(r_fr21_64,fr21_a2).
body(r_fr21_64,fr21_b1).
body(r_fr21_64,fr19_q1).
body(r_fr21_64,fr21_p2).
body(r_fr21_64,fr8_u1).
body(r_fr21_64,fr21_q1).
body(r_fr21_64,fr23_y2).
body(r_fr21_64,fr23_y2).
body(r_fr21_64,fr21_r3).
body(r_fr21_64,fr23_y2).
body(r_fr21_64,fr21_u1).
body(r_fr21_64,fr21_u2).
body(r_fr21_64,fr21_v2).
body(r_fr21_64,fr21_v3).
body(r_fr21_64,fr21_w2).
body(r_fr21_64,fr21_w3).
body(r_fr21_64,fr21_x3).
body(r_fr21_64,fr22_p2).
body(r_fr21_64,fr20_u3).
body(r_fr21_64,fr21_z1).
body(r_fr21_64,fr23_y2).
head(r_fr21_65,fr22_p2).
body(r_fr21_65,fr13_f2).
body(r_fr21_65,fr20_b2).
body(r_fr21_65,fr21_d2).
body(r_fr21_65,fr13_f2).
body(r_fr21_65,fr14_f1).
body(r_fr21_65,fr8_u1).
body(r_fr21_65,fr21_p4).
body(r_fr21_65,fr23_y2).
body(r_fr21_65,fr23_y2).
body(r_fr21_65,fr23_y2).
body(r_fr21_65,fr21_r3).
body(r_fr21_65,fr21_t3).
body(r_fr21_65,fr20_z1).
body(r_fr21_65,fr21_v2).
body(r_fr21_65,fr21_w1).
body(r_fr21_65,fr21_w2).
body(r_fr21_65,fr21_x3).
body(r_fr21_65,fr22_p2).
head(r_fr21_66,fr22_p2).
body(r_fr21_66,fr21_c2).
body(r_fr21_66,fr14_f1).
body(r_fr21_66,fr14_c1).
body(r_fr21_66,fr19_q1).
body(r_fr21_66,fr21_p2).
body(r_fr21_66,fr23_y2).
body(r_fr21_66,fr23_y2).
body(r_fr21_66,fr23_y2).
body(r_fr21_66,fr21_r3).
body(r_fr21_66,fr23_y2).
body(r_fr21_66,fr8_u1).
body(r_fr21_66,fr21_u1).
body(r_fr21_66,fr12_x3).
body(r_fr21_66,fr20_z1).
body(r_fr21_66,fr21_v3).
body(r_fr21_66,fr21_w3).
body(r_fr21_66,fr22_p2).
body(r_fr21_66,fr21_z1).
head(r_fr21_67,fr22_p2).
body(r_fr21_67,fr21_b1).
body(r_fr21_67,fr3_f2).
body(r_fr21_67,fr13_f2).
body(r_fr21_67,fr21_f1).
body(r_fr21_67,fr14_c1).
body(r_fr21_67,fr19_q1).
body(r_fr21_67,fr21_p2).
body(r_fr21_67,fr8_u1).
body(r_fr21_67,fr21_q1).
body(r_fr21_67,fr23_y2).
body(r_fr21_67,fr21_r3).
body(r_fr21_67,fr16_x1).
body(r_fr21_67,fr21_u1).
body(r_fr21_67,fr20_z1).
body(r_fr21_67,fr21_v3).
body(r_fr21_67,fr21_w3).
body(r_fr21_67,fr20_u3).
body(r_fr21_67,fr21_z1).
body(r_fr21_67,fr23_y2).
head(r_fr21_68,fr22_p2).
body(r_fr21_68,fr19_q1).
body(r_fr21_68,fr8_u1).
body(r_fr21_68,fr21_p4).
body(r_fr21_68,fr21_q1).
body(r_fr21_68,fr13_z1).
body(r_fr21_68,fr21_r3).
body(r_fr21_68,fr23_y2).
body(r_fr21_68,fr16_x1).
body(r_fr21_68,fr21_t1).
body(r_fr21_68,fr8_u1).
body(r_fr21_68,fr21_u1).
body(r_fr21_68,fr21_v2).
body(r_fr21_68,fr21_v3).
body(r_fr21_68,fr21_w1).
body(r_fr21_68,fr21_w2).
body(r_fr21_68,fr21_w3).
body(r_fr21_68,fr22_p2).
body(r_fr21_68,fr22_p2).
body(r_fr21_68,fr20_u3).
body(r_fr21_68,fr21_z2).
body(r_fr21_68,fr23_y2).
head(r_fr21_69,fr22_p2).
body(r_fr21_69,fr21_a2).
body(r_fr21_69,fr13_f2).
body(r_fr21_69,fr21_b1).
body(r_fr21_69,fr19_q1).
body(r_fr21_69,fr21_p2).
body(r_fr21_69,fr21_q1).
body(r_fr21_69,fr23_y2).
body(r_fr21_69,fr23_y2).
body(r_fr21_69,fr21_r3).
body(r_fr21_69,fr21_t1).
body(r_fr21_69,fr21_t3).
body(r_fr21_69,fr21_u2).
body(r_fr21_69,fr21_v2).
body(r_fr21_69,fr21_v3).
body(r_fr21_69,fr21_w2).
body(r_fr21_69,fr21_w3).
body(r_fr21_69,fr22_p2).
body(r_fr21_69,fr22_p2).
body(r_fr21_69,fr21_z1).
body(r_fr21_69,fr21_z2).
head(r_fr21_70,fr22_p2).
body(r_fr21_70,fr14_c1).
body(r_fr21_70,fr13_f2).
body(r_fr21_70,fr14_f1).
body(r_fr21_70,fr14_c1).
body(r_fr21_70,fr19_q1).
body(r_fr21_70,fr21_q1).
body(r_fr21_70,fr23_y2).
body(r_fr21_70,fr23_y2).
body(r_fr21_70,fr13_z1).
body(r_fr21_70,fr23_y2).
body(r_fr21_70,fr21_s2).
body(r_fr21_70,fr21_t1).
body(r_fr21_70,fr21_t3).
body(r_fr21_70,fr12_x3).
body(r_fr21_70,fr21_w1).
body(r_fr21_70,fr21_w2).
body(r_fr21_70,fr21_w3).
body(r_fr21_70,fr21_x3).
body(r_fr21_70,fr22_p2).
body(r_fr21_70,fr21_z2).
body(r_fr21_70,fr23_y2).

assumption(fr22_a1).
assumption(fr13_f2).
assumption(fr14_c1).
assumption(fr25_a3).
assumption(fr22_e1).
assumption(fr14_c1).
assumption(fr22_a2).
assumption(fr13_f2).
assumption(fr14_d2).
assumption(fr22_d2).
assumption(fr13_f2).
assumption(fr22_f2).
assumption(fr14_c1).
assumption(fr18_f1).
assumption(fr3_b3).
contrary(fr22_a1,fr25_s3).
contrary(fr22_a2,fr3_z2).
contrary(fr14_c1,fr22_p3).
contrary(fr13_f2,fr8_u1).
contrary(fr13_f2,fr9_t5).
contrary(fr18_f1,fr25_s3).
contrary(fr14_c1,fr3_z2).
contrary(fr14_d2,fr22_f2).
contrary(fr3_b3,fr22_p3).
contrary(fr25_a3,fr13_f2).
contrary(fr22_d2,fr18_f1).
contrary(fr22_e1,fr4_s2).
contrary(fr13_f2,fr23_y2).
contrary(fr14_c1,fr22_q1).
contrary(fr22_f2,fr25_s3).
head(r_fr22_0,fr22_p1).
body(r_fr22_0,fr22_d2).
body(r_fr22_0,fr14_c1).
body(r_fr22_0,fr1_p4).
head(r_fr22_1,fr22_p1).
body(r_fr22_1,fr22_f2).
body(r_fr22_1,fr22_s1).
body(r_fr22_1,fr22_p2).
body(r_fr22_1,fr22_v1).
body(r_fr22_1,fr13_z1).
head(r_fr22_2,fr22_p1).
body(r_fr22_2,fr14_c1).
body(r_fr22_2,fr3_b3).
head(r_fr22_3,fr22_p1).
body(r_fr22_3,fr22_p2).
body(r_fr22_3,fr22_q3).
body(r_fr22_3,fr9_t5).
body(r_fr22_3,fr22_v1).
body(r_fr22_3,fr13_z1).
head(r_fr22_4,fr22_p1).
body(r_fr22_4,fr22_f2).
body(r_fr22_4,fr2_q2).
body(r_fr22_4,fr22_p2).
body(r_fr22_4,fr3_z2).
head(r_fr22_5,fr22_p1).
body(r_fr22_5,fr13_f2).
body(r_fr22_5,fr18_f1).
body(r_fr22_5,fr25_a3).
body(r_fr22_5,fr22_d2).
body(r_fr22_5,fr22_e1).
body(r_fr22_5,fr13_f2).
head(r_fr22_6,fr22_p1).
body(r_fr22_6,fr13_f2).
body(r_fr22_6,fr22_p2).
body(r_fr22_6,fr22_p3).
body(r_fr22_6,fr22_r3).
body(r_fr22_6,fr8_u1).
body(r_fr22_6,fr3_z2).
head(r_fr22_7,fr22_p1).
body(r_fr22_7,fr22_d2).
head(r_fr22_8,fr22_v2).
body(r_fr22_8,fr13_f2).
body(r_fr22_8,fr13_z1).
body(r_fr22_8,fr23_y2).
head(r_fr22_9,fr22_v2).
body(r_fr22_9,fr3_b3).
body(r_fr22_9,fr25_a3).
body(r_fr22_9,fr14_c1).
head(r_fr22_10,fr22_v2).
body(r_fr22_10,fr22_a2).
body(r_fr22_10,fr13_f2).
body(r_fr22_10,fr22_f2).
head(r_fr22_11,fr22_v2).
body(r_fr22_11,fr22_r3).
body(r_fr22_11,fr22_p2).
body(r_fr22_11,fr3_z2).
head(r_fr22_12,fr22_v2).
body(r_fr22_12,fr22_a1).
body(r_fr22_12,fr13_f2).
body(r_fr22_12,fr3_b3).
body(r_fr22_12,fr22_d2).
body(r_fr22_12,fr13_f2).
body(r_fr22_12,fr9_t5).
head(r_fr22_13,fr22_v2).
body(r_fr22_13,fr22_r1).
body(r_fr22_13,fr4_s2).
body(r_fr22_13,fr22_v1).
body(r_fr22_13,fr13_z1).
head(r_fr22_14,fr22_p3).
body(r_fr22_14,fr22_r1).
body(r_fr22_14,fr9_t5).
head(r_fr22_15,fr22_p3).
body(r_fr22_15,fr22_a1).
body(r_fr22_15,fr22_e1).
body(r_fr22_15,fr1_p4).
body(r_fr22_15,fr8_u1).
body(r_fr22_15,fr25_s3).
body(r_fr22_15,fr3_z2).
head(r_fr22_16,fr22_p3).
head(r_fr22_17,fr22_p3).
body(r_fr22_17,fr8_u1).
body(r_fr22_17,fr2_q2).
body(r_fr22_17,fr25_s3).
body(r_fr22_17,fr3_z2).
head(r_fr22_18,fr22_p3).
body(r_fr22_18,fr22_q3).
body(r_fr22_18,fr22_p2).
head(r_fr22_19,fr22_p2).
body(r_fr22_19,fr22_a2).
body(r_fr22_19,fr13_f2).
body(r_fr22_19,fr13_f2).
body(r_fr22_19,fr22_f2).
body(r_fr22_19,fr1_p4).
head(r_fr22_20,fr22_p2).
body(r_fr22_20,fr22_r1).
body(r_fr22_20,fr22_r2).
body(r_fr22_20,fr9_t5).
body(r_fr22_20,fr4_s2).
body(r_fr22_20,fr13_z1).
body(r_fr22_20,fr23_y2).
head(r_fr22_21,fr22_p2).
body(r_fr22_21,fr22_q1).
head(r_fr22_22,fr22_p2).
body(r_fr22_22,fr22_p2).
body(r_fr22_22,fr3_z2).
head(r_fr22_23,fr22_p2).
body(r_fr22_23,fr14_c1).
body(r_fr22_23,fr13_f2).
body(r_fr22_23,fr14_d2).
head(r_fr22_24,fr22_v1).
body(r_fr22_24,fr14_c1).
body(r_fr22_24,fr13_z1).
head(r_fr22_25,fr22_v1).
body(r_fr22_25,fr22_a1).
body(r_fr22_25,fr14_c1).
body(r_fr22_25,fr22_f2).
head(r_fr22_26,fr22_v1).
head(r_fr22_27,fr22_v1).
body(r_fr22_27,fr22_r2).
head(r_fr22_28,fr22_v1).
body(r_fr22_28,fr22_a1).
body(r_fr22_28,fr13_f2).
body(r_fr22_28,fr13_f2).
body(r_fr22_28,fr22_q1).
body(r_fr22_28,fr22_r2).
body(r_fr22_28,fr13_z1).
head(r_fr22_29,fr22_v1).
body(r_fr22_29,fr13_f2).
body(r_fr22_29,fr14_c1).
body(r_fr22_29,fr22_e1).
head(r_fr22_30,fr22_v1).
body(r_fr22_30,fr14_d2).
body(r_fr22_30,fr25_a3).
body(r_fr22_30,fr14_c1).
body(r_fr22_30,fr22_q3).
body(r_fr22_30,fr22_r3).
body(r_fr22_30,fr22_s1).
head(r_fr22_31,fr22_v1).
body(r_fr22_31,fr18_f1).
body(r_fr22_31,fr3_b3).
body(r_fr22_31,fr3_z2).
head(r_fr22_32,fr22_p2).
body(r_fr22_32,fr13_f2).
body(r_fr22_32,fr25_a3).
body(r_fr22_32,fr2_q2).
head(r_fr22_33,fr22_p2).
head(r_fr22_34,fr22_p2).
body(r_fr22_34,fr22_a2).
body(r_fr22_34,fr14_c1).
body(r_fr22_34,fr22_e1).
body(r_fr22_34,fr22_r2).
body(r_fr22_34,fr2_q2).
body(r_fr22_34,fr2_q2).
head(r_fr22_35,fr22_p2).
body(r_fr22_35,fr22_a1).
body(r_fr22_35,fr13_f2).
head(r_fr22_36,fr22_p2).
body(r_fr22_36,fr14_c1).
body(r_fr22_36,fr14_c1).
body(r_fr22_36,fr3_b3).
body(r_fr22_36,fr2_q2).
head(r_fr22_37,fr9_t5).
body(r_fr22_37,fr22_a1).
body(r_fr22_37,fr18_f1).
body(r_fr22_37,fr3_b3).
body(r_fr22_37,fr22_d2).
body(r_fr22_37,fr22_e1).
body(r_fr22_37,fr13_f2).
head(r_fr22_38,fr9_t5).
body(r_fr22_38,fr22_a1).
body(r_fr22_38,fr13_f2).
body(r_fr22_38,fr22_e1).
head(r_fr22_39,fr9_t5).
body(r_fr22_39,fr22_a1).
body(r_fr22_39,fr13_f2).
body(r_fr22_39,fr3_b3).
body(r_fr22_39,fr14_c1).
body(r_fr22_39,fr22_q3).
body(r_fr22_39,fr4_s2).
head(r_fr22_40,fr9_t5).
body(r_fr22_40,fr22_r1).
body(r_fr22_40,fr13_z1).
head(r_fr22_41,fr9_t5).
body(r_fr22_41,fr2_q2).
body(r_fr22_41,fr22_r2).
head(r_fr22_42,fr9_t5).
body(r_fr22_42,fr14_d2).
body(r_fr22_42,fr8_u1).
body(r_fr22_42,fr23_y2).
body(r_fr22_42,fr13_z1).
head(r_fr22_43,fr9_t5).
head(r_fr22_44,fr13_z1).
body(r_fr22_44,fr14_c1).
body(r_fr22_44,fr13_f2).
body(r_fr22_44,fr13_f2).
body(r_fr22_44,fr22_p2).
body(r_fr22_44,fr22_q3).
body(r_fr22_44,fr2_q2).
head(r_fr22_45,fr13_z1).
body(r_fr22_45,fr14_c1).
body(r_fr22_45,fr13_f2).
body(r_fr22_45,fr22_d2).
body(r_fr22_45,fr13_f2).
body(r_fr22_45,fr14_c1).
head(r_fr22_46,fr13_z1).
body(r_fr22_46,fr14_c1).
body(r_fr22_46,fr18_f1).
body(r_fr22_46,fr22_q1).
body(r_fr22_46,fr22_r1).
body(r_fr22_46,fr23_y2).
head(r_fr22_47,fr13_z1).
body(r_fr22_47,fr2_q2).
head(r_fr22_48,fr13_z1).
head(r_fr22_49,fr22_r2).
body(r_fr22_49,fr22_s1).
head(r_fr22_50,fr22_r2).
body(r_fr22_50,fr22_r3).
body(r_fr22_50,fr2_q2).
body(r_fr22_50,fr25_s3).
head(r_fr22_51,fr22_r2).
head(r_fr22_52,fr22_r2).
body(r_fr22_52,fr22_a1).
body(r_fr22_52,fr14_d2).
body(r_fr22_52,fr14_c1).
head(r_fr22_53,fr22_r2).
body(r_fr22_53,fr14_c1).
body(r_fr22_53,fr22_q3).
body(r_fr22_53,fr22_r3).
body(r_fr22_53,fr22_s1).
head(r_fr22_54,fr1_p4).
body(r_fr22_54,fr8_u1).
head(r_fr22_55,fr1_p4).
body(r_fr22_55,fr14_c1).
body(r_fr22_55,fr2_q2).
body(r_fr22_55,fr22_q3).
body(r_fr22_55,fr2_q2).
body(r_fr22_55,fr25_s3).
body(r_fr22_55,fr2_q2).
head(r_fr22_56,fr1_p4).
body(r_fr22_56,fr25_a3).
body(r_fr22_56,fr14_c1).
body(r_fr22_56,fr22_p2).
body(r_fr22_56,fr13_z1).
body(r_fr22_56,fr25_s3).
body(r_fr22_56,fr2_q2).
head(r_fr22_57,fr1_p4).
body(r_fr22_57,fr22_a1).
body(r_fr22_57,fr13_f2).
body(r_fr22_57,fr18_f1).
body(r_fr22_57,fr13_f2).
body(r_fr22_57,fr14_c1).
body(r_fr22_57,fr13_z1).
head(r_fr22_58,fr1_p4).
head(r_fr22_59,fr2_q2).
body(r_fr22_59,fr14_c1).
body(r_fr22_59,fr25_a3).
head(r_fr22_60,fr2_q2).
body(r_fr22_60,fr13_f2).
body(r_fr22_60,fr22_f2).
body(r_fr22_60,fr22_p2).
head(r_fr22_61,fr2_q2).
body(r_fr22_61,fr14_c1).
body(r_fr22_61,fr22_q3).
body(r_fr22_61,fr8_u1).
head(r_fr22_62,fr2_q2).
body(r_fr22_62,fr22_p2).
body(r_fr22_62,fr22_q1).
body(r_fr22_62,fr22_r3).
body(r_fr22_62,fr13_z1).
body(r_fr22_62,fr3_z2).
head(r_fr22_63,fr2_q2).
body(r_fr22_63,fr22_s1).
body(r_fr22_63,fr2_q2).
head(r_fr22_64,fr3_z2).
head(r_fr22_65,fr3_z2).
body(r_fr22_65,fr22_a1).
body(r_fr22_65,fr25_a3).
head(r_fr22_66,fr3_z2).
body(r_fr22_66,fr22_a1).
body(r_fr22_66,fr14_c1).
body(r_fr22_66,fr18_f1).
body(r_fr22_66,fr3_b3).
body(r_fr22_66,fr22_f2).
head(r_fr22_67,fr3_z2).
body(r_fr22_67,fr22_r3).
body(r_fr22_67,fr2_q2).
head(r_fr22_68,fr3_z2).
body(r_fr22_68,fr22_a1).
body(r_fr22_68,fr14_c1).
body(r_fr22_68,fr14_c1).
body(r_fr22_68,fr22_e1).
body(r_fr22_68,fr13_f2).
body(r_fr22_68,fr14_c1).
head(r_fr22_69,fr3_z2).
body(r_fr22_69,fr14_c1).
head(r_fr22_70,fr3_z2).
body(r_fr22_70,fr25_a3).
body(r_fr22_70,fr13_z1).
head(r_fr22_71,fr3_z2).
body(r_fr22_71,fr14_d2).
body(r_fr22_71,fr2_q2).
body(r_fr22_71,fr22_q3).
head(r_fr22_72,fr22_p2).
body(r_fr22_72,fr22_a1).
body(r_fr22_72,fr13_f2).
body(r_fr22_72,fr3_b3).
body(r_fr22_72,fr13_f2).
body(r_fr22_72,fr22_s1).
body(r_fr22_72,fr25_s3).
head(r_fr22_73,fr22_p2).
body(r_fr22_73,fr14_c1).
body(r_fr22_73,fr22_r1).
body(r_fr22_73,fr4_s2).
body(r_fr22_73,fr25_s3).
head(r_fr22_74,fr22_p2).
body(r_fr22_74,fr22_a1).
body(r_fr22_74,fr13_f2).
body(r_fr22_74,fr14_d2).
body(r_fr22_74,fr13_f2).
body(r_fr22_74,fr22_q3).
body(r_fr22_74,fr4_s2).
head(r_fr22_75,fr22_p2).
body(r_fr22_75,fr22_a2).
body(r_fr22_75,fr22_q1).
body(r_fr22_75,fr22_s1).
head(r_fr22_76,fr22_p2).
body(r_fr22_76,fr2_q2).
body(r_fr22_76,fr22_s1).
body(r_fr22_76,fr4_s2).
head(r_fr22_77,fr13_z1).
body(r_fr22_77,fr22_r1).
body(r_fr22_77,fr22_s1).
body(r_fr22_77,fr4_s2).
body(r_fr22_77,fr2_q2).
head(r_fr22_78,fr13_z1).
body(r_fr22_78,fr14_c1).
body(r_fr22_78,fr22_q3).
body(r_fr22_78,fr2_q2).
head(r_fr22_79,fr13_z1).
body(r_fr22_79,fr4_s2).
head(r_fr22_80,fr13_z1).
head(r_fr22_81,fr13_z1).
body(r_fr22_81,fr23_y2).
head(r_fr22_82,fr13_z1).
body(r_fr22_82,fr22_s1).
head(r_fr22_83,fr4_s2).
body(r_fr22_83,fr22_d2).
body(r_fr22_83,fr2_q2).
head(r_fr22_84,fr4_s2).
body(r_fr22_84,fr18_f1).
body(r_fr22_84,fr25_a3).
body(r_fr22_84,fr22_d2).
body(r_fr22_84,fr22_f2).
body(r_fr22_84,fr22_q3).
body(r_fr22_84,fr2_q2).
head(r_fr22_85,fr4_s2).
head(r_fr22_86,fr4_s2).
body(r_fr22_86,fr3_b3).
head(r_fr22_87,fr4_s2).
body(r_fr22_87,fr14_c1).
body(r_fr22_87,fr13_f2).
body(r_fr22_87,fr13_f2).
body(r_fr22_87,fr2_q2).
head(r_fr22_88,fr4_s2).
body(r_fr22_88,fr18_f1).
body(r_fr22_88,fr14_c1).
body(r_fr22_88,fr25_a3).
body(r_fr22_88,fr13_f2).
body(r_fr22_88,fr2_q2).
head(r_fr22_89,fr4_s2).
body(r_fr22_89,fr22_q3).
body(r_fr22_89,fr2_q2).
head(r_fr22_90,fr8_u1).
body(r_fr22_90,fr2_q2).
body(r_fr22_90,fr22_r3).
body(r_fr22_90,fr22_s1).
head(r_fr22_91,fr8_u1).
body(r_fr22_91,fr14_c1).
body(r_fr22_91,fr14_c1).
body(r_fr22_91,fr2_q2).
head(r_fr22_92,fr8_u1).
body(r_fr22_92,fr2_q2).
body(r_fr22_92,fr22_q3).
body(r_fr22_92,fr25_s3).
head(r_fr22_93,fr8_u1).
body(r_fr22_93,fr13_f2).
body(r_fr22_93,fr22_d2).
body(r_fr22_93,fr25_s3).
head(r_fr22_94,fr8_u1).
head(r_fr22_95,fr22_q3).
body(r_fr22_95,fr14_c1).
head(r_fr22_96,fr22_q3).
body(r_fr22_96,fr14_d2).
head(r_fr22_97,fr22_q3).
body(r_fr22_97,fr14_c1).
body(r_fr22_97,fr22_d2).
body(r_fr22_97,fr2_q2).
body(r_fr22_97,fr22_s1).
head(r_fr22_98,fr22_q3).
body(r_fr22_98,fr22_r3).
head(r_fr22_99,fr22_q3).
head(r_fr22_100,fr22_q3).
body(r_fr22_100,fr13_f2).
body(r_fr22_100,fr2_q2).
body(r_fr22_100,fr22_r3).
body(r_fr22_100,fr22_s1).
body(r_fr22_100,fr23_y2).
head(r_fr22_101,fr22_q3).
body(r_fr22_101,fr22_q1).
body(r_fr22_101,fr2_q2).
body(r_fr22_101,fr22_s1).
body(r_fr22_101,fr23_y2).
body(r_fr22_101,fr25_s3).
body(r_fr22_101,fr2_q2).
head(r_fr22_102,fr22_q3).
body(r_fr22_102,fr18_f1).
body(r_fr22_102,fr14_d2).
body(r_fr22_102,fr22_e1).
head(r_fr22_103,fr2_q2).
body(r_fr22_103,fr18_f1).
body(r_fr22_103,fr3_b3).
body(r_fr22_103,fr22_e1).
body(r_fr22_103,fr13_f2).
body(r_fr22_103,fr22_r1).
body(r_fr22_103,fr22_s1).
head(r_fr22_104,fr2_q2).
body(r_fr22_104,fr2_q2).
head(r_fr22_105,fr2_q2).
body(r_fr22_105,fr22_e1).
body(r_fr22_105,fr13_f2).
head(r_fr22_106,fr2_q2).
body(r_fr22_106,fr14_d2).
head(r_fr22_107,fr2_q2).
body(r_fr22_107,fr13_f2).
head(r_fr22_108,fr2_q2).
head(r_fr22_109,fr22_s1).
body(r_fr22_109,fr22_a1).
body(r_fr22_109,fr25_a3).
head(r_fr22_110,fr22_s1).
body(r_fr22_110,fr22_d2).
body(r_fr22_110,fr22_q1).
body(r_fr22_110,fr2_q2).
body(r_fr22_110,fr22_r3).
head(r_fr22_111,fr22_s1).
body(r_fr22_111,fr18_f1).
body(r_fr22_111,fr25_a3).
head(r_fr22_112,fr22_s1).
body(r_fr22_112,fr22_f2).
head(r_fr22_113,fr22_s1).
body(r_fr22_113,fr2_q2).
body(r_fr22_113,fr22_r1).
body(r_fr22_113,fr22_r3).
body(r_fr22_113,fr23_y2).
head(r_fr22_114,fr22_s1).
body(r_fr22_114,fr2_q2).
body(r_fr22_114,fr25_s3).
head(r_fr22_115,fr22_s1).
body(r_fr22_115,fr22_e1).
body(r_fr22_115,fr22_f2).
body(r_fr22_115,fr22_q1).
body(r_fr22_115,fr22_r1).
body(r_fr22_115,fr23_y2).
head(r_fr22_116,fr22_r1).
body(r_fr22_116,fr22_d2).
head(r_fr22_117,fr22_r1).
body(r_fr22_117,fr22_a1).
body(r_fr22_117,fr18_f1).
body(r_fr22_117,fr25_a3).
body(r_fr22_117,fr22_q1).
body(r_fr22_117,fr25_s3).
head(r_fr22_118,fr22_r1).
body(r_fr22_118,fr14_d2).
body(r_fr22_118,fr2_q2).
body(r_fr22_118,fr22_r3).
body(r_fr22_118,fr23_y2).
body(r_fr22_118,fr25_s3).
head(r_fr22_119,fr22_r1).
body(r_fr22_119,fr23_y2).
body(r_fr22_119,fr25_s3).
head(r_fr22_120,fr22_r1).
head(r_fr22_121,fr22_r1).
body(r_fr22_121,fr23_y2).

assumption(fr13_f2).
assumption(fr13_f2).
assumption(fr23_c1).
assumption(fr23_d1).
assumption(fr17_e2).
assumption(fr21_d2).
assumption(fr13_f2).
assumption(fr23_b2).
assumption(fr23_c2).
assumption(fr23_d2).
assumption(fr23_e2).
assumption(fr23_f2).
assumption(fr23_a3).
assumption(fr23_b3).
assumption(fr23_c3).
contrary(fr13_f2,fr23_s2).
contrary(fr13_f2,fr22_p2).
contrary(fr23_a3,fr13_f2).
contrary(fr13_f2,fr23_s2).
contrary(fr23_b2,fr23_y2).
contrary(fr23_b3,fr17_e2).
contrary(fr23_c1,fr23_y2).
contrary(fr23_c2,fr17_e2).
contrary(fr23_c3,fr23_y2).
contrary(fr23_d1,fr23_y2).
contrary(fr23_d2,fr23_y2).
contrary(fr17_e2,fr23_s2).
contrary(fr23_e2,fr23_t2).
contrary(fr21_d2,fr23_z2).
contrary(fr23_f2,fr23_w2).
head(r_fr23_0,fr23_y2).
body(r_fr23_0,fr23_b2).
body(r_fr23_0,fr23_e2).
body(r_fr23_0,fr23_y2).
head(r_fr23_1,fr23_y2).
body(r_fr23_1,fr22_p2).
body(r_fr23_1,fr23_y2).
head(r_fr23_2,fr23_y2).
body(r_fr23_2,fr23_b2).
body(r_fr23_2,fr23_c2).
body(r_fr23_2,fr21_d2).
head(r_fr23_3,fr23_y2).
body(r_fr23_3,fr23_y2).
body(r_fr23_3,fr22_p2).
body(r_fr23_3,fr23_z2).
head(r_fr23_4,fr23_y2).
body(r_fr23_4,fr13_z1).
head(r_fr23_5,fr23_t2).
body(r_fr23_5,fr23_d1).
body(r_fr23_5,fr17_e2).
head(r_fr23_6,fr23_t2).
body(r_fr23_6,fr23_p3).
body(r_fr23_6,fr21_s2).
head(r_fr23_7,fr23_x2).
body(r_fr23_7,fr23_d2).
head(r_fr23_8,fr23_x2).
body(r_fr23_8,fr13_f2).
head(r_fr23_9,fr23_x2).
body(r_fr23_9,fr23_c3).
head(r_fr23_10,fr23_r1).
body(r_fr23_10,fr13_f2).
body(r_fr23_10,fr21_d2).
head(r_fr23_11,fr23_r1).
body(r_fr23_11,fr23_y2).
head(r_fr23_12,fr23_r1).
body(r_fr23_12,fr23_d1).
body(r_fr23_12,fr23_x1).
head(r_fr23_13,fr23_r1).
head(r_fr23_14,fr23_r1).
body(r_fr23_14,fr23_s3).
body(r_fr23_14,fr23_y2).
head(r_fr23_15,fr23_z2).
body(r_fr23_15,fr13_f2).
head(r_fr23_16,fr23_z2).
body(r_fr23_16,fr23_c3).
head(r_fr23_17,fr23_z2).
body(r_fr23_17,fr23_d1).
head(r_fr23_18,fr23_w2).
body(r_fr23_18,fr23_c1).
body(r_fr23_18,fr23_e2).
head(r_fr23_19,fr23_w2).
body(r_fr23_19,fr21_d2).
head(r_fr23_20,fr23_w2).
body(r_fr23_20,fr23_y2).
body(r_fr23_20,fr23_x1).
head(r_fr23_21,fr23_v1).
body(r_fr23_21,fr13_f2).
body(r_fr23_21,fr23_w1).
head(r_fr23_22,fr23_v1).
body(r_fr23_22,fr23_c2).
body(r_fr23_22,fr13_z1).
body(r_fr23_22,fr23_u3).
head(r_fr23_23,fr23_v1).
body(r_fr23_23,fr23_e2).
head(r_fr23_24,fr23_v1).
body(r_fr23_24,fr23_f2).
body(r_fr23_24,fr23_z3).
head(r_fr23_25,fr23_v1).
body(r_fr23_25,fr23_c2).
head(r_fr23_26,fr23_y2).
body(r_fr23_26,fr23_c1).
body(r_fr23_26,fr23_d1).
body(r_fr23_26,fr17_e2).
head(r_fr23_27,fr23_y2).
body(r_fr23_27,fr23_a3).
body(r_fr23_27,fr23_c1).
body(r_fr23_27,fr21_d2).
head(r_fr23_28,fr23_y2).
body(r_fr23_28,fr17_e2).
body(r_fr23_28,fr23_s3).
head(r_fr23_29,fr23_y2).
head(r_fr23_30,fr23_y2).
body(r_fr23_30,fr23_c1).
body(r_fr23_30,fr23_c3).
body(r_fr23_30,fr23_d1).
head(r_fr23_31,fr23_y2).
body(r_fr23_31,fr23_a3).
body(r_fr23_31,fr13_f2).
head(r_fr23_32,fr23_s3).
body(r_fr23_32,fr23_c3).
head(r_fr23_33,fr23_s3).
head(r_fr23_34,fr23_s3).
body(r_fr23_34,fr17_z2).
head(r_fr23_35,fr23_u2).
body(r_fr23_35,fr23_p3).
body(r_fr23_35,fr23_y2).
body(r_fr23_35,fr23_y2).
head(r_fr23_36,fr23_u2).
body(r_fr23_36,fr23_u3).
head(r_fr23_37,fr23_u2).
body(r_fr23_37,fr17_e2).
body(r_fr23_37,fr23_y2).
body(r_fr23_37,fr23_r3).
head(r_fr23_38,fr21_s2).
body(r_fr23_38,fr23_y2).
body(r_fr23_38,fr22_p2).
head(r_fr23_39,fr21_s2).
body(r_fr23_39,fr23_c3).
body(r_fr23_39,fr23_e2).
body(r_fr23_39,fr21_d2).
head(r_fr23_40,fr21_s2).
body(r_fr23_40,fr23_y2).
body(r_fr23_40,fr17_z2).
body(r_fr23_40,fr23_u3).
head(r_fr23_41,fr21_s2).
head(r_fr23_42,fr22_p2).
body(r_fr23_42,fr13_f2).
body(r_fr23_42,fr23_b2).
body(r_fr23_42,fr23_t3).
head(r_fr23_43,fr22_p2).
body(r_fr23_43,fr23_t3).
head(r_fr23_44,fr22_p2).
body(r_fr23_44,fr23_z3).
head(r_fr23_45,fr22_p2).
body(r_fr23_45,fr13_f2).
body(r_fr23_45,fr23_r3).
head(r_fr23_46,fr22_p2).
body(r_fr23_46,fr23_c1).
head(r_fr23_47,fr23_y2).
body(r_fr23_47,fr23_d1).
body(r_fr23_47,fr17_e2).
head(r_fr23_48,fr23_y2).
head(r_fr23_49,fr23_y2).
body(r_fr23_49,fr23_y2).
body(r_fr23_49,fr21_v3).
body(r_fr23_49,fr23_x1).
head(r_fr23_50,fr23_y2).
body(r_fr23_50,fr23_b3).
body(r_fr23_50,fr23_c1).
body(r_fr23_50,fr23_t3).
head(r_fr23_51,fr23_z3).
body(r_fr23_51,fr23_b3).
body(r_fr23_51,fr23_c3).
body(r_fr23_51,fr23_y2).
head(r_fr23_52,fr23_z3).
body(r_fr23_52,fr23_a3).
body(r_fr23_52,fr23_d1).
body(r_fr23_52,fr23_f2).
head(r_fr23_53,fr23_z3).
head(r_fr23_54,fr23_z3).
body(r_fr23_54,fr13_f2).
body(r_fr23_54,fr23_y2).
head(r_fr23_55,fr17_z1).
body(r_fr23_55,fr23_f2).
head(r_fr23_56,fr17_z1).
body(r_fr23_56,fr13_z1).
body(r_fr23_56,fr22_p2).
body(r_fr23_56,fr23_z1).
head(r_fr23_57,fr17_z1).
body(r_fr23_57,fr23_b3).
head(r_fr23_58,fr23_y2).
body(r_fr23_58,fr23_y2).
body(r_fr23_58,fr22_p2).
head(r_fr23_59,fr23_y2).
body(r_fr23_59,fr22_p2).
body(r_fr23_59,fr23_x1).
head(r_fr23_60,fr23_t3).
body(r_fr23_60,fr13_f2).
body(r_fr23_60,fr23_x1).
head(r_fr23_61,fr23_t3).
body(r_fr23_61,fr23_q3).
body(r_fr23_61,fr22_p2).
body(r_fr23_61,fr23_z1).
head(r_fr23_62,fr23_t3).
head(r_fr23_63,fr23_t3).
body(r_fr23_63,fr23_y2).
body(r_fr23_63,fr22_p2).
body(r_fr23_63,fr23_y2).
head(r_fr23_64,fr23_t3).
body(r_fr23_64,fr23_p3).
body(r_fr23_64,fr13_z1).
body(r_fr23_64,fr17_z2).
head(r_fr23_65,fr23_z1).
body(r_fr23_65,fr13_f2).
head(r_fr23_66,fr23_z1).
head(r_fr23_67,fr22_p2).
body(r_fr23_67,fr23_a3).
body(r_fr23_67,fr23_e2).
head(r_fr23_68,fr22_p2).
body(r_fr23_68,fr13_z1).

assumption(fr24_a1).
assumption(fr24_b1).
assumption(fr24_c1).
assumption(fr13_f2).
assumption(fr13_f2).
assumption(fr23_c3).
assumption(fr20_b2).
assumption(fr24_b2).
assumption(fr13_f2).
assumption(fr4_e1).
assumption(fr24_e2).
assumption(fr13_f2).
assumption(fr17_e1).
assumption(fr23_c2).
assumption(fr13_f2).
contrary(fr24_a1,fr17_q2).
contrary(fr20_b2,fr7_v2).
contrary(fr17_e1,fr24_a1).
contrary(fr24_b1,fr24_x2).
contrary(fr24_b2,fr17_e1).
contrary(fr23_c2,fr24_e2).
contrary(fr24_c1,fr13_f2).
contrary(fr13_f2,fr24_x4).
contrary(fr13_f2,fr7_v2).
contrary(fr13_f2,fr24_y3).
contrary(fr4_e1,fr1_p4).
contrary(fr13_f2,fr13_f2).
contrary(fr24_e2,fr13_f2).
contrary(fr23_c3,fr24_v1).
contrary(fr13_f2,fr24_q3).
head(r_fr24_0,fr24_q1).
body(r_fr24_0,fr24_a1).
body(r_fr24_0,fr13_f2).
body(r_fr24_0,fr4_e1).
body(r_fr24_0,fr24_e2).
body(r_fr24_0,fr13_f2).
head(r_fr24_1,fr24_q1).
body(r_fr24_1,fr20_b2).
body(r_fr24_1,fr13_f2).
body(r_fr24_1,fr24_e2).
body(r_fr24_1,fr24_t1).
head(r_fr24_2,fr24_q1).
body(r_fr24_2,fr24_u4).
body(r_fr24_2,fr24_x1).
head(r_fr24_3,fr24_q1).
body(r_fr24_3,fr24_e2).
body(r_fr24_3,fr17_t1).
head(r_fr24_4,fr24_z4).
head(r_fr24_5,fr24_z4).
body(r_fr24_5,fr7_v2).
body(r_fr24_5,fr8_u1).
body(r_fr24_5,fr24_r2).
body(r_fr24_5,fr24_u4).
body(r_fr24_5,fr24_w3).
body(r_fr24_5,fr24_x4).
head(r_fr24_6,fr24_z2).
body(r_fr24_6,fr19_q1).
body(r_fr24_6,fr24_z3).
head(r_fr24_7,fr24_z2).
body(r_fr24_7,fr24_e2).
head(r_fr24_8,fr24_z2).
body(r_fr24_8,fr23_c3).
head(r_fr24_9,fr24_u3).
body(r_fr24_9,fr20_b2).
body(r_fr24_9,fr13_f2).
body(r_fr24_9,fr1_p4).
head(r_fr24_10,fr24_u3).
body(r_fr24_10,fr13_f2).
body(r_fr24_10,fr24_t2).
body(r_fr24_10,fr24_v4).
head(r_fr24_11,fr24_u3).
body(r_fr24_11,fr13_f2).
body(r_fr24_11,fr13_f2).
body(r_fr24_11,fr4_e1).
body(r_fr24_11,fr24_e2).
body(r_fr24_11,fr23_y2).
head(r_fr24_12,fr24_u3).
body(r_fr24_12,fr24_a1).
body(r_fr24_12,fr24_c1).
body(r_fr24_12,fr13_f2).
body(r_fr24_12,fr13_f2).
body(r_fr24_12,fr23_c3).
body(r_fr24_12,fr13_f2).
head(r_fr24_13,fr24_q3).
body(r_fr24_13,fr24_w3).
head(r_fr24_14,fr24_q3).
body(r_fr24_14,fr24_a1).
body(r_fr24_14,fr13_f2).
body(r_fr24_14,fr1_p4).
body(r_fr24_14,fr2_q2).
head(r_fr24_15,fr24_q3).
body(r_fr24_15,fr13_f2).
body(r_fr24_15,fr20_v2).
body(r_fr24_15,fr24_w3).
head(r_fr24_16,fr17_t1).
body(r_fr24_16,fr24_t1).
head(r_fr24_17,fr17_t1).
body(r_fr24_17,fr24_b1).
body(r_fr24_17,fr23_c2).
body(r_fr24_17,fr13_f2).
body(r_fr24_17,fr4_e1).
body(r_fr24_17,fr24_e2).
body(r_fr24_17,fr23_c3).
head(r_fr24_18,fr17_t1).
body(r_fr24_18,fr23_c2).
body(r_fr24_18,fr4_e1).
body(r_fr24_18,fr13_f2).
body(r_fr24_18,fr23_c3).
body(r_fr24_18,fr24_w4).
body(r_fr24_18,fr19_q1).
head(r_fr24_19,fr17_t1).
body(r_fr24_19,fr24_z1).
head(r_fr24_20,fr24_w3).
body(r_fr24_20,fr4_e1).
body(r_fr24_20,fr24_u1).
head(r_fr24_21,fr24_w3).
body(r_fr24_21,fr24_a1).
body(r_fr24_21,fr17_e1).
body(r_fr24_21,fr24_b2).
body(r_fr24_21,fr13_f2).
body(r_fr24_21,fr4_e1).
body(r_fr24_21,fr13_f2).
head(r_fr24_22,fr24_w3).
body(r_fr24_22,fr7_v2).
body(r_fr24_22,fr8_u1).
body(r_fr24_22,fr24_u4).
body(r_fr24_22,fr17_q2).
body(r_fr24_22,fr24_x2).
body(r_fr24_22,fr24_y4).
head(r_fr24_23,fr24_w3).
body(r_fr24_23,fr17_e1).
body(r_fr24_23,fr24_b2).
body(r_fr24_23,fr24_c1).
body(r_fr24_23,fr13_f2).
body(r_fr24_23,fr13_f2).
body(r_fr24_23,fr23_x1).
head(r_fr24_24,fr24_t2).
body(r_fr24_24,fr24_b1).
body(r_fr24_24,fr24_b2).
body(r_fr24_24,fr13_f2).
body(r_fr24_24,fr4_e1).
body(r_fr24_24,fr7_v2).
body(r_fr24_24,fr13_z1).
head(r_fr24_25,fr24_t2).
head(r_fr24_26,fr24_x1).
body(r_fr24_26,fr17_e1).
body(r_fr24_26,fr8_u1).
body(r_fr24_26,fr24_v4).
head(r_fr24_27,fr24_x1).
body(r_fr24_27,fr20_b2).
body(r_fr24_27,fr24_e2).
body(r_fr24_27,fr23_c3).
head(r_fr24_28,fr24_x1).
body(r_fr24_28,fr13_f2).
body(r_fr24_28,fr24_y3).
head(r_fr24_29,fr24_x1).
body(r_fr24_29,fr13_f2).
head(r_fr24_30,fr24_y3).
body(r_fr24_30,fr1_p4).
body(r_fr24_30,fr24_r2).
body(r_fr24_30,fr19_v1).
body(r_fr24_30,fr24_s1).
body(r_fr24_30,fr24_v1).
body(r_fr24_30,fr24_w2).
head(r_fr24_31,fr24_y3).
body(r_fr24_31,fr4_e1).
head(r_fr24_32,fr24_y3).
head(r_fr24_33,fr24_y3).
body(r_fr24_33,fr1_p4).
body(r_fr24_33,fr24_t1).
body(r_fr24_33,fr24_u4).
body(r_fr24_33,fr17_u2).
head(r_fr24_34,fr24_y3).
body(r_fr24_34,fr24_b1).
body(r_fr24_34,fr4_e1).
head(r_fr24_35,fr24_s1).
body(r_fr24_35,fr24_b1).
body(r_fr24_35,fr13_f2).
body(r_fr24_35,fr4_e1).
body(r_fr24_35,fr7_v2).
body(r_fr24_35,fr24_x2).
head(r_fr24_36,fr24_s1).
body(r_fr24_36,fr23_c2).
head(r_fr24_37,fr24_t1).
body(r_fr24_37,fr1_p4).
body(r_fr24_37,fr24_t4).
body(r_fr24_37,fr24_x4).
body(r_fr24_37,fr24_z3).
head(r_fr24_38,fr24_t1).
body(r_fr24_38,fr17_e1).
body(r_fr24_38,fr23_c2).
body(r_fr24_38,fr13_f2).
body(r_fr24_38,fr13_f2).
head(r_fr24_39,fr20_v2).
body(r_fr24_39,fr20_b2).
head(r_fr24_40,fr20_v2).
body(r_fr24_40,fr22_p2).
body(r_fr24_40,fr24_v1).
body(r_fr24_40,fr24_z1).
head(r_fr24_41,fr20_v2).
body(r_fr24_41,fr13_f2).
head(r_fr24_42,fr20_v2).
body(r_fr24_42,fr20_b2).
body(r_fr24_42,fr4_e1).
body(r_fr24_42,fr23_y2).
head(r_fr24_43,fr24_x4).
body(r_fr24_43,fr1_p4).
body(r_fr24_43,fr24_r2).
body(r_fr24_43,fr23_y2).
body(r_fr24_43,fr22_p2).
body(r_fr24_43,fr17_q2).
head(r_fr24_44,fr24_x4).
body(r_fr24_44,fr24_a1).
body(r_fr24_44,fr20_b2).
body(r_fr24_44,fr13_f2).
body(r_fr24_44,fr7_v2).
body(r_fr24_44,fr13_z1).
head(r_fr24_45,fr24_x4).
head(r_fr24_46,fr24_x4).
body(r_fr24_46,fr13_f2).
head(r_fr24_47,fr24_x4).
body(r_fr24_47,fr24_b1).
body(r_fr24_47,fr24_b2).
head(r_fr24_48,fr24_z1).
body(r_fr24_48,fr13_f2).
body(r_fr24_48,fr13_f2).
body(r_fr24_48,fr24_u2).
head(r_fr24_49,fr24_z1).
body(r_fr24_49,fr24_a1).
body(r_fr24_49,fr20_b2).
body(r_fr24_49,fr13_f2).
body(r_fr24_49,fr1_p4).
body(r_fr24_49,fr24_r2).
body(r_fr24_49,fr24_y2).
head(r_fr24_50,fr24_z1).
body(r_fr24_50,fr24_b2).
body(r_fr24_50,fr4_e1).
head(r_fr24_51,fr24_z1).
body(r_fr24_51,fr24_b1).
body(r_fr24_51,fr23_c2).
head(r_fr24_52,fr24_z1).
head(r_fr24_53,fr17_q2).
head(r_fr24_54,fr17_q2).
body(r_fr24_54,fr17_e1).
body(r_fr24_54,fr13_f2).
body(r_fr24_54,fr13_f2).
head(r_fr24_55,fr17_q2).
body(r_fr24_55,fr24_b1).
head(r_fr24_56,fr19_v1).
body(r_fr24_56,fr20_b2).
head(r_fr24_57,fr19_v1).
head(r_fr24_58,fr8_u1).
body(r_fr24_58,fr13_f2).
head(r_fr24_59,fr8_u1).
body(r_fr24_59,fr24_c1).
head(r_fr24_60,fr24_s4).
body(r_fr24_60,fr22_p2).
body(r_fr24_60,fr23_y2).
body(r_fr24_60,fr13_z1).
head(r_fr24_61,fr24_s4).
body(r_fr24_61,fr22_p2).
body(r_fr24_61,fr24_u4).
head(r_fr24_62,fr24_s4).
body(r_fr24_62,fr20_b2).
body(r_fr24_62,fr13_f2).
body(r_fr24_62,fr7_v2).
body(r_fr24_62,fr24_r2).
body(r_fr24_62,fr24_u4).
head(r_fr24_63,fr24_s4).
body(r_fr24_63,fr24_a1).
body(r_fr24_63,fr24_c1).
body(r_fr24_63,fr13_f2).
body(r_fr24_63,fr23_c3).
body(r_fr24_63,fr17_u2).
head(r_fr24_64,fr24_z3).
body(r_fr24_64,fr23_c3).
head(r_fr24_65,fr24_z3).
body(r_fr24_65,fr13_f2).
body(r_fr24_65,fr13_f2).
head(r_fr24_66,fr24_z3).
body(r_fr24_66,fr13_f2).
body(r_fr24_66,fr13_f2).
body(r_fr24_66,fr13_f2).
body(r_fr24_66,fr24_e2).
body(r_fr24_66,fr13_f2).
head(r_fr24_67,fr24_z3).
body(r_fr24_67,fr13_f2).
body(r_fr24_67,fr24_v4).
head(r_fr24_68,fr24_z3).
body(r_fr24_68,fr17_e1).
body(r_fr24_68,fr13_f2).
body(r_fr24_68,fr22_p2).
body(r_fr24_68,fr23_y2).
body(r_fr24_68,fr24_v4).
body(r_fr24_68,fr24_y2).

assumption(fr13_f2).
assumption(fr25_b1).
assumption(fr23_f2).
assumption(fr25_d1).
assumption(fr9_c2).
assumption(fr25_f1).
assumption(fr13_f2).
assumption(fr13_f2).
assumption(fr7_c1).
assumption(fr25_d2).
assumption(fr20_b2).
assumption(fr25_f2).
assumption(fr25_a3).
assumption(fr25_b3).
assumption(fr14_c1).
assumption(fr13_f2).
assumption(fr10_b2).
assumption(fr13_f2).
assumption(fr23_f2).
assumption(fr25_b4).
assumption(fr13_a2).
contrary(fr13_f2,fr25_b1).
contrary(fr13_f2,fr25_x1).
contrary(fr25_a3,fr1_q3).
contrary(fr23_f2,fr20_z1).
contrary(fr25_b1,fr25_b3).
contrary(fr13_f2,fr14_c1).
contrary(fr25_b3,fr25_s3).
contrary(fr25_b4,fr17_t1).
contrary(fr23_f2,fr25_z2).
contrary(fr7_c1,fr13_f2).
contrary(fr14_c1,fr25_r2).
contrary(fr13_a2,fr13_z1).
contrary(fr25_d1,fr25_v3).
contrary(fr25_d2,fr13_f2).
contrary(fr13_f2,fr25_u2).
contrary(fr9_c2,fr25_a3).
contrary(fr20_b2,fr25_f2).
contrary(fr10_b2,fr7_c1).
contrary(fr25_f1,fr25_r2).
contrary(fr25_f2,fr25_v2).
contrary(fr13_f2,fr13_z1).
head(r_fr25_0,fr25_r1).
body(r_fr25_0,fr25_b4).
body(r_fr25_0,fr1_q3).
head(r_fr25_1,fr25_r1).
body(r_fr25_1,fr13_z1).
body(r_fr25_1,fr13_z1).
body(r_fr25_1,fr25_t2).
body(r_fr25_1,fr13_z1).
body(r_fr25_1,fr25_x1).
body(r_fr25_1,fr14_t2).
body(r_fr25_1,fr1_q3).
head(r_fr25_2,fr9_t5).
body(r_fr25_2,fr25_a3).
body(r_fr25_2,fr23_f2).
body(r_fr25_2,fr14_c1).
body(r_fr25_2,fr13_f2).
body(r_fr25_2,fr13_z1).
body(r_fr25_2,fr13_z1).
body(r_fr25_2,fr14_t2).
head(r_fr25_3,fr9_t5).
body(r_fr25_3,fr13_f2).
body(r_fr25_3,fr25_a3).
body(r_fr25_3,fr7_c1).
body(r_fr25_3,fr13_f2).
body(r_fr25_3,fr20_b2).
body(r_fr25_3,fr25_f2).
body(r_fr25_3,fr13_f2).
body(r_fr25_3,fr1_q3).
head(r_fr25_4,fr9_t5).
body(r_fr25_4,fr13_z1).
body(r_fr25_4,fr13_z1).
body(r_fr25_4,fr13_z1).
body(r_fr25_4,fr17_t1).
body(r_fr25_4,fr13_z1).
body(r_fr25_4,fr17_t1).
body(r_fr25_4,fr25_z1).
body(r_fr25_4,fr25_z3).
head(r_fr25_5,fr9_t5).
body(r_fr25_5,fr13_f2).
body(r_fr25_5,fr14_c1).
head(r_fr25_6,fr9_t5).
body(r_fr25_6,fr13_f2).
body(r_fr25_6,fr9_c2).
body(r_fr25_6,fr23_v1).
head(r_fr25_7,fr9_t5).
body(r_fr25_7,fr25_q2).
head(r_fr25_8,fr9_t5).
body(r_fr25_8,fr9_w5).
head(r_fr25_9,fr25_p2).
body(r_fr25_9,fr7_c1).
body(r_fr25_9,fr21_z2).
body(r_fr25_9,fr25_t1).
body(r_fr25_9,fr9_w5).
body(r_fr25_9,fr25_z2).
head(r_fr25_10,fr25_p2).
head(r_fr25_11,fr25_p2).
body(r_fr25_11,fr14_p2).
head(r_fr25_12,fr25_p2).
body(r_fr25_12,fr21_z2).
body(r_fr25_12,fr25_s2).
body(r_fr25_12,fr8_u1).
body(r_fr25_12,fr1_q3).
head(r_fr25_13,fr25_p2).
body(r_fr25_13,fr9_w5).
head(r_fr25_14,fr23_v1).
body(r_fr25_14,fr14_t2).
body(r_fr25_14,fr25_z3).
head(r_fr25_15,fr23_v1).
body(r_fr25_15,fr13_f2).
body(r_fr25_15,fr14_c1).
head(r_fr25_16,fr13_z1).
head(r_fr25_17,fr13_z1).
body(r_fr25_17,fr25_b3).
body(r_fr25_17,fr23_f2).
body(r_fr25_17,fr21_z2).
body(r_fr25_17,fr8_u1).
body(r_fr25_17,fr25_z2).
head(r_fr25_18,fr13_z1).
body(r_fr25_18,fr21_z2).
body(r_fr25_18,fr13_z1).
body(r_fr25_18,fr25_y1).
head(r_fr25_19,fr13_z1).
body(r_fr25_19,fr13_f2).
body(r_fr25_19,fr13_f2).
body(r_fr25_19,fr7_c1).
body(r_fr25_19,fr13_a2).
body(r_fr25_19,fr9_c2).
body(r_fr25_19,fr25_q2).
body(r_fr25_19,fr25_u2).
body(r_fr25_19,fr14_t2).
head(r_fr25_20,fr13_z1).
body(r_fr25_20,fr13_f2).
body(r_fr25_20,fr13_f2).
body(r_fr25_20,fr25_a3).
body(r_fr25_20,fr25_b3).
body(r_fr25_20,fr14_c1).
body(r_fr25_20,fr13_f2).
body(r_fr25_20,fr10_b2).
body(r_fr25_20,fr13_z1).
head(r_fr25_21,fr13_z1).
body(r_fr25_21,fr25_a3).
body(r_fr25_21,fr23_f2).
body(r_fr25_21,fr25_b3).
body(r_fr25_21,fr25_d2).
body(r_fr25_21,fr13_f2).
body(r_fr25_21,fr13_f2).
body(r_fr25_21,fr1_q3).
head(r_fr25_22,fr13_z1).
body(r_fr25_22,fr14_c1).
body(r_fr25_22,fr16_u3).
body(r_fr25_22,fr13_z1).
body(r_fr25_22,fr25_z1).
head(r_fr25_23,fr16_u3).
body(r_fr25_23,fr25_b3).
body(r_fr25_23,fr13_f2).
body(r_fr25_23,fr9_c2).
body(r_fr25_23,fr25_s2).
head(r_fr25_24,fr16_u3).
body(r_fr25_24,fr25_a3).
body(r_fr25_24,fr25_b1).
body(r_fr25_24,fr25_b3).
body(r_fr25_24,fr25_d1).
body(r_fr25_24,fr20_b2).
body(r_fr25_24,fr10_b2).
body(r_fr25_24,fr25_f1).
head(r_fr25_25,fr16_u3).
body(r_fr25_25,fr17_t1).
body(r_fr25_25,fr14_p2).
head(r_fr25_26,fr16_u3).
body(r_fr25_26,fr13_z1).
body(r_fr25_26,fr25_r2).
body(r_fr25_26,fr25_s2).
body(r_fr25_26,fr25_v2).
body(r_fr25_26,fr25_v3).
body(r_fr25_26,fr25_x1).
body(r_fr25_26,fr14_t2).
body(r_fr25_26,fr25_z1).
head(r_fr25_27,fr16_u3).
head(r_fr25_28,fr16_u3).
body(r_fr25_28,fr25_b4).
body(r_fr25_28,fr25_f1).
head(r_fr25_29,fr16_u3).
body(r_fr25_29,fr23_f2).
body(r_fr25_29,fr7_c1).
body(r_fr25_29,fr10_b2).
body(r_fr25_29,fr13_f2).
body(r_fr25_29,fr25_u2).
body(r_fr25_29,fr17_t1).
body(r_fr25_29,fr17_t1).
head(r_fr25_30,fr25_z2).
body(r_fr25_30,fr13_z1).
body(r_fr25_30,fr13_z1).
body(r_fr25_30,fr25_t2).
body(r_fr25_30,fr25_v2).
body(r_fr25_30,fr25_q2).
body(r_fr25_30,fr25_y1).
body(r_fr25_30,fr1_q3).
head(r_fr25_31,fr25_z2).
body(r_fr25_31,fr13_f2).
body(r_fr25_31,fr13_f2).
body(r_fr25_31,fr13_z1).
body(r_fr25_31,fr25_r2).
body(r_fr25_31,fr25_u2).
body(r_fr25_31,fr14_p2).
body(r_fr25_31,fr25_z3).
head(r_fr25_32,fr25_z2).
body(r_fr25_32,fr25_b3).
body(r_fr25_32,fr7_c1).
body(r_fr25_32,fr13_f2).
body(r_fr25_32,fr25_s2).
body(r_fr25_32,fr25_x1).
head(r_fr25_33,fr25_z2).
body(r_fr25_33,fr23_f2).
body(r_fr25_33,fr25_b3).
body(r_fr25_33,fr7_c1).
body(r_fr25_33,fr13_a2).
body(r_fr25_33,fr25_f1).
body(r_fr25_33,fr25_f2).
head(r_fr25_34,fr25_z2).
body(r_fr25_34,fr25_b1).
body(r_fr25_34,fr9_c2).
body(r_fr25_34,fr21_s2).
body(r_fr25_34,fr1_q3).
head(r_fr25_35,fr25_z2).
body(r_fr25_35,fr23_f2).
body(r_fr25_35,fr25_b1).
body(r_fr25_35,fr13_f2).
body(r_fr25_35,fr25_q2).
head(r_fr25_36,fr21_z2).
body(r_fr25_36,fr13_f2).
body(r_fr25_36,fr20_b2).
body(r_fr25_36,fr25_r2).
head(r_fr25_37,fr21_z2).
body(r_fr25_37,fr13_f2).
body(r_fr25_37,fr25_a3).
body(r_fr25_37,fr23_f2).
body(r_fr25_37,fr13_f2).
body(r_fr25_37,fr25_b4).
body(r_fr25_37,fr25_d1).
body(r_fr25_37,fr10_b2).
body(r_fr25_37,fr13_f2).
head(r_fr25_38,fr21_z2).
body(r_fr25_38,fr9_c2).
body(r_fr25_38,fr20_z1).
body(r_fr25_38,fr9_w5).
body(r_fr25_38,fr25_v3).
body(r_fr25_38,fr17_t1).
body(r_fr25_38,fr14_t2).
head(r_fr25_39,fr21_z2).
body(r_fr25_39,fr14_c1).
body(r_fr25_39,fr25_f1).
body(r_fr25_39,fr25_s3).
body(r_fr25_39,fr13_z1).
body(r_fr25_39,fr25_v2).
body(r_fr25_39,fr25_y1).
body(r_fr25_39,fr25_z3).
head(r_fr25_40,fr21_z2).
body(r_fr25_40,fr13_z1).
body(r_fr25_40,fr25_v2).
body(r_fr25_40,fr14_t2).
head(r_fr25_41,fr14_t2).
body(r_fr25_41,fr25_q2).
body(r_fr25_41,fr25_s3).
head(r_fr25_42,fr14_t2).
body(r_fr25_42,fr25_a3).
body(r_fr25_42,fr25_b1).
body(r_fr25_42,fr25_b4).
body(r_fr25_42,fr7_c1).
body(r_fr25_42,fr10_b2).
body(r_fr25_42,fr13_z1).
head(r_fr25_43,fr14_t2).
body(r_fr25_43,fr25_b3).
head(r_fr25_44,fr14_t2).
body(r_fr25_44,fr25_q2).
body(r_fr25_44,fr25_s2).
body(r_fr25_44,fr25_s3).
body(r_fr25_44,fr25_t2).
body(r_fr25_44,fr13_z1).
body(r_fr25_44,fr1_q3).
head(r_fr25_45,fr25_q2).
body(r_fr25_45,fr13_f2).
body(r_fr25_45,fr13_f2).
body(r_fr25_45,fr8_u1).
body(r_fr25_45,fr13_z1).
body(r_fr25_45,fr25_y1).
head(r_fr25_46,fr25_q2).
body(r_fr25_46,fr25_b4).
body(r_fr25_46,fr13_z1).
head(r_fr25_47,fr25_q2).
body(r_fr25_47,fr13_f2).
body(r_fr25_47,fr25_d1).
body(r_fr25_47,fr9_c2).
body(r_fr25_47,fr20_b2).
body(r_fr25_47,fr25_f2).
body(r_fr25_47,fr21_s2).
body(r_fr25_47,fr13_z1).
head(r_fr25_48,fr25_q2).
body(r_fr25_48,fr13_f2).
body(r_fr25_48,fr25_b4).
body(r_fr25_48,fr9_c2).
body(r_fr25_48,fr20_z1).
body(r_fr25_48,fr25_t2).
body(r_fr25_48,fr8_u1).
body(r_fr25_48,fr9_w5).
body(r_fr25_48,fr25_z3).
head(r_fr25_49,fr25_q2).
body(r_fr25_49,fr13_f2).
body(r_fr25_49,fr25_b1).
body(r_fr25_49,fr14_c1).
body(r_fr25_49,fr21_s2).
body(r_fr25_49,fr13_z1).
body(r_fr25_49,fr25_t2).
body(r_fr25_49,fr9_w5).
body(r_fr25_49,fr13_z1).
head(r_fr25_50,fr25_q2).
body(r_fr25_50,fr25_a3).
body(r_fr25_50,fr13_f2).
body(r_fr25_50,fr25_b4).
body(r_fr25_50,fr7_c1).
body(r_fr25_50,fr25_d2).
body(r_fr25_50,fr13_f2).
head(r_fr25_51,fr25_y1).
body(r_fr25_51,fr25_d1).
body(r_fr25_51,fr13_f2).
body(r_fr25_51,fr13_z1).
body(r_fr25_51,fr25_s2).
head(r_fr25_52,fr25_y1).
body(r_fr25_52,fr25_s2).
body(r_fr25_52,fr25_t1).
body(r_fr25_52,fr8_u1).
body(r_fr25_52,fr25_v2).
body(r_fr25_52,fr25_x1).
body(r_fr25_52,fr25_z3).
head(r_fr25_53,fr25_y1).
body(r_fr25_53,fr21_s2).
body(r_fr25_53,fr13_z1).
body(r_fr25_53,fr25_r2).
body(r_fr25_53,fr25_s2).
body(r_fr25_53,fr25_s3).
body(r_fr25_53,fr17_t1).
body(r_fr25_53,fr1_q3).
head(r_fr25_54,fr25_y1).
body(r_fr25_54,fr23_f2).
body(r_fr25_54,fr21_s2).
body(r_fr25_54,fr25_s2).
head(r_fr25_55,fr25_v3).
body(r_fr25_55,fr23_f2).
body(r_fr25_55,fr25_d2).
head(r_fr25_56,fr25_v3).
body(r_fr25_56,fr13_f2).
body(r_fr25_56,fr25_s2).
body(r_fr25_56,fr25_s3).
body(r_fr25_56,fr25_t1).
body(r_fr25_56,fr25_t2).
body(r_fr25_56,fr25_u2).
body(r_fr25_56,fr17_t1).
body(r_fr25_56,fr17_t1).
head(r_fr25_57,fr25_v3).
body(r_fr25_57,fr21_s2).
body(r_fr25_57,fr25_t1).
body(r_fr25_57,fr25_q2).
head(r_fr25_58,fr25_v3).
body(r_fr25_58,fr25_x1).
head(r_fr25_59,fr25_v3).
body(r_fr25_59,fr13_f2).
body(r_fr25_59,fr14_c1).
body(r_fr25_59,fr13_f2).
body(r_fr25_59,fr20_z1).
body(r_fr25_59,fr14_p2).
head(r_fr25_60,fr25_q2).
body(r_fr25_60,fr13_f2).
body(r_fr25_60,fr23_f2).
body(r_fr25_60,fr13_f2).
body(r_fr25_60,fr25_b4).
body(r_fr25_60,fr14_c1).
body(r_fr25_60,fr13_a2).
body(r_fr25_60,fr13_f2).
body(r_fr25_60,fr25_f1).
head(r_fr25_61,fr25_q2).
body(r_fr25_61,fr13_f2).
body(r_fr25_61,fr7_c1).
body(r_fr25_61,fr13_a2).
body(r_fr25_61,fr25_f1).
body(r_fr25_61,fr13_f2).
head(r_fr25_62,fr25_q2).
body(r_fr25_62,fr7_c1).
body(r_fr25_62,fr25_r2).
body(r_fr25_62,fr25_s2).
body(r_fr25_62,fr25_t2).
body(r_fr25_62,fr13_z1).
body(r_fr25_62,fr1_q3).
head(r_fr25_63,fr25_q2).
body(r_fr25_63,fr7_c1).
body(r_fr25_63,fr13_z1).
body(r_fr25_63,fr17_t1).
head(r_fr25_64,fr21_s2).
body(r_fr25_64,fr25_a3).
body(r_fr25_64,fr13_f2).
body(r_fr25_64,fr25_f2).
body(r_fr25_64,fr20_z1).
body(r_fr25_64,fr25_u2).
body(r_fr25_64,fr25_v2).
body(r_fr25_64,fr1_q3).
body(r_fr25_64,fr25_z1).
head(r_fr25_65,fr21_s2).
body(r_fr25_65,fr13_f2).
body(r_fr25_65,fr20_b2).
body(r_fr25_65,fr25_f1).
body(r_fr25_65,fr25_f2).
body(r_fr25_65,fr13_z1).
head(r_fr25_66,fr21_s2).
body(r_fr25_66,fr25_b4).
body(r_fr25_66,fr9_c2).
body(r_fr25_66,fr25_s2).
body(r_fr25_66,fr25_s3).
body(r_fr25_66,fr25_t1).
body(r_fr25_66,fr9_w5).
body(r_fr25_66,fr17_t1).
body(r_fr25_66,fr25_x1).
head(r_fr25_67,fr21_s2).
body(r_fr25_67,fr25_x1).
head(r_fr25_68,fr21_s2).
body(r_fr25_68,fr8_u1).
body(r_fr25_68,fr25_v2).
head(r_fr25_69,fr21_s2).
body(r_fr25_69,fr13_z1).
head(r_fr25_70,fr21_s2).
head(r_fr25_71,fr13_z1).
body(r_fr25_71,fr25_b1).
body(r_fr25_71,fr13_f2).
body(r_fr25_71,fr23_f2).
body(r_fr25_71,fr10_b2).
head(r_fr25_72,fr13_z1).
body(r_fr25_72,fr25_r2).
body(r_fr25_72,fr25_u2).
head(r_fr25_73,fr13_z1).
body(r_fr25_73,fr13_f2).
body(r_fr25_73,fr25_f1).
body(r_fr25_73,fr13_z1).
body(r_fr25_73,fr25_x1).
head(r_fr25_74,fr13_z1).
body(r_fr25_74,fr25_d2).
body(r_fr25_74,fr25_s2).
body(r_fr25_74,fr8_u1).
body(r_fr25_74,fr25_v2).
head(r_fr25_75,fr25_s2).
head(r_fr25_76,fr25_s2).
body(r_fr25_76,fr25_b4).
body(r_fr25_76,fr25_d1).
body(r_fr25_76,fr25_f1).
head(r_fr25_77,fr25_s2).
body(r_fr25_77,fr25_z1).
head(r_fr25_78,fr25_s2).
body(r_fr25_78,fr25_s3).
body(r_fr25_78,fr25_t1).
body(r_fr25_78,fr25_v2).
head(r_fr25_79,fr25_v2).
body(r_fr25_79,fr13_a2).
body(r_fr25_79,fr25_f2).
body(r_fr25_79,fr25_z1).
head(r_fr25_80,fr25_v2).
head(r_fr25_81,fr25_v2).
body(r_fr25_81,fr25_b1).
body(r_fr25_81,fr14_c1).
body(r_fr25_81,fr20_b2).
body(r_fr25_81,fr25_r2).
body(r_fr25_81,fr25_t2).
body(r_fr25_81,fr14_p2).
body(r_fr25_81,fr17_t1).
head(r_fr25_82,fr25_v2).
body(r_fr25_82,fr13_f2).
body(r_fr25_82,fr14_c1).
body(r_fr25_82,fr13_a2).
body(r_fr25_82,fr10_b2).
body(r_fr25_82,fr1_q3).
head(r_fr25_83,fr25_v2).
body(r_fr25_83,fr13_z1).
body(r_fr25_83,fr25_u2).
body(r_fr25_83,fr17_t1).
body(r_fr25_83,fr1_q3).
body(r_fr25_83,fr25_z1).
body(r_fr25_83,fr25_z3).
head(r_fr25_84,fr25_z3).
body(r_fr25_84,fr25_b1).
body(r_fr25_84,fr13_a2).
body(r_fr25_84,fr20_z1).
body(r_fr25_84,fr25_t2).
body(r_fr25_84,fr9_w5).
body(r_fr25_84,fr25_x1).
body(r_fr25_84,fr17_t1).
body(r_fr25_84,fr25_z1).
head(r_fr25_85,fr25_z3).
body(r_fr25_85,fr13_f2).
body(r_fr25_85,fr13_f2).
body(r_fr25_85,fr25_f1).
body(r_fr25_85,fr13_z1).
body(r_fr25_85,fr25_s3).
body(r_fr25_85,fr25_t1).
head(r_fr25_86,fr25_z3).
body(r_fr25_86,fr13_a2).
body(r_fr25_86,fr13_z1).
body(r_fr25_86,fr20_z1).
body(r_fr25_86,fr8_u1).
head(r_fr25_87,fr25_z3).
body(r_fr25_87,fr13_z1).
body(r_fr25_87,fr13_z1).
body(r_fr25_87,fr25_t2).
body(r_fr25_87,fr8_u1).
body(r_fr25_87,fr9_w5).
body(r_fr25_87,fr17_t1).
body(r_fr25_87,fr25_z1).
head(r_fr25_88,fr25_z3).
body(r_fr25_88,fr25_t1).
body(r_fr25_88,fr25_t2).
body(r_fr25_88,fr8_u1).
body(r_fr25_88,fr1_q3).
body(r_fr25_88,fr25_z1).
head(r_fr25_89,fr25_z3).
body(r_fr25_89,fr25_d2).
body(r_fr25_89,fr13_z1).
body(r_fr25_89,fr25_s3).
body(r_fr25_89,fr25_x1).
body(r_fr25_89,fr1_q3).
head(r_fr25_90,fr25_s3).
body(r_fr25_90,fr13_f2).
body(r_fr25_90,fr13_z1).
body(r_fr25_90,fr25_t1).
head(r_fr25_91,fr25_s3).
body(r_fr25_91,fr25_b1).
body(r_fr25_91,fr25_b3).
body(r_fr25_91,fr13_f2).
body(r_fr25_91,fr25_r2).
head(r_fr25_92,fr25_s3).
body(r_fr25_92,fr25_x1).
body(r_fr25_92,fr25_z1).
head(r_fr25_93,fr1_q3).
body(r_fr25_93,fr17_t1).
head(r_fr25_94,fr1_q3).
body(r_fr25_94,fr20_z1).
head(r_fr25_95,fr1_q3).
body(r_fr25_95,fr13_f2).
body(r_fr25_95,fr25_a3).
body(r_fr25_95,fr23_f2).
body(r_fr25_95,fr25_b3).
body(r_fr25_95,fr9_c2).
body(r_fr25_95,fr25_f1).
body(r_fr25_95,fr25_f2).
body(r_fr25_95,fr9_w5).
head(r_fr25_96,fr1_q3).
body(r_fr25_96,fr25_b1).
body(r_fr25_96,fr13_f2).
body(r_fr25_96,fr25_b3).
body(r_fr25_96,fr25_t2).
head(r_fr25_97,fr1_q3).
body(r_fr25_97,fr25_d2).
body(r_fr25_97,fr10_b2).
body(r_fr25_97,fr13_f2).
body(r_fr25_97,fr25_r2).
body(r_fr25_97,fr25_t1).
body(r_fr25_97,fr17_t1).
body(r_fr25_97,fr14_p2).
body(r_fr25_97,fr25_z1).
head(r_fr25_98,fr1_q3).
head(r_fr25_99,fr1_q3).
body(r_fr25_99,fr13_z1).
body(r_fr25_99,fr8_u1).
head(r_fr25_100,fr25_t2).
body(r_fr25_100,fr25_d2).
body(r_fr25_100,fr25_r2).
body(r_fr25_100,fr8_u1).
body(r_fr25_100,fr25_x1).
body(r_fr25_100,fr14_p2).
body(r_fr25_100,fr17_t1).
head(r_fr25_101,fr25_t2).
head(r_fr25_102,fr25_t2).
body(r_fr25_102,fr13_f2).
body(r_fr25_102,fr25_b3).
body(r_fr25_102,fr25_b4).
body(r_fr25_102,fr20_b2).
body(r_fr25_102,fr25_f1).
body(r_fr25_102,fr13_z1).
body(r_fr25_102,fr17_t1).
body(r_fr25_102,fr25_z1).
head(r_fr25_103,fr25_t2).
body(r_fr25_103,fr13_f2).
body(r_fr25_103,fr13_z1).
head(r_fr25_104,fr25_t2).
body(r_fr25_104,fr13_f2).
body(r_fr25_104,fr25_b1).
body(r_fr25_104,fr25_b3).
body(r_fr25_104,fr14_c1).
body(r_fr25_104,fr25_d1).
body(r_fr25_104,fr25_t1).
body(r_fr25_104,fr25_x1).
body(r_fr25_104,fr14_p2).
head(r_fr25_105,fr25_u2).
body(r_fr25_105,fr23_f2).
body(r_fr25_105,fr13_f2).
body(r_fr25_105,fr25_t1).
head(r_fr25_106,fr25_u2).
body(r_fr25_106,fr13_f2).
body(r_fr25_106,fr23_f2).
body(r_fr25_106,fr7_c1).
body(r_fr25_106,fr9_c2).
body(r_fr25_106,fr25_f1).
body(r_fr25_106,fr25_x1).
head(r_fr25_107,fr25_u2).
body(r_fr25_107,fr25_f1).
head(r_fr25_108,fr25_u2).
body(r_fr25_108,fr14_c1).
body(r_fr25_108,fr10_b2).
body(r_fr25_108,fr8_u1).
body(r_fr25_108,fr9_w5).
body(r_fr25_108,fr14_p2).
body(r_fr25_108,fr17_t1).
head(r_fr25_109,fr25_u2).
head(r_fr25_110,fr25_z1).
body(r_fr25_110,fr7_c1).
body(r_fr25_110,fr13_z1).
body(r_fr25_110,fr13_z1).
body(r_fr25_110,fr8_u1).
body(r_fr25_110,fr9_w5).
body(r_fr25_110,fr25_x1).
body(r_fr25_110,fr14_p2).
body(r_fr25_110,fr17_t1).
head(r_fr25_111,fr25_z1).
body(r_fr25_111,fr13_a2).
body(r_fr25_111,fr13_f2).
body(r_fr25_111,fr13_z1).
body(r_fr25_111,fr13_z1).
body(r_fr25_111,fr25_r2).
body(r_fr25_111,fr9_w5).
body(r_fr25_111,fr25_x1).
head(r_fr25_112,fr20_z1).
body(r_fr25_112,fr13_f2).
body(r_fr25_112,fr13_f2).
body(r_fr25_112,fr7_c1).
body(r_fr25_112,fr25_d1).
body(r_fr25_112,fr13_f2).
body(r_fr25_112,fr9_c2).
body(r_fr25_112,fr10_b2).
body(r_fr25_112,fr25_r2).
head(r_fr25_113,fr20_z1).
body(r_fr25_113,fr13_f2).
body(r_fr25_113,fr14_c1).
body(r_fr25_113,fr25_t1).
head(r_fr25_114,fr20_z1).
body(r_fr25_114,fr13_f2).
body(r_fr25_114,fr25_a3).
body(r_fr25_114,fr14_c1).
body(r_fr25_114,fr13_a2).
body(r_fr25_114,fr20_b2).
head(r_fr25_115,fr20_z1).
body(r_fr25_115,fr25_b3).
body(r_fr25_115,fr7_c1).
body(r_fr25_115,fr17_t1).
head(r_fr25_116,fr20_z1).
body(r_fr25_116,fr13_f2).
body(r_fr25_116,fr23_f2).
body(r_fr25_116,fr25_r2).
body(r_fr25_116,fr17_t1).
head(r_fr25_117,fr20_z1).
body(r_fr25_117,fr20_b2).
body(r_fr25_117,fr13_z1).
body(r_fr25_117,fr25_t1).
body(r_fr25_117,fr9_w5).
body(r_fr25_117,fr25_x1).
body(r_fr25_117,fr14_p2).
head(r_fr25_118,fr20_z1).
body(r_fr25_118,fr13_a2).
body(r_fr25_118,fr9_c2).
head(r_fr25_119,fr14_p2).
body(r_fr25_119,fr25_b3).
body(r_fr25_119,fr25_b4).
body(r_fr25_119,fr25_d2).
body(r_fr25_119,fr13_f2).
head(r_fr25_120,fr14_p2).
body(r_fr25_120,fr13_f2).
body(r_fr25_120,fr25_b4).
body(r_fr25_120,fr7_c1).
body(r_fr25_120,fr9_c2).
body(r_fr25_120,fr10_b2).
body(r_fr25_120,fr25_f1).
body(r_fr25_120,fr25_x1).
head(r_fr25_121,fr14_p2).
body(r_fr25_121,fr10_b2).
body(r_fr25_121,fr17_t1).
head(r_fr25_122,fr14_p2).
body(r_fr25_122,fr23_f2).
body(r_fr25_122,fr14_c1).
body(r_fr25_122,fr10_b2).
body(r_fr25_122,fr13_f2).
head(r_fr25_123,fr14_p2).
body(r_fr25_123,fr23_f2).
body(r_fr25_123,fr13_z1).
body(r_fr25_123,fr13_z1).
body(r_fr25_123,fr25_r2).
body(r_fr25_123,fr8_u1).
body(r_fr25_123,fr9_w5).
body(r_fr25_123,fr25_x1).
body(r_fr25_123,fr17_t1).
head(r_fr25_124,fr14_p2).
body(r_fr25_124,fr13_z1).
body(r_fr25_124,fr17_t1).
body(r_fr25_124,fr17_t1).
head(r_fr25_125,fr14_p2).
body(r_fr25_125,fr13_f2).
body(r_fr25_125,fr14_c1).
body(r_fr25_125,fr13_a2).
body(r_fr25_125,fr25_d2).
body(r_fr25_125,fr13_f2).
body(r_fr25_125,fr10_b2).
body(r_fr25_125,fr13_f2).
head(r_fr25_126,fr13_z1).
body(r_fr25_126,fr25_b3).
body(r_fr25_126,fr25_b4).
body(r_fr25_126,fr23_f2).
body(r_fr25_126,fr14_c1).
body(r_fr25_126,fr25_d2).
body(r_fr25_126,fr25_f2).
body(r_fr25_126,fr13_z1).
body(r_fr25_126,fr17_t1).
head(r_fr25_127,fr13_z1).
body(r_fr25_127,fr13_a2).
body(r_fr25_127,fr9_c2).
body(r_fr25_127,fr25_f1).
body(r_fr25_127,fr25_r2).
body(r_fr25_127,fr9_w5).
body(r_fr25_127,fr17_t1).
body(r_fr25_127,fr17_t1).
head(r_fr25_128,fr13_z1).
body(r_fr25_128,fr23_f2).
body(r_fr25_128,fr20_b2).
body(r_fr25_128,fr10_b2).
head(r_fr25_129,fr13_z1).
body(r_fr25_129,fr25_r2).
body(r_fr25_129,fr25_t1).
body(r_fr25_129,fr17_t1).
head(r_fr25_130,fr13_z1).
body(r_fr25_130,fr13_a2).
body(r_fr25_130,fr25_f1).
body(r_fr25_130,fr25_r2).
head(r_fr25_131,fr13_z1).
body(r_fr25_131,fr25_r2).

