% distribution mean=1

% exp_cycles_indvary3_step1_batch_yyy03.pl
assumption(fr1_a1).
assumption(fr1_b1).
assumption(fr1_c1).
assumption(fr1_d1).
assumption(fr1_e1).
assumption(fr1_f1).
assumption(fr1_a2).
assumption(fr1_b2).
assumption(fr1_c2).
assumption(fr1_d2).
assumption(fr1_e2).
assumption(fr1_f2).
assumption(fr1_a3).
assumption(fr1_b3).
assumption(fr2_b2).
contrary(fr1_a1,fr1_r1).
contrary(fr1_a2,fr1_x3).
contrary(fr1_a3,fr1_z2).
contrary(fr1_b1,fr1_p2).
contrary(fr1_b2,fr1_v2).
contrary(fr1_b3,fr1_t3).
contrary(fr1_c1,fr1_q1).
contrary(fr1_c2,fr1_r2).
contrary(fr2_b2,fr1_q2).
contrary(fr1_d1,fr1_s3).
contrary(fr1_d2,fr1_a3).
contrary(fr1_e1,fr1_t2).
contrary(fr1_e2,fr1_b1).
contrary(fr1_f1,fr1_y2).
contrary(fr1_f2,fr2_b2).
head(r_fr1_0,fr1_x2).
body(r_fr1_0,fr1_p2).
body(r_fr1_0,fr1_v3).
head(r_fr1_1,fr1_x2).
head(r_fr1_2,fr1_x2).
body(r_fr1_2,fr3_v3).
body(r_fr1_2,fr1_s1).
body(r_fr1_2,fr1_u3).
head(r_fr1_3,fr1_x2).
body(r_fr1_3,fr1_d1).
head(r_fr1_4,fr1_u2).
body(r_fr1_4,fr1_p1).
head(r_fr1_5,fr1_u2).
head(r_fr1_6,fr1_u2).
body(r_fr1_6,fr1_d1).
body(r_fr1_6,fr1_f2).
head(r_fr1_7,fr1_v3).
body(r_fr1_7,fr1_s3).
head(r_fr1_8,fr1_v3).
head(r_fr1_9,fr1_v3).
body(r_fr1_9,fr1_c1).
body(r_fr1_9,fr1_d2).
head(r_fr1_10,fr1_w2).
body(r_fr1_10,fr1_p3).
head(r_fr1_11,fr1_w2).
body(r_fr1_11,fr1_r2).
body(r_fr1_11,fr1_x1).
body(r_fr1_11,fr5_t2).
head(r_fr1_12,fr1_w2).
head(r_fr1_13,fr1_w2).
body(r_fr1_13,fr1_a1).
body(r_fr1_13,fr1_a3).
body(r_fr1_13,fr1_f1).
head(r_fr1_14,fr1_s1).
body(r_fr1_14,fr1_a3).
body(r_fr1_14,fr1_r2).
body(r_fr1_14,fr1_t1).
head(r_fr1_15,fr1_s1).
head(r_fr1_16,fr8_u4).
body(r_fr1_16,fr1_e1).
head(r_fr1_17,fr8_u4).
head(r_fr1_18,fr8_u4).
body(r_fr1_18,fr1_a3).
head(r_fr1_19,fr1_s3).
body(r_fr1_19,fr1_b3).
head(r_fr1_20,fr1_s3).
body(r_fr1_20,fr1_p2).
body(r_fr1_20,fr1_z3).
head(r_fr1_21,fr1_s3).
body(r_fr1_21,fr1_q2).
head(r_fr1_22,fr1_s3).
body(r_fr1_22,fr1_s1).
head(r_fr1_23,fr1_z2).
body(r_fr1_23,fr1_x2).
head(r_fr1_24,fr1_z2).
body(r_fr1_24,fr1_u3).
head(r_fr1_25,fr3_v3).
body(r_fr1_25,fr1_u3).
head(r_fr1_26,fr3_v3).
body(r_fr1_26,fr1_z3).
head(r_fr1_27,fr3_v3).
body(r_fr1_27,fr1_r2).
head(r_fr1_28,fr1_t1).
body(r_fr1_28,fr1_p3).
body(r_fr1_28,fr1_z3).
head(r_fr1_29,fr1_t1).
body(r_fr1_29,fr1_e1).
body(r_fr1_29,fr1_s1).
head(r_fr1_30,fr1_t1).
head(r_fr1_31,fr1_v2).
body(r_fr1_31,fr1_p3).
body(r_fr1_31,fr1_r2).
body(r_fr1_31,fr1_w1).
head(r_fr1_32,fr1_v2).
head(r_fr1_33,fr1_w1).
body(r_fr1_33,fr1_c1).
head(r_fr1_34,fr1_w1).
body(r_fr1_34,fr1_c1).
body(r_fr1_34,fr1_f2).
body(r_fr1_34,fr1_s2).
head(r_fr1_35,fr1_w1).
body(r_fr1_35,fr1_a3).
body(r_fr1_35,fr1_d1).
body(r_fr1_35,fr1_s1).
head(r_fr1_36,fr5_b2).
body(r_fr1_36,fr1_q3).
head(r_fr1_37,fr5_b2).
body(r_fr1_37,fr1_a3).
head(r_fr1_38,fr1_q1).
body(r_fr1_38,fr1_e2).
body(r_fr1_38,fr1_f2).
body(r_fr1_38,fr3_v3).
head(r_fr1_39,fr1_q1).
body(r_fr1_39,fr1_v3).
body(r_fr1_39,fr5_t2).
head(r_fr1_40,fr1_q1).
body(r_fr1_40,fr1_a2).
body(r_fr1_40,fr1_c1).
body(r_fr1_40,fr2_b2).
head(r_fr1_41,fr1_q1).
body(r_fr1_41,fr1_f2).
body(r_fr1_41,fr1_s3).
head(r_fr1_42,fr1_p2).
body(r_fr1_42,fr1_d1).
head(r_fr1_43,fr1_p2).
body(r_fr1_43,fr1_f2).
body(r_fr1_43,fr1_x1).
head(r_fr1_44,fr1_p2).
body(r_fr1_44,fr1_p4).
body(r_fr1_44,fr1_t1).
head(r_fr1_45,fr1_p2).
body(r_fr1_45,fr1_f2).
body(r_fr1_45,fr1_r1).
head(r_fr1_46,fr1_p2).
body(r_fr1_46,fr1_b2).
body(r_fr1_46,fr1_q2).
body(r_fr1_46,fr7_q1).
head(r_fr1_47,fr1_x1).
body(r_fr1_47,fr1_a3).
body(r_fr1_47,fr1_c2).
head(r_fr1_48,fr1_x1).
body(r_fr1_48,fr1_c1).
body(r_fr1_48,fr1_d2).
head(r_fr1_49,fr1_x1).
head(r_fr1_50,fr1_x1).
body(r_fr1_50,fr1_f1).
head(r_fr1_51,fr1_x1).
body(r_fr1_51,fr1_b3).
head(r_fr1_52,fr1_p3).
body(r_fr1_52,fr1_x1).
head(r_fr1_53,fr1_p3).
body(r_fr1_53,fr1_a1).
body(r_fr1_53,fr1_d1).
body(r_fr1_53,fr1_e1).
head(r_fr1_54,fr1_p3).
body(r_fr1_54,fr1_a3).
body(r_fr1_54,fr1_b2).
body(r_fr1_54,fr1_b3).
head(r_fr1_55,fr1_p3).
body(r_fr1_55,fr1_a3).
body(r_fr1_55,fr1_v3).
body(r_fr1_55,fr1_y1).
head(r_fr1_56,fr1_p3).
head(r_fr1_57,fr1_q3).
body(r_fr1_57,fr1_w2).
head(r_fr1_58,fr1_q3).
body(r_fr1_58,fr1_y1).
head(r_fr1_59,fr1_q3).
body(r_fr1_59,fr1_b3).
body(r_fr1_59,fr2_b2).
body(r_fr1_59,fr1_f2).
head(r_fr1_60,fr1_q3).
head(r_fr1_61,fr1_p4).
body(r_fr1_61,fr1_b1).
body(r_fr1_61,fr1_x1).
head(r_fr1_62,fr1_p4).
head(r_fr1_63,fr7_q1).
body(r_fr1_63,fr1_b1).
body(r_fr1_63,fr1_c1).
head(r_fr1_64,fr7_q1).
body(r_fr1_64,fr2_b2).
body(r_fr1_64,fr1_f2).
head(r_fr1_65,fr7_q1).
body(r_fr1_65,fr1_c1).

% exp_acyclic_indvary1_step2_batch_yyy04.pl
assumption(fr2_a1).
assumption(fr2_b1).
assumption(fr2_c1).
assumption(fr2_d1).
assumption(fr2_e1).
assumption(fr2_f1).
assumption(fr2_a2).
assumption(fr2_b2).
assumption(fr2_c2).
assumption(fr5_t2).
assumption(fr2_e2).
assumption(fr2_f2).
assumption(fr5_f1).
assumption(fr3_f1).
assumption(fr2_c3).
contrary(fr2_a1,fr5_t2).
contrary(fr2_a2,fr2_q1).
contrary(fr5_f1,fr2_z1).
contrary(fr2_b1,fr2_f1).
contrary(fr2_b2,fr2_q1).
contrary(fr3_f1,fr2_e2).
contrary(fr2_c1,fr2_v1).
contrary(fr2_c2,fr5_t2).
contrary(fr2_c3,fr2_q1).
contrary(fr2_d1,fr2_x1).
contrary(fr5_t2,fr2_a1).
contrary(fr2_e1,fr2_z1).
contrary(fr2_e2,fr5_e1).
contrary(fr2_f1,fr2_e2).
contrary(fr2_f2,fr2_r2).
head(r_fr2_0,fr2_r1).
body(r_fr2_0,fr2_a1).
body(r_fr2_0,fr5_f1).
body(r_fr2_0,fr2_d1).
body(r_fr2_0,fr2_e2).
body(r_fr2_0,fr2_f1).
body(r_fr2_0,fr2_y1).
head(r_fr2_1,fr2_r1).
body(r_fr2_1,fr2_b1).
body(r_fr2_1,fr2_c1).
body(r_fr2_1,fr2_d1).
head(r_fr2_2,fr2_r1).
body(r_fr2_2,fr5_f1).
body(r_fr2_2,fr2_u1).
body(r_fr2_2,fr2_v1).
head(r_fr2_3,fr2_r1).
body(r_fr2_3,fr2_a1).
body(r_fr2_3,fr5_f1).
body(r_fr2_3,fr3_f1).
body(r_fr2_3,fr2_c3).
body(r_fr2_3,fr2_d1).
body(r_fr2_3,fr5_t2).
head(r_fr2_4,fr2_p1).
body(r_fr2_4,fr2_q2).
body(r_fr2_4,fr2_r2).
body(r_fr2_4,fr2_s2).
head(r_fr2_5,fr2_p1).
body(r_fr2_5,fr2_q1).
body(r_fr2_5,fr2_q2).
body(r_fr2_5,fr5_e1).
body(r_fr2_5,fr2_s2).
body(r_fr2_5,fr2_v1).
head(r_fr2_6,fr2_p1).
body(r_fr2_6,fr2_t1).
body(r_fr2_6,fr2_v1).
body(r_fr2_6,fr2_w1).
body(r_fr2_6,fr2_x1).
head(r_fr2_7,fr2_y1).
body(r_fr2_7,fr5_f1).
body(r_fr2_7,fr2_u1).
head(r_fr2_8,fr2_y1).
body(r_fr2_8,fr2_c3).
head(r_fr2_9,fr2_y1).
body(r_fr2_9,fr2_a1).
body(r_fr2_9,fr2_a2).
body(r_fr2_9,fr2_c1).
body(r_fr2_9,fr2_c2).
body(r_fr2_9,fr2_q1).
body(r_fr2_9,fr2_q2).
head(r_fr2_10,fr2_y1).
body(r_fr2_10,fr2_a2).
body(r_fr2_10,fr2_c3).
body(r_fr2_10,fr2_d1).
body(r_fr2_10,fr5_t2).
body(r_fr2_10,fr2_f1).
head(r_fr2_11,fr2_s2).
body(r_fr2_11,fr2_c1).
body(r_fr2_11,fr2_c2).
body(r_fr2_11,fr5_t2).
body(r_fr2_11,fr2_p2).
body(r_fr2_11,fr2_q2).
body(r_fr2_11,fr2_z1).
head(r_fr2_12,fr2_s2).
body(r_fr2_12,fr2_d1).
head(r_fr2_13,fr2_s2).
body(r_fr2_13,fr5_f1).
body(r_fr2_13,fr2_b2).
body(r_fr2_13,fr2_c2).
body(r_fr2_13,fr2_d1).
body(r_fr2_13,fr2_f1).
body(r_fr2_13,fr2_p2).
head(r_fr2_14,fr2_u1).
body(r_fr2_14,fr2_d1).
body(r_fr2_14,fr2_e2).
body(r_fr2_14,fr2_f2).
body(r_fr2_14,fr2_v1).
head(r_fr2_15,fr2_u1).
body(r_fr2_15,fr5_f1).
body(r_fr2_15,fr5_t2).
body(r_fr2_15,fr2_p2).
head(r_fr2_16,fr2_u1).
body(r_fr2_16,fr2_x1).
head(r_fr2_17,fr2_u1).
body(r_fr2_17,fr2_b1).
body(r_fr2_17,fr3_f1).
body(r_fr2_17,fr2_d1).
body(r_fr2_17,fr2_p2).
head(r_fr2_18,fr2_u1).
head(r_fr2_19,fr2_q2).
body(r_fr2_19,fr2_a1).
body(r_fr2_19,fr2_c1).
body(r_fr2_19,fr2_c3).
body(r_fr2_19,fr2_d1).
body(r_fr2_19,fr2_q1).
head(r_fr2_20,fr2_q2).
head(r_fr2_21,fr2_q2).
body(r_fr2_21,fr2_b2).
body(r_fr2_21,fr2_c1).
body(r_fr2_21,fr5_t2).
body(r_fr2_21,fr2_e2).
body(r_fr2_21,fr2_r2).
head(r_fr2_22,fr2_q2).
body(r_fr2_22,fr2_a1).
head(r_fr2_23,fr2_q2).
body(r_fr2_23,fr2_b2).
body(r_fr2_23,fr2_c1).
body(r_fr2_23,fr2_v1).
head(r_fr2_24,fr2_w1).
body(r_fr2_24,fr2_a2).
body(r_fr2_24,fr2_q1).
body(r_fr2_24,fr5_e1).
body(r_fr2_24,fr2_v1).
head(r_fr2_25,fr2_w1).
body(r_fr2_25,fr2_a1).
body(r_fr2_25,fr2_e2).
head(r_fr2_26,fr2_w1).
body(r_fr2_26,fr2_f2).
head(r_fr2_27,fr2_w1).
body(r_fr2_27,fr2_t1).
head(r_fr2_28,fr2_w1).
body(r_fr2_28,fr2_b1).
body(r_fr2_28,fr3_f1).
body(r_fr2_28,fr2_d1).
body(r_fr2_28,fr2_f1).
head(r_fr2_29,fr2_z1).
body(r_fr2_29,fr2_q1).
body(r_fr2_29,fr2_r2).
body(r_fr2_29,fr5_e1).
body(r_fr2_29,fr2_v1).
body(r_fr2_29,fr2_x1).
head(r_fr2_30,fr2_z1).
body(r_fr2_30,fr5_f1).
body(r_fr2_30,fr2_c2).
body(r_fr2_30,fr2_c3).
body(r_fr2_30,fr2_p2).
head(r_fr2_31,fr2_z1).
body(r_fr2_31,fr2_a2).
body(r_fr2_31,fr5_f1).
body(r_fr2_31,fr2_c3).
body(r_fr2_31,fr2_d1).
body(r_fr2_31,fr2_f1).
body(r_fr2_31,fr2_r2).
head(r_fr2_32,fr2_z1).
body(r_fr2_32,fr2_a1).
head(r_fr2_33,fr2_p2).
body(r_fr2_33,fr2_a2).
body(r_fr2_33,fr2_c3).
body(r_fr2_33,fr2_d1).
body(r_fr2_33,fr2_e2).
body(r_fr2_33,fr2_f2).
head(r_fr2_34,fr2_p2).
body(r_fr2_34,fr2_a1).
body(r_fr2_34,fr2_q1).
body(r_fr2_34,fr2_r2).
body(r_fr2_34,fr5_e1).
body(r_fr2_34,fr2_t1).
body(r_fr2_34,fr2_x1).
head(r_fr2_35,fr2_p2).
body(r_fr2_35,fr2_a2).
body(r_fr2_35,fr2_t1).
body(r_fr2_35,fr2_x1).
head(r_fr2_36,fr2_p2).
body(r_fr2_36,fr2_q1).
body(r_fr2_36,fr2_r2).
body(r_fr2_36,fr5_e1).
body(r_fr2_36,fr2_t1).
body(r_fr2_36,fr2_v1).
body(r_fr2_36,fr2_x1).
head(r_fr2_37,fr2_p2).
body(r_fr2_37,fr2_c1).
head(r_fr2_38,fr5_e1).
body(r_fr2_38,fr2_b1).
body(r_fr2_38,fr2_c3).
body(r_fr2_38,fr5_t2).
body(r_fr2_38,fr2_f2).
head(r_fr2_39,fr5_e1).
body(r_fr2_39,fr2_q1).
body(r_fr2_39,fr2_t1).
body(r_fr2_39,fr2_v1).
body(r_fr2_39,fr2_x1).
head(r_fr2_40,fr5_e1).
body(r_fr2_40,fr2_a2).
body(r_fr2_40,fr3_f1).
body(r_fr2_40,fr2_d1).
body(r_fr2_40,fr5_t2).
body(r_fr2_40,fr2_e2).
body(r_fr2_40,fr2_f1).
head(r_fr2_41,fr5_e1).
body(r_fr2_41,fr3_f1).
body(r_fr2_41,fr2_c1).
body(r_fr2_41,fr2_d1).
body(r_fr2_41,fr2_e2).
body(r_fr2_41,fr2_f2).
head(r_fr2_42,fr2_v1).
body(r_fr2_42,fr2_q1).
head(r_fr2_43,fr2_v1).
body(r_fr2_43,fr2_q1).
body(r_fr2_43,fr2_r2).
body(r_fr2_43,fr2_t1).
body(r_fr2_43,fr2_x1).
head(r_fr2_44,fr2_v1).
body(r_fr2_44,fr2_q1).
body(r_fr2_44,fr2_r2).
head(r_fr2_45,fr2_v1).
body(r_fr2_45,fr5_f1).
body(r_fr2_45,fr3_f1).
body(r_fr2_45,fr2_c3).
body(r_fr2_45,fr2_e1).
head(r_fr2_46,fr2_v1).
body(r_fr2_46,fr2_a1).
body(r_fr2_46,fr5_f1).
body(r_fr2_46,fr3_f1).
body(r_fr2_46,fr2_f1).
head(r_fr2_47,fr2_q1).
body(r_fr2_47,fr2_r2).
head(r_fr2_48,fr2_q1).
body(r_fr2_48,fr2_c3).
body(r_fr2_48,fr2_d1).
body(r_fr2_48,fr2_f2).
body(r_fr2_48,fr2_x1).
head(r_fr2_49,fr2_r2).
body(r_fr2_49,fr2_b1).
body(r_fr2_49,fr5_t2).
body(r_fr2_49,fr2_e2).
body(r_fr2_49,fr2_x1).
head(r_fr2_50,fr2_r2).
body(r_fr2_50,fr3_f1).
body(r_fr2_50,fr5_t2).
body(r_fr2_50,fr2_x1).
head(r_fr2_51,fr2_r2).
body(r_fr2_51,fr2_c1).
head(r_fr2_52,fr2_r2).
head(r_fr2_53,fr2_t1).
body(r_fr2_53,fr2_e1).
head(r_fr2_54,fr2_t1).
body(r_fr2_54,fr3_f1).
body(r_fr2_54,fr2_d1).
body(r_fr2_54,fr2_x1).
head(r_fr2_55,fr2_t1).
body(r_fr2_55,fr2_a1).
body(r_fr2_55,fr2_b2).
body(r_fr2_55,fr2_x1).
head(r_fr2_56,fr2_t1).
body(r_fr2_56,fr3_f1).
body(r_fr2_56,fr2_c3).
body(r_fr2_56,fr2_d1).
body(r_fr2_56,fr2_e1).
body(r_fr2_56,fr2_e2).
body(r_fr2_56,fr2_x1).
head(r_fr2_57,fr2_t1).
head(r_fr2_58,fr2_x1).
body(r_fr2_58,fr2_b1).
body(r_fr2_58,fr2_e1).
body(r_fr2_58,fr2_f1).
head(r_fr2_59,fr2_x1).
body(r_fr2_59,fr2_a1).
body(r_fr2_59,fr2_b2).
body(r_fr2_59,fr3_f1).
body(r_fr2_59,fr5_t2).
head(r_fr2_60,fr2_x1).

% exp_acyclic_indvary3_step7_batch_yyy07.pl
assumption(fr3_a1).
assumption(fr3_b1).
assumption(fr3_c1).
assumption(fr3_d1).
assumption(fr3_e1).
assumption(fr3_f1).
assumption(fr3_a2).
assumption(fr3_b2).
assumption(fr3_c2).
assumption(fr3_d2).
assumption(fr3_e2).
assumption(fr3_f2).
assumption(fr8_v1).
assumption(fr3_b3).
assumption(fr3_c3).
contrary(fr3_a1,fr3_z1).
contrary(fr3_a2,fr4_u1).
contrary(fr8_v1,fr3_c3).
contrary(fr3_b1,fr3_s2).
contrary(fr3_b2,fr3_u3).
contrary(fr3_b3,fr3_s1).
contrary(fr3_c1,fr3_q2).
contrary(fr3_c2,fr3_c3).
contrary(fr3_c3,fr8_v1).
contrary(fr3_d1,fr3_d2).
contrary(fr3_d2,fr3_b2).
contrary(fr3_e1,fr3_c2).
contrary(fr3_e2,fr3_w1).
contrary(fr3_f1,fr3_b1).
contrary(fr3_f2,fr3_t3).
head(r_fr3_0,fr3_s2).
body(r_fr3_0,fr3_b3).
body(r_fr3_0,fr3_c1).
body(r_fr3_0,fr3_p1).
body(r_fr3_0,fr3_p3).
body(r_fr3_0,fr3_p4).
body(r_fr3_0,fr3_q1).
body(r_fr3_0,fr3_q2).
body(r_fr3_0,fr3_q3).
body(r_fr3_0,fr3_q4).
body(r_fr3_0,fr3_r3).
body(r_fr3_0,fr3_s1).
body(r_fr3_0,fr3_t3).
body(r_fr3_0,fr3_u1).
body(r_fr3_0,fr3_u3).
body(r_fr3_0,fr3_v1).
body(r_fr3_0,fr3_v3).
body(r_fr3_0,fr3_w2).
body(r_fr3_0,fr3_w3).
body(r_fr3_0,fr1_r1).
body(r_fr3_0,fr3_z1).
body(r_fr3_0,fr3_z2).
head(r_fr3_1,fr3_s2).
body(r_fr3_1,fr3_b1).
body(r_fr3_1,fr3_c2).
body(r_fr3_1,fr3_d2).
body(r_fr3_1,fr3_e1).
body(r_fr3_1,fr3_f1).
body(r_fr3_1,fr3_q1).
body(r_fr3_1,fr3_q2).
body(r_fr3_1,fr3_q4).
body(r_fr3_1,fr3_r2).
body(r_fr3_1,fr3_r3).
body(r_fr3_1,fr3_s1).
body(r_fr3_1,fr3_s3).
body(r_fr3_1,fr3_t1).
body(r_fr3_1,fr3_t3).
body(r_fr3_1,fr3_u2).
body(r_fr3_1,fr3_v1).
body(r_fr3_1,fr3_w2).
body(r_fr3_1,fr3_w3).
body(r_fr3_1,fr3_x1).
body(r_fr3_1,fr3_z2).
body(r_fr3_1,fr3_z3).
head(r_fr3_2,fr3_r2).
body(r_fr3_2,fr3_f1).
body(r_fr3_2,fr3_p1).
body(r_fr3_2,fr3_p2).
body(r_fr3_2,fr3_p3).
body(r_fr3_2,fr3_q4).
body(r_fr3_2,fr3_r1).
body(r_fr3_2,fr3_s1).
body(r_fr3_2,fr3_t3).
body(r_fr3_2,fr3_u1).
body(r_fr3_2,fr3_v3).
body(r_fr3_2,fr3_w1).
body(r_fr3_2,fr3_w2).
body(r_fr3_2,fr1_r1).
body(r_fr3_2,fr3_x3).
body(r_fr3_2,fr3_y1).
body(r_fr3_2,fr3_y3).
body(r_fr3_2,fr3_z2).
body(r_fr3_2,fr3_z3).
head(r_fr3_3,fr3_r2).
body(r_fr3_3,fr8_v1).
body(r_fr3_3,fr3_c1).
body(r_fr3_3,fr3_e2).
body(r_fr3_3,fr3_p1).
body(r_fr3_3,fr3_p2).
body(r_fr3_3,fr3_p3).
body(r_fr3_3,fr3_q1).
body(r_fr3_3,fr3_q2).
body(r_fr3_3,fr3_q3).
body(r_fr3_3,fr3_q4).
body(r_fr3_3,fr3_s1).
body(r_fr3_3,fr3_s3).
body(r_fr3_3,fr3_u1).
body(r_fr3_3,fr3_v3).
body(r_fr3_3,fr3_x3).
body(r_fr3_3,fr3_y1).
body(r_fr3_3,fr3_y2).
body(r_fr3_3,fr3_y3).
body(r_fr3_3,fr3_z1).
body(r_fr3_3,fr3_z2).
body(r_fr3_3,fr3_z3).
head(r_fr3_4,fr3_r2).
body(r_fr3_4,fr3_b1).
body(r_fr3_4,fr3_c1).
body(r_fr3_4,fr3_q1).
body(r_fr3_4,fr3_q2).
body(r_fr3_4,fr3_q3).
body(r_fr3_4,fr3_q4).
body(r_fr3_4,fr3_r3).
body(r_fr3_4,fr3_s1).
body(r_fr3_4,fr3_s3).
body(r_fr3_4,fr4_u1).
body(r_fr3_4,fr3_u3).
body(r_fr3_4,fr3_v1).
body(r_fr3_4,fr3_v2).
body(r_fr3_4,fr3_w1).
body(r_fr3_4,fr3_x3).
body(r_fr3_4,fr3_y1).
body(r_fr3_4,fr3_y2).
body(r_fr3_4,fr3_y3).
body(r_fr3_4,fr3_z1).
body(r_fr3_4,fr3_z2).
head(r_fr3_5,fr3_q3).
body(r_fr3_5,fr3_p1).
body(r_fr3_5,fr3_p2).
body(r_fr3_5,fr3_p3).
body(r_fr3_5,fr3_q2).
body(r_fr3_5,fr3_s1).
body(r_fr3_5,fr3_t3).
body(r_fr3_5,fr3_u1).
body(r_fr3_5,fr3_u2).
body(r_fr3_5,fr3_u3).
body(r_fr3_5,fr3_v1).
body(r_fr3_5,fr3_v3).
body(r_fr3_5,fr3_w1).
body(r_fr3_5,fr3_w2).
body(r_fr3_5,fr3_w3).
body(r_fr3_5,fr3_x1).
body(r_fr3_5,fr3_x3).
body(r_fr3_5,fr3_y1).
body(r_fr3_5,fr3_y3).
body(r_fr3_5,fr3_z1).
body(r_fr3_5,fr3_z2).
body(r_fr3_5,fr3_z3).
head(r_fr3_6,fr3_q3).
body(r_fr3_6,fr3_a1).
body(r_fr3_6,fr3_b3).
body(r_fr3_6,fr3_p1).
body(r_fr3_6,fr3_p2).
body(r_fr3_6,fr3_p4).
body(r_fr3_6,fr3_q1).
body(r_fr3_6,fr3_r3).
body(r_fr3_6,fr3_s1).
body(r_fr3_6,fr3_t3).
body(r_fr3_6,fr3_w1).
body(r_fr3_6,fr3_w2).
body(r_fr3_6,fr3_x1).
body(r_fr3_6,fr1_r1).
body(r_fr3_6,fr3_x3).
body(r_fr3_6,fr3_y2).
body(r_fr3_6,fr3_y3).
body(r_fr3_6,fr3_z1).
body(r_fr3_6,fr3_z3).
head(r_fr3_7,fr3_p4).
body(r_fr3_7,fr8_v1).
body(r_fr3_7,fr3_b3).
body(r_fr3_7,fr3_d1).
body(r_fr3_7,fr3_f1).
body(r_fr3_7,fr3_p2).
body(r_fr3_7,fr3_q1).
body(r_fr3_7,fr3_q4).
body(r_fr3_7,fr3_r1).
body(r_fr3_7,fr3_s3).
body(r_fr3_7,fr3_t1).
body(r_fr3_7,fr3_u1).
body(r_fr3_7,fr3_u2).
body(r_fr3_7,fr3_v2).
body(r_fr3_7,fr3_v3).
body(r_fr3_7,fr3_w2).
body(r_fr3_7,fr3_y1).
body(r_fr3_7,fr3_y2).
body(r_fr3_7,fr3_y3).
body(r_fr3_7,fr3_z1).
head(r_fr3_8,fr3_p4).
body(r_fr3_8,fr3_b1).
body(r_fr3_8,fr3_c1).
body(r_fr3_8,fr3_d1).
body(r_fr3_8,fr3_f2).
body(r_fr3_8,fr3_p2).
body(r_fr3_8,fr3_p3).
body(r_fr3_8,fr3_q1).
body(r_fr3_8,fr3_q2).
body(r_fr3_8,fr3_s3).
body(r_fr3_8,fr4_u1).
body(r_fr3_8,fr3_t3).
body(r_fr3_8,fr3_v2).
body(r_fr3_8,fr3_w1).
body(r_fr3_8,fr3_w2).
body(r_fr3_8,fr3_w3).
body(r_fr3_8,fr1_r1).
body(r_fr3_8,fr3_y1).
body(r_fr3_8,fr3_y2).
body(r_fr3_8,fr3_z1).
body(r_fr3_8,fr3_z2).
head(r_fr3_9,fr3_p4).
body(r_fr3_9,fr8_v1).
body(r_fr3_9,fr3_b2).
body(r_fr3_9,fr3_f1).
body(r_fr3_9,fr3_p2).
body(r_fr3_9,fr3_q2).
body(r_fr3_9,fr3_r1).
body(r_fr3_9,fr3_s3).
body(r_fr3_9,fr4_u1).
body(r_fr3_9,fr3_t3).
body(r_fr3_9,fr3_u3).
body(r_fr3_9,fr3_v1).
body(r_fr3_9,fr3_v3).
body(r_fr3_9,fr3_w2).
body(r_fr3_9,fr1_r1).
body(r_fr3_9,fr3_x3).
body(r_fr3_9,fr3_y1).
body(r_fr3_9,fr3_y2).
body(r_fr3_9,fr3_y3).
body(r_fr3_9,fr3_z1).
body(r_fr3_9,fr3_z2).
head(r_fr3_10,fr3_p4).
body(r_fr3_10,fr3_b3).
body(r_fr3_10,fr3_p1).
body(r_fr3_10,fr3_p2).
body(r_fr3_10,fr3_p3).
body(r_fr3_10,fr3_q1).
body(r_fr3_10,fr3_q2).
body(r_fr3_10,fr3_q4).
body(r_fr3_10,fr3_r3).
body(r_fr3_10,fr3_s1).
body(r_fr3_10,fr3_u1).
body(r_fr3_10,fr3_u2).
body(r_fr3_10,fr3_v1).
body(r_fr3_10,fr3_v2).
body(r_fr3_10,fr3_v3).
body(r_fr3_10,fr3_w1).
body(r_fr3_10,fr3_w2).
body(r_fr3_10,fr3_x1).
body(r_fr3_10,fr1_r1).
body(r_fr3_10,fr3_y1).
body(r_fr3_10,fr3_y3).
body(r_fr3_10,fr3_z3).
head(r_fr3_11,fr3_p4).
body(r_fr3_11,fr3_b1).
body(r_fr3_11,fr3_b2).
body(r_fr3_11,fr3_f1).
body(r_fr3_11,fr3_p1).
body(r_fr3_11,fr3_p2).
body(r_fr3_11,fr3_p3).
body(r_fr3_11,fr3_q1).
body(r_fr3_11,fr3_r3).
body(r_fr3_11,fr3_s1).
body(r_fr3_11,fr3_t3).
body(r_fr3_11,fr3_u2).
body(r_fr3_11,fr3_v2).
body(r_fr3_11,fr3_v3).
body(r_fr3_11,fr3_w1).
body(r_fr3_11,fr3_w3).
body(r_fr3_11,fr3_y2).
body(r_fr3_11,fr3_z1).
body(r_fr3_11,fr3_z3).
head(r_fr3_12,fr3_u1).
body(r_fr3_12,fr3_b1).
body(r_fr3_12,fr3_b2).
body(r_fr3_12,fr3_b3).
body(r_fr3_12,fr3_c1).
body(r_fr3_12,fr3_f1).
body(r_fr3_12,fr3_f2).
body(r_fr3_12,fr3_q4).
body(r_fr3_12,fr3_r3).
body(r_fr3_12,fr3_s1).
body(r_fr3_12,fr3_s3).
body(r_fr3_12,fr3_t3).
body(r_fr3_12,fr3_v1).
body(r_fr3_12,fr3_v2).
body(r_fr3_12,fr3_w2).
body(r_fr3_12,fr3_x1).
body(r_fr3_12,fr1_r1).
body(r_fr3_12,fr3_y1).
body(r_fr3_12,fr3_y2).
body(r_fr3_12,fr3_y3).
head(r_fr3_13,fr3_u1).
body(r_fr3_13,fr3_a1).
body(r_fr3_13,fr3_c2).
body(r_fr3_13,fr3_c3).
body(r_fr3_13,fr3_d1).
body(r_fr3_13,fr3_d2).
body(r_fr3_13,fr3_f1).
body(r_fr3_13,fr3_p1).
body(r_fr3_13,fr3_p2).
body(r_fr3_13,fr3_p3).
body(r_fr3_13,fr3_q2).
body(r_fr3_13,fr3_r1).
body(r_fr3_13,fr3_r3).
body(r_fr3_13,fr3_t1).
body(r_fr3_13,fr4_u1).
body(r_fr3_13,fr3_t3).
body(r_fr3_13,fr3_v1).
body(r_fr3_13,fr3_w1).
body(r_fr3_13,fr3_z1).
body(r_fr3_13,fr3_z2).
body(r_fr3_13,fr3_z3).
head(r_fr3_14,fr3_x1).
body(r_fr3_14,fr3_b1).
body(r_fr3_14,fr3_c1).
body(r_fr3_14,fr3_c3).
body(r_fr3_14,fr3_d1).
body(r_fr3_14,fr3_e2).
body(r_fr3_14,fr3_f1).
body(r_fr3_14,fr3_q1).
body(r_fr3_14,fr3_s1).
body(r_fr3_14,fr4_u1).
body(r_fr3_14,fr3_u2).
body(r_fr3_14,fr3_v2).
body(r_fr3_14,fr3_v3).
body(r_fr3_14,fr3_w1).
body(r_fr3_14,fr3_w3).
body(r_fr3_14,fr3_x3).
body(r_fr3_14,fr3_y1).
body(r_fr3_14,fr3_y2).
body(r_fr3_14,fr3_y3).
body(r_fr3_14,fr3_z1).
body(r_fr3_14,fr3_z2).
body(r_fr3_14,fr3_z3).
head(r_fr3_15,fr3_x1).
body(r_fr3_15,fr3_a1).
body(r_fr3_15,fr3_p1).
body(r_fr3_15,fr3_p3).
body(r_fr3_15,fr3_q1).
body(r_fr3_15,fr3_r1).
body(r_fr3_15,fr3_r3).
body(r_fr3_15,fr3_s1).
body(r_fr3_15,fr3_u2).
body(r_fr3_15,fr3_u3).
body(r_fr3_15,fr3_v1).
body(r_fr3_15,fr3_v3).
body(r_fr3_15,fr3_w3).
body(r_fr3_15,fr1_r1).
body(r_fr3_15,fr3_y1).
body(r_fr3_15,fr3_y2).
body(r_fr3_15,fr3_y3).
body(r_fr3_15,fr3_z1).
body(r_fr3_15,fr3_z2).
body(r_fr3_15,fr3_z3).
head(r_fr3_16,fr3_x1).
body(r_fr3_16,fr3_a1).
body(r_fr3_16,fr3_b2).
body(r_fr3_16,fr3_b3).
body(r_fr3_16,fr3_c1).
body(r_fr3_16,fr3_d2).
body(r_fr3_16,fr3_f1).
body(r_fr3_16,fr3_q2).
body(r_fr3_16,fr3_r1).
body(r_fr3_16,fr3_r3).
body(r_fr3_16,fr3_s1).
body(r_fr3_16,fr3_s3).
body(r_fr3_16,fr3_t1).
body(r_fr3_16,fr3_u2).
body(r_fr3_16,fr3_u3).
body(r_fr3_16,fr3_v1).
body(r_fr3_16,fr3_v2).
body(r_fr3_16,fr3_v3).
body(r_fr3_16,fr1_r1).
body(r_fr3_16,fr3_y3).
body(r_fr3_16,fr3_z1).
body(r_fr3_16,fr3_z2).
head(r_fr3_17,fr3_x1).
body(r_fr3_17,fr3_b1).
body(r_fr3_17,fr3_p1).
body(r_fr3_17,fr3_p2).
body(r_fr3_17,fr3_q1).
body(r_fr3_17,fr3_q4).
body(r_fr3_17,fr3_r1).
body(r_fr3_17,fr3_s1).
body(r_fr3_17,fr3_s3).
body(r_fr3_17,fr3_t1).
body(r_fr3_17,fr4_u1).
body(r_fr3_17,fr3_t3).
body(r_fr3_17,fr3_u3).
body(r_fr3_17,fr3_v2).
body(r_fr3_17,fr3_w2).
body(r_fr3_17,fr3_x3).
body(r_fr3_17,fr3_y1).
body(r_fr3_17,fr3_y2).
body(r_fr3_17,fr3_y3).
body(r_fr3_17,fr3_z3).
head(r_fr3_18,fr3_z1).
body(r_fr3_18,fr3_a2).
body(r_fr3_18,fr3_b2).
body(r_fr3_18,fr3_c1).
body(r_fr3_18,fr3_c2).
body(r_fr3_18,fr3_d1).
body(r_fr3_18,fr3_e2).
body(r_fr3_18,fr3_p1).
body(r_fr3_18,fr3_p2).
body(r_fr3_18,fr3_q1).
body(r_fr3_18,fr3_q4).
body(r_fr3_18,fr3_r3).
body(r_fr3_18,fr3_s1).
body(r_fr3_18,fr3_t1).
body(r_fr3_18,fr3_t3).
body(r_fr3_18,fr3_v2).
body(r_fr3_18,fr1_r1).
body(r_fr3_18,fr3_x3).
body(r_fr3_18,fr3_y1).
body(r_fr3_18,fr3_z2).
body(r_fr3_18,fr3_z3).
head(r_fr3_19,fr3_z1).
body(r_fr3_19,fr3_a1).
body(r_fr3_19,fr3_a2).
body(r_fr3_19,fr3_b1).
body(r_fr3_19,fr3_b2).
body(r_fr3_19,fr3_e1).
body(r_fr3_19,fr3_e2).
body(r_fr3_19,fr3_p1).
body(r_fr3_19,fr3_p2).
body(r_fr3_19,fr3_q1).
body(r_fr3_19,fr3_q4).
body(r_fr3_19,fr3_s3).
body(r_fr3_19,fr3_u2).
body(r_fr3_19,fr3_v1).
body(r_fr3_19,fr3_v2).
body(r_fr3_19,fr3_w1).
body(r_fr3_19,fr3_w2).
body(r_fr3_19,fr3_w3).
body(r_fr3_19,fr3_x3).
body(r_fr3_19,fr3_y1).
body(r_fr3_19,fr3_y3).
head(r_fr3_20,fr3_t3).
body(r_fr3_20,fr3_a1).
body(r_fr3_20,fr3_a2).
body(r_fr3_20,fr3_b2).
body(r_fr3_20,fr3_f1).
body(r_fr3_20,fr3_p1).
body(r_fr3_20,fr3_q1).
body(r_fr3_20,fr3_q2).
body(r_fr3_20,fr3_s1).
body(r_fr3_20,fr3_s3).
body(r_fr3_20,fr4_u1).
body(r_fr3_20,fr3_u3).
body(r_fr3_20,fr3_v2).
body(r_fr3_20,fr3_v3).
body(r_fr3_20,fr3_w2).
body(r_fr3_20,fr3_w3).
body(r_fr3_20,fr3_y1).
body(r_fr3_20,fr3_z2).
body(r_fr3_20,fr3_z3).
head(r_fr3_21,fr3_t3).
body(r_fr3_21,fr3_c3).
body(r_fr3_21,fr3_e2).
body(r_fr3_21,fr3_p1).
body(r_fr3_21,fr3_p2).
body(r_fr3_21,fr3_p3).
body(r_fr3_21,fr3_q4).
body(r_fr3_21,fr3_r1).
body(r_fr3_21,fr3_r3).
body(r_fr3_21,fr3_s1).
body(r_fr3_21,fr3_s3).
body(r_fr3_21,fr3_t1).
body(r_fr3_21,fr4_u1).
body(r_fr3_21,fr3_v3).
body(r_fr3_21,fr3_w1).
body(r_fr3_21,fr3_w2).
body(r_fr3_21,fr3_w3).
body(r_fr3_21,fr1_r1).
body(r_fr3_21,fr3_x3).
body(r_fr3_21,fr3_y2).
body(r_fr3_21,fr3_y3).
head(r_fr3_22,fr3_q1).
body(r_fr3_22,fr3_p1).
body(r_fr3_22,fr3_p2).
body(r_fr3_22,fr3_p3).
body(r_fr3_22,fr3_q2).
body(r_fr3_22,fr3_r1).
body(r_fr3_22,fr3_r3).
body(r_fr3_22,fr3_s1).
body(r_fr3_22,fr3_t1).
body(r_fr3_22,fr4_u1).
body(r_fr3_22,fr3_u2).
body(r_fr3_22,fr3_u3).
body(r_fr3_22,fr3_v3).
body(r_fr3_22,fr3_w1).
body(r_fr3_22,fr3_w2).
body(r_fr3_22,fr3_w3).
body(r_fr3_22,fr3_y1).
body(r_fr3_22,fr3_y2).
body(r_fr3_22,fr3_z2).
body(r_fr3_22,fr3_z3).
head(r_fr3_23,fr3_q1).
body(r_fr3_23,fr3_p1).
body(r_fr3_23,fr3_p3).
body(r_fr3_23,fr3_q2).
body(r_fr3_23,fr3_r1).
body(r_fr3_23,fr3_s1).
body(r_fr3_23,fr3_t1).
body(r_fr3_23,fr4_u1).
body(r_fr3_23,fr3_u2).
body(r_fr3_23,fr3_u3).
body(r_fr3_23,fr3_v3).
body(r_fr3_23,fr3_w2).
body(r_fr3_23,fr3_w3).
body(r_fr3_23,fr1_r1).
body(r_fr3_23,fr3_x3).
body(r_fr3_23,fr3_y1).
body(r_fr3_23,fr3_y3).
body(r_fr3_23,fr3_z2).
body(r_fr3_23,fr3_z3).
head(r_fr3_24,fr3_q1).
body(r_fr3_24,fr8_v1).
body(r_fr3_24,fr3_b1).
body(r_fr3_24,fr3_p1).
body(r_fr3_24,fr3_p2).
body(r_fr3_24,fr3_q2).
body(r_fr3_24,fr3_q4).
body(r_fr3_24,fr3_r1).
body(r_fr3_24,fr3_r3).
body(r_fr3_24,fr3_s1).
body(r_fr3_24,fr3_u2).
body(r_fr3_24,fr3_u3).
body(r_fr3_24,fr3_v2).
body(r_fr3_24,fr3_v3).
body(r_fr3_24,fr3_w1).
body(r_fr3_24,fr3_w2).
body(r_fr3_24,fr3_y3).
body(r_fr3_24,fr3_z2).
body(r_fr3_24,fr3_z3).
head(r_fr3_25,fr3_q1).
body(r_fr3_25,fr3_p1).
body(r_fr3_25,fr3_p2).
body(r_fr3_25,fr3_p3).
body(r_fr3_25,fr3_q2).
body(r_fr3_25,fr3_q4).
body(r_fr3_25,fr3_r1).
body(r_fr3_25,fr3_r3).
body(r_fr3_25,fr3_s3).
body(r_fr3_25,fr3_t1).
body(r_fr3_25,fr3_u3).
body(r_fr3_25,fr3_v1).
body(r_fr3_25,fr3_v2).
body(r_fr3_25,fr3_v3).
body(r_fr3_25,fr3_w1).
body(r_fr3_25,fr3_w2).
body(r_fr3_25,fr1_r1).
body(r_fr3_25,fr3_x3).
body(r_fr3_25,fr3_y2).
body(r_fr3_25,fr3_y3).
body(r_fr3_25,fr3_z3).
head(r_fr3_26,fr3_q1).
body(r_fr3_26,fr3_b1).
body(r_fr3_26,fr3_b3).
body(r_fr3_26,fr3_c1).
body(r_fr3_26,fr3_c3).
body(r_fr3_26,fr3_f1).
body(r_fr3_26,fr3_f2).
body(r_fr3_26,fr3_p2).
body(r_fr3_26,fr3_p3).
body(r_fr3_26,fr3_q2).
body(r_fr3_26,fr3_r1).
body(r_fr3_26,fr3_r3).
body(r_fr3_26,fr3_s1).
body(r_fr3_26,fr3_t1).
body(r_fr3_26,fr4_u1).
body(r_fr3_26,fr3_v1).
body(r_fr3_26,fr3_w1).
body(r_fr3_26,fr3_w2).
body(r_fr3_26,fr1_r1).
body(r_fr3_26,fr3_x3).
body(r_fr3_26,fr3_y3).
body(r_fr3_26,fr3_z2).
head(r_fr3_27,fr3_p2).
body(r_fr3_27,fr3_b1).
body(r_fr3_27,fr3_d1).
body(r_fr3_27,fr3_e2).
body(r_fr3_27,fr3_p1).
body(r_fr3_27,fr3_p3).
body(r_fr3_27,fr3_q2).
body(r_fr3_27,fr3_r1).
body(r_fr3_27,fr3_r3).
body(r_fr3_27,fr3_s3).
body(r_fr3_27,fr3_t1).
body(r_fr3_27,fr3_u3).
body(r_fr3_27,fr3_v1).
body(r_fr3_27,fr3_v2).
body(r_fr3_27,fr3_v3).
body(r_fr3_27,fr3_w1).
body(r_fr3_27,fr3_w2).
body(r_fr3_27,fr3_w3).
body(r_fr3_27,fr1_r1).
body(r_fr3_27,fr3_y1).
body(r_fr3_27,fr3_y2).
body(r_fr3_27,fr3_y3).
head(r_fr3_28,fr3_p2).
body(r_fr3_28,fr3_p3).
body(r_fr3_28,fr3_q4).
body(r_fr3_28,fr3_r1).
body(r_fr3_28,fr3_r3).
body(r_fr3_28,fr3_s1).
body(r_fr3_28,fr3_s3).
body(r_fr3_28,fr3_t1).
body(r_fr3_28,fr3_u2).
body(r_fr3_28,fr3_u3).
body(r_fr3_28,fr3_v1).
body(r_fr3_28,fr3_w1).
body(r_fr3_28,fr3_w2).
body(r_fr3_28,fr3_w3).
body(r_fr3_28,fr1_r1).
body(r_fr3_28,fr3_x3).
body(r_fr3_28,fr3_y1).
body(r_fr3_28,fr3_y3).
body(r_fr3_28,fr3_z2).
body(r_fr3_28,fr3_z3).
head(r_fr3_29,fr3_p2).
body(r_fr3_29,fr3_c3).
body(r_fr3_29,fr3_f1).
body(r_fr3_29,fr3_p3).
body(r_fr3_29,fr3_q4).
body(r_fr3_29,fr3_r3).
body(r_fr3_29,fr3_s1).
body(r_fr3_29,fr3_s3).
body(r_fr3_29,fr3_t1).
body(r_fr3_29,fr4_u1).
body(r_fr3_29,fr3_u2).
body(r_fr3_29,fr3_v1).
body(r_fr3_29,fr3_v3).
body(r_fr3_29,fr3_w1).
body(r_fr3_29,fr3_w2).
body(r_fr3_29,fr1_r1).
body(r_fr3_29,fr3_y3).
body(r_fr3_29,fr3_z2).
body(r_fr3_29,fr3_z3).
head(r_fr3_30,fr3_p2).
body(r_fr3_30,fr3_p1).
body(r_fr3_30,fr3_p3).
body(r_fr3_30,fr3_q2).
body(r_fr3_30,fr3_r1).
body(r_fr3_30,fr3_r3).
body(r_fr3_30,fr3_s1).
body(r_fr3_30,fr3_s3).
body(r_fr3_30,fr3_t1).
body(r_fr3_30,fr3_u2).
body(r_fr3_30,fr3_u3).
body(r_fr3_30,fr3_v1).
body(r_fr3_30,fr3_v2).
body(r_fr3_30,fr3_w1).
body(r_fr3_30,fr3_w2).
body(r_fr3_30,fr3_w3).
body(r_fr3_30,fr1_r1).
body(r_fr3_30,fr3_x3).
body(r_fr3_30,fr3_z2).
body(r_fr3_30,fr3_z3).
head(r_fr3_31,fr3_v3).
body(r_fr3_31,fr3_p1).
body(r_fr3_31,fr3_p3).
body(r_fr3_31,fr3_q2).
body(r_fr3_31,fr3_q4).
body(r_fr3_31,fr3_r1).
body(r_fr3_31,fr3_s1).
body(r_fr3_31,fr3_s3).
body(r_fr3_31,fr3_t1).
body(r_fr3_31,fr4_u1).
body(r_fr3_31,fr3_u2).
body(r_fr3_31,fr3_u3).
body(r_fr3_31,fr3_v1).
body(r_fr3_31,fr3_v2).
body(r_fr3_31,fr3_w1).
body(r_fr3_31,fr3_w2).
body(r_fr3_31,fr3_w3).
body(r_fr3_31,fr1_r1).
body(r_fr3_31,fr3_x3).
body(r_fr3_31,fr3_y1).
body(r_fr3_31,fr3_z2).
body(r_fr3_31,fr3_z3).
head(r_fr3_32,fr3_v3).
body(r_fr3_32,fr3_p1).
body(r_fr3_32,fr3_p3).
body(r_fr3_32,fr3_q2).
body(r_fr3_32,fr3_q4).
body(r_fr3_32,fr3_r1).
body(r_fr3_32,fr3_s1).
body(r_fr3_32,fr3_s3).
body(r_fr3_32,fr3_t1).
body(r_fr3_32,fr4_u1).
body(r_fr3_32,fr3_u2).
body(r_fr3_32,fr3_u3).
body(r_fr3_32,fr3_v1).
body(r_fr3_32,fr3_v2).
body(r_fr3_32,fr3_w1).
body(r_fr3_32,fr3_w3).
body(r_fr3_32,fr1_r1).
body(r_fr3_32,fr3_x3).
body(r_fr3_32,fr3_y2).
body(r_fr3_32,fr3_y3).
body(r_fr3_32,fr3_z2).
body(r_fr3_32,fr3_z3).
head(r_fr3_33,fr3_v3).
body(r_fr3_33,fr3_b2).
body(r_fr3_33,fr3_b3).
body(r_fr3_33,fr3_d1).
body(r_fr3_33,fr3_f1).
body(r_fr3_33,fr3_p1).
body(r_fr3_33,fr3_p3).
body(r_fr3_33,fr3_q2).
body(r_fr3_33,fr3_q4).
body(r_fr3_33,fr3_r1).
body(r_fr3_33,fr3_s1).
body(r_fr3_33,fr3_s3).
body(r_fr3_33,fr4_u1).
body(r_fr3_33,fr3_u2).
body(r_fr3_33,fr3_v2).
body(r_fr3_33,fr3_w2).
body(r_fr3_33,fr3_x3).
body(r_fr3_33,fr3_y1).
body(r_fr3_33,fr3_y2).
head(r_fr3_34,fr3_u3).
body(r_fr3_34,fr3_a1).
body(r_fr3_34,fr8_v1).
body(r_fr3_34,fr3_b2).
body(r_fr3_34,fr3_b3).
body(r_fr3_34,fr3_c2).
body(r_fr3_34,fr3_f2).
body(r_fr3_34,fr3_p1).
body(r_fr3_34,fr3_p3).
body(r_fr3_34,fr3_q4).
body(r_fr3_34,fr3_r3).
body(r_fr3_34,fr3_s1).
body(r_fr3_34,fr3_t1).
body(r_fr3_34,fr3_v1).
body(r_fr3_34,fr3_v2).
body(r_fr3_34,fr3_w1).
body(r_fr3_34,fr3_w3).
body(r_fr3_34,fr1_r1).
body(r_fr3_34,fr3_y1).
body(r_fr3_34,fr3_y3).
body(r_fr3_34,fr3_z2).
body(r_fr3_34,fr3_z3).
head(r_fr3_35,fr3_u3).
body(r_fr3_35,fr3_a1).
body(r_fr3_35,fr3_a2).
body(r_fr3_35,fr8_v1).
body(r_fr3_35,fr3_c3).
body(r_fr3_35,fr3_d1).
body(r_fr3_35,fr3_f2).
body(r_fr3_35,fr3_p1).
body(r_fr3_35,fr3_p3).
body(r_fr3_35,fr3_q2).
body(r_fr3_35,fr3_r1).
body(r_fr3_35,fr3_r3).
body(r_fr3_35,fr3_s1).
body(r_fr3_35,fr3_t1).
body(r_fr3_35,fr4_u1).
body(r_fr3_35,fr3_v2).
body(r_fr3_35,fr3_w3).
body(r_fr3_35,fr1_r1).
body(r_fr3_35,fr3_y1).
body(r_fr3_35,fr3_y2).
body(r_fr3_35,fr3_z2).
body(r_fr3_35,fr3_z3).
head(r_fr3_36,fr3_u3).
body(r_fr3_36,fr3_a1).
body(r_fr3_36,fr3_b1).
body(r_fr3_36,fr3_p1).
body(r_fr3_36,fr3_p3).
body(r_fr3_36,fr3_q2).
body(r_fr3_36,fr3_q4).
body(r_fr3_36,fr3_r1).
body(r_fr3_36,fr3_r3).
body(r_fr3_36,fr3_s1).
body(r_fr3_36,fr3_t1).
body(r_fr3_36,fr4_u1).
body(r_fr3_36,fr3_v1).
body(r_fr3_36,fr3_w1).
body(r_fr3_36,fr3_w3).
body(r_fr3_36,fr1_r1).
body(r_fr3_36,fr3_x3).
body(r_fr3_36,fr3_y2).
body(r_fr3_36,fr3_y3).
body(r_fr3_36,fr3_z2).
body(r_fr3_36,fr3_z3).
head(r_fr3_37,fr3_u3).
body(r_fr3_37,fr3_a1).
body(r_fr3_37,fr3_a2).
body(r_fr3_37,fr3_b1).
body(r_fr3_37,fr3_c2).
body(r_fr3_37,fr3_e2).
body(r_fr3_37,fr3_f2).
body(r_fr3_37,fr3_p3).
body(r_fr3_37,fr3_q4).
body(r_fr3_37,fr3_r1).
body(r_fr3_37,fr3_s1).
body(r_fr3_37,fr3_s3).
body(r_fr3_37,fr3_t1).
body(r_fr3_37,fr4_u1).
body(r_fr3_37,fr3_v1).
body(r_fr3_37,fr3_w1).
body(r_fr3_37,fr3_w2).
body(r_fr3_37,fr3_x3).
body(r_fr3_37,fr3_y3).
body(r_fr3_37,fr3_z2).
head(r_fr3_38,fr3_u3).
body(r_fr3_38,fr3_d1).
body(r_fr3_38,fr3_e2).
body(r_fr3_38,fr3_p1).
body(r_fr3_38,fr3_p3).
body(r_fr3_38,fr3_q2).
body(r_fr3_38,fr3_r3).
body(r_fr3_38,fr3_s1).
body(r_fr3_38,fr3_s3).
body(r_fr3_38,fr3_u2).
body(r_fr3_38,fr3_v1).
body(r_fr3_38,fr3_v2).
body(r_fr3_38,fr3_w1).
body(r_fr3_38,fr3_w2).
body(r_fr3_38,fr3_w3).
body(r_fr3_38,fr3_y1).
body(r_fr3_38,fr3_y2).
body(r_fr3_38,fr3_y3).
body(r_fr3_38,fr3_z2).
body(r_fr3_38,fr3_z3).
head(r_fr3_39,fr3_x3).
body(r_fr3_39,fr3_a1).
body(r_fr3_39,fr3_f2).
body(r_fr3_39,fr3_p1).
body(r_fr3_39,fr3_p3).
body(r_fr3_39,fr3_q2).
body(r_fr3_39,fr3_q4).
body(r_fr3_39,fr3_r3).
body(r_fr3_39,fr3_s1).
body(r_fr3_39,fr3_s3).
body(r_fr3_39,fr3_t1).
body(r_fr3_39,fr4_u1).
body(r_fr3_39,fr3_u2).
body(r_fr3_39,fr3_v1).
body(r_fr3_39,fr3_w1).
body(r_fr3_39,fr3_w2).
body(r_fr3_39,fr3_w3).
body(r_fr3_39,fr3_y1).
body(r_fr3_39,fr3_y2).
body(r_fr3_39,fr3_y3).
body(r_fr3_39,fr3_z2).
body(r_fr3_39,fr3_z3).
head(r_fr3_40,fr3_x3).
body(r_fr3_40,fr3_c1).
body(r_fr3_40,fr3_c3).
body(r_fr3_40,fr3_d2).
body(r_fr3_40,fr3_e1).
body(r_fr3_40,fr3_f1).
body(r_fr3_40,fr3_p3).
body(r_fr3_40,fr3_q2).
body(r_fr3_40,fr3_q4).
body(r_fr3_40,fr3_r1).
body(r_fr3_40,fr3_s1).
body(r_fr3_40,fr3_s3).
body(r_fr3_40,fr3_u2).
body(r_fr3_40,fr3_v1).
body(r_fr3_40,fr3_v2).
body(r_fr3_40,fr3_w2).
body(r_fr3_40,fr3_y1).
body(r_fr3_40,fr3_z2).
body(r_fr3_40,fr3_z3).
head(r_fr3_41,fr3_x3).
body(r_fr3_41,fr3_b3).
body(r_fr3_41,fr3_c3).
body(r_fr3_41,fr3_d1).
body(r_fr3_41,fr3_f1).
body(r_fr3_41,fr3_p1).
body(r_fr3_41,fr3_p3).
body(r_fr3_41,fr3_q2).
body(r_fr3_41,fr3_q4).
body(r_fr3_41,fr3_r1).
body(r_fr3_41,fr3_s1).
body(r_fr3_41,fr3_t1).
body(r_fr3_41,fr4_u1).
body(r_fr3_41,fr3_v1).
body(r_fr3_41,fr3_v2).
body(r_fr3_41,fr3_w1).
body(r_fr3_41,fr1_r1).
body(r_fr3_41,fr3_y1).
body(r_fr3_41,fr3_y2).
body(r_fr3_41,fr3_y3).
body(r_fr3_41,fr3_z3).
head(r_fr3_42,fr3_x3).
body(r_fr3_42,fr3_b2).
body(r_fr3_42,fr3_c3).
body(r_fr3_42,fr3_e1).
body(r_fr3_42,fr3_f1).
body(r_fr3_42,fr3_p1).
body(r_fr3_42,fr3_q2).
body(r_fr3_42,fr3_r1).
body(r_fr3_42,fr3_r3).
body(r_fr3_42,fr3_s1).
body(r_fr3_42,fr3_t1).
body(r_fr3_42,fr4_u1).
body(r_fr3_42,fr3_u2).
body(r_fr3_42,fr3_v1).
body(r_fr3_42,fr3_v2).
body(r_fr3_42,fr3_w1).
body(r_fr3_42,fr3_y1).
body(r_fr3_42,fr3_y2).
body(r_fr3_42,fr3_y3).
body(r_fr3_42,fr3_z2).
body(r_fr3_42,fr3_z3).
head(r_fr3_43,fr3_x3).
body(r_fr3_43,fr3_a2).
body(r_fr3_43,fr8_v1).
body(r_fr3_43,fr3_e1).
body(r_fr3_43,fr3_p1).
body(r_fr3_43,fr3_p3).
body(r_fr3_43,fr3_q2).
body(r_fr3_43,fr3_r1).
body(r_fr3_43,fr3_s3).
body(r_fr3_43,fr3_t1).
body(r_fr3_43,fr4_u1).
body(r_fr3_43,fr3_u2).
body(r_fr3_43,fr3_v1).
body(r_fr3_43,fr3_v2).
body(r_fr3_43,fr3_w1).
body(r_fr3_43,fr3_w2).
body(r_fr3_43,fr1_r1).
body(r_fr3_43,fr3_y2).
body(r_fr3_43,fr3_z2).
head(r_fr3_44,fr3_z2).
body(r_fr3_44,fr8_v1).
body(r_fr3_44,fr3_c3).
body(r_fr3_44,fr3_d1).
body(r_fr3_44,fr3_e1).
body(r_fr3_44,fr3_e2).
body(r_fr3_44,fr3_f2).
body(r_fr3_44,fr3_q4).
body(r_fr3_44,fr3_r1).
body(r_fr3_44,fr3_r3).
body(r_fr3_44,fr3_t1).
body(r_fr3_44,fr3_u2).
body(r_fr3_44,fr3_v2).
body(r_fr3_44,fr3_w1).
body(r_fr3_44,fr3_w2).
body(r_fr3_44,fr1_r1).
body(r_fr3_44,fr3_y1).
body(r_fr3_44,fr3_y3).
body(r_fr3_44,fr3_z3).
head(r_fr3_45,fr3_z2).
body(r_fr3_45,fr3_c1).
body(r_fr3_45,fr3_d1).
body(r_fr3_45,fr3_f2).
body(r_fr3_45,fr3_p1).
body(r_fr3_45,fr3_p3).
body(r_fr3_45,fr3_q2).
body(r_fr3_45,fr3_q4).
body(r_fr3_45,fr3_r1).
body(r_fr3_45,fr3_r3).
body(r_fr3_45,fr3_s1).
body(r_fr3_45,fr3_s3).
body(r_fr3_45,fr3_t1).
body(r_fr3_45,fr4_u1).
body(r_fr3_45,fr3_u2).
body(r_fr3_45,fr3_v1).
body(r_fr3_45,fr3_v2).
body(r_fr3_45,fr1_r1).
body(r_fr3_45,fr3_y1).
body(r_fr3_45,fr3_y2).
body(r_fr3_45,fr3_y3).
body(r_fr3_45,fr3_z3).
head(r_fr3_46,fr3_z2).
body(r_fr3_46,fr3_p1).
body(r_fr3_46,fr3_p3).
body(r_fr3_46,fr3_q2).
body(r_fr3_46,fr3_q4).
body(r_fr3_46,fr3_r1).
body(r_fr3_46,fr3_r3).
body(r_fr3_46,fr3_s1).
body(r_fr3_46,fr3_s3).
body(r_fr3_46,fr3_t1).
body(r_fr3_46,fr4_u1).
body(r_fr3_46,fr3_u2).
body(r_fr3_46,fr3_v1).
body(r_fr3_46,fr3_v2).
body(r_fr3_46,fr3_w1).
body(r_fr3_46,fr3_w2).
body(r_fr3_46,fr3_w3).
body(r_fr3_46,fr1_r1).
body(r_fr3_46,fr3_y1).
body(r_fr3_46,fr3_y2).
body(r_fr3_46,fr3_y3).
head(r_fr3_47,fr3_s1).
body(r_fr3_47,fr3_a2).
body(r_fr3_47,fr3_b2).
body(r_fr3_47,fr3_p1).
body(r_fr3_47,fr3_p3).
body(r_fr3_47,fr3_q4).
body(r_fr3_47,fr3_r1).
body(r_fr3_47,fr3_r3).
body(r_fr3_47,fr3_s3).
body(r_fr3_47,fr3_t1).
body(r_fr3_47,fr4_u1).
body(r_fr3_47,fr3_u2).
body(r_fr3_47,fr3_v1).
body(r_fr3_47,fr3_w1).
body(r_fr3_47,fr3_w3).
body(r_fr3_47,fr1_r1).
body(r_fr3_47,fr3_y1).
body(r_fr3_47,fr3_y3).
body(r_fr3_47,fr3_z3).
head(r_fr3_48,fr3_s1).
body(r_fr3_48,fr3_f1).
body(r_fr3_48,fr3_p1).
body(r_fr3_48,fr3_p3).
body(r_fr3_48,fr3_q2).
body(r_fr3_48,fr3_q4).
body(r_fr3_48,fr3_r1).
body(r_fr3_48,fr3_s3).
body(r_fr3_48,fr3_t1).
body(r_fr3_48,fr4_u1).
body(r_fr3_48,fr3_v1).
body(r_fr3_48,fr3_v2).
body(r_fr3_48,fr3_w1).
body(r_fr3_48,fr3_w2).
body(r_fr3_48,fr1_r1).
body(r_fr3_48,fr3_y1).
body(r_fr3_48,fr3_y2).
body(r_fr3_48,fr3_y3).
body(r_fr3_48,fr3_z3).
head(r_fr3_49,fr3_s1).
body(r_fr3_49,fr3_c3).
body(r_fr3_49,fr3_f2).
body(r_fr3_49,fr3_p1).
body(r_fr3_49,fr3_p3).
body(r_fr3_49,fr3_q2).
body(r_fr3_49,fr3_q4).
body(r_fr3_49,fr3_r1).
body(r_fr3_49,fr3_r3).
body(r_fr3_49,fr3_s3).
body(r_fr3_49,fr3_t1).
body(r_fr3_49,fr4_u1).
body(r_fr3_49,fr3_u2).
body(r_fr3_49,fr3_v1).
body(r_fr3_49,fr3_v2).
body(r_fr3_49,fr3_w1).
body(r_fr3_49,fr3_w2).
body(r_fr3_49,fr3_y1).
body(r_fr3_49,fr3_y2).
body(r_fr3_49,fr3_z3).
head(r_fr3_50,fr3_y3).
body(r_fr3_50,fr3_a1).
body(r_fr3_50,fr3_d1).
body(r_fr3_50,fr3_p1).
body(r_fr3_50,fr3_p3).
body(r_fr3_50,fr3_q2).
body(r_fr3_50,fr3_q4).
body(r_fr3_50,fr3_r1).
body(r_fr3_50,fr3_r3).
body(r_fr3_50,fr3_s3).
body(r_fr3_50,fr3_t1).
body(r_fr3_50,fr4_u1).
body(r_fr3_50,fr3_u2).
body(r_fr3_50,fr3_v1).
body(r_fr3_50,fr3_v2).
body(r_fr3_50,fr3_w1).
body(r_fr3_50,fr1_r1).
body(r_fr3_50,fr3_y1).
body(r_fr3_50,fr3_y2).
body(r_fr3_50,fr3_z3).
head(r_fr3_51,fr3_y3).
body(r_fr3_51,fr3_p1).
body(r_fr3_51,fr3_p3).
body(r_fr3_51,fr3_q2).
body(r_fr3_51,fr3_q4).
body(r_fr3_51,fr3_r1).
body(r_fr3_51,fr3_r3).
body(r_fr3_51,fr3_s3).
body(r_fr3_51,fr3_t1).
body(r_fr3_51,fr4_u1).
body(r_fr3_51,fr3_u2).
body(r_fr3_51,fr3_v1).
body(r_fr3_51,fr3_v2).
body(r_fr3_51,fr3_w1).
body(r_fr3_51,fr3_w2).
body(r_fr3_51,fr3_w3).
body(r_fr3_51,fr1_r1).
body(r_fr3_51,fr3_y1).
body(r_fr3_51,fr3_y2).
body(r_fr3_51,fr3_z3).
head(r_fr3_52,fr3_y2).
body(r_fr3_52,fr3_a1).
body(r_fr3_52,fr3_b1).
body(r_fr3_52,fr3_e1).
body(r_fr3_52,fr3_e2).
body(r_fr3_52,fr3_f1).
body(r_fr3_52,fr3_f2).
body(r_fr3_52,fr3_p1).
body(r_fr3_52,fr3_q2).
body(r_fr3_52,fr3_q4).
body(r_fr3_52,fr3_r1).
body(r_fr3_52,fr3_r3).
body(r_fr3_52,fr3_s3).
body(r_fr3_52,fr3_t1).
body(r_fr3_52,fr4_u1).
body(r_fr3_52,fr3_v2).
body(r_fr3_52,fr3_w2).
body(r_fr3_52,fr3_w3).
body(r_fr3_52,fr1_r1).
body(r_fr3_52,fr3_y1).
body(r_fr3_52,fr3_z3).
head(r_fr3_53,fr3_y2).
body(r_fr3_53,fr3_a2).
body(r_fr3_53,fr3_c1).
body(r_fr3_53,fr3_c3).
body(r_fr3_53,fr3_e2).
body(r_fr3_53,fr3_f1).
body(r_fr3_53,fr3_f2).
body(r_fr3_53,fr3_q2).
body(r_fr3_53,fr3_q4).
body(r_fr3_53,fr3_r3).
body(r_fr3_53,fr4_u1).
body(r_fr3_53,fr3_v1).
body(r_fr3_53,fr3_v2).
body(r_fr3_53,fr3_w1).
body(r_fr3_53,fr3_w2).
body(r_fr3_53,fr3_w3).
body(r_fr3_53,fr1_r1).
body(r_fr3_53,fr3_y1).
body(r_fr3_53,fr3_z3).
head(r_fr3_54,fr3_y2).
body(r_fr3_54,fr8_v1).
body(r_fr3_54,fr3_b3).
body(r_fr3_54,fr3_f1).
body(r_fr3_54,fr3_p3).
body(r_fr3_54,fr3_q2).
body(r_fr3_54,fr3_q4).
body(r_fr3_54,fr3_r1).
body(r_fr3_54,fr3_r3).
body(r_fr3_54,fr3_t1).
body(r_fr3_54,fr4_u1).
body(r_fr3_54,fr3_u2).
body(r_fr3_54,fr3_v1).
body(r_fr3_54,fr3_v2).
body(r_fr3_54,fr3_w1).
body(r_fr3_54,fr3_w2).
body(r_fr3_54,fr3_w3).
body(r_fr3_54,fr1_r1).
body(r_fr3_54,fr3_y1).
body(r_fr3_54,fr3_z3).
head(r_fr3_55,fr3_y2).
body(r_fr3_55,fr3_a1).
body(r_fr3_55,fr3_b1).
body(r_fr3_55,fr3_c2).
body(r_fr3_55,fr3_p1).
body(r_fr3_55,fr3_p3).
body(r_fr3_55,fr3_q2).
body(r_fr3_55,fr3_q4).
body(r_fr3_55,fr3_r1).
body(r_fr3_55,fr3_r3).
body(r_fr3_55,fr3_s3).
body(r_fr3_55,fr3_t1).
body(r_fr3_55,fr4_u1).
body(r_fr3_55,fr3_u2).
body(r_fr3_55,fr3_v1).
body(r_fr3_55,fr3_w1).
body(r_fr3_55,fr3_w2).
body(r_fr3_55,fr3_w3).
body(r_fr3_55,fr1_r1).
body(r_fr3_55,fr3_y1).
body(r_fr3_55,fr3_z3).
head(r_fr3_56,fr3_y2).
body(r_fr3_56,fr3_f1).
body(r_fr3_56,fr3_p1).
body(r_fr3_56,fr3_p3).
body(r_fr3_56,fr3_q2).
body(r_fr3_56,fr3_q4).
body(r_fr3_56,fr3_r1).
body(r_fr3_56,fr3_r3).
body(r_fr3_56,fr3_s3).
body(r_fr3_56,fr3_t1).
body(r_fr3_56,fr4_u1).
body(r_fr3_56,fr3_u2).
body(r_fr3_56,fr3_v1).
body(r_fr3_56,fr3_v2).
body(r_fr3_56,fr3_w2).
body(r_fr3_56,fr3_w3).
body(r_fr3_56,fr1_r1).
body(r_fr3_56,fr3_y1).
body(r_fr3_56,fr3_z3).
head(r_fr3_57,fr3_w3).
body(r_fr3_57,fr3_a2).
body(r_fr3_57,fr3_b2).
body(r_fr3_57,fr3_c2).
body(r_fr3_57,fr3_d2).
body(r_fr3_57,fr3_f1).
body(r_fr3_57,fr3_p1).
body(r_fr3_57,fr3_p3).
body(r_fr3_57,fr3_q2).
body(r_fr3_57,fr3_q4).
body(r_fr3_57,fr3_r1).
body(r_fr3_57,fr3_s3).
body(r_fr3_57,fr3_t1).
body(r_fr3_57,fr3_u2).
body(r_fr3_57,fr3_v1).
body(r_fr3_57,fr3_v2).
body(r_fr3_57,fr3_w1).
body(r_fr3_57,fr3_w2).
body(r_fr3_57,fr3_z3).
head(r_fr3_58,fr3_w3).
body(r_fr3_58,fr8_v1).
body(r_fr3_58,fr3_b1).
body(r_fr3_58,fr3_c1).
body(r_fr3_58,fr3_c2).
body(r_fr3_58,fr3_c3).
body(r_fr3_58,fr3_d2).
body(r_fr3_58,fr3_p1).
body(r_fr3_58,fr3_p3).
body(r_fr3_58,fr3_q4).
body(r_fr3_58,fr3_r1).
body(r_fr3_58,fr3_r3).
body(r_fr3_58,fr3_s3).
body(r_fr3_58,fr3_t1).
body(r_fr3_58,fr4_u1).
body(r_fr3_58,fr3_u2).
body(r_fr3_58,fr3_v1).
body(r_fr3_58,fr3_w1).
body(r_fr3_58,fr1_r1).
body(r_fr3_58,fr3_y1).
body(r_fr3_58,fr3_z3).
head(r_fr3_59,fr3_w3).
body(r_fr3_59,fr3_a2).
body(r_fr3_59,fr8_v1).
body(r_fr3_59,fr3_b1).
body(r_fr3_59,fr3_b2).
body(r_fr3_59,fr3_c2).
body(r_fr3_59,fr3_c3).
body(r_fr3_59,fr3_p1).
body(r_fr3_59,fr3_p3).
body(r_fr3_59,fr3_q2).
body(r_fr3_59,fr3_q4).
body(r_fr3_59,fr3_r1).
body(r_fr3_59,fr3_r3).
body(r_fr3_59,fr3_t1).
body(r_fr3_59,fr4_u1).
body(r_fr3_59,fr3_u2).
body(r_fr3_59,fr3_v1).
body(r_fr3_59,fr3_v2).
body(r_fr3_59,fr3_w2).
body(r_fr3_59,fr1_r1).
body(r_fr3_59,fr3_y1).
body(r_fr3_59,fr3_z3).
head(r_fr3_60,fr3_w3).
body(r_fr3_60,fr3_a1).
body(r_fr3_60,fr8_v1).
body(r_fr3_60,fr3_e1).
body(r_fr3_60,fr3_f2).
body(r_fr3_60,fr3_p1).
body(r_fr3_60,fr3_p3).
body(r_fr3_60,fr3_q2).
body(r_fr3_60,fr3_q4).
body(r_fr3_60,fr3_r1).
body(r_fr3_60,fr3_r3).
body(r_fr3_60,fr3_t1).
body(r_fr3_60,fr4_u1).
body(r_fr3_60,fr3_u2).
body(r_fr3_60,fr3_v1).
body(r_fr3_60,fr3_v2).
body(r_fr3_60,fr3_w1).
body(r_fr3_60,fr3_w2).
body(r_fr3_60,fr1_r1).
body(r_fr3_60,fr3_y1).
body(r_fr3_60,fr3_z3).
head(r_fr3_61,fr3_w3).
body(r_fr3_61,fr3_b3).
body(r_fr3_61,fr3_f1).
body(r_fr3_61,fr3_p1).
body(r_fr3_61,fr3_p3).
body(r_fr3_61,fr3_q2).
body(r_fr3_61,fr3_q4).
body(r_fr3_61,fr3_r1).
body(r_fr3_61,fr3_r3).
body(r_fr3_61,fr3_s3).
body(r_fr3_61,fr3_t1).
body(r_fr3_61,fr4_u1).
body(r_fr3_61,fr3_u2).
body(r_fr3_61,fr3_v1).
body(r_fr3_61,fr3_v2).
body(r_fr3_61,fr3_w1).
body(r_fr3_61,fr3_w2).
body(r_fr3_61,fr1_r1).
body(r_fr3_61,fr3_y1).
body(r_fr3_61,fr3_z3).
head(r_fr3_62,fr3_v1).
body(r_fr3_62,fr3_a1).
body(r_fr3_62,fr3_b1).
body(r_fr3_62,fr3_b2).
body(r_fr3_62,fr3_c3).
body(r_fr3_62,fr3_e2).
body(r_fr3_62,fr3_p1).
body(r_fr3_62,fr3_p3).
body(r_fr3_62,fr3_q2).
body(r_fr3_62,fr3_q4).
body(r_fr3_62,fr3_r1).
body(r_fr3_62,fr3_r3).
body(r_fr3_62,fr3_s3).
body(r_fr3_62,fr3_t1).
body(r_fr3_62,fr4_u1).
body(r_fr3_62,fr3_u2).
body(r_fr3_62,fr3_v2).
body(r_fr3_62,fr3_w1).
body(r_fr3_62,fr1_r1).
body(r_fr3_62,fr3_z3).
head(r_fr3_63,fr3_v1).
body(r_fr3_63,fr3_b1).
body(r_fr3_63,fr3_b2).
body(r_fr3_63,fr3_f1).
body(r_fr3_63,fr3_p1).
body(r_fr3_63,fr3_p3).
body(r_fr3_63,fr3_q2).
body(r_fr3_63,fr3_q4).
body(r_fr3_63,fr3_r1).
body(r_fr3_63,fr3_r3).
body(r_fr3_63,fr3_s3).
body(r_fr3_63,fr3_t1).
body(r_fr3_63,fr4_u1).
body(r_fr3_63,fr3_u2).
body(r_fr3_63,fr3_v2).
body(r_fr3_63,fr3_w1).
body(r_fr3_63,fr3_w2).
body(r_fr3_63,fr1_r1).
body(r_fr3_63,fr3_y1).
body(r_fr3_63,fr3_z3).
head(r_fr3_64,fr3_v1).
body(r_fr3_64,fr3_a1).
body(r_fr3_64,fr8_v1).
body(r_fr3_64,fr3_b1).
body(r_fr3_64,fr3_b3).
body(r_fr3_64,fr3_d1).
body(r_fr3_64,fr3_e1).
body(r_fr3_64,fr3_p3).
body(r_fr3_64,fr3_q2).
body(r_fr3_64,fr3_q4).
body(r_fr3_64,fr3_r3).
body(r_fr3_64,fr3_s3).
body(r_fr3_64,fr3_t1).
body(r_fr3_64,fr4_u1).
body(r_fr3_64,fr3_u2).
body(r_fr3_64,fr3_v2).
body(r_fr3_64,fr3_w1).
body(r_fr3_64,fr3_w2).
body(r_fr3_64,fr1_r1).
body(r_fr3_64,fr3_y1).
body(r_fr3_64,fr3_z3).
head(r_fr3_65,fr3_v1).
body(r_fr3_65,fr3_a2).
body(r_fr3_65,fr8_v1).
body(r_fr3_65,fr3_e1).
body(r_fr3_65,fr3_p1).
body(r_fr3_65,fr3_p3).
body(r_fr3_65,fr3_q2).
body(r_fr3_65,fr3_q4).
body(r_fr3_65,fr3_r1).
body(r_fr3_65,fr3_r3).
body(r_fr3_65,fr3_s3).
body(r_fr3_65,fr3_t1).
body(r_fr3_65,fr4_u1).
body(r_fr3_65,fr3_u2).
body(r_fr3_65,fr3_w1).
body(r_fr3_65,fr3_w2).
body(r_fr3_65,fr1_r1).
body(r_fr3_65,fr3_y1).
body(r_fr3_65,fr3_z3).
head(r_fr3_66,fr3_u2).
body(r_fr3_66,fr8_v1).
body(r_fr3_66,fr3_c3).
body(r_fr3_66,fr3_d1).
body(r_fr3_66,fr3_d2).
body(r_fr3_66,fr3_f1).
body(r_fr3_66,fr3_f2).
body(r_fr3_66,fr3_p1).
body(r_fr3_66,fr3_p3).
body(r_fr3_66,fr3_q2).
body(r_fr3_66,fr3_q4).
body(r_fr3_66,fr3_r1).
body(r_fr3_66,fr3_r3).
body(r_fr3_66,fr3_s3).
body(r_fr3_66,fr3_t1).
body(r_fr3_66,fr4_u1).
body(r_fr3_66,fr3_v2).
body(r_fr3_66,fr3_w1).
body(r_fr3_66,fr3_w2).
body(r_fr3_66,fr1_r1).
body(r_fr3_66,fr3_y1).
body(r_fr3_66,fr3_z3).
head(r_fr3_67,fr3_u2).
body(r_fr3_67,fr3_b3).
body(r_fr3_67,fr3_c3).
body(r_fr3_67,fr3_d2).
body(r_fr3_67,fr3_e2).
body(r_fr3_67,fr3_f2).
body(r_fr3_67,fr3_p1).
body(r_fr3_67,fr3_p3).
body(r_fr3_67,fr3_q2).
body(r_fr3_67,fr3_q4).
body(r_fr3_67,fr3_r1).
body(r_fr3_67,fr3_r3).
body(r_fr3_67,fr3_s3).
body(r_fr3_67,fr3_t1).
body(r_fr3_67,fr4_u1).
body(r_fr3_67,fr3_v2).
body(r_fr3_67,fr3_w1).
body(r_fr3_67,fr3_w2).
body(r_fr3_67,fr1_r1).
body(r_fr3_67,fr3_y1).
body(r_fr3_67,fr3_z3).
head(r_fr3_68,fr3_u2).
body(r_fr3_68,fr8_v1).
body(r_fr3_68,fr3_b2).
body(r_fr3_68,fr3_c3).
body(r_fr3_68,fr3_e1).
body(r_fr3_68,fr3_p1).
body(r_fr3_68,fr3_p3).
body(r_fr3_68,fr3_q2).
body(r_fr3_68,fr3_q4).
body(r_fr3_68,fr3_r1).
body(r_fr3_68,fr3_r3).
body(r_fr3_68,fr3_s3).
body(r_fr3_68,fr3_t1).
body(r_fr3_68,fr4_u1).
body(r_fr3_68,fr3_v2).
body(r_fr3_68,fr3_w1).
body(r_fr3_68,fr3_w2).
body(r_fr3_68,fr1_r1).
body(r_fr3_68,fr3_y1).
body(r_fr3_68,fr3_z3).
head(r_fr3_69,fr3_u2).
body(r_fr3_69,fr3_a1).
body(r_fr3_69,fr3_a2).
body(r_fr3_69,fr3_c3).
body(r_fr3_69,fr3_d2).
body(r_fr3_69,fr3_f2).
body(r_fr3_69,fr3_p1).
body(r_fr3_69,fr3_p3).
body(r_fr3_69,fr3_q2).
body(r_fr3_69,fr3_q4).
body(r_fr3_69,fr3_r1).
body(r_fr3_69,fr3_r3).
body(r_fr3_69,fr3_t1).
body(r_fr3_69,fr4_u1).
body(r_fr3_69,fr3_v2).
body(r_fr3_69,fr3_w1).
body(r_fr3_69,fr3_w2).
body(r_fr3_69,fr1_r1).
body(r_fr3_69,fr3_y1).
body(r_fr3_69,fr3_z3).

% exp_acyclic_indvary1_step7_batch_yyy03.pl
assumption(fr8_c4).
assumption(fr4_b1).
assumption(fr4_c1).
assumption(fr4_d1).
assumption(fr9_a2).
assumption(fr4_f1).
assumption(fr8_d2).
assumption(fr4_b2).
assumption(fr4_c2).
assumption(fr6_f2).
assumption(fr4_e2).
assumption(fr4_f2).
assumption(fr4_a3).
assumption(fr4_b3).
assumption(fr4_c3).
contrary(fr8_c4,fr4_y4).
contrary(fr8_d2,fr4_z4).
contrary(fr4_a3,fr4_r2).
contrary(fr4_b1,fr4_r3).
contrary(fr4_b2,fr4_f1).
contrary(fr4_b3,fr4_p1).
contrary(fr4_c1,fr4_p6).
contrary(fr4_c2,fr4_c3).
contrary(fr4_c3,fr2_r1).
contrary(fr4_d1,fr4_w6).
contrary(fr6_f2,fr4_w6).
contrary(fr9_a2,fr2_b1).
contrary(fr4_e2,fr4_v1).
contrary(fr4_f1,fr4_p6).
contrary(fr4_f2,fr4_s4).
head(r_fr4_0,fr4_r3).
body(r_fr4_0,fr4_c3).
body(r_fr4_0,fr4_p5).
body(r_fr4_0,fr4_q1).
head(r_fr4_1,fr4_r3).
body(r_fr4_1,fr4_s6).
body(r_fr4_1,fr4_z5).
head(r_fr4_2,fr4_r3).
head(r_fr4_3,fr4_r3).
body(r_fr4_3,fr4_f1).
body(r_fr4_3,fr10_w1).
body(r_fr4_3,fr4_t2).
body(r_fr4_3,fr4_u3).
body(r_fr4_3,fr4_x6).
head(r_fr4_4,fr4_r3).
body(r_fr4_4,fr2_r1).
head(r_fr4_5,fr4_u4).
body(r_fr4_5,fr4_s5).
head(r_fr4_6,fr4_u4).
body(r_fr4_6,fr6_f2).
body(r_fr4_6,fr4_f2).
body(r_fr4_6,fr4_w1).
head(r_fr4_7,fr4_u4).
body(r_fr4_7,fr8_c4).
body(r_fr4_7,fr4_a3).
head(r_fr4_8,fr4_r4).
body(r_fr4_8,fr4_a3).
body(r_fr4_8,fr4_b1).
body(r_fr4_8,fr8_b1).
head(r_fr4_9,fr4_r4).
body(r_fr4_9,fr4_a3).
body(r_fr4_9,fr4_c1).
body(r_fr4_9,fr6_f2).
body(r_fr4_9,fr4_p1).
head(r_fr4_10,fr4_r4).
body(r_fr4_10,fr8_c4).
body(r_fr4_10,fr4_a3).
body(r_fr4_10,fr4_b1).
body(r_fr4_10,fr4_e2).
body(r_fr4_10,fr4_p4).
body(r_fr4_10,fr4_t6).
head(r_fr4_11,fr4_x3).
body(r_fr4_11,fr4_s5).
body(r_fr4_11,fr4_x2).
head(r_fr4_12,fr4_x3).
head(r_fr4_13,fr4_x3).
body(r_fr4_13,fr4_c2).
head(r_fr4_14,fr4_x3).
body(r_fr4_14,fr8_c4).
body(r_fr4_14,fr4_a3).
body(r_fr4_14,fr4_c1).
body(r_fr4_14,fr4_c3).
body(r_fr4_14,fr6_f2).
body(r_fr4_14,fr4_f1).
head(r_fr4_15,fr4_r5).
body(r_fr4_15,fr8_c4).
body(r_fr4_15,fr4_c2).
body(r_fr4_15,fr9_a2).
body(r_fr4_15,fr2_r1).
head(r_fr4_16,fr4_r5).
body(r_fr4_16,fr8_c4).
head(r_fr4_17,fr4_r5).
body(r_fr4_17,fr4_b3).
body(r_fr4_17,fr6_f2).
body(r_fr4_17,fr4_x4).
head(r_fr4_18,fr4_r5).
body(r_fr4_18,fr4_t4).
body(r_fr4_18,fr4_y2).
head(r_fr4_19,fr4_r5).
body(r_fr4_19,fr8_c4).
body(r_fr4_19,fr8_d2).
body(r_fr4_19,fr4_a3).
body(r_fr4_19,fr4_c3).
head(r_fr4_20,fr10_w1).
body(r_fr4_20,fr4_c2).
body(r_fr4_20,fr6_f2).
body(r_fr4_20,fr4_s1).
head(r_fr4_21,fr10_w1).
body(r_fr4_21,fr4_b1).
body(r_fr4_21,fr9_a2).
head(r_fr4_22,fr10_w1).
body(r_fr4_22,fr4_c2).
body(r_fr4_22,fr4_d1).
body(r_fr4_22,fr6_f2).
body(r_fr4_22,fr4_e2).
body(r_fr4_22,fr4_w5).
head(r_fr4_23,fr10_w1).
body(r_fr4_23,fr8_d2).
body(r_fr4_23,fr4_b1).
body(r_fr4_23,fr4_c3).
body(r_fr4_23,fr4_d1).
body(r_fr4_23,fr4_t5).
body(r_fr4_23,fr2_r1).
head(r_fr4_24,fr2_r1).
body(r_fr4_24,fr4_b1).
head(r_fr4_25,fr2_r1).
body(r_fr4_25,fr6_f2).
body(r_fr4_25,fr4_t3).
body(r_fr4_25,fr4_y2).
body(r_fr4_25,fr4_y3).
head(r_fr4_26,fr2_r1).
body(r_fr4_26,fr4_b1).
body(r_fr4_26,fr6_f2).
body(r_fr4_26,fr4_t4).
body(r_fr4_26,fr4_y1).
head(r_fr4_27,fr2_r1).
body(r_fr4_27,fr4_c3).
body(r_fr4_27,fr4_d1).
body(r_fr4_27,fr9_a2).
body(r_fr4_27,fr4_t6).
body(r_fr4_27,fr4_v1).
body(r_fr4_27,fr4_z1).
head(r_fr4_28,fr2_r1).
body(r_fr4_28,fr4_w5).
head(r_fr4_29,fr4_u5).
body(r_fr4_29,fr4_s5).
body(r_fr4_29,fr4_t1).
body(r_fr4_29,fr4_v1).
body(r_fr4_29,fr4_w2).
body(r_fr4_29,fr4_x2).
body(r_fr4_29,fr4_y4).
head(r_fr4_30,fr4_u5).
body(r_fr4_30,fr4_b1).
body(r_fr4_30,fr4_c2).
head(r_fr4_31,fr4_v3).
body(r_fr4_31,fr4_d1).
body(r_fr4_31,fr4_q1).
body(r_fr4_31,fr4_r2).
body(r_fr4_31,fr4_s2).
body(r_fr4_31,fr4_z3).
head(r_fr4_32,fr4_v3).
body(r_fr4_32,fr4_c2).
body(r_fr4_32,fr4_c3).
body(r_fr4_32,fr4_f1).
body(r_fr4_32,fr4_f2).
body(r_fr4_32,fr4_s1).
head(r_fr4_33,fr4_v3).
body(r_fr4_33,fr4_q5).
head(r_fr4_34,fr4_v3).
body(r_fr4_34,fr8_d2).
body(r_fr4_34,fr4_b1).
body(r_fr4_34,fr4_c1).
body(r_fr4_34,fr4_d1).
body(r_fr4_34,fr6_f2).
body(r_fr4_34,fr4_f2).
head(r_fr4_35,fr4_v3).
head(r_fr4_36,fr4_t1).
body(r_fr4_36,fr4_p5).
body(r_fr4_36,fr4_w4).
body(r_fr4_36,fr4_z4).
body(r_fr4_36,fr4_z5).
head(r_fr4_37,fr4_t1).
body(r_fr4_37,fr9_a2).
body(r_fr4_37,fr4_w3).
head(r_fr4_38,fr4_t1).
body(r_fr4_38,fr4_c1).
body(r_fr4_38,fr4_p5).
body(r_fr4_38,fr4_v5).
body(r_fr4_38,fr4_w4).
body(r_fr4_38,fr4_z5).
head(r_fr4_39,fr4_t1).
head(r_fr4_40,fr4_t1).
body(r_fr4_40,fr4_r2).
body(r_fr4_40,fr4_v5).
body(r_fr4_40,fr4_y4).
body(r_fr4_40,fr4_z3).
body(r_fr4_40,fr4_z5).
head(r_fr4_41,fr2_b1).
head(r_fr4_42,fr2_b1).
body(r_fr4_42,fr4_x4).
head(r_fr4_43,fr4_w6).
body(r_fr4_43,fr4_a3).
body(r_fr4_43,fr4_c2).
body(r_fr4_43,fr6_f2).
body(r_fr4_43,fr4_r6).
body(r_fr4_43,fr4_v4).
head(r_fr4_44,fr4_w6).
body(r_fr4_44,fr4_w2).
head(r_fr4_45,fr4_w6).
body(r_fr4_45,fr8_d2).
body(r_fr4_45,fr4_b1).
body(r_fr4_45,fr4_c3).
body(r_fr4_45,fr6_f2).
body(r_fr4_45,fr4_z5).
head(r_fr4_46,fr4_r2).
body(r_fr4_46,fr4_b1).
body(r_fr4_46,fr4_d1).
body(r_fr4_46,fr6_f2).
body(r_fr4_46,fr4_e2).
body(r_fr4_46,fr4_f1).
body(r_fr4_46,fr4_u6).
head(r_fr4_47,fr4_r2).
body(r_fr4_47,fr4_w5).
head(r_fr4_48,fr4_r2).
body(r_fr4_48,fr8_c4).
body(r_fr4_48,fr6_f2).
body(r_fr4_48,fr4_f2).
body(r_fr4_48,fr4_s2).
body(r_fr4_48,fr4_s6).
body(r_fr4_48,fr4_w5).
head(r_fr4_49,fr4_r2).
head(r_fr4_50,fr4_r2).
body(r_fr4_50,fr4_c2).
body(r_fr4_50,fr4_d1).
head(r_fr4_51,fr4_s3).
body(r_fr4_51,fr4_x1).
head(r_fr4_52,fr4_s3).
body(r_fr4_52,fr9_a2).
body(r_fr4_52,fr4_p4).
body(r_fr4_52,fr4_q5).
body(r_fr4_52,fr4_r1).
body(r_fr4_52,fr4_z2).
head(r_fr4_53,fr4_y3).
body(r_fr4_53,fr4_b2).
body(r_fr4_53,fr4_b3).
body(r_fr4_53,fr4_c3).
head(r_fr4_54,fr4_y3).
body(r_fr4_54,fr4_c3).
body(r_fr4_54,fr4_f1).
body(r_fr4_54,fr4_q5).
head(r_fr4_55,fr4_y3).
body(r_fr4_55,fr4_e2).
head(r_fr4_56,fr4_w5).
body(r_fr4_56,fr4_b3).
body(r_fr4_56,fr4_c1).
body(r_fr4_56,fr4_d1).
body(r_fr4_56,fr4_y4).
body(r_fr4_56,fr4_z3).
body(r_fr4_56,fr4_z4).
head(r_fr4_57,fr4_w5).
body(r_fr4_57,fr4_b2).
head(r_fr4_58,fr4_w5).
body(r_fr4_58,fr4_u6).
body(r_fr4_58,fr4_w1).
body(r_fr4_58,fr4_x1).
body(r_fr4_58,fr4_x6).
body(r_fr4_58,fr4_y1).
body(r_fr4_58,fr4_z4).
head(r_fr4_59,fr4_w5).
body(r_fr4_59,fr4_t6).
head(r_fr4_60,fr4_w5).
head(r_fr4_61,fr4_s4).
head(r_fr4_62,fr4_s4).
body(r_fr4_62,fr4_p4).
body(r_fr4_62,fr4_r1).
body(r_fr4_62,fr4_u3).
body(r_fr4_62,fr4_w1).
head(r_fr4_63,fr4_s4).
body(r_fr4_63,fr4_b1).
body(r_fr4_63,fr4_b3).
body(r_fr4_63,fr4_d1).
body(r_fr4_63,fr4_e2).
body(r_fr4_63,fr4_f1).
body(r_fr4_63,fr4_f2).
head(r_fr4_64,fr4_s6).
body(r_fr4_64,fr4_b2).
body(r_fr4_64,fr4_c2).
body(r_fr4_64,fr4_q4).
body(r_fr4_64,fr4_z3).
head(r_fr4_65,fr4_s6).
body(r_fr4_65,fr4_c3).
body(r_fr4_65,fr4_d1).
body(r_fr4_65,fr4_r6).
body(r_fr4_65,fr4_x4).
body(r_fr4_65,fr4_x6).
body(r_fr4_65,fr4_z1).
head(r_fr4_66,fr4_s5).
body(r_fr4_66,fr4_a3).
body(r_fr4_66,fr9_a2).
head(r_fr4_67,fr4_s5).
body(r_fr4_67,fr4_c1).
head(r_fr4_68,fr4_s5).
head(r_fr4_69,fr4_s5).
body(r_fr4_69,fr4_a3).
body(r_fr4_69,fr4_b2).
body(r_fr4_69,fr4_b3).
body(r_fr4_69,fr4_c1).
body(r_fr4_69,fr4_u2).
body(r_fr4_69,fr4_z2).
head(r_fr4_70,fr4_s5).
body(r_fr4_70,fr4_u1).
body(r_fr4_70,fr4_u3).
head(r_fr4_71,fr4_p4).
body(r_fr4_71,fr4_a3).
body(r_fr4_71,fr4_b2).
body(r_fr4_71,fr4_c1).
head(r_fr4_72,fr4_p4).
body(r_fr4_72,fr4_a3).
body(r_fr4_72,fr4_p5).
body(r_fr4_72,fr4_q4).
body(r_fr4_72,fr4_t6).
head(r_fr4_73,fr4_p4).
body(r_fr4_73,fr4_c2).
body(r_fr4_73,fr6_f2).
body(r_fr4_73,fr4_q6).
body(r_fr4_73,fr4_v5).
body(r_fr4_73,fr4_x1).
head(r_fr4_74,fr4_p4).
body(r_fr4_74,fr4_c1).
body(r_fr4_74,fr4_p6).
body(r_fr4_74,fr4_q4).
body(r_fr4_74,fr4_w3).
head(r_fr4_75,fr4_p4).
body(r_fr4_75,fr8_c4).
body(r_fr4_75,fr4_b3).

% exp_acyclic_indvary3_step1_batch_yyy06.pl
assumption(fr5_a1).
assumption(fr6_c1).
assumption(fr5_c1).
assumption(fr5_d1).
assumption(fr5_e1).
assumption(fr5_f1).
assumption(fr5_a2).
assumption(fr5_b2).
assumption(fr5_c2).
assumption(fr5_d2).
assumption(fr5_e2).
assumption(fr5_f2).
assumption(fr6_f2).
assumption(fr5_b3).
assumption(fr5_c3).
contrary(fr5_a1,fr5_e1).
contrary(fr5_a2,fr5_y2).
contrary(fr6_f2,fr5_u1).
contrary(fr6_c1,fr5_z1).
contrary(fr5_b2,fr5_s1).
contrary(fr5_b3,fr5_f1).
contrary(fr5_c1,fr5_p1).
contrary(fr5_c2,fr3_d1).
contrary(fr5_c3,fr5_t3).
contrary(fr5_d1,fr5_c1).
contrary(fr5_d2,fr5_u2).
contrary(fr5_e1,fr5_y1).
contrary(fr5_e2,fr5_t2).
contrary(fr5_f1,fr6_f2).
contrary(fr5_f2,fr5_t1).
head(r_fr5_0,fr5_t1).
body(r_fr5_0,fr6_f2).
body(r_fr5_0,fr5_f2).
head(r_fr5_1,fr5_t1).
head(r_fr5_2,fr5_x1).
head(r_fr5_3,fr5_x1).
body(r_fr5_3,fr5_e2).
body(r_fr5_3,fr5_q2).
body(r_fr5_3,fr5_y3).
head(r_fr5_4,fr5_x1).
body(r_fr5_4,fr5_e1).
body(r_fr5_4,fr5_f1).
body(r_fr5_4,fr5_w3).
head(r_fr5_5,fr5_x1).
body(r_fr5_5,fr5_c1).
body(r_fr5_5,fr5_f1).
head(r_fr5_6,fr5_x1).
body(r_fr5_6,fr5_c2).
body(r_fr5_6,fr5_f1).
body(r_fr5_6,fr5_u3).
head(r_fr5_7,fr5_r2).
body(r_fr5_7,fr5_f2).
body(r_fr5_7,fr5_r3).
head(r_fr5_8,fr5_r2).
body(r_fr5_8,fr5_b3).
body(r_fr5_8,fr5_e2).
head(r_fr5_9,fr5_r2).
body(r_fr5_9,fr5_b3).
body(r_fr5_9,fr5_v2).
head(r_fr5_10,fr5_r2).
body(r_fr5_10,fr5_d2).
head(r_fr5_11,fr5_q2).
head(r_fr5_12,fr5_q2).
body(r_fr5_12,fr3_p3).
body(r_fr5_12,fr3_d1).
head(r_fr5_13,fr5_q2).
body(r_fr5_13,fr5_v2).
head(r_fr5_14,fr5_p1).
body(r_fr5_14,fr5_d2).
head(r_fr5_15,fr5_p1).
body(r_fr5_15,fr5_a1).
head(r_fr5_16,fr5_p1).
body(r_fr5_16,fr5_b3).
body(r_fr5_16,fr5_c3).
body(r_fr5_16,fr5_z3).
head(r_fr5_17,fr5_p1).
body(r_fr5_17,fr5_a2).
body(r_fr5_17,fr5_c2).
head(r_fr5_18,fr5_p1).
head(r_fr5_19,fr5_p3).
body(r_fr5_19,fr5_f2).
head(r_fr5_20,fr5_p3).
body(r_fr5_20,fr5_b3).
body(r_fr5_20,fr5_t2).
head(r_fr5_21,fr5_s1).
head(r_fr5_22,fr5_s1).
body(r_fr5_22,fr5_c3).
head(r_fr5_23,fr5_s1).
body(r_fr5_23,fr5_s3).
body(r_fr5_23,fr7_y1).
head(r_fr5_24,fr5_s1).
body(r_fr5_24,fr6_f2).
body(r_fr5_24,fr5_e1).
head(r_fr5_25,fr5_s1).
body(r_fr5_25,fr5_a2).
body(r_fr5_25,fr3_d1).
body(r_fr5_25,fr5_y3).
head(r_fr5_26,fr5_q3).
body(r_fr5_26,fr5_d2).
body(r_fr5_26,fr5_w3).
head(r_fr5_27,fr5_q3).
body(r_fr5_27,fr5_c3).
body(r_fr5_27,fr5_d1).
body(r_fr5_27,fr5_f2).
head(r_fr5_28,fr5_q3).
head(r_fr5_29,fr5_q3).
body(r_fr5_29,fr5_u2).
head(r_fr5_30,fr5_r3).
body(r_fr5_30,fr5_u3).
head(r_fr5_31,fr5_r3).
head(r_fr5_32,fr5_r3).
body(r_fr5_32,fr5_a2).
body(r_fr5_32,fr5_w1).
body(r_fr5_32,fr5_w3).
head(r_fr5_33,fr5_u3).
body(r_fr5_33,fr5_e2).
body(r_fr5_33,fr5_f1).
head(r_fr5_34,fr5_u3).
body(r_fr5_34,fr5_f2).
body(r_fr5_34,fr5_t2).
head(r_fr5_35,fr5_w3).
body(r_fr5_35,fr5_a2).
body(r_fr5_35,fr5_d1).
head(r_fr5_36,fr5_w3).
head(r_fr5_37,fr7_y1).
body(r_fr5_37,fr5_q1).
body(r_fr5_37,fr5_w2).
head(r_fr5_38,fr7_y1).
body(r_fr5_38,fr5_c2).
head(r_fr5_39,fr7_y1).
body(r_fr5_39,fr3_p3).
body(r_fr5_39,fr5_v1).
body(r_fr5_39,fr5_w1).
head(r_fr5_40,fr7_y1).
body(r_fr5_40,fr5_f1).
body(r_fr5_40,fr5_w1).
head(r_fr5_41,fr7_y1).
head(r_fr5_42,fr5_y1).
body(r_fr5_42,fr5_b2).
head(r_fr5_43,fr5_y1).
body(r_fr5_43,fr5_c2).
head(r_fr5_44,fr5_y1).
body(r_fr5_44,fr5_c1).
head(r_fr5_45,fr5_y1).
body(r_fr5_45,fr6_f2).
body(r_fr5_45,fr5_c2).
body(r_fr5_45,fr5_d2).
head(r_fr5_46,fr5_z2).
body(r_fr5_46,fr5_b3).
body(r_fr5_46,fr5_c1).
head(r_fr5_47,fr5_z2).
body(r_fr5_47,fr5_w1).
body(r_fr5_47,fr5_z3).
head(r_fr5_48,fr5_z2).
head(r_fr5_49,fr5_z2).
body(r_fr5_49,fr5_p2).
body(r_fr5_49,fr5_s2).
body(r_fr5_49,fr5_w2).
head(r_fr5_50,fr5_z2).
body(r_fr5_50,fr5_t3).
body(r_fr5_50,fr5_u1).
head(r_fr5_51,fr5_y2).
head(r_fr5_52,fr5_y2).
body(r_fr5_52,fr5_f1).
body(r_fr5_52,fr5_p2).
body(r_fr5_52,fr5_s2).
head(r_fr5_53,fr5_y2).
body(r_fr5_53,fr5_b2).
head(r_fr5_54,fr5_y2).
body(r_fr5_54,fr5_c2).
body(r_fr5_54,fr5_e2).
head(r_fr5_55,fr5_y2).
body(r_fr5_55,fr5_s2).
body(r_fr5_55,fr5_t3).
body(r_fr5_55,fr5_v1).
head(r_fr5_56,fr5_r1).
body(r_fr5_56,fr5_a2).
body(r_fr5_56,fr5_f2).
body(r_fr5_56,fr5_u1).
head(r_fr5_57,fr5_r1).
body(r_fr5_57,fr5_c1).
body(r_fr5_57,fr5_e2).
head(r_fr5_58,fr5_r1).
body(r_fr5_58,fr6_f2).
body(r_fr5_58,fr5_f2).
head(r_fr5_59,fr5_r1).
head(r_fr5_60,fr5_r1).
body(r_fr5_60,fr5_c1).
body(r_fr5_60,fr5_c2).
body(r_fr5_60,fr5_d1).
head(r_fr5_61,fr5_w1).
body(r_fr5_61,fr5_q4).
body(r_fr5_61,fr5_v2).
head(r_fr5_62,fr5_w1).
body(r_fr5_62,fr5_b2).
body(r_fr5_62,fr5_d2).
head(r_fr5_63,fr5_w1).
body(r_fr5_63,fr5_a2).
head(r_fr5_64,fr5_w1).
body(r_fr5_64,fr5_d2).
body(r_fr5_64,fr5_z3).
head(r_fr5_65,fr5_w1).
head(r_fr5_66,fr5_x2).
body(r_fr5_66,fr5_e1).
head(r_fr5_67,fr5_x2).
body(r_fr5_67,fr6_f2).
body(r_fr5_67,fr5_c2).
body(r_fr5_67,fr5_e1).
head(r_fr5_68,fr5_s2).
body(r_fr5_68,fr5_e1).
head(r_fr5_69,fr5_s2).
body(r_fr5_69,fr5_y3).
head(r_fr5_70,fr5_s2).
head(r_fr5_71,fr5_s2).
body(r_fr5_71,fr5_a1).
body(r_fr5_71,fr6_c1).
body(r_fr5_71,fr5_e1).
head(r_fr5_72,fr5_v1).
body(r_fr5_72,fr5_e2).
head(r_fr5_73,fr5_v1).
body(r_fr5_73,fr5_s3).
body(r_fr5_73,fr3_d1).
head(r_fr5_74,fr5_v1).
body(r_fr5_74,fr5_c2).
body(r_fr5_74,fr5_p2).
body(r_fr5_74,fr5_w2).
head(r_fr5_75,fr5_v1).
body(r_fr5_75,fr5_s3).

% exp_cycles_depvary_step6_batch_yyy01.pl
assumption(fr6_a1).
assumption(fr6_b1).
assumption(fr6_c1).
assumption(fr6_d1).
assumption(fr1_a3).
assumption(fr6_f1).
assumption(fr6_a2).
assumption(fr6_b2).
assumption(fr6_c2).
assumption(fr6_d2).
assumption(fr6_e2).
assumption(fr6_f2).
assumption(fr9_d1).
assumption(fr6_b3).
assumption(fr6_c3).
assumption(fr6_d3).
assumption(fr7_w1).
assumption(fr6_f3).
assumption(fr6_a4).
assumption(fr6_b4).
assumption(fr6_c4).
contrary(fr6_a1,fr6_v3).
contrary(fr6_a2,fr6_b3).
contrary(fr9_d1,fr6_q1).
contrary(fr6_a4,fr6_b4).
contrary(fr6_b1,fr6_t2).
contrary(fr6_b2,fr6_b1).
contrary(fr6_b3,fr6_s2).
contrary(fr6_b4,fr6_t3).
contrary(fr6_c1,fr6_c2).
contrary(fr6_c2,fr6_r2).
contrary(fr6_c3,fr6_d1).
contrary(fr6_c4,fr6_w1).
contrary(fr6_d1,fr6_w2).
contrary(fr6_d2,fr6_d3).
contrary(fr6_d3,fr6_z2).
contrary(fr1_a3,fr6_z3).
contrary(fr6_e2,fr6_r3).
contrary(fr7_w1,fr6_t3).
contrary(fr6_f1,fr6_x2).
contrary(fr6_f2,fr6_p3).
contrary(fr6_f3,fr6_z3).
head(r_fr6_0,fr6_z3).
body(r_fr6_0,fr9_d1).
body(r_fr6_0,fr6_c2).
body(r_fr6_0,fr6_d2).
body(r_fr6_0,fr1_a3).
body(r_fr6_0,fr6_q4).
head(r_fr6_1,fr6_z3).
head(r_fr6_2,fr6_z3).
body(r_fr6_2,fr6_f2).
head(r_fr6_3,fr6_z3).
body(r_fr6_3,fr6_b3).
body(r_fr6_3,fr6_b4).
body(r_fr6_3,fr6_c4).
body(r_fr6_3,fr6_e2).
body(r_fr6_3,fr6_f3).
head(r_fr6_4,fr6_z3).
body(r_fr6_4,fr6_a2).
body(r_fr6_4,fr6_b4).
body(r_fr6_4,fr6_c2).
body(r_fr6_4,fr6_d3).
body(r_fr6_4,fr6_x2).
head(r_fr6_5,fr6_z3).
body(r_fr6_5,fr6_a1).
body(r_fr6_5,fr6_a2).
body(r_fr6_5,fr6_b1).
body(r_fr6_5,fr6_b2).
body(r_fr6_5,fr6_c1).
body(r_fr6_5,fr6_d1).
body(r_fr6_5,fr1_a3).
body(r_fr6_5,fr6_f2).
head(r_fr6_6,fr6_p2).
head(r_fr6_7,fr6_p2).
body(r_fr6_7,fr6_a1).
body(r_fr6_7,fr6_b1).
body(r_fr6_7,fr6_d2).
body(r_fr6_7,fr6_p4).
body(r_fr6_7,fr10_r1).
body(r_fr6_7,fr6_z1).
head(r_fr6_8,fr6_p2).
body(r_fr6_8,fr6_d1).
body(r_fr6_8,fr6_q1).
body(r_fr6_8,fr6_r3).
body(r_fr6_8,fr7_z1).
body(r_fr6_8,fr6_t3).
body(r_fr6_8,fr6_y2).
body(r_fr6_8,fr6_z1).
body(r_fr6_8,fr6_z2).
head(r_fr6_9,fr6_p2).
body(r_fr6_9,fr6_v2).
body(r_fr6_9,fr6_z1).
head(r_fr6_10,fr6_z1).
body(r_fr6_10,fr6_b2).
body(r_fr6_10,fr6_d1).
body(r_fr6_10,fr6_e2).
body(r_fr6_10,fr7_w1).
body(r_fr6_10,fr6_f3).
body(r_fr6_10,fr6_w3).
body(r_fr6_10,fr6_y3).
head(r_fr6_11,fr6_z1).
body(r_fr6_11,fr6_e2).
head(r_fr6_12,fr6_v3).
body(r_fr6_12,fr6_b3).
body(r_fr6_12,fr6_c2).
body(r_fr6_12,fr6_c3).
body(r_fr6_12,fr6_d2).
body(r_fr6_12,fr6_q2).
body(r_fr6_12,fr10_r1).
body(r_fr6_12,fr6_t3).
head(r_fr6_13,fr6_v3).
head(r_fr6_14,fr6_v3).
body(r_fr6_14,fr6_b4).
body(r_fr6_14,fr6_c1).
body(r_fr6_14,fr6_c2).
body(r_fr6_14,fr6_d3).
body(r_fr6_14,fr6_q1).
body(r_fr6_14,fr7_z1).
body(r_fr6_14,fr6_v2).
head(r_fr6_15,fr6_v3).
body(r_fr6_15,fr6_p2).
body(r_fr6_15,fr6_p3).
body(r_fr6_15,fr6_q2).
body(r_fr6_15,fr7_z1).
body(r_fr6_15,fr6_v2).
body(r_fr6_15,fr6_y3).
head(r_fr6_16,fr6_v3).
body(r_fr6_16,fr6_a1).
body(r_fr6_16,fr6_b2).
body(r_fr6_16,fr6_c1).
body(r_fr6_16,fr6_c2).
body(r_fr6_16,fr6_d1).
body(r_fr6_16,fr6_f3).
body(r_fr6_16,fr6_p1).
body(r_fr6_16,fr6_w3).
head(r_fr6_17,fr6_v3).
body(r_fr6_17,fr6_p1).
body(r_fr6_17,fr6_q3).
body(r_fr6_17,fr6_r3).
body(r_fr6_17,fr6_x2).
head(r_fr6_18,fr6_p4).
body(r_fr6_18,fr6_b1).
body(r_fr6_18,fr6_b4).
body(r_fr6_18,fr6_c3).
body(r_fr6_18,fr6_d2).
body(r_fr6_18,fr1_a3).
body(r_fr6_18,fr10_r1).
body(r_fr6_18,fr6_u1).
head(r_fr6_19,fr6_p4).
body(r_fr6_19,fr6_a1).
body(r_fr6_19,fr9_d1).
body(r_fr6_19,fr6_b1).
body(r_fr6_19,fr6_c1).
body(r_fr6_19,fr6_c2).
body(r_fr6_19,fr6_c4).
body(r_fr6_19,fr6_d3).
body(r_fr6_19,fr1_a3).
head(r_fr6_20,fr6_v1).
body(r_fr6_20,fr6_b1).
body(r_fr6_20,fr6_c4).
body(r_fr6_20,fr6_d2).
body(r_fr6_20,fr6_d3).
body(r_fr6_20,fr6_f2).
body(r_fr6_20,fr6_q1).
body(r_fr6_20,fr6_t1).
body(r_fr6_20,fr6_x2).
head(r_fr6_21,fr6_v1).
head(r_fr6_22,fr6_v1).
body(r_fr6_22,fr6_b4).
body(r_fr6_22,fr6_e2).
body(r_fr6_22,fr6_y1).
head(r_fr6_23,fr6_v1).
body(r_fr6_23,fr6_p4).
body(r_fr6_23,fr6_s3).
body(r_fr6_23,fr6_t2).
head(r_fr6_24,fr6_v1).
body(r_fr6_24,fr6_c2).
body(r_fr6_24,fr6_p3).
body(r_fr6_24,fr6_q2).
body(r_fr6_24,fr7_z1).
head(r_fr6_25,fr6_v1).
body(r_fr6_25,fr6_a4).
body(r_fr6_25,fr6_f3).
body(r_fr6_25,fr6_r3).
body(r_fr6_25,fr7_z1).
body(r_fr6_25,fr6_s3).
body(r_fr6_25,fr6_x2).
body(r_fr6_25,fr6_y3).
body(r_fr6_25,fr6_z3).
head(r_fr6_26,fr6_q4).
body(r_fr6_26,fr1_a3).
head(r_fr6_27,fr6_q4).
body(r_fr6_27,fr6_a4).
body(r_fr6_27,fr6_b4).
body(r_fr6_27,fr6_c1).
body(r_fr6_27,fr6_r2).
body(r_fr6_27,fr6_z1).
head(r_fr6_28,fr6_q4).
body(r_fr6_28,fr6_c3).
body(r_fr6_28,fr6_e2).
body(r_fr6_28,fr6_f1).
body(r_fr6_28,fr6_p2).
body(r_fr6_28,fr6_r2).
body(r_fr6_28,fr6_w2).
body(r_fr6_28,fr6_x3).
head(r_fr6_29,fr6_q4).
body(r_fr6_29,fr6_a1).
body(r_fr6_29,fr6_c3).
body(r_fr6_29,fr6_p1).
body(r_fr6_29,fr6_q3).
body(r_fr6_29,fr6_t2).
body(r_fr6_29,fr6_v1).
body(r_fr6_29,fr6_v2).
head(r_fr6_30,fr6_q4).
head(r_fr6_31,fr6_q4).
body(r_fr6_31,fr9_d1).
body(r_fr6_31,fr6_p4).
body(r_fr6_31,fr6_s2).
body(r_fr6_31,fr6_y1).
head(r_fr6_32,fr6_z2).
body(r_fr6_32,fr6_q3).
body(r_fr6_32,fr6_u3).
body(r_fr6_32,fr6_v1).
body(r_fr6_32,fr6_x2).
body(r_fr6_32,fr6_y2).
body(r_fr6_32,fr6_y3).
head(r_fr6_33,fr6_z2).
body(r_fr6_33,fr6_p3).
body(r_fr6_33,fr7_z1).
body(r_fr6_33,fr6_v2).
body(r_fr6_33,fr6_x1).
body(r_fr6_33,fr6_x3).
head(r_fr6_34,fr6_z2).
body(r_fr6_34,fr6_a1).
body(r_fr6_34,fr6_b1).
body(r_fr6_34,fr6_b2).
body(r_fr6_34,fr7_w1).
body(r_fr6_34,fr6_q1).
body(r_fr6_34,fr6_w3).
body(r_fr6_34,fr6_y1).
head(r_fr6_35,fr6_r2).
body(r_fr6_35,fr6_e2).
body(r_fr6_35,fr6_p2).
body(r_fr6_35,fr6_t1).
body(r_fr6_35,fr6_u3).
body(r_fr6_35,fr6_v1).
body(r_fr6_35,fr6_x2).
body(r_fr6_35,fr6_y3).
body(r_fr6_35,fr6_z2).
head(r_fr6_36,fr6_r2).
head(r_fr6_37,fr6_r2).
body(r_fr6_37,fr6_p2).
body(r_fr6_37,fr6_q3).
body(r_fr6_37,fr6_w3).
body(r_fr6_37,fr6_x1).
body(r_fr6_37,fr6_y2).
head(r_fr6_38,fr6_p3).
body(r_fr6_38,fr6_a2).
head(r_fr6_39,fr6_p3).
body(r_fr6_39,fr6_a2).
body(r_fr6_39,fr9_d1).
body(r_fr6_39,fr7_w1).
body(r_fr6_39,fr6_u1).
body(r_fr6_39,fr6_z2).
head(r_fr6_40,fr6_p3).
head(r_fr6_41,fr6_p3).
body(r_fr6_41,fr9_d1).
body(r_fr6_41,fr6_c2).
body(r_fr6_41,fr6_d2).
body(r_fr6_41,fr6_e2).
body(r_fr6_41,fr6_f1).
body(r_fr6_41,fr6_s2).
body(r_fr6_41,fr6_x3).
head(r_fr6_42,fr6_p3).
body(r_fr6_42,fr6_a1).
body(r_fr6_42,fr7_w1).
head(r_fr6_43,fr6_p3).
body(r_fr6_43,fr6_z3).
head(r_fr6_44,fr6_p3).
body(r_fr6_44,fr6_a2).
body(r_fr6_44,fr6_a4).
body(r_fr6_44,fr6_z1).
head(r_fr6_45,fr7_d2).
body(r_fr6_45,fr6_f1).
body(r_fr6_45,fr7_z1).
head(r_fr6_46,fr7_d2).
body(r_fr6_46,fr6_b1).
body(r_fr6_46,fr6_b2).
body(r_fr6_46,fr6_b3).
body(r_fr6_46,fr6_b4).
body(r_fr6_46,fr6_d3).
body(r_fr6_46,fr6_f1).
head(r_fr6_47,fr7_d2).
body(r_fr6_47,fr10_r1).
head(r_fr6_48,fr7_d2).
body(r_fr6_48,fr6_c3).
body(r_fr6_48,fr6_d1).
body(r_fr6_48,fr7_w1).
body(r_fr6_48,fr6_p2).
body(r_fr6_48,fr6_q3).
body(r_fr6_48,fr6_t3).
body(r_fr6_48,fr6_y2).
body(r_fr6_48,fr6_z1).
head(r_fr6_49,fr7_d2).
body(r_fr6_49,fr6_c4).
body(r_fr6_49,fr6_q4).
body(r_fr6_49,fr7_z1).
head(r_fr6_50,fr7_d2).
body(r_fr6_50,fr6_d3).
body(r_fr6_50,fr6_f3).
head(r_fr6_51,fr6_w2).
body(r_fr6_51,fr6_f2).
body(r_fr6_51,fr6_p3).
body(r_fr6_51,fr6_s2).
body(r_fr6_51,fr6_s3).
body(r_fr6_51,fr6_v3).
body(r_fr6_51,fr6_w1).
body(r_fr6_51,fr6_x1).
body(r_fr6_51,fr6_z3).
head(r_fr6_52,fr6_w2).
body(r_fr6_52,fr6_p4).
head(r_fr6_53,fr6_w2).
body(r_fr6_53,fr6_z1).
head(r_fr6_54,fr6_w2).
body(r_fr6_54,fr6_p2).
body(r_fr6_54,fr6_q3).
body(r_fr6_54,fr6_q4).
body(r_fr6_54,fr6_r2).
body(r_fr6_54,fr6_t3).
body(r_fr6_54,fr6_u3).
body(r_fr6_54,fr6_w1).
body(r_fr6_54,fr6_w3).
head(r_fr6_55,fr6_u1).
body(r_fr6_55,fr6_a4).
body(r_fr6_55,fr6_c1).
body(r_fr6_55,fr6_q3).
body(r_fr6_55,fr6_w3).
body(r_fr6_55,fr6_z1).
body(r_fr6_55,fr6_z3).
head(r_fr6_56,fr6_u1).
body(r_fr6_56,fr6_a4).
body(r_fr6_56,fr6_v1).
head(r_fr6_57,fr6_u1).
body(r_fr6_57,fr6_a2).
body(r_fr6_57,fr6_b2).
body(r_fr6_57,fr6_b4).
body(r_fr6_57,fr6_c1).
body(r_fr6_57,fr6_p4).
body(r_fr6_57,fr6_q1).
body(r_fr6_57,fr7_z1).
body(r_fr6_57,fr6_t1).
head(r_fr6_58,fr6_u1).
body(r_fr6_58,fr9_d1).
body(r_fr6_58,fr6_b1).
body(r_fr6_58,fr6_b3).
body(r_fr6_58,fr6_c4).
body(r_fr6_58,fr6_f1).
body(r_fr6_58,fr6_f3).
head(r_fr6_59,fr6_u1).
body(r_fr6_59,fr6_b2).
body(r_fr6_59,fr6_c4).
body(r_fr6_59,fr6_d3).
body(r_fr6_59,fr6_e2).
body(r_fr6_59,fr7_w1).
body(r_fr6_59,fr6_f1).
body(r_fr6_59,fr6_f3).
head(r_fr6_60,fr6_u1).
body(r_fr6_60,fr6_c3).
head(r_fr6_61,fr6_u1).
body(r_fr6_61,fr6_b1).
body(r_fr6_61,fr6_z2).
head(r_fr6_62,fr6_y1).
head(r_fr6_63,fr6_y1).
body(r_fr6_63,fr6_a4).
body(r_fr6_63,fr6_b2).
body(r_fr6_63,fr7_w1).
body(r_fr6_63,fr6_f2).
head(r_fr6_64,fr6_v2).
body(r_fr6_64,fr6_a1).
body(r_fr6_64,fr6_b2).
body(r_fr6_64,fr6_c2).
head(r_fr6_65,fr6_v2).
body(r_fr6_65,fr6_p4).
body(r_fr6_65,fr6_x2).
head(r_fr6_66,fr6_x1).
body(r_fr6_66,fr6_a1).
body(r_fr6_66,fr6_c1).
body(r_fr6_66,fr6_d2).
body(r_fr6_66,fr6_e2).
body(r_fr6_66,fr10_r1).
body(r_fr6_66,fr6_u1).
body(r_fr6_66,fr6_v3).
head(r_fr6_67,fr6_x1).
body(r_fr6_67,fr6_e2).
head(r_fr6_68,fr6_x1).
body(r_fr6_68,fr6_a1).
body(r_fr6_68,fr6_c3).
body(r_fr6_68,fr1_a3).
body(r_fr6_68,fr6_e2).
body(r_fr6_68,fr6_v2).
head(r_fr6_69,fr6_x1).
head(r_fr6_70,fr10_r1).
body(r_fr6_70,fr6_b1).
body(r_fr6_70,fr6_f3).
body(r_fr6_70,fr6_q4).
body(r_fr6_70,fr6_t1).
body(r_fr6_70,fr6_x3).
body(r_fr6_70,fr6_y2).
head(r_fr6_71,fr10_r1).
body(r_fr6_71,fr6_a2).
body(r_fr6_71,fr6_b4).
body(r_fr6_71,fr6_c4).
body(r_fr6_71,fr6_d1).
body(r_fr6_71,fr6_d3).
body(r_fr6_71,fr6_e2).
body(r_fr6_71,fr6_v1).
head(r_fr6_72,fr10_r1).
body(r_fr6_72,fr1_a3).
body(r_fr6_72,fr6_r3).
body(r_fr6_72,fr6_t1).
body(r_fr6_72,fr6_u1).
body(r_fr6_72,fr6_u3).
body(r_fr6_72,fr6_x1).
body(r_fr6_72,fr6_x2).
body(r_fr6_72,fr6_z3).
head(r_fr6_73,fr10_r1).
body(r_fr6_73,fr6_b3).
body(r_fr6_73,fr6_d1).
body(r_fr6_73,fr6_q4).
body(r_fr6_73,fr6_v2).
body(r_fr6_73,fr6_w2).
head(r_fr6_74,fr10_r1).
body(r_fr6_74,fr6_c2).
body(r_fr6_74,fr7_w1).
body(r_fr6_74,fr6_f3).
head(r_fr6_75,fr6_y3).
body(r_fr6_75,fr9_d1).
body(r_fr6_75,fr6_c3).
body(r_fr6_75,fr6_f1).
body(r_fr6_75,fr6_p1).
body(r_fr6_75,fr6_r3).
head(r_fr6_76,fr6_y3).
body(r_fr6_76,fr6_p3).
body(r_fr6_76,fr6_r2).
body(r_fr6_76,fr6_t3).
body(r_fr6_76,fr6_u1).
body(r_fr6_76,fr6_w1).
head(r_fr6_77,fr6_y3).
body(r_fr6_77,fr6_a2).
body(r_fr6_77,fr6_d1).
body(r_fr6_77,fr7_w1).
head(r_fr6_78,fr6_y3).
body(r_fr6_78,fr6_a2).
body(r_fr6_78,fr6_b1).
body(r_fr6_78,fr6_b2).
body(r_fr6_78,fr6_e2).
body(r_fr6_78,fr7_w1).
body(r_fr6_78,fr6_f2).
body(r_fr6_78,fr6_f3).
body(r_fr6_78,fr6_p2).
head(r_fr6_79,fr6_y3).
body(r_fr6_79,fr6_a1).
body(r_fr6_79,fr6_d1).
body(r_fr6_79,fr6_f3).
head(r_fr6_80,fr6_y3).
body(r_fr6_80,fr6_b4).
body(r_fr6_80,fr6_c4).
body(r_fr6_80,fr6_d3).
body(r_fr6_80,fr1_a3).
body(r_fr6_80,fr6_q2).
body(r_fr6_80,fr6_v2).
body(r_fr6_80,fr6_x1).
body(r_fr6_80,fr6_y2).
head(r_fr6_81,fr7_z1).
body(r_fr6_81,fr6_t3).
head(r_fr6_82,fr7_z1).
head(r_fr6_83,fr7_z1).
body(r_fr6_83,fr7_w1).
head(r_fr6_84,fr7_z1).
body(r_fr6_84,fr6_q2).
body(r_fr6_84,fr6_r3).
body(r_fr6_84,fr7_d2).
body(r_fr6_84,fr6_v3).
head(r_fr6_85,fr7_z1).
body(r_fr6_85,fr6_c3).
body(r_fr6_85,fr6_y2).
head(r_fr6_86,fr7_z1).
body(r_fr6_86,fr6_p1).
body(r_fr6_86,fr6_v1).
body(r_fr6_86,fr6_z1).
body(r_fr6_86,fr6_z2).
body(r_fr6_86,fr6_z3).
head(r_fr6_87,fr6_q2).
body(r_fr6_87,fr6_p1).
head(r_fr6_88,fr6_q2).
body(r_fr6_88,fr6_c3).
body(r_fr6_88,fr7_w1).
body(r_fr6_88,fr10_r1).
body(r_fr6_88,fr6_r3).
body(r_fr6_88,fr6_v1).
body(r_fr6_88,fr6_z2).
head(r_fr6_89,fr6_y2).
body(r_fr6_89,fr9_d1).
body(r_fr6_89,fr6_e2).
body(r_fr6_89,fr6_q3).
body(r_fr6_89,fr6_r3).
body(r_fr6_89,fr6_s2).
body(r_fr6_89,fr6_t3).
body(r_fr6_89,fr6_v3).
body(r_fr6_89,fr6_x1).
head(r_fr6_90,fr6_y2).
body(r_fr6_90,fr6_a4).
body(r_fr6_90,fr6_q1).
body(r_fr6_90,fr6_q3).
body(r_fr6_90,fr6_x1).
body(r_fr6_90,fr6_y1).
body(r_fr6_90,fr6_z1).
head(r_fr6_91,fr6_y2).
body(r_fr6_91,fr9_d1).
body(r_fr6_91,fr6_b1).
body(r_fr6_91,fr6_c1).
body(r_fr6_91,fr6_d1).
body(r_fr6_91,fr6_d2).
body(r_fr6_91,fr1_a3).
body(r_fr6_91,fr6_f3).
body(r_fr6_91,fr6_z3).
head(r_fr6_92,fr6_y2).
body(r_fr6_92,fr6_b1).
body(r_fr6_92,fr6_d3).
body(r_fr6_92,fr6_p1).
body(r_fr6_92,fr6_r2).
body(r_fr6_92,fr6_v3).
body(r_fr6_92,fr6_w2).
body(r_fr6_92,fr6_x3).
head(r_fr6_93,fr6_y2).
body(r_fr6_93,fr6_b1).
body(r_fr6_93,fr6_c4).
body(r_fr6_93,fr6_x2).
head(r_fr6_94,fr6_y2).
body(r_fr6_94,fr6_a4).
body(r_fr6_94,fr6_b3).
body(r_fr6_94,fr6_b4).
body(r_fr6_94,fr6_c1).
body(r_fr6_94,fr6_c3).
body(r_fr6_94,fr6_e2).
body(r_fr6_94,fr6_v3).
body(r_fr6_94,fr6_z2).
head(r_fr6_95,fr6_q3).
body(r_fr6_95,fr9_d1).
body(r_fr6_95,fr6_p3).
body(r_fr6_95,fr6_q1).
body(r_fr6_95,fr6_t1).
body(r_fr6_95,fr6_x1).
body(r_fr6_95,fr6_y3).
body(r_fr6_95,fr6_z1).
body(r_fr6_95,fr6_z2).
head(r_fr6_96,fr6_q3).
body(r_fr6_96,fr6_a1).
body(r_fr6_96,fr6_a2).
body(r_fr6_96,fr6_a4).
body(r_fr6_96,fr6_b4).
body(r_fr6_96,fr1_a3).
body(r_fr6_96,fr6_f3).
head(r_fr6_97,fr6_q3).
body(r_fr6_97,fr6_a2).
body(r_fr6_97,fr7_w1).
head(r_fr6_98,fr6_r3).
body(r_fr6_98,fr6_p1).
body(r_fr6_98,fr6_r2).
body(r_fr6_98,fr6_s2).
body(r_fr6_98,fr6_t3).
body(r_fr6_98,fr6_u1).
body(r_fr6_98,fr6_v3).
body(r_fr6_98,fr6_x2).
head(r_fr6_99,fr6_r3).
body(r_fr6_99,fr6_a2).
body(r_fr6_99,fr9_d1).
body(r_fr6_99,fr6_b2).
body(r_fr6_99,fr6_b3).
body(r_fr6_99,fr1_a3).
body(r_fr6_99,fr6_f2).
body(r_fr6_99,fr6_p2).
head(r_fr6_100,fr6_r3).
body(r_fr6_100,fr9_d1).
body(r_fr6_100,fr6_a4).
body(r_fr6_100,fr6_c2).
body(r_fr6_100,fr6_c3).
body(r_fr6_100,fr6_d3).
body(r_fr6_100,fr6_q4).
body(r_fr6_100,fr6_v1).
body(r_fr6_100,fr6_z2).
head(r_fr6_101,fr6_r3).
head(r_fr6_102,fr6_r3).
body(r_fr6_102,fr6_a4).
body(r_fr6_102,fr6_c2).
body(r_fr6_102,fr6_f2).
head(r_fr6_103,fr6_r3).
body(r_fr6_103,fr6_c2).
body(r_fr6_103,fr6_d3).
body(r_fr6_103,fr6_e2).
head(r_fr6_104,fr6_s3).
body(r_fr6_104,fr6_a4).
body(r_fr6_104,fr6_b2).
body(r_fr6_104,fr6_c4).
body(r_fr6_104,fr6_f1).
body(r_fr6_104,fr6_q2).
head(r_fr6_105,fr6_s3).
body(r_fr6_105,fr6_b1).
body(r_fr6_105,fr6_b2).
body(r_fr6_105,fr6_c4).
body(r_fr6_105,fr6_e2).
body(r_fr6_105,fr7_w1).
body(r_fr6_105,fr6_f2).
body(r_fr6_105,fr6_f3).
head(r_fr6_106,fr6_s3).
body(r_fr6_106,fr6_p2).
body(r_fr6_106,fr6_p4).
head(r_fr6_107,fr6_s3).
body(r_fr6_107,fr6_a1).
body(r_fr6_107,fr6_a2).
body(r_fr6_107,fr6_c4).
body(r_fr6_107,fr6_d2).
body(r_fr6_107,fr6_d3).
body(r_fr6_107,fr6_e2).
body(r_fr6_107,fr7_w1).
body(r_fr6_107,fr6_t2).
head(r_fr6_108,fr6_s3).
body(r_fr6_108,fr9_d1).
body(r_fr6_108,fr6_b1).
body(r_fr6_108,fr6_c2).
body(r_fr6_108,fr6_c3).
body(r_fr6_108,fr6_f2).
body(r_fr6_108,fr7_z1).
body(r_fr6_108,fr7_d2).
body(r_fr6_108,fr6_x3).
head(r_fr6_109,fr6_s3).
body(r_fr6_109,fr6_a1).
body(r_fr6_109,fr6_b4).
body(r_fr6_109,fr6_d1).
body(r_fr6_109,fr7_w1).
body(r_fr6_109,fr6_z1).
head(r_fr6_110,fr6_s3).
body(r_fr6_110,fr6_f1).
body(r_fr6_110,fr6_x1).
head(r_fr6_111,fr6_x2).
body(r_fr6_111,fr6_x3).
body(r_fr6_111,fr6_y3).
head(r_fr6_112,fr6_x2).
body(r_fr6_112,fr6_p3).
body(r_fr6_112,fr6_r3).
body(r_fr6_112,fr6_t2).
body(r_fr6_112,fr6_y1).
body(r_fr6_112,fr6_z3).
head(r_fr6_113,fr6_x3).
body(r_fr6_113,fr6_a2).
body(r_fr6_113,fr6_c3).
body(r_fr6_113,fr7_w1).
body(r_fr6_113,fr6_f1).
body(r_fr6_113,fr6_q1).
body(r_fr6_113,fr6_r2).
head(r_fr6_114,fr6_x3).
body(r_fr6_114,fr6_d1).
body(r_fr6_114,fr6_q4).
body(r_fr6_114,fr6_t1).
body(r_fr6_114,fr6_t3).
head(r_fr6_115,fr6_t1).
body(r_fr6_115,fr6_a2).
body(r_fr6_115,fr7_w1).
body(r_fr6_115,fr6_q1).
head(r_fr6_116,fr6_t1).
head(r_fr6_117,fr6_t3).
body(r_fr6_117,fr6_b3).
body(r_fr6_117,fr6_c4).
body(r_fr6_117,fr6_p3).
body(r_fr6_117,fr6_s3).
body(r_fr6_117,fr6_x2).
head(r_fr6_118,fr6_t3).

% exp_acyclic_indvary2_step8_batch_yyy02.pl
assumption(fr7_a1).
assumption(fr7_b1).
assumption(fr7_c1).
assumption(fr7_d1).
assumption(fr7_e1).
assumption(fr7_f1).
assumption(fr7_a2).
assumption(fr7_b2).
assumption(fr7_c2).
assumption(fr7_d2).
assumption(fr7_e2).
assumption(fr8_c1).
assumption(fr7_a3).
assumption(fr3_f1).
assumption(fr7_c3).
contrary(fr7_a1,fr7_c1).
contrary(fr7_a2,fr7_q1).
contrary(fr7_a3,fr7_z1).
contrary(fr7_b1,fr7_e1).
contrary(fr7_b2,fr7_r2).
contrary(fr3_f1,fr7_e2).
contrary(fr7_c1,fr7_y1).
contrary(fr7_c2,fr7_t1).
contrary(fr7_c3,fr7_d2).
contrary(fr7_d1,fr7_a2).
contrary(fr7_d2,fr7_d1).
contrary(fr7_e1,fr7_r3).
contrary(fr7_e2,fr7_s2).
contrary(fr7_f1,fr7_v2).
contrary(fr8_c1,fr7_v2).
head(r_fr7_0,fr7_p3).
body(r_fr7_0,fr7_b1).
body(r_fr7_0,fr7_c2).
body(r_fr7_0,fr7_q3).
body(r_fr7_0,fr7_s1).
body(r_fr7_0,fr7_s2).
head(r_fr7_1,fr7_p3).
body(r_fr7_1,fr7_a3).
body(r_fr7_1,fr7_b1).
body(r_fr7_1,fr7_b2).
body(r_fr7_1,fr7_q3).
body(r_fr7_1,fr7_w1).
body(r_fr7_1,fr7_w2).
head(r_fr7_2,fr7_p3).
body(r_fr7_2,fr7_c1).
body(r_fr7_2,fr7_c3).
head(r_fr7_3,fr7_p3).
body(r_fr7_3,fr7_p2).
body(r_fr7_3,fr7_q3).
body(r_fr7_3,fr7_s2).
body(r_fr7_3,fr7_u2).
body(r_fr7_3,fr7_v2).
head(r_fr7_4,fr7_p3).
body(r_fr7_4,fr7_q1).
body(r_fr7_4,fr7_v2).
head(r_fr7_5,fr7_p3).
body(r_fr7_5,fr7_a1).
body(r_fr7_5,fr7_d1).
body(r_fr7_5,fr7_q1).
body(r_fr7_5,fr7_v2).
body(r_fr7_5,fr7_y2).
head(r_fr7_6,fr7_p3).
body(r_fr7_6,fr7_a3).
body(r_fr7_6,fr7_c2).
body(r_fr7_6,fr7_w2).
body(r_fr7_6,fr7_z1).
head(r_fr7_7,fr7_p3).
body(r_fr7_7,fr7_b1).
body(r_fr7_7,fr3_f1).
body(r_fr7_7,fr7_c3).
body(r_fr7_7,fr7_d1).
body(r_fr7_7,fr7_p2).
body(r_fr7_7,fr7_w2).
head(r_fr7_8,fr7_p3).
body(r_fr7_8,fr7_d2).
body(r_fr7_8,fr7_e1).
body(r_fr7_8,fr7_p1).
body(r_fr7_8,fr7_p2).
body(r_fr7_8,fr7_q1).
body(r_fr7_8,fr7_y2).
head(r_fr7_9,fr7_p3).
body(r_fr7_9,fr7_a2).
body(r_fr7_9,fr7_b2).
body(r_fr7_9,fr7_c1).
body(r_fr7_9,fr7_e1).
body(r_fr7_9,fr7_e2).
head(r_fr7_10,fr7_p3).
body(r_fr7_10,fr7_b1).
body(r_fr7_10,fr7_c2).
body(r_fr7_10,fr7_e1).
body(r_fr7_10,fr7_f1).
body(r_fr7_10,fr7_w1).
head(r_fr7_11,fr7_p3).
body(r_fr7_11,fr7_a2).
body(r_fr7_11,fr7_s2).
body(r_fr7_11,fr7_x1).
body(r_fr7_11,fr7_z1).
head(r_fr7_12,fr7_p3).
body(r_fr7_12,fr3_f1).
body(r_fr7_12,fr7_e2).
head(r_fr7_13,fr7_p3).
body(r_fr7_13,fr7_b2).
body(r_fr7_13,fr7_c1).
body(r_fr7_13,fr7_c2).
body(r_fr7_13,fr7_d1).
body(r_fr7_13,fr7_e1).
body(r_fr7_13,fr8_c1).
head(r_fr7_14,fr7_p3).
body(r_fr7_14,fr7_d2).
body(r_fr7_14,fr7_s1).
body(r_fr7_14,fr7_u2).
body(r_fr7_14,fr7_v2).
body(r_fr7_14,fr7_y2).
head(r_fr7_15,fr7_p3).
body(r_fr7_15,fr7_a3).
head(r_fr7_16,fr7_p3).
body(r_fr7_16,fr7_c1).
body(r_fr7_16,fr7_e1).
body(r_fr7_16,fr7_r2).
body(r_fr7_16,fr7_r3).
body(r_fr7_16,fr7_y1).
body(r_fr7_16,fr7_z1).
head(r_fr7_17,fr7_p3).
body(r_fr7_17,fr7_a3).
body(r_fr7_17,fr3_f1).
body(r_fr7_17,fr7_c2).
body(r_fr7_17,fr7_e1).
body(r_fr7_17,fr7_f1).
head(r_fr7_18,fr7_p3).
body(r_fr7_18,fr7_e2).
head(r_fr7_19,fr7_p3).
body(r_fr7_19,fr3_f1).
body(r_fr7_19,fr7_c2).
body(r_fr7_19,fr7_s1).
body(r_fr7_19,fr7_z1).
head(r_fr7_20,fr7_p3).
body(r_fr7_20,fr7_c1).
body(r_fr7_20,fr7_d1).
head(r_fr7_21,fr7_p3).
body(r_fr7_21,fr7_a3).
body(r_fr7_21,fr7_b1).
body(r_fr7_21,fr7_d1).
body(r_fr7_21,fr7_e1).
body(r_fr7_21,fr7_v2).
head(r_fr7_22,fr7_p3).
body(r_fr7_22,fr7_a1).
body(r_fr7_22,fr7_a2).
body(r_fr7_22,fr7_q2).
body(r_fr7_22,fr2_b2).
head(r_fr7_23,fr7_p3).
body(r_fr7_23,fr7_c3).
head(r_fr7_24,fr7_p3).
body(r_fr7_24,fr7_c3).
body(r_fr7_24,fr7_d2).
body(r_fr7_24,fr7_e1).
body(r_fr7_24,fr7_f1).
head(r_fr7_25,fr7_p3).
head(r_fr7_26,fr7_r3).
body(r_fr7_26,fr7_b1).
body(r_fr7_26,fr7_b2).
body(r_fr7_26,fr7_e2).
head(r_fr7_27,fr7_r3).
body(r_fr7_27,fr2_b2).
body(r_fr7_27,fr7_w1).
body(r_fr7_27,fr7_w2).
body(r_fr7_27,fr7_x1).
body(r_fr7_27,fr7_y1).
body(r_fr7_27,fr7_z2).
head(r_fr7_28,fr7_r3).
body(r_fr7_28,fr7_s1).
body(r_fr7_28,fr8_s4).
body(r_fr7_28,fr7_u1).
body(r_fr7_28,fr7_v1).
body(r_fr7_28,fr7_w1).
body(r_fr7_28,fr7_y1).
head(r_fr7_29,fr7_r3).
body(r_fr7_29,fr2_b2).
body(r_fr7_29,fr7_v2).
body(r_fr7_29,fr7_w2).
head(r_fr7_30,fr7_r3).
body(r_fr7_30,fr7_x1).
head(r_fr7_31,fr7_r3).
body(r_fr7_31,fr7_c2).
body(r_fr7_31,fr7_c3).
body(r_fr7_31,fr7_d2).
body(r_fr7_31,fr8_c1).
head(r_fr7_32,fr7_r3).
body(r_fr7_32,fr7_b2).
body(r_fr7_32,fr7_f1).
head(r_fr7_33,fr7_r3).
body(r_fr7_33,fr7_a3).
body(r_fr7_33,fr7_b1).
body(r_fr7_33,fr7_b2).
body(r_fr7_33,fr7_c2).
body(r_fr7_33,fr7_e2).
head(r_fr7_34,fr7_r3).
body(r_fr7_34,fr7_b2).
body(r_fr7_34,fr7_d1).
body(r_fr7_34,fr8_c1).
head(r_fr7_35,fr7_r3).
body(r_fr7_35,fr7_e2).
body(r_fr7_35,fr7_f1).
body(r_fr7_35,fr7_q2).
head(r_fr7_36,fr7_r3).
body(r_fr7_36,fr7_b1).
body(r_fr7_36,fr7_d1).
body(r_fr7_36,fr7_e1).
body(r_fr7_36,fr7_t1).
body(r_fr7_36,fr7_z2).
head(r_fr7_37,fr7_r3).
body(r_fr7_37,fr7_a3).
body(r_fr7_37,fr3_f1).
head(r_fr7_38,fr7_r3).
body(r_fr7_38,fr7_b1).
body(r_fr7_38,fr7_c1).
body(r_fr7_38,fr7_d2).
body(r_fr7_38,fr7_q1).
body(r_fr7_38,fr7_v2).
body(r_fr7_38,fr7_z1).
head(r_fr7_39,fr7_r3).
body(r_fr7_39,fr7_a1).
body(r_fr7_39,fr3_f1).
body(r_fr7_39,fr7_c2).
body(r_fr7_39,fr7_e1).
body(r_fr7_39,fr8_c1).
head(r_fr7_40,fr7_r3).
body(r_fr7_40,fr7_a2).
body(r_fr7_40,fr3_f1).
body(r_fr7_40,fr7_c2).
body(r_fr7_40,fr7_d2).
body(r_fr7_40,fr8_c1).
head(r_fr7_41,fr7_r3).
body(r_fr7_41,fr7_a3).
body(r_fr7_41,fr7_b2).
body(r_fr7_41,fr3_f1).
body(r_fr7_41,fr7_c1).
head(r_fr7_42,fr7_r3).
body(r_fr7_42,fr3_f1).
body(r_fr7_42,fr7_e2).
body(r_fr7_42,fr7_q3).
body(r_fr7_42,fr7_v1).
head(r_fr7_43,fr7_r3).
body(r_fr7_43,fr7_d1).
body(r_fr7_43,fr7_u1).
body(r_fr7_43,fr7_x2).
body(r_fr7_43,fr7_z1).
head(r_fr7_44,fr7_r3).
body(r_fr7_44,fr8_s4).
head(r_fr7_45,fr7_r3).
body(r_fr7_45,fr7_p2).
head(r_fr7_46,fr7_r3).
body(r_fr7_46,fr7_d1).
head(r_fr7_47,fr7_r3).
body(r_fr7_47,fr7_p2).
body(r_fr7_47,fr7_s1).
body(r_fr7_47,fr7_t1).
body(r_fr7_47,fr8_s4).
body(r_fr7_47,fr7_u2).
body(r_fr7_47,fr7_w1).
head(r_fr7_48,fr7_r3).
body(r_fr7_48,fr7_a1).
body(r_fr7_48,fr7_a2).
body(r_fr7_48,fr7_b2).
body(r_fr7_48,fr7_e2).
body(r_fr7_48,fr7_f1).
head(r_fr7_49,fr7_r3).
head(r_fr7_50,fr7_t1).
body(r_fr7_50,fr7_b2).
body(r_fr7_50,fr3_f1).
body(r_fr7_50,fr7_e1).
body(r_fr7_50,fr8_c1).
body(r_fr7_50,fr7_q2).
body(r_fr7_50,fr7_w1).
head(r_fr7_51,fr7_t1).
body(r_fr7_51,fr7_r2).
body(r_fr7_51,fr7_s2).
body(r_fr7_51,fr7_u2).
head(r_fr7_52,fr7_t1).
body(r_fr7_52,fr7_a2).
body(r_fr7_52,fr7_d1).
body(r_fr7_52,fr7_f1).
body(r_fr7_52,fr7_z1).
head(r_fr7_53,fr7_t1).
body(r_fr7_53,fr7_a2).
body(r_fr7_53,fr7_c1).
body(r_fr7_53,fr7_e1).
body(r_fr7_53,fr7_v1).
body(r_fr7_53,fr7_v2).
body(r_fr7_53,fr7_x2).
head(r_fr7_54,fr7_t1).
body(r_fr7_54,fr7_s1).
body(r_fr7_54,fr7_u2).
body(r_fr7_54,fr7_v1).
body(r_fr7_54,fr7_v2).
head(r_fr7_55,fr7_t1).
body(r_fr7_55,fr7_q3).
body(r_fr7_55,fr7_r2).
body(r_fr7_55,fr7_s2).
body(r_fr7_55,fr7_v2).
body(r_fr7_55,fr7_y1).
body(r_fr7_55,fr7_y2).
head(r_fr7_56,fr7_t1).
body(r_fr7_56,fr7_c2).
body(r_fr7_56,fr7_d1).
body(r_fr7_56,fr7_e1).
body(r_fr7_56,fr7_u1).
head(r_fr7_57,fr7_t1).
body(r_fr7_57,fr7_a2).
body(r_fr7_57,fr7_u1).
head(r_fr7_58,fr7_t1).
body(r_fr7_58,fr7_e2).
body(r_fr7_58,fr7_f1).
head(r_fr7_59,fr7_t1).
body(r_fr7_59,fr7_c1).
body(r_fr7_59,fr7_w1).
body(r_fr7_59,fr7_w2).
body(r_fr7_59,fr7_y2).
head(r_fr7_60,fr7_t1).
head(r_fr7_61,fr7_t1).
body(r_fr7_61,fr8_c1).
body(r_fr7_61,fr7_q3).
body(r_fr7_61,fr7_x2).
head(r_fr7_62,fr7_t1).
body(r_fr7_62,fr7_q3).
body(r_fr7_62,fr7_v2).
body(r_fr7_62,fr7_x2).
body(r_fr7_62,fr7_z1).
head(r_fr7_63,fr7_t1).
body(r_fr7_63,fr7_a2).
body(r_fr7_63,fr8_s4).
body(r_fr7_63,fr7_x1).
body(r_fr7_63,fr7_z2).
head(r_fr7_64,fr7_t1).
body(r_fr7_64,fr7_q3).
body(r_fr7_64,fr8_s4).
body(r_fr7_64,fr7_v2).
head(r_fr7_65,fr7_t1).
body(r_fr7_65,fr7_a2).
body(r_fr7_65,fr7_r2).
body(r_fr7_65,fr7_s2).
body(r_fr7_65,fr7_w1).
head(r_fr7_66,fr7_t1).
body(r_fr7_66,fr7_q3).
head(r_fr7_67,fr7_t1).
body(r_fr7_67,fr8_s4).
body(r_fr7_67,fr7_w2).
body(r_fr7_67,fr7_y1).
head(r_fr7_68,fr7_t1).
body(r_fr7_68,fr7_c2).
head(r_fr7_69,fr7_t1).
body(r_fr7_69,fr7_w2).
head(r_fr7_70,fr7_t1).
body(r_fr7_70,fr7_c3).
body(r_fr7_70,fr7_v1).
body(r_fr7_70,fr7_z2).
head(r_fr7_71,fr7_t1).
body(r_fr7_71,fr7_a1).
body(r_fr7_71,fr7_c1).
body(r_fr7_71,fr7_c3).
body(r_fr7_71,fr7_d2).
body(r_fr7_71,fr7_w1).
body(r_fr7_71,fr7_z1).
head(r_fr7_72,fr7_t1).
body(r_fr7_72,fr7_b2).
head(r_fr7_73,fr7_t1).
body(r_fr7_73,fr7_a3).
body(r_fr7_73,fr7_b1).
head(r_fr7_74,fr7_t1).
body(r_fr7_74,fr7_a1).
body(r_fr7_74,fr7_a3).
body(r_fr7_74,fr7_c3).
body(r_fr7_74,fr7_d2).
body(r_fr7_74,fr7_e2).
body(r_fr7_74,fr7_q2).
head(r_fr7_75,fr7_s2).
body(r_fr7_75,fr7_c1).
head(r_fr7_76,fr7_s2).
body(r_fr7_76,fr7_d1).
body(r_fr7_76,fr7_e2).
head(r_fr7_77,fr7_s2).
body(r_fr7_77,fr7_a3).
body(r_fr7_77,fr7_b1).
body(r_fr7_77,fr3_f1).
body(r_fr7_77,fr7_e2).
body(r_fr7_77,fr7_f1).
head(r_fr7_78,fr7_s2).
body(r_fr7_78,fr7_a1).
body(r_fr7_78,fr7_p1).
body(r_fr7_78,fr7_q1).
body(r_fr7_78,fr7_y2).
head(r_fr7_79,fr7_s2).
body(r_fr7_79,fr7_a1).
body(r_fr7_79,fr7_a3).
body(r_fr7_79,fr7_b1).
body(r_fr7_79,fr7_b2).
body(r_fr7_79,fr7_e2).
body(r_fr7_79,fr7_y1).
head(r_fr7_80,fr7_s2).
body(r_fr7_80,fr7_b1).
body(r_fr7_80,fr7_p1).
body(r_fr7_80,fr7_q3).
body(r_fr7_80,fr7_r2).
body(r_fr7_80,fr7_u2).
body(r_fr7_80,fr7_y2).
head(r_fr7_81,fr7_s2).
body(r_fr7_81,fr7_a2).
body(r_fr7_81,fr7_a3).
body(r_fr7_81,fr7_b2).
body(r_fr7_81,fr7_d2).
body(r_fr7_81,fr7_f1).
body(r_fr7_81,fr7_w2).
head(r_fr7_82,fr7_s2).
body(r_fr7_82,fr7_a1).
body(r_fr7_82,fr7_d2).
body(r_fr7_82,fr7_e2).
body(r_fr7_82,fr7_s1).
body(r_fr7_82,fr7_x2).
head(r_fr7_83,fr7_s2).
body(r_fr7_83,fr7_b2).
body(r_fr7_83,fr7_p2).
body(r_fr7_83,fr8_s4).
body(r_fr7_83,fr7_x2).
head(r_fr7_84,fr7_s2).
body(r_fr7_84,fr7_b1).
body(r_fr7_84,fr7_c2).
body(r_fr7_84,fr7_e2).
body(r_fr7_84,fr7_v2).
body(r_fr7_84,fr7_x2).
body(r_fr7_84,fr7_y2).
head(r_fr7_85,fr7_s2).
body(r_fr7_85,fr7_q1).
head(r_fr7_86,fr7_s2).
body(r_fr7_86,fr7_c2).
body(r_fr7_86,fr7_e2).
body(r_fr7_86,fr2_b2).
body(r_fr7_86,fr7_x1).
body(r_fr7_86,fr7_x2).
body(r_fr7_86,fr7_z2).
head(r_fr7_87,fr7_s2).
body(r_fr7_87,fr7_a1).
body(r_fr7_87,fr3_f1).
body(r_fr7_87,fr7_d1).
body(r_fr7_87,fr7_d2).
body(r_fr7_87,fr7_e2).
body(r_fr7_87,fr8_c1).
head(r_fr7_88,fr7_s2).
body(r_fr7_88,fr7_a3).
body(r_fr7_88,fr7_b1).
body(r_fr7_88,fr7_e1).
head(r_fr7_89,fr7_s2).
body(r_fr7_89,fr7_c3).
body(r_fr7_89,fr7_p1).
body(r_fr7_89,fr7_u2).
body(r_fr7_89,fr7_y2).
body(r_fr7_89,fr7_z1).
head(r_fr7_90,fr7_s2).
body(r_fr7_90,fr7_a2).
body(r_fr7_90,fr7_a3).
body(r_fr7_90,fr7_e1).
body(r_fr7_90,fr7_f1).
body(r_fr7_90,fr7_u1).
head(r_fr7_91,fr7_s2).
body(r_fr7_91,fr7_a2).
body(r_fr7_91,fr3_f1).
body(r_fr7_91,fr7_q3).
head(r_fr7_92,fr7_s2).
body(r_fr7_92,fr7_f1).
body(r_fr7_92,fr7_p1).
body(r_fr7_92,fr7_q1).
body(r_fr7_92,fr7_s1).
body(r_fr7_92,fr7_v2).
head(r_fr7_93,fr7_s2).
body(r_fr7_93,fr7_q2).
body(r_fr7_93,fr7_s1).
body(r_fr7_93,fr8_s4).
body(r_fr7_93,fr7_y2).
head(r_fr7_94,fr7_s2).
body(r_fr7_94,fr7_w2).
head(r_fr7_95,fr7_s2).
body(r_fr7_95,fr7_s1).
head(r_fr7_96,fr7_s2).
body(r_fr7_96,fr7_p1).
body(r_fr7_96,fr7_q3).
body(r_fr7_96,fr7_w1).
body(r_fr7_96,fr7_x2).
head(r_fr7_97,fr7_s2).
body(r_fr7_97,fr7_a3).
body(r_fr7_97,fr3_f1).
body(r_fr7_97,fr7_c2).
body(r_fr7_97,fr7_q1).
body(r_fr7_97,fr7_u2).
head(r_fr7_98,fr7_s2).
body(r_fr7_98,fr3_f1).
body(r_fr7_98,fr7_e1).
body(r_fr7_98,fr8_c1).
body(r_fr7_98,fr7_u1).
head(r_fr7_99,fr7_z1).
body(r_fr7_99,fr7_b1).
body(r_fr7_99,fr7_b2).
body(r_fr7_99,fr7_c2).
body(r_fr7_99,fr7_c3).
body(r_fr7_99,fr7_d2).
body(r_fr7_99,fr8_s4).
head(r_fr7_100,fr7_z1).
body(r_fr7_100,fr7_b1).
body(r_fr7_100,fr7_c3).
body(r_fr7_100,fr7_d1).
body(r_fr7_100,fr7_e1).
head(r_fr7_101,fr7_z1).
body(r_fr7_101,fr7_q2).
head(r_fr7_102,fr7_z1).
body(r_fr7_102,fr7_q1).
head(r_fr7_103,fr7_z1).
body(r_fr7_103,fr7_a1).
head(r_fr7_104,fr7_z1).
body(r_fr7_104,fr7_v2).
body(r_fr7_104,fr7_x1).
head(r_fr7_105,fr7_z1).
body(r_fr7_105,fr3_f1).
body(r_fr7_105,fr7_c3).
body(r_fr7_105,fr7_p2).
head(r_fr7_106,fr7_z1).
body(r_fr7_106,fr7_p1).
body(r_fr7_106,fr2_b2).
body(r_fr7_106,fr7_v1).
body(r_fr7_106,fr7_v2).
body(r_fr7_106,fr7_x2).
head(r_fr7_107,fr7_z1).
body(r_fr7_107,fr7_a1).
body(r_fr7_107,fr7_b1).
body(r_fr7_107,fr7_e1).
body(r_fr7_107,fr8_c1).
body(r_fr7_107,fr7_x1).
head(r_fr7_108,fr7_z1).
body(r_fr7_108,fr7_c3).
body(r_fr7_108,fr7_v2).
body(r_fr7_108,fr7_y1).
head(r_fr7_109,fr7_z1).
body(r_fr7_109,fr7_a2).
body(r_fr7_109,fr7_f1).
head(r_fr7_110,fr7_z1).
body(r_fr7_110,fr7_f1).
body(r_fr7_110,fr7_q2).
body(r_fr7_110,fr7_v1).
head(r_fr7_111,fr7_z1).
body(r_fr7_111,fr7_u1).
head(r_fr7_112,fr7_z1).
body(r_fr7_112,fr3_f1).
body(r_fr7_112,fr7_c2).
body(r_fr7_112,fr7_e1).
body(r_fr7_112,fr7_e2).
body(r_fr7_112,fr8_c1).
head(r_fr7_113,fr7_z1).
body(r_fr7_113,fr7_c1).
body(r_fr7_113,fr7_e2).
body(r_fr7_113,fr7_p1).
body(r_fr7_113,fr7_p2).
body(r_fr7_113,fr7_q3).
body(r_fr7_113,fr2_b2).
head(r_fr7_114,fr7_z1).
body(r_fr7_114,fr7_p2).
body(r_fr7_114,fr7_q2).
body(r_fr7_114,fr7_q3).
body(r_fr7_114,fr7_u2).
body(r_fr7_114,fr7_x1).
body(r_fr7_114,fr7_z2).
head(r_fr7_115,fr7_z1).
body(r_fr7_115,fr7_c1).
body(r_fr7_115,fr8_s4).
body(r_fr7_115,fr7_u1).
body(r_fr7_115,fr7_v1).
body(r_fr7_115,fr7_x2).
body(r_fr7_115,fr7_y2).
head(r_fr7_116,fr7_z1).
body(r_fr7_116,fr7_f1).
body(r_fr7_116,fr7_q2).
body(r_fr7_116,fr7_q3).
body(r_fr7_116,fr7_u2).
body(r_fr7_116,fr7_v1).
body(r_fr7_116,fr7_y2).
head(r_fr7_117,fr7_z1).
body(r_fr7_117,fr7_b1).
body(r_fr7_117,fr7_v1).
head(r_fr7_118,fr7_z1).
body(r_fr7_118,fr2_b2).
head(r_fr7_119,fr7_z1).
body(r_fr7_119,fr7_u2).
body(r_fr7_119,fr7_z2).
head(r_fr7_120,fr7_z1).
body(r_fr7_120,fr7_c2).
body(r_fr7_120,fr7_d1).
body(r_fr7_120,fr7_d2).
body(r_fr7_120,fr7_y1).
head(r_fr7_121,fr7_z1).
body(r_fr7_121,fr7_d1).
head(r_fr7_122,fr7_z1).
head(r_fr7_123,fr7_z1).
body(r_fr7_123,fr7_e1).
body(r_fr7_123,fr2_b2).
body(r_fr7_123,fr7_v1).
body(r_fr7_123,fr7_w1).
body(r_fr7_123,fr7_x1).
body(r_fr7_123,fr7_y1).
head(r_fr7_124,fr7_v1).
body(r_fr7_124,fr7_a1).
body(r_fr7_124,fr7_a3).
body(r_fr7_124,fr7_d1).
body(r_fr7_124,fr7_e1).
body(r_fr7_124,fr8_c1).
body(r_fr7_124,fr7_q1).
head(r_fr7_125,fr7_v1).
body(r_fr7_125,fr7_a1).
body(r_fr7_125,fr7_c2).
body(r_fr7_125,fr7_q2).
body(r_fr7_125,fr7_w1).
body(r_fr7_125,fr7_y1).
body(r_fr7_125,fr7_y2).
head(r_fr7_126,fr7_v1).
body(r_fr7_126,fr7_e2).
body(r_fr7_126,fr7_f1).
body(r_fr7_126,fr8_c1).
body(r_fr7_126,fr8_s4).
body(r_fr7_126,fr7_u1).
head(r_fr7_127,fr7_v1).
body(r_fr7_127,fr7_p2).
body(r_fr7_127,fr7_s1).
body(r_fr7_127,fr7_y1).
head(r_fr7_128,fr7_v1).
body(r_fr7_128,fr7_a2).
body(r_fr7_128,fr7_a3).
body(r_fr7_128,fr7_d1).
body(r_fr7_128,fr7_p2).
body(r_fr7_128,fr7_r2).
head(r_fr7_129,fr7_v1).
body(r_fr7_129,fr7_c1).
head(r_fr7_130,fr7_v1).
body(r_fr7_130,fr8_c1).
head(r_fr7_131,fr7_v1).
body(r_fr7_131,fr7_p2).
body(r_fr7_131,fr7_q3).
body(r_fr7_131,fr2_b2).
body(r_fr7_131,fr7_s1).
body(r_fr7_131,fr7_u1).
body(r_fr7_131,fr7_w1).
head(r_fr7_132,fr7_v1).
body(r_fr7_132,fr7_c3).
body(r_fr7_132,fr7_d1).
body(r_fr7_132,fr8_s4).
body(r_fr7_132,fr7_x2).
head(r_fr7_133,fr7_v1).
body(r_fr7_133,fr7_a1).
body(r_fr7_133,fr7_p2).
body(r_fr7_133,fr7_q1).
head(r_fr7_134,fr7_v1).
body(r_fr7_134,fr7_c2).
body(r_fr7_134,fr7_d1).
body(r_fr7_134,fr2_b2).
body(r_fr7_134,fr7_s1).
body(r_fr7_134,fr7_x1).
body(r_fr7_134,fr7_x2).
head(r_fr7_135,fr7_v1).
body(r_fr7_135,fr7_f1).
head(r_fr7_136,fr7_v1).
body(r_fr7_136,fr7_b2).
body(r_fr7_136,fr7_e2).
body(r_fr7_136,fr7_u2).
head(r_fr7_137,fr7_v1).
body(r_fr7_137,fr7_q2).
body(r_fr7_137,fr7_v2).
head(r_fr7_138,fr7_v1).
body(r_fr7_138,fr7_u2).
body(r_fr7_138,fr7_w2).
body(r_fr7_138,fr7_x1).
head(r_fr7_139,fr7_v1).
body(r_fr7_139,fr7_a1).
body(r_fr7_139,fr7_b1).
body(r_fr7_139,fr7_d1).
body(r_fr7_139,fr7_e2).
body(r_fr7_139,fr7_u2).
body(r_fr7_139,fr7_y1).
head(r_fr7_140,fr7_v1).
body(r_fr7_140,fr7_a3).
body(r_fr7_140,fr7_c2).
body(r_fr7_140,fr7_d2).
head(r_fr7_141,fr7_v1).
body(r_fr7_141,fr7_s1).
head(r_fr7_142,fr7_v1).
body(r_fr7_142,fr7_r2).
body(r_fr7_142,fr7_s1).
body(r_fr7_142,fr7_u2).
body(r_fr7_142,fr7_w1).
body(r_fr7_142,fr7_x2).
body(r_fr7_142,fr7_y2).
head(r_fr7_143,fr7_v1).
body(r_fr7_143,fr7_b2).
body(r_fr7_143,fr7_c2).
body(r_fr7_143,fr7_c3).
body(r_fr7_143,fr7_x1).
body(r_fr7_143,fr7_y1).
head(r_fr7_144,fr7_v1).
body(r_fr7_144,fr7_d1).
body(r_fr7_144,fr7_q3).
body(r_fr7_144,fr2_b2).
body(r_fr7_144,fr7_u1).
body(r_fr7_144,fr7_x2).
head(r_fr7_145,fr7_v1).
body(r_fr7_145,fr7_a3).
body(r_fr7_145,fr7_e2).
head(r_fr7_146,fr7_v1).
body(r_fr7_146,fr3_f1).
body(r_fr7_146,fr7_q2).
body(r_fr7_146,fr2_b2).
head(r_fr7_147,fr7_v1).
head(r_fr7_148,fr7_v1).
body(r_fr7_148,fr7_b2).
body(r_fr7_148,fr7_d2).
body(r_fr7_148,fr7_f1).
body(r_fr7_148,fr7_s1).
body(r_fr7_148,fr7_x2).
body(r_fr7_148,fr7_z2).
head(r_fr7_149,fr7_v1).
body(r_fr7_149,fr7_b2).
body(r_fr7_149,fr7_e2).
body(r_fr7_149,fr7_w2).
head(r_fr7_150,fr7_p2).
body(r_fr7_150,fr7_q3).
body(r_fr7_150,fr7_u1).
body(r_fr7_150,fr7_x1).
head(r_fr7_151,fr7_p2).
body(r_fr7_151,fr7_b2).
body(r_fr7_151,fr7_c1).
body(r_fr7_151,fr7_d1).
body(r_fr7_151,fr7_q2).
body(r_fr7_151,fr7_x2).
head(r_fr7_152,fr7_p2).
body(r_fr7_152,fr7_a2).
body(r_fr7_152,fr2_b2).
body(r_fr7_152,fr7_x2).
body(r_fr7_152,fr7_y1).
body(r_fr7_152,fr7_z2).
head(r_fr7_153,fr7_p2).
body(r_fr7_153,fr7_e1).
body(r_fr7_153,fr8_s4).
body(r_fr7_153,fr7_u1).
body(r_fr7_153,fr7_x1).
head(r_fr7_154,fr7_p2).
body(r_fr7_154,fr7_b1).
body(r_fr7_154,fr7_b2).
body(r_fr7_154,fr7_c3).
head(r_fr7_155,fr7_p2).
body(r_fr7_155,fr7_f1).
body(r_fr7_155,fr7_q1).
head(r_fr7_156,fr7_p2).
body(r_fr7_156,fr7_c1).
body(r_fr7_156,fr8_c1).
head(r_fr7_157,fr7_p2).
body(r_fr7_157,fr7_a2).
body(r_fr7_157,fr7_c1).
body(r_fr7_157,fr7_s1).
body(r_fr7_157,fr7_w1).
body(r_fr7_157,fr7_y2).
head(r_fr7_158,fr7_p2).
body(r_fr7_158,fr7_x1).
head(r_fr7_159,fr7_p2).
body(r_fr7_159,fr7_c1).
head(r_fr7_160,fr7_p2).
body(r_fr7_160,fr7_x1).
body(r_fr7_160,fr7_y1).
head(r_fr7_161,fr7_p2).
body(r_fr7_161,fr7_c3).
body(r_fr7_161,fr7_d1).
body(r_fr7_161,fr7_q1).
body(r_fr7_161,fr7_v2).
body(r_fr7_161,fr7_y1).
head(r_fr7_162,fr7_p2).
body(r_fr7_162,fr7_b2).
body(r_fr7_162,fr7_c3).
body(r_fr7_162,fr8_c1).
head(r_fr7_163,fr7_p2).
body(r_fr7_163,fr8_s4).
body(r_fr7_163,fr7_u1).
body(r_fr7_163,fr7_v2).
body(r_fr7_163,fr7_z2).
head(r_fr7_164,fr7_p2).
body(r_fr7_164,fr7_d1).
body(r_fr7_164,fr2_b2).
body(r_fr7_164,fr7_u2).
body(r_fr7_164,fr7_x1).
head(r_fr7_165,fr7_p2).
body(r_fr7_165,fr7_q2).
body(r_fr7_165,fr8_s4).
body(r_fr7_165,fr7_v2).
body(r_fr7_165,fr7_x2).
body(r_fr7_165,fr7_y1).
head(r_fr7_166,fr7_p2).
body(r_fr7_166,fr7_a1).
head(r_fr7_167,fr7_p2).
body(r_fr7_167,fr7_b2).
body(r_fr7_167,fr3_f1).
body(r_fr7_167,fr7_d2).
body(r_fr7_167,fr8_c1).
body(r_fr7_167,fr7_v2).
body(r_fr7_167,fr7_z2).
head(r_fr7_168,fr7_p2).
body(r_fr7_168,fr7_a3).
body(r_fr7_168,fr7_b1).
body(r_fr7_168,fr7_c3).
body(r_fr7_168,fr7_f1).
head(r_fr7_169,fr7_p2).
body(r_fr7_169,fr7_p1).
body(r_fr7_169,fr7_q1).
body(r_fr7_169,fr7_s1).
body(r_fr7_169,fr7_y2).
head(r_fr7_170,fr7_p2).
body(r_fr7_170,fr7_b1).
body(r_fr7_170,fr7_b2).
body(r_fr7_170,fr7_c1).
body(r_fr7_170,fr7_c2).
body(r_fr7_170,fr7_d1).
body(r_fr7_170,fr7_e1).
head(r_fr7_171,fr7_p2).
body(r_fr7_171,fr3_f1).
body(r_fr7_171,fr7_c1).
body(r_fr7_171,fr7_c2).
body(r_fr7_171,fr7_e1).
body(r_fr7_171,fr7_e2).
head(r_fr7_172,fr7_p2).
head(r_fr7_173,fr7_p2).
body(r_fr7_173,fr7_r2).
body(r_fr7_173,fr7_w2).
body(r_fr7_173,fr7_y1).
head(r_fr7_174,fr7_p2).
body(r_fr7_174,fr7_c2).
body(r_fr7_174,fr7_s1).
body(r_fr7_174,fr7_z2).
head(r_fr7_175,fr7_p2).
body(r_fr7_175,fr7_w1).
body(r_fr7_175,fr7_y1).
head(r_fr7_176,fr7_w2).
body(r_fr7_176,fr7_b1).
body(r_fr7_176,fr7_s1).
head(r_fr7_177,fr7_w2).
body(r_fr7_177,fr7_b1).
body(r_fr7_177,fr7_b2).
body(r_fr7_177,fr7_d1).
body(r_fr7_177,fr7_d2).
body(r_fr7_177,fr7_e2).
body(r_fr7_177,fr7_q2).
head(r_fr7_178,fr7_w2).
body(r_fr7_178,fr7_p1).
body(r_fr7_178,fr7_x1).
head(r_fr7_179,fr7_w2).
body(r_fr7_179,fr7_c2).
body(r_fr7_179,fr7_f1).
body(r_fr7_179,fr7_q1).
head(r_fr7_180,fr7_w2).
body(r_fr7_180,fr7_c3).
body(r_fr7_180,fr7_f1).
head(r_fr7_181,fr7_w2).
body(r_fr7_181,fr7_b2).
body(r_fr7_181,fr7_c2).
head(r_fr7_182,fr7_w2).
body(r_fr7_182,fr7_a3).
body(r_fr7_182,fr7_d2).
body(r_fr7_182,fr7_r2).
body(r_fr7_182,fr7_x1).
body(r_fr7_182,fr7_y2).
head(r_fr7_183,fr7_w2).
body(r_fr7_183,fr7_b1).
body(r_fr7_183,fr7_e2).
head(r_fr7_184,fr7_w2).
body(r_fr7_184,fr7_a1).
body(r_fr7_184,fr7_a2).
body(r_fr7_184,fr7_b1).
body(r_fr7_184,fr7_e1).
body(r_fr7_184,fr8_c1).
head(r_fr7_185,fr7_w2).
body(r_fr7_185,fr7_b2).
body(r_fr7_185,fr7_w1).
body(r_fr7_185,fr7_y1).
head(r_fr7_186,fr7_w2).
body(r_fr7_186,fr7_c3).
body(r_fr7_186,fr7_d2).
body(r_fr7_186,fr8_c1).
head(r_fr7_187,fr7_w2).
body(r_fr7_187,fr7_q2).
body(r_fr7_187,fr7_r2).
body(r_fr7_187,fr8_s4).
body(r_fr7_187,fr7_v2).
head(r_fr7_188,fr7_w2).
body(r_fr7_188,fr7_c1).
head(r_fr7_189,fr7_w2).
body(r_fr7_189,fr7_a3).
body(r_fr7_189,fr7_c1).
body(r_fr7_189,fr2_b2).
head(r_fr7_190,fr7_w2).
body(r_fr7_190,fr7_d2).
body(r_fr7_190,fr7_q2).
body(r_fr7_190,fr7_q3).
body(r_fr7_190,fr7_y1).
body(r_fr7_190,fr7_z2).
head(r_fr7_191,fr7_w2).
body(r_fr7_191,fr7_a2).
body(r_fr7_191,fr2_b2).
body(r_fr7_191,fr8_s4).
body(r_fr7_191,fr7_u2).
head(r_fr7_192,fr7_w2).
body(r_fr7_192,fr7_c1).
body(r_fr7_192,fr8_c1).
head(r_fr7_193,fr7_w2).
body(r_fr7_193,fr7_a1).
body(r_fr7_193,fr7_q3).
body(r_fr7_193,fr8_s4).
body(r_fr7_193,fr7_y2).
body(r_fr7_193,fr7_z2).
head(r_fr7_194,fr7_w2).
body(r_fr7_194,fr7_d2).
body(r_fr7_194,fr7_e1).
body(r_fr7_194,fr2_b2).
body(r_fr7_194,fr7_r2).
body(r_fr7_194,fr7_u1).
head(r_fr7_195,fr7_w2).
body(r_fr7_195,fr7_c2).
body(r_fr7_195,fr7_f1).
body(r_fr7_195,fr2_b2).
body(r_fr7_195,fr7_x1).
head(r_fr7_196,fr7_w2).
body(r_fr7_196,fr7_e1).
body(r_fr7_196,fr8_s4).
body(r_fr7_196,fr7_u1).
body(r_fr7_196,fr7_y1).
body(r_fr7_196,fr7_y2).
head(r_fr7_197,fr7_w2).
body(r_fr7_197,fr7_c2).
body(r_fr7_197,fr7_d2).
body(r_fr7_197,fr7_e2).
body(r_fr7_197,fr8_c1).
head(r_fr7_198,fr7_w2).
body(r_fr7_198,fr7_a3).
body(r_fr7_198,fr7_d2).
body(r_fr7_198,fr7_e1).
body(r_fr7_198,fr7_f1).
body(r_fr7_198,fr7_q3).
head(r_fr7_199,fr7_w2).
head(r_fr7_200,fr7_w2).
body(r_fr7_200,fr7_a2).
body(r_fr7_200,fr7_b2).
body(r_fr7_200,fr7_e2).
body(r_fr7_200,fr7_q2).
body(r_fr7_200,fr7_u1).
head(r_fr7_201,fr7_y1).
body(r_fr7_201,fr7_a3).
body(r_fr7_201,fr7_c1).
body(r_fr7_201,fr7_d1).
body(r_fr7_201,fr7_q3).
head(r_fr7_202,fr7_y1).
body(r_fr7_202,fr7_p1).
body(r_fr7_202,fr7_v2).
body(r_fr7_202,fr7_w1).
body(r_fr7_202,fr7_x2).
head(r_fr7_203,fr7_y1).
body(r_fr7_203,fr7_q2).
body(r_fr7_203,fr7_u1).
body(r_fr7_203,fr7_x2).
body(r_fr7_203,fr7_y2).
head(r_fr7_204,fr7_y1).
body(r_fr7_204,fr7_q2).
body(r_fr7_204,fr7_u2).
head(r_fr7_205,fr7_y1).
body(r_fr7_205,fr7_q2).
body(r_fr7_205,fr2_b2).
body(r_fr7_205,fr8_s4).
body(r_fr7_205,fr7_u2).
body(r_fr7_205,fr7_x1).
body(r_fr7_205,fr7_z2).
head(r_fr7_206,fr7_y1).
body(r_fr7_206,fr7_a3).
body(r_fr7_206,fr7_e2).
body(r_fr7_206,fr8_c1).
body(r_fr7_206,fr7_p1).
body(r_fr7_206,fr7_q1).
head(r_fr7_207,fr7_y1).
body(r_fr7_207,fr7_c2).
head(r_fr7_208,fr7_y1).
body(r_fr7_208,fr7_f1).
head(r_fr7_209,fr7_y1).
body(r_fr7_209,fr7_a1).
body(r_fr7_209,fr7_a3).
body(r_fr7_209,fr7_r2).
body(r_fr7_209,fr7_v2).
head(r_fr7_210,fr7_y1).
body(r_fr7_210,fr7_c1).
body(r_fr7_210,fr7_e2).
body(r_fr7_210,fr8_s4).
body(r_fr7_210,fr7_u2).
body(r_fr7_210,fr7_y2).
body(r_fr7_210,fr7_z2).
head(r_fr7_211,fr7_y1).
body(r_fr7_211,fr7_a1).
body(r_fr7_211,fr7_a3).
body(r_fr7_211,fr7_c1).
body(r_fr7_211,fr7_c3).
body(r_fr7_211,fr7_f1).
body(r_fr7_211,fr8_c1).
head(r_fr7_212,fr7_y1).
body(r_fr7_212,fr7_p1).
body(r_fr7_212,fr7_v2).
body(r_fr7_212,fr7_x1).
head(r_fr7_213,fr7_y1).
body(r_fr7_213,fr7_a1).
body(r_fr7_213,fr7_r2).
body(r_fr7_213,fr8_s4).
body(r_fr7_213,fr7_v2).
body(r_fr7_213,fr7_z2).
head(r_fr7_214,fr7_y1).
body(r_fr7_214,fr7_p1).
body(r_fr7_214,fr7_q2).
body(r_fr7_214,fr7_u1).
head(r_fr7_215,fr7_y1).
body(r_fr7_215,fr7_b1).
body(r_fr7_215,fr7_c1).
body(r_fr7_215,fr7_d2).
body(r_fr7_215,fr7_f1).
body(r_fr7_215,fr7_q2).
body(r_fr7_215,fr7_x1).
head(r_fr7_216,fr7_y1).
body(r_fr7_216,fr7_d1).
body(r_fr7_216,fr7_q2).
body(r_fr7_216,fr7_r2).
body(r_fr7_216,fr7_y2).
head(r_fr7_217,fr7_y1).
body(r_fr7_217,fr7_x1).
head(r_fr7_218,fr7_y1).
body(r_fr7_218,fr7_b1).
body(r_fr7_218,fr7_e2).
body(r_fr7_218,fr7_u1).
head(r_fr7_219,fr7_y1).
body(r_fr7_219,fr7_p1).
head(r_fr7_220,fr7_y1).
body(r_fr7_220,fr7_z2).
head(r_fr7_221,fr7_y1).
body(r_fr7_221,fr7_q1).
body(r_fr7_221,fr7_y2).
head(r_fr7_222,fr7_y1).
body(r_fr7_222,fr7_b2).
body(r_fr7_222,fr7_w1).
head(r_fr7_223,fr7_y1).
body(r_fr7_223,fr7_p1).
body(r_fr7_223,fr7_r2).
head(r_fr7_224,fr7_y1).
body(r_fr7_224,fr2_b2).
body(r_fr7_224,fr7_x2).
head(r_fr7_225,fr7_y1).
head(r_fr7_226,fr7_y1).
body(r_fr7_226,fr7_b2).
body(r_fr7_226,fr7_d2).
body(r_fr7_226,fr8_c1).
head(r_fr7_227,fr7_r2).
body(r_fr7_227,fr7_b1).
body(r_fr7_227,fr7_s1).
head(r_fr7_228,fr7_r2).
body(r_fr7_228,fr8_c1).
head(r_fr7_229,fr7_r2).
body(r_fr7_229,fr8_s4).
body(r_fr7_229,fr7_u1).
body(r_fr7_229,fr7_w1).
head(r_fr7_230,fr7_r2).
body(r_fr7_230,fr7_a2).
body(r_fr7_230,fr7_b2).
body(r_fr7_230,fr3_f1).
body(r_fr7_230,fr7_c1).
body(r_fr7_230,fr7_d2).
body(r_fr7_230,fr7_v2).
head(r_fr7_231,fr7_r2).
body(r_fr7_231,fr7_a1).
body(r_fr7_231,fr7_u1).
body(r_fr7_231,fr7_w1).
body(r_fr7_231,fr7_y2).
head(r_fr7_232,fr7_r2).
body(r_fr7_232,fr7_b1).
body(r_fr7_232,fr7_b2).
body(r_fr7_232,fr3_f1).
body(r_fr7_232,fr7_d1).
body(r_fr7_232,fr2_b2).
body(r_fr7_232,fr7_z2).
head(r_fr7_233,fr7_r2).
body(r_fr7_233,fr7_a1).
body(r_fr7_233,fr7_b1).
body(r_fr7_233,fr7_f1).
head(r_fr7_234,fr7_r2).
body(r_fr7_234,fr7_a2).
body(r_fr7_234,fr7_x2).
body(r_fr7_234,fr7_y2).
head(r_fr7_235,fr7_r2).
body(r_fr7_235,fr3_f1).
body(r_fr7_235,fr8_c1).
body(r_fr7_235,fr7_q2).
head(r_fr7_236,fr7_r2).
body(r_fr7_236,fr7_c3).
body(r_fr7_236,fr7_f1).
body(r_fr7_236,fr7_u1).
head(r_fr7_237,fr7_r2).
body(r_fr7_237,fr7_c1).
body(r_fr7_237,fr7_f1).
head(r_fr7_238,fr7_r2).
body(r_fr7_238,fr7_p1).
body(r_fr7_238,fr2_b2).
body(r_fr7_238,fr8_s4).
body(r_fr7_238,fr7_w1).
body(r_fr7_238,fr7_z2).
head(r_fr7_239,fr7_r2).
body(r_fr7_239,fr7_a2).
body(r_fr7_239,fr7_d1).
body(r_fr7_239,fr2_b2).
body(r_fr7_239,fr7_y2).
head(r_fr7_240,fr7_r2).
body(r_fr7_240,fr7_a2).
body(r_fr7_240,fr7_c1).
body(r_fr7_240,fr7_c3).
body(r_fr7_240,fr7_d2).
body(r_fr7_240,fr7_e2).
head(r_fr7_241,fr7_r2).
body(r_fr7_241,fr7_p1).
body(r_fr7_241,fr7_q3).
body(r_fr7_241,fr2_b2).
head(r_fr7_242,fr7_r2).
body(r_fr7_242,fr7_q2).
body(r_fr7_242,fr7_u2).
body(r_fr7_242,fr7_w1).
head(r_fr7_243,fr7_r2).
body(r_fr7_243,fr7_c1).
body(r_fr7_243,fr7_c2).
body(r_fr7_243,fr7_f1).
head(r_fr7_244,fr7_r2).
body(r_fr7_244,fr7_a2).
body(r_fr7_244,fr7_a3).
body(r_fr7_244,fr7_c2).
body(r_fr7_244,fr8_s4).
head(r_fr7_245,fr7_r2).
body(r_fr7_245,fr7_a3).
body(r_fr7_245,fr7_d1).
body(r_fr7_245,fr7_d2).
body(r_fr7_245,fr7_e2).
head(r_fr7_246,fr7_r2).
head(r_fr7_247,fr7_r2).
body(r_fr7_247,fr7_a3).
body(r_fr7_247,fr7_d2).
body(r_fr7_247,fr7_e1).
body(r_fr7_247,fr7_q3).
body(r_fr7_247,fr7_w1).
head(r_fr7_248,fr7_r2).
body(r_fr7_248,fr7_b1).
body(r_fr7_248,fr3_f1).
body(r_fr7_248,fr7_c1).
body(r_fr7_248,fr7_e2).
body(r_fr7_248,fr7_f1).
body(r_fr7_248,fr8_c1).
head(r_fr7_249,fr7_r2).
body(r_fr7_249,fr7_x2).
head(r_fr7_250,fr7_r2).
body(r_fr7_250,fr7_c3).
body(r_fr7_250,fr7_p1).
body(r_fr7_250,fr8_s4).
body(r_fr7_250,fr7_z2).
head(r_fr7_251,fr7_r2).
body(r_fr7_251,fr7_q3).
body(r_fr7_251,fr2_b2).
head(r_fr7_252,fr8_s4).
body(r_fr7_252,fr7_c3).
body(r_fr7_252,fr7_d1).
body(r_fr7_252,fr7_y2).
head(r_fr7_253,fr8_s4).
body(r_fr7_253,fr7_b1).
body(r_fr7_253,fr2_b2).
body(r_fr7_253,fr7_s1).
head(r_fr7_254,fr8_s4).
body(r_fr7_254,fr7_a2).
body(r_fr7_254,fr7_q1).
body(r_fr7_254,fr7_w1).
head(r_fr7_255,fr8_s4).
body(r_fr7_255,fr3_f1).
body(r_fr7_255,fr7_d1).
head(r_fr7_256,fr8_s4).
body(r_fr7_256,fr7_p1).
body(r_fr7_256,fr7_q3).
body(r_fr7_256,fr2_b2).
body(r_fr7_256,fr7_w1).
body(r_fr7_256,fr7_y2).
head(r_fr7_257,fr8_s4).
body(r_fr7_257,fr7_z2).
head(r_fr7_258,fr8_s4).
body(r_fr7_258,fr7_p1).
body(r_fr7_258,fr7_q1).
body(r_fr7_258,fr2_b2).
body(r_fr7_258,fr7_s1).
head(r_fr7_259,fr8_s4).
body(r_fr7_259,fr7_q3).
body(r_fr7_259,fr7_u1).
body(r_fr7_259,fr7_v2).
body(r_fr7_259,fr7_x1).
body(r_fr7_259,fr7_x2).
head(r_fr7_260,fr8_s4).
body(r_fr7_260,fr7_p1).
head(r_fr7_261,fr8_s4).
body(r_fr7_261,fr7_e1).
body(r_fr7_261,fr7_f1).
body(r_fr7_261,fr7_p1).
body(r_fr7_261,fr2_b2).
body(r_fr7_261,fr7_s1).
head(r_fr7_262,fr8_s4).
body(r_fr7_262,fr7_q3).
body(r_fr7_262,fr2_b2).
body(r_fr7_262,fr7_u2).
body(r_fr7_262,fr7_v2).
head(r_fr7_263,fr8_s4).
body(r_fr7_263,fr7_a3).
body(r_fr7_263,fr7_e1).
body(r_fr7_263,fr7_x1).
body(r_fr7_263,fr7_x2).
head(r_fr7_264,fr8_s4).
body(r_fr7_264,fr2_b2).
head(r_fr7_265,fr8_s4).
body(r_fr7_265,fr7_c2).
body(r_fr7_265,fr7_p1).
body(r_fr7_265,fr7_q1).
body(r_fr7_265,fr2_b2).
body(r_fr7_265,fr7_u1).
body(r_fr7_265,fr7_w1).
head(r_fr7_266,fr8_s4).
body(r_fr7_266,fr7_q3).
body(r_fr7_266,fr7_u2).
body(r_fr7_266,fr7_y2).
head(r_fr7_267,fr8_s4).
body(r_fr7_267,fr7_a1).
body(r_fr7_267,fr7_a3).
body(r_fr7_267,fr7_b2).
body(r_fr7_267,fr7_c3).
body(r_fr7_267,fr7_d2).
head(r_fr7_268,fr8_s4).
body(r_fr7_268,fr7_c2).
body(r_fr7_268,fr7_d2).
body(r_fr7_268,fr7_u1).
head(r_fr7_269,fr8_s4).
body(r_fr7_269,fr3_f1).
body(r_fr7_269,fr2_b2).
body(r_fr7_269,fr7_u2).
body(r_fr7_269,fr7_y2).
head(r_fr7_270,fr8_s4).
head(r_fr7_271,fr8_s4).
body(r_fr7_271,fr7_q1).
body(r_fr7_271,fr7_x1).
body(r_fr7_271,fr7_x2).
body(r_fr7_271,fr7_y2).
body(r_fr7_271,fr7_z2).
head(r_fr7_272,fr8_s4).
body(r_fr7_272,fr7_a1).
body(r_fr7_272,fr7_a2).
body(r_fr7_272,fr7_c2).
body(r_fr7_272,fr7_f1).
head(r_fr7_273,fr8_s4).
body(r_fr7_273,fr7_p1).
body(r_fr7_273,fr2_b2).
body(r_fr7_273,fr7_u2).
body(r_fr7_273,fr7_x1).
body(r_fr7_273,fr7_x2).
head(r_fr7_274,fr8_s4).
body(r_fr7_274,fr7_c2).
body(r_fr7_274,fr7_c3).
body(r_fr7_274,fr7_e2).
body(r_fr7_274,fr7_q1).
body(r_fr7_274,fr7_u2).
body(r_fr7_274,fr7_v2).
head(r_fr7_275,fr8_s4).
body(r_fr7_275,fr7_x1).
head(r_fr7_276,fr8_s4).
body(r_fr7_276,fr7_u1).
head(r_fr7_277,fr7_w1).
body(r_fr7_277,fr7_p1).
head(r_fr7_278,fr7_w1).
body(r_fr7_278,fr7_x2).
head(r_fr7_279,fr7_w1).
body(r_fr7_279,fr7_d1).
body(r_fr7_279,fr7_f1).
body(r_fr7_279,fr7_q2).
head(r_fr7_280,fr7_w1).
body(r_fr7_280,fr7_b2).
body(r_fr7_280,fr3_f1).
body(r_fr7_280,fr7_c3).
body(r_fr7_280,fr8_c1).
body(r_fr7_280,fr7_p1).
body(r_fr7_280,fr7_v2).
head(r_fr7_281,fr7_w1).
body(r_fr7_281,fr7_b1).
body(r_fr7_281,fr7_p1).
body(r_fr7_281,fr2_b2).
body(r_fr7_281,fr7_u1).
body(r_fr7_281,fr7_u2).
body(r_fr7_281,fr7_z2).
head(r_fr7_282,fr7_w1).
body(r_fr7_282,fr7_d2).
body(r_fr7_282,fr7_v2).
head(r_fr7_283,fr7_w1).
body(r_fr7_283,fr7_x2).
body(r_fr7_283,fr7_y2).
head(r_fr7_284,fr7_w1).
body(r_fr7_284,fr7_a1).
body(r_fr7_284,fr7_d2).
body(r_fr7_284,fr7_e1).
body(r_fr7_284,fr7_f1).
body(r_fr7_284,fr8_c1).
body(r_fr7_284,fr7_u1).
head(r_fr7_285,fr7_w1).
body(r_fr7_285,fr7_a2).
body(r_fr7_285,fr7_v2).
head(r_fr7_286,fr7_w1).
body(r_fr7_286,fr7_d2).
body(r_fr7_286,fr7_f1).
head(r_fr7_287,fr7_w1).
body(r_fr7_287,fr7_a2).
body(r_fr7_287,fr8_c1).
body(r_fr7_287,fr7_p1).
body(r_fr7_287,fr7_q1).
body(r_fr7_287,fr7_s1).
body(r_fr7_287,fr7_x1).
head(r_fr7_288,fr7_w1).
body(r_fr7_288,fr7_a2).
body(r_fr7_288,fr7_a3).
body(r_fr7_288,fr7_b2).
body(r_fr7_288,fr7_d1).
body(r_fr7_288,fr7_e2).
head(r_fr7_289,fr7_w1).
body(r_fr7_289,fr7_e2).
body(r_fr7_289,fr7_p1).
body(r_fr7_289,fr7_q2).
body(r_fr7_289,fr7_u1).
head(r_fr7_290,fr7_w1).
body(r_fr7_290,fr7_b1).
body(r_fr7_290,fr7_d2).
body(r_fr7_290,fr7_e1).
body(r_fr7_290,fr7_x1).
head(r_fr7_291,fr7_w1).
body(r_fr7_291,fr7_a1).
body(r_fr7_291,fr7_a2).
body(r_fr7_291,fr7_a3).
body(r_fr7_291,fr7_e1).
body(r_fr7_291,fr7_x1).
head(r_fr7_292,fr7_w1).
body(r_fr7_292,fr7_a3).
body(r_fr7_292,fr7_b1).
body(r_fr7_292,fr7_e2).
body(r_fr7_292,fr8_c1).
head(r_fr7_293,fr7_w1).
body(r_fr7_293,fr3_f1).
body(r_fr7_293,fr7_c3).
body(r_fr7_293,fr7_d2).
head(r_fr7_294,fr7_w1).
body(r_fr7_294,fr7_d2).
body(r_fr7_294,fr7_f1).
body(r_fr7_294,fr7_y2).
head(r_fr7_295,fr7_w1).
body(r_fr7_295,fr7_a1).
body(r_fr7_295,fr7_b1).
body(r_fr7_295,fr7_b2).
body(r_fr7_295,fr7_c3).
body(r_fr7_295,fr7_e1).
body(r_fr7_295,fr7_e2).
head(r_fr7_296,fr7_w1).
body(r_fr7_296,fr7_c3).
head(r_fr7_297,fr7_w1).
body(r_fr7_297,fr7_d2).
body(r_fr7_297,fr7_q2).
body(r_fr7_297,fr7_s1).
body(r_fr7_297,fr7_y2).
head(r_fr7_298,fr7_w1).
body(r_fr7_298,fr7_s1).
body(r_fr7_298,fr7_u1).
body(r_fr7_298,fr7_u2).
body(r_fr7_298,fr7_x2).
head(r_fr7_299,fr7_w1).
body(r_fr7_299,fr7_a2).
body(r_fr7_299,fr3_f1).
body(r_fr7_299,fr7_c1).
body(r_fr7_299,fr7_d1).
body(r_fr7_299,fr7_u1).
body(r_fr7_299,fr7_y2).
head(r_fr7_300,fr7_w1).
head(r_fr7_301,fr7_q2).
body(r_fr7_301,fr7_e2).
body(r_fr7_301,fr7_p1).
body(r_fr7_301,fr7_q1).
body(r_fr7_301,fr2_b2).
body(r_fr7_301,fr7_x1).
head(r_fr7_302,fr7_q2).
body(r_fr7_302,fr7_b1).
body(r_fr7_302,fr7_b2).
body(r_fr7_302,fr7_f1).
head(r_fr7_303,fr7_q2).
body(r_fr7_303,fr7_c2).
body(r_fr7_303,fr7_p1).
body(r_fr7_303,fr7_x1).
head(r_fr7_304,fr7_q2).
body(r_fr7_304,fr7_a2).
body(r_fr7_304,fr7_c3).
body(r_fr7_304,fr7_d2).
head(r_fr7_305,fr7_q2).
body(r_fr7_305,fr7_b1).
body(r_fr7_305,fr7_c2).
head(r_fr7_306,fr7_q2).
body(r_fr7_306,fr7_d1).
body(r_fr7_306,fr2_b2).
head(r_fr7_307,fr7_q2).
body(r_fr7_307,fr7_a1).
body(r_fr7_307,fr7_c3).
body(r_fr7_307,fr7_f1).
head(r_fr7_308,fr7_q2).
body(r_fr7_308,fr7_c2).
body(r_fr7_308,fr7_v2).
head(r_fr7_309,fr7_q2).
body(r_fr7_309,fr7_a1).
body(r_fr7_309,fr7_a2).
body(r_fr7_309,fr7_e2).
body(r_fr7_309,fr7_u1).
body(r_fr7_309,fr7_u2).
body(r_fr7_309,fr7_y2).
head(r_fr7_310,fr7_q2).
body(r_fr7_310,fr3_f1).
body(r_fr7_310,fr7_q1).
body(r_fr7_310,fr2_b2).
body(r_fr7_310,fr7_u2).
body(r_fr7_310,fr7_v2).
body(r_fr7_310,fr7_z2).
head(r_fr7_311,fr7_q2).
body(r_fr7_311,fr7_b1).
body(r_fr7_311,fr7_d2).
body(r_fr7_311,fr7_e2).
body(r_fr7_311,fr7_q3).
body(r_fr7_311,fr7_x2).
body(r_fr7_311,fr7_y2).
head(r_fr7_312,fr7_q2).
body(r_fr7_312,fr8_c1).
body(r_fr7_312,fr7_q1).
head(r_fr7_313,fr7_q2).
body(r_fr7_313,fr7_s1).
body(r_fr7_313,fr7_z2).
head(r_fr7_314,fr7_q2).
body(r_fr7_314,fr7_c2).
body(r_fr7_314,fr7_e1).
body(r_fr7_314,fr7_u2).
body(r_fr7_314,fr7_x1).
head(r_fr7_315,fr7_q2).
body(r_fr7_315,fr7_p1).
body(r_fr7_315,fr7_q3).
body(r_fr7_315,fr7_s1).
body(r_fr7_315,fr7_v2).
body(r_fr7_315,fr7_y2).
head(r_fr7_316,fr7_q2).
body(r_fr7_316,fr7_q3).
body(r_fr7_316,fr7_x2).
head(r_fr7_317,fr7_q2).
body(r_fr7_317,fr7_q3).
body(r_fr7_317,fr7_y2).
head(r_fr7_318,fr7_q2).
body(r_fr7_318,fr7_d2).
body(r_fr7_318,fr7_x2).
head(r_fr7_319,fr7_q2).
body(r_fr7_319,fr7_b2).
body(r_fr7_319,fr7_p1).
body(r_fr7_319,fr7_u2).
body(r_fr7_319,fr7_v2).
body(r_fr7_319,fr7_x2).
body(r_fr7_319,fr7_z2).
head(r_fr7_320,fr7_q2).
body(r_fr7_320,fr7_a1).
body(r_fr7_320,fr7_c1).
body(r_fr7_320,fr7_c3).
head(r_fr7_321,fr7_q2).
body(r_fr7_321,fr7_a1).
head(r_fr7_322,fr7_q2).
body(r_fr7_322,fr7_a2).
body(r_fr7_322,fr7_b2).
body(r_fr7_322,fr7_u1).
head(r_fr7_323,fr7_q2).
body(r_fr7_323,fr3_f1).
body(r_fr7_323,fr7_q1).
head(r_fr7_324,fr7_q2).
head(r_fr7_325,fr7_x1).
body(r_fr7_325,fr7_b2).
body(r_fr7_325,fr7_e2).
head(r_fr7_326,fr7_x1).
body(r_fr7_326,fr7_q1).
head(r_fr7_327,fr7_x1).
body(r_fr7_327,fr7_p1).
body(r_fr7_327,fr7_q3).
body(r_fr7_327,fr7_x2).
body(r_fr7_327,fr7_y2).
body(r_fr7_327,fr7_z2).
head(r_fr7_328,fr7_x1).
body(r_fr7_328,fr2_b2).
body(r_fr7_328,fr7_x2).
head(r_fr7_329,fr7_x1).
body(r_fr7_329,fr7_p1).
body(r_fr7_329,fr2_b2).
body(r_fr7_329,fr7_u2).
body(r_fr7_329,fr7_v2).
body(r_fr7_329,fr7_x2).
body(r_fr7_329,fr7_z2).
head(r_fr7_330,fr7_x1).
body(r_fr7_330,fr7_p1).
body(r_fr7_330,fr7_q1).
body(r_fr7_330,fr7_x2).
body(r_fr7_330,fr7_z2).
head(r_fr7_331,fr7_x1).
body(r_fr7_331,fr7_a3).
body(r_fr7_331,fr7_b1).
body(r_fr7_331,fr3_f1).
body(r_fr7_331,fr7_d1).
body(r_fr7_331,fr7_e2).
head(r_fr7_332,fr7_x1).
body(r_fr7_332,fr7_b2).
body(r_fr7_332,fr7_d2).
body(r_fr7_332,fr8_c1).
body(r_fr7_332,fr7_q1).
body(r_fr7_332,fr7_u1).
body(r_fr7_332,fr7_z2).
head(r_fr7_333,fr7_x1).
body(r_fr7_333,fr7_s1).
body(r_fr7_333,fr7_u1).
body(r_fr7_333,fr7_x2).
body(r_fr7_333,fr7_y2).
body(r_fr7_333,fr7_z2).
head(r_fr7_334,fr7_x1).
body(r_fr7_334,fr7_d2).
body(r_fr7_334,fr7_f1).
body(r_fr7_334,fr8_c1).
body(r_fr7_334,fr2_b2).
body(r_fr7_334,fr7_u1).
head(r_fr7_335,fr7_x1).
body(r_fr7_335,fr7_a1).
body(r_fr7_335,fr7_b1).
body(r_fr7_335,fr7_q3).
body(r_fr7_335,fr2_b2).
body(r_fr7_335,fr7_u2).
head(r_fr7_336,fr7_x1).
body(r_fr7_336,fr7_e1).
body(r_fr7_336,fr7_e2).
body(r_fr7_336,fr7_p1).
body(r_fr7_336,fr7_u1).
body(r_fr7_336,fr7_x2).
body(r_fr7_336,fr7_y2).
head(r_fr7_337,fr7_x1).
body(r_fr7_337,fr7_a2).
body(r_fr7_337,fr7_b1).
body(r_fr7_337,fr2_b2).
body(r_fr7_337,fr7_z2).
head(r_fr7_338,fr7_x1).
body(r_fr7_338,fr7_a2).
body(r_fr7_338,fr7_b2).
body(r_fr7_338,fr7_d2).
head(r_fr7_339,fr7_x1).
body(r_fr7_339,fr7_a3).
body(r_fr7_339,fr7_b1).
body(r_fr7_339,fr7_c1).
body(r_fr7_339,fr7_d2).
body(r_fr7_339,fr8_c1).
head(r_fr7_340,fr7_x1).
body(r_fr7_340,fr7_c1).
head(r_fr7_341,fr7_x1).
head(r_fr7_342,fr7_x1).
body(r_fr7_342,fr7_d2).
body(r_fr7_342,fr7_p1).
body(r_fr7_342,fr7_u1).
body(r_fr7_342,fr7_u2).
body(r_fr7_342,fr7_x2).
head(r_fr7_343,fr7_x1).
body(r_fr7_343,fr7_b1).
body(r_fr7_343,fr3_f1).
head(r_fr7_344,fr7_x1).
body(r_fr7_344,fr7_c2).
body(r_fr7_344,fr7_c3).
body(r_fr7_344,fr8_c1).
head(r_fr7_345,fr7_x1).
body(r_fr7_345,fr7_a1).
body(r_fr7_345,fr7_b2).
body(r_fr7_345,fr7_c2).
body(r_fr7_345,fr8_c1).
head(r_fr7_346,fr7_x1).
body(r_fr7_346,fr7_c3).
body(r_fr7_346,fr7_e1).
body(r_fr7_346,fr7_f1).
body(r_fr7_346,fr7_u1).
body(r_fr7_346,fr7_z2).
head(r_fr7_347,fr7_x1).
body(r_fr7_347,fr3_f1).
body(r_fr7_347,fr7_c1).
body(r_fr7_347,fr7_p1).
body(r_fr7_347,fr7_q1).
body(r_fr7_347,fr7_u1).
body(r_fr7_347,fr7_u2).
head(r_fr7_348,fr7_x1).
body(r_fr7_348,fr7_a2).
body(r_fr7_348,fr7_a3).
body(r_fr7_348,fr7_d1).
body(r_fr7_348,fr7_e1).
head(r_fr7_349,fr7_x1).
body(r_fr7_349,fr7_u2).
head(r_fr7_350,fr7_x1).
body(r_fr7_350,fr7_e2).
body(r_fr7_350,fr7_p1).
head(r_fr7_351,fr2_b2).
body(r_fr7_351,fr7_a2).
body(r_fr7_351,fr8_c1).
body(r_fr7_351,fr7_q1).
body(r_fr7_351,fr7_u1).
body(r_fr7_351,fr7_u2).
body(r_fr7_351,fr7_v2).
head(r_fr7_352,fr2_b2).
body(r_fr7_352,fr7_s1).
body(r_fr7_352,fr7_u2).
head(r_fr7_353,fr2_b2).
body(r_fr7_353,fr7_q1).
body(r_fr7_353,fr7_s1).
body(r_fr7_353,fr7_u1).
body(r_fr7_353,fr7_u2).
body(r_fr7_353,fr7_x2).
body(r_fr7_353,fr7_z2).
head(r_fr7_354,fr2_b2).
body(r_fr7_354,fr7_f1).
body(r_fr7_354,fr7_p1).
body(r_fr7_354,fr7_u1).
body(r_fr7_354,fr7_v2).
head(r_fr7_355,fr2_b2).
body(r_fr7_355,fr7_q1).
body(r_fr7_355,fr7_q3).
body(r_fr7_355,fr7_y2).
head(r_fr7_356,fr2_b2).
body(r_fr7_356,fr7_v2).
body(r_fr7_356,fr7_z2).
head(r_fr7_357,fr2_b2).
body(r_fr7_357,fr7_a1).
body(r_fr7_357,fr7_e1).
body(r_fr7_357,fr8_c1).
body(r_fr7_357,fr7_p1).
body(r_fr7_357,fr7_u2).
head(r_fr7_358,fr2_b2).
body(r_fr7_358,fr7_e1).
body(r_fr7_358,fr7_e2).
body(r_fr7_358,fr7_p1).
body(r_fr7_358,fr7_y2).
head(r_fr7_359,fr2_b2).
body(r_fr7_359,fr7_d1).
body(r_fr7_359,fr7_e2).
body(r_fr7_359,fr7_f1).
body(r_fr7_359,fr8_c1).
body(r_fr7_359,fr7_s1).
head(r_fr7_360,fr2_b2).
body(r_fr7_360,fr7_a3).
head(r_fr7_361,fr2_b2).
body(r_fr7_361,fr7_a2).
body(r_fr7_361,fr7_b1).
body(r_fr7_361,fr7_b2).
body(r_fr7_361,fr7_c1).
body(r_fr7_361,fr7_d1).
body(r_fr7_361,fr7_f1).
head(r_fr7_362,fr2_b2).
body(r_fr7_362,fr7_b2).
body(r_fr7_362,fr7_c3).
body(r_fr7_362,fr7_u2).
head(r_fr7_363,fr2_b2).
body(r_fr7_363,fr7_a3).
body(r_fr7_363,fr7_b2).
body(r_fr7_363,fr7_d2).
body(r_fr7_363,fr7_p1).
body(r_fr7_363,fr7_v2).
head(r_fr7_364,fr2_b2).
body(r_fr7_364,fr7_a2).
body(r_fr7_364,fr7_a3).
body(r_fr7_364,fr7_e1).
body(r_fr7_364,fr7_s1).
body(r_fr7_364,fr7_z2).
head(r_fr7_365,fr2_b2).
body(r_fr7_365,fr7_c2).
body(r_fr7_365,fr7_f1).
body(r_fr7_365,fr7_q1).
body(r_fr7_365,fr7_s1).
body(r_fr7_365,fr7_x2).
head(r_fr7_366,fr2_b2).
body(r_fr7_366,fr7_c1).
body(r_fr7_366,fr7_c2).
head(r_fr7_367,fr2_b2).
body(r_fr7_367,fr7_b2).
body(r_fr7_367,fr7_p1).
body(r_fr7_367,fr7_q1).
body(r_fr7_367,fr7_u1).
body(r_fr7_367,fr7_y2).
body(r_fr7_367,fr7_z2).
head(r_fr7_368,fr2_b2).
body(r_fr7_368,fr7_a3).
body(r_fr7_368,fr7_b1).
body(r_fr7_368,fr7_q1).
body(r_fr7_368,fr7_x2).
head(r_fr7_369,fr2_b2).
body(r_fr7_369,fr7_c3).
body(r_fr7_369,fr7_q1).
body(r_fr7_369,fr7_u1).
head(r_fr7_370,fr2_b2).
body(r_fr7_370,fr7_q3).
head(r_fr7_371,fr2_b2).
body(r_fr7_371,fr7_c3).
body(r_fr7_371,fr7_q1).
body(r_fr7_371,fr7_u2).
head(r_fr7_372,fr2_b2).
body(r_fr7_372,fr7_q3).
body(r_fr7_372,fr7_v2).
body(r_fr7_372,fr7_z2).
head(r_fr7_373,fr2_b2).
body(r_fr7_373,fr7_a2).
body(r_fr7_373,fr7_q1).
body(r_fr7_373,fr7_q3).
body(r_fr7_373,fr7_s1).
head(r_fr7_374,fr2_b2).
head(r_fr7_375,fr7_q1).
body(r_fr7_375,fr7_a3).
body(r_fr7_375,fr7_b1).
body(r_fr7_375,fr7_c2).
body(r_fr7_375,fr8_c1).
body(r_fr7_375,fr7_s1).
head(r_fr7_376,fr7_q1).
body(r_fr7_376,fr3_f1).
body(r_fr7_376,fr7_d2).
body(r_fr7_376,fr7_z2).
head(r_fr7_377,fr7_q1).
body(r_fr7_377,fr7_b2).
body(r_fr7_377,fr7_p1).
head(r_fr7_378,fr7_q1).
body(r_fr7_378,fr7_b1).
body(r_fr7_378,fr7_e2).
body(r_fr7_378,fr7_p1).
body(r_fr7_378,fr7_q3).
body(r_fr7_378,fr7_u1).
body(r_fr7_378,fr7_y2).
head(r_fr7_379,fr7_q1).
body(r_fr7_379,fr8_c1).
body(r_fr7_379,fr7_u2).
body(r_fr7_379,fr7_x2).
body(r_fr7_379,fr7_y2).
head(r_fr7_380,fr7_q1).
body(r_fr7_380,fr7_e2).
body(r_fr7_380,fr7_s1).
body(r_fr7_380,fr7_u2).
body(r_fr7_380,fr7_v2).
body(r_fr7_380,fr7_y2).
body(r_fr7_380,fr7_z2).
head(r_fr7_381,fr7_q1).
body(r_fr7_381,fr7_a3).
body(r_fr7_381,fr7_u1).
body(r_fr7_381,fr7_v2).
body(r_fr7_381,fr7_x2).
head(r_fr7_382,fr7_q1).
body(r_fr7_382,fr7_e1).
body(r_fr7_382,fr7_f1).
body(r_fr7_382,fr7_q3).
body(r_fr7_382,fr7_s1).
body(r_fr7_382,fr7_z2).
head(r_fr7_383,fr7_q1).
body(r_fr7_383,fr7_a3).
head(r_fr7_384,fr7_q1).
body(r_fr7_384,fr7_p1).
body(r_fr7_384,fr7_s1).
head(r_fr7_385,fr7_q1).
body(r_fr7_385,fr7_a1).
body(r_fr7_385,fr7_q3).
body(r_fr7_385,fr7_s1).
body(r_fr7_385,fr7_u1).
body(r_fr7_385,fr7_x2).
body(r_fr7_385,fr7_y2).
head(r_fr7_386,fr7_q1).
body(r_fr7_386,fr7_c1).
body(r_fr7_386,fr7_d2).
body(r_fr7_386,fr7_e1).
head(r_fr7_387,fr7_q1).
body(r_fr7_387,fr7_d2).
body(r_fr7_387,fr7_y2).
head(r_fr7_388,fr7_q1).
body(r_fr7_388,fr7_a2).
body(r_fr7_388,fr7_e2).
body(r_fr7_388,fr8_c1).
body(r_fr7_388,fr7_s1).
body(r_fr7_388,fr7_z2).
head(r_fr7_389,fr7_q1).
body(r_fr7_389,fr7_d1).
body(r_fr7_389,fr7_e2).
body(r_fr7_389,fr7_u1).
head(r_fr7_390,fr7_q1).
body(r_fr7_390,fr7_c1).
body(r_fr7_390,fr7_s1).
body(r_fr7_390,fr7_v2).
head(r_fr7_391,fr7_q1).
body(r_fr7_391,fr7_a1).
body(r_fr7_391,fr3_f1).
body(r_fr7_391,fr7_c1).
body(r_fr7_391,fr7_c2).
body(r_fr7_391,fr7_d2).
body(r_fr7_391,fr8_c1).
head(r_fr7_392,fr7_q1).
body(r_fr7_392,fr7_q3).
head(r_fr7_393,fr7_q1).
body(r_fr7_393,fr7_a3).
body(r_fr7_393,fr7_c3).
head(r_fr7_394,fr7_q1).
body(r_fr7_394,fr7_c1).
body(r_fr7_394,fr7_d1).
body(r_fr7_394,fr7_d2).
body(r_fr7_394,fr7_e1).
body(r_fr7_394,fr7_e2).
head(r_fr7_395,fr7_q1).
body(r_fr7_395,fr7_c1).
body(r_fr7_395,fr7_p1).
body(r_fr7_395,fr7_q3).
body(r_fr7_395,fr7_s1).
body(r_fr7_395,fr7_z2).
head(r_fr7_396,fr7_q1).
head(r_fr7_397,fr7_q1).
body(r_fr7_397,fr7_c2).
body(r_fr7_397,fr7_e1).
body(r_fr7_397,fr7_x2).
body(r_fr7_397,fr7_z2).
head(r_fr7_398,fr7_s1).
body(r_fr7_398,fr7_d1).
body(r_fr7_398,fr7_p1).
body(r_fr7_398,fr7_q3).
body(r_fr7_398,fr7_u1).
body(r_fr7_398,fr7_u2).
body(r_fr7_398,fr7_x2).
head(r_fr7_399,fr7_s1).
body(r_fr7_399,fr7_a3).
body(r_fr7_399,fr7_c2).
head(r_fr7_400,fr7_s1).
body(r_fr7_400,fr7_a2).
body(r_fr7_400,fr7_b2).
body(r_fr7_400,fr3_f1).
body(r_fr7_400,fr7_c2).
head(r_fr7_401,fr7_s1).
body(r_fr7_401,fr3_f1).
body(r_fr7_401,fr7_c2).
body(r_fr7_401,fr7_d1).
body(r_fr7_401,fr7_d2).
body(r_fr7_401,fr8_c1).
head(r_fr7_402,fr7_s1).
body(r_fr7_402,fr7_p1).
body(r_fr7_402,fr7_u2).
head(r_fr7_403,fr7_s1).
body(r_fr7_403,fr7_b1).
body(r_fr7_403,fr7_b2).
body(r_fr7_403,fr3_f1).
body(r_fr7_403,fr7_c1).
body(r_fr7_403,fr7_d1).
body(r_fr7_403,fr7_z2).
head(r_fr7_404,fr7_s1).
body(r_fr7_404,fr7_b1).
body(r_fr7_404,fr7_d1).
head(r_fr7_405,fr7_s1).
body(r_fr7_405,fr7_a3).
body(r_fr7_405,fr7_c3).
body(r_fr7_405,fr7_u1).
body(r_fr7_405,fr7_x2).
head(r_fr7_406,fr7_s1).
body(r_fr7_406,fr3_f1).
head(r_fr7_407,fr7_s1).
body(r_fr7_407,fr7_f1).
head(r_fr7_408,fr7_s1).
body(r_fr7_408,fr7_a1).
body(r_fr7_408,fr7_q3).
body(r_fr7_408,fr7_u1).
body(r_fr7_408,fr7_u2).
body(r_fr7_408,fr7_x2).
body(r_fr7_408,fr7_z2).
head(r_fr7_409,fr7_s1).
body(r_fr7_409,fr7_p1).
body(r_fr7_409,fr7_q3).
body(r_fr7_409,fr7_u1).
body(r_fr7_409,fr7_v2).
body(r_fr7_409,fr7_x2).
body(r_fr7_409,fr7_z2).
head(r_fr7_410,fr7_s1).
body(r_fr7_410,fr7_c1).
body(r_fr7_410,fr7_p1).
body(r_fr7_410,fr7_x2).
body(r_fr7_410,fr7_y2).
head(r_fr7_411,fr7_s1).
body(r_fr7_411,fr7_b2).
body(r_fr7_411,fr8_c1).
body(r_fr7_411,fr7_x2).
body(r_fr7_411,fr7_y2).
head(r_fr7_412,fr7_s1).
body(r_fr7_412,fr7_f1).
body(r_fr7_412,fr7_q3).
head(r_fr7_413,fr7_s1).
body(r_fr7_413,fr7_f1).
body(r_fr7_413,fr7_p1).
body(r_fr7_413,fr7_u1).
body(r_fr7_413,fr7_u2).
body(r_fr7_413,fr7_v2).
body(r_fr7_413,fr7_x2).
head(r_fr7_414,fr7_s1).
body(r_fr7_414,fr7_u1).
body(r_fr7_414,fr7_x2).
body(r_fr7_414,fr7_y2).
head(r_fr7_415,fr7_s1).
body(r_fr7_415,fr7_c2).
body(r_fr7_415,fr7_f1).
head(r_fr7_416,fr7_s1).
body(r_fr7_416,fr7_a1).
body(r_fr7_416,fr7_b1).
head(r_fr7_417,fr7_s1).
body(r_fr7_417,fr7_u2).
body(r_fr7_417,fr7_x2).
body(r_fr7_417,fr7_y2).
body(r_fr7_417,fr7_z2).
head(r_fr7_418,fr7_s1).
body(r_fr7_418,fr7_a2).
body(r_fr7_418,fr7_a3).
body(r_fr7_418,fr7_b1).
body(r_fr7_418,fr7_d2).
body(r_fr7_418,fr7_e2).
head(r_fr7_419,fr7_s1).
head(r_fr7_420,fr7_s1).
body(r_fr7_420,fr7_d2).
body(r_fr7_420,fr7_e1).
body(r_fr7_420,fr7_p1).
body(r_fr7_420,fr7_v2).
body(r_fr7_420,fr7_x2).
head(r_fr7_421,fr7_s1).
body(r_fr7_421,fr7_c2).
body(r_fr7_421,fr7_f1).
body(r_fr7_421,fr8_c1).
body(r_fr7_421,fr7_p1).
body(r_fr7_421,fr7_q3).
body(r_fr7_421,fr7_y2).
head(r_fr7_422,fr7_y2).
body(r_fr7_422,fr7_a2).
body(r_fr7_422,fr7_p1).
body(r_fr7_422,fr7_u1).
head(r_fr7_423,fr7_y2).
body(r_fr7_423,fr7_a1).
body(r_fr7_423,fr3_f1).
body(r_fr7_423,fr7_c2).
body(r_fr7_423,fr7_c3).
body(r_fr7_423,fr7_f1).
head(r_fr7_424,fr7_y2).
body(r_fr7_424,fr7_a3).
head(r_fr7_425,fr7_y2).
body(r_fr7_425,fr7_a1).
body(r_fr7_425,fr7_b1).
body(r_fr7_425,fr7_b2).
body(r_fr7_425,fr7_d1).
head(r_fr7_426,fr7_y2).
body(r_fr7_426,fr7_u2).
head(r_fr7_427,fr7_y2).
body(r_fr7_427,fr7_a3).
body(r_fr7_427,fr7_b1).
body(r_fr7_427,fr3_f1).
body(r_fr7_427,fr7_c1).
body(r_fr7_427,fr7_c2).
body(r_fr7_427,fr7_z2).
head(r_fr7_428,fr7_y2).
body(r_fr7_428,fr8_c1).
body(r_fr7_428,fr7_p1).
body(r_fr7_428,fr7_q3).
body(r_fr7_428,fr7_v2).
body(r_fr7_428,fr7_z2).
head(r_fr7_429,fr7_y2).
body(r_fr7_429,fr7_a3).
body(r_fr7_429,fr7_b2).
body(r_fr7_429,fr7_q3).
body(r_fr7_429,fr7_u1).
body(r_fr7_429,fr7_z2).
head(r_fr7_430,fr7_y2).
body(r_fr7_430,fr7_a2).
body(r_fr7_430,fr7_b1).
body(r_fr7_430,fr7_c2).
body(r_fr7_430,fr7_d2).
head(r_fr7_431,fr7_y2).
body(r_fr7_431,fr7_a2).
body(r_fr7_431,fr7_c1).
body(r_fr7_431,fr7_c2).
body(r_fr7_431,fr7_q3).
body(r_fr7_431,fr7_u2).
body(r_fr7_431,fr7_x2).
head(r_fr7_432,fr7_y2).
body(r_fr7_432,fr7_p1).
body(r_fr7_432,fr7_q3).
body(r_fr7_432,fr7_u1).
body(r_fr7_432,fr7_x2).
head(r_fr7_433,fr7_y2).
body(r_fr7_433,fr3_f1).
body(r_fr7_433,fr7_c1).
body(r_fr7_433,fr7_c3).
body(r_fr7_433,fr8_c1).
body(r_fr7_433,fr7_v2).
head(r_fr7_434,fr7_y2).
body(r_fr7_434,fr7_a1).
body(r_fr7_434,fr7_c3).
body(r_fr7_434,fr7_d2).
body(r_fr7_434,fr8_c1).
body(r_fr7_434,fr7_u1).
body(r_fr7_434,fr7_z2).
head(r_fr7_435,fr7_y2).
body(r_fr7_435,fr7_a3).
body(r_fr7_435,fr7_c2).
body(r_fr7_435,fr7_u1).
body(r_fr7_435,fr7_u2).
body(r_fr7_435,fr7_v2).
body(r_fr7_435,fr7_z2).
head(r_fr7_436,fr7_y2).
body(r_fr7_436,fr7_a2).
body(r_fr7_436,fr7_c3).
head(r_fr7_437,fr7_y2).
body(r_fr7_437,fr7_d2).
body(r_fr7_437,fr7_f1).
body(r_fr7_437,fr7_v2).
body(r_fr7_437,fr7_x2).
head(r_fr7_438,fr7_y2).
body(r_fr7_438,fr7_a2).
body(r_fr7_438,fr7_p1).
body(r_fr7_438,fr7_u1).
body(r_fr7_438,fr7_x2).
body(r_fr7_438,fr7_z2).
head(r_fr7_439,fr7_y2).
body(r_fr7_439,fr7_b2).
body(r_fr7_439,fr7_d1).
head(r_fr7_440,fr7_y2).
body(r_fr7_440,fr7_u1).
body(r_fr7_440,fr7_u2).
head(r_fr7_441,fr7_y2).
body(r_fr7_441,fr7_p1).
body(r_fr7_441,fr7_u2).
body(r_fr7_441,fr7_x2).
body(r_fr7_441,fr7_z2).
head(r_fr7_442,fr7_y2).
body(r_fr7_442,fr7_p1).
body(r_fr7_442,fr7_q3).
body(r_fr7_442,fr7_u1).
body(r_fr7_442,fr7_v2).
body(r_fr7_442,fr7_x2).
body(r_fr7_442,fr7_z2).
head(r_fr7_443,fr7_y2).
body(r_fr7_443,fr7_c3).
body(r_fr7_443,fr7_f1).
body(r_fr7_443,fr7_u1).
body(r_fr7_443,fr7_z2).
head(r_fr7_444,fr7_y2).
body(r_fr7_444,fr7_f1).
head(r_fr7_445,fr7_y2).
head(r_fr7_446,fr7_q3).
body(r_fr7_446,fr7_c2).
body(r_fr7_446,fr7_f1).
head(r_fr7_447,fr7_q3).
body(r_fr7_447,fr7_a2).
body(r_fr7_447,fr7_c3).
body(r_fr7_447,fr7_u1).
head(r_fr7_448,fr7_q3).
body(r_fr7_448,fr7_a3).
body(r_fr7_448,fr7_b1).
body(r_fr7_448,fr3_f1).
body(r_fr7_448,fr7_c3).
body(r_fr7_448,fr7_v2).
head(r_fr7_449,fr7_q3).
body(r_fr7_449,fr7_a2).
body(r_fr7_449,fr7_c3).
body(r_fr7_449,fr7_e1).
body(r_fr7_449,fr7_u1).
body(r_fr7_449,fr7_v2).
body(r_fr7_449,fr7_z2).
head(r_fr7_450,fr7_q3).
body(r_fr7_450,fr7_x2).
head(r_fr7_451,fr7_q3).
body(r_fr7_451,fr7_a1).
body(r_fr7_451,fr7_a2).
body(r_fr7_451,fr7_a3).
body(r_fr7_451,fr3_f1).
body(r_fr7_451,fr8_c1).
body(r_fr7_451,fr7_v2).
head(r_fr7_452,fr7_q3).
body(r_fr7_452,fr7_p1).
body(r_fr7_452,fr7_u1).
body(r_fr7_452,fr7_u2).
body(r_fr7_452,fr7_z2).
head(r_fr7_453,fr7_q3).
body(r_fr7_453,fr7_c1).
body(r_fr7_453,fr7_p1).
body(r_fr7_453,fr7_u1).
body(r_fr7_453,fr7_u2).
body(r_fr7_453,fr7_v2).
body(r_fr7_453,fr7_x2).
head(r_fr7_454,fr7_q3).
body(r_fr7_454,fr7_e1).
head(r_fr7_455,fr7_q3).
body(r_fr7_455,fr7_a2).
head(r_fr7_456,fr7_q3).
body(r_fr7_456,fr7_p1).
body(r_fr7_456,fr7_u2).
head(r_fr7_457,fr7_q3).
body(r_fr7_457,fr7_a3).
body(r_fr7_457,fr7_b1).
body(r_fr7_457,fr7_c1).
body(r_fr7_457,fr7_d1).
body(r_fr7_457,fr7_e2).
body(r_fr7_457,fr8_c1).
head(r_fr7_458,fr7_q3).
body(r_fr7_458,fr7_a3).
body(r_fr7_458,fr7_c2).
body(r_fr7_458,fr7_e2).
body(r_fr7_458,fr8_c1).
body(r_fr7_458,fr7_z2).
head(r_fr7_459,fr7_q3).
body(r_fr7_459,fr7_v2).
body(r_fr7_459,fr7_z2).
head(r_fr7_460,fr7_q3).
body(r_fr7_460,fr7_a3).
body(r_fr7_460,fr7_c3).
body(r_fr7_460,fr7_d2).
body(r_fr7_460,fr7_e2).
body(r_fr7_460,fr7_u2).
body(r_fr7_460,fr7_x2).
head(r_fr7_461,fr7_q3).
body(r_fr7_461,fr7_a1).
body(r_fr7_461,fr7_d1).
body(r_fr7_461,fr7_v2).
head(r_fr7_462,fr7_q3).
body(r_fr7_462,fr7_a2).
body(r_fr7_462,fr7_u1).
body(r_fr7_462,fr7_v2).
body(r_fr7_462,fr7_z2).
head(r_fr7_463,fr7_q3).
body(r_fr7_463,fr7_a2).
body(r_fr7_463,fr7_a3).
body(r_fr7_463,fr7_b2).
body(r_fr7_463,fr3_f1).
body(r_fr7_463,fr7_v2).
head(r_fr7_464,fr7_q3).
body(r_fr7_464,fr7_u2).
head(r_fr7_465,fr7_q3).
body(r_fr7_465,fr7_a1).
body(r_fr7_465,fr3_f1).
body(r_fr7_465,fr7_d1).
body(r_fr7_465,fr7_u2).
head(r_fr7_466,fr7_q3).
head(r_fr7_467,fr7_q3).
body(r_fr7_467,fr7_c2).
body(r_fr7_467,fr7_c3).
body(r_fr7_467,fr7_x2).
head(r_fr7_468,fr7_q3).
body(r_fr7_468,fr7_a3).
body(r_fr7_468,fr7_c3).
body(r_fr7_468,fr7_d1).
body(r_fr7_468,fr7_v2).
body(r_fr7_468,fr7_x2).
body(r_fr7_468,fr7_z2).
head(r_fr7_469,fr7_q3).
body(r_fr7_469,fr7_c3).
body(r_fr7_469,fr7_p1).
body(r_fr7_469,fr7_v2).
head(r_fr7_470,fr7_q3).
body(r_fr7_470,fr7_f1).
body(r_fr7_470,fr7_p1).
head(r_fr7_471,fr7_q3).
body(r_fr7_471,fr7_c2).
body(r_fr7_471,fr7_x2).
body(r_fr7_471,fr7_z2).
head(r_fr7_472,fr7_p1).
body(r_fr7_472,fr7_u1).
body(r_fr7_472,fr7_v2).
body(r_fr7_472,fr7_x2).
body(r_fr7_472,fr7_z2).
head(r_fr7_473,fr7_p1).
body(r_fr7_473,fr7_a3).
body(r_fr7_473,fr7_u2).
body(r_fr7_473,fr7_v2).
body(r_fr7_473,fr7_x2).
body(r_fr7_473,fr7_z2).
head(r_fr7_474,fr7_p1).
body(r_fr7_474,fr7_u1).
body(r_fr7_474,fr7_u2).
body(r_fr7_474,fr7_v2).
body(r_fr7_474,fr7_x2).
body(r_fr7_474,fr7_z2).
head(r_fr7_475,fr7_p1).
body(r_fr7_475,fr7_z2).
head(r_fr7_476,fr7_p1).
body(r_fr7_476,fr7_a1).
head(r_fr7_477,fr7_p1).
body(r_fr7_477,fr7_a1).
body(r_fr7_477,fr7_a3).
body(r_fr7_477,fr7_u1).
head(r_fr7_478,fr7_p1).
body(r_fr7_478,fr7_a2).
body(r_fr7_478,fr7_b1).
body(r_fr7_478,fr7_d1).
body(r_fr7_478,fr7_d2).
body(r_fr7_478,fr7_f1).
body(r_fr7_478,fr8_c1).
head(r_fr7_479,fr7_p1).
body(r_fr7_479,fr7_u2).
body(r_fr7_479,fr7_x2).
head(r_fr7_480,fr7_p1).
body(r_fr7_480,fr7_a1).
body(r_fr7_480,fr7_a3).
head(r_fr7_481,fr7_p1).
body(r_fr7_481,fr7_u1).
head(r_fr7_482,fr7_p1).
body(r_fr7_482,fr7_d2).
body(r_fr7_482,fr7_f1).
body(r_fr7_482,fr8_c1).
body(r_fr7_482,fr7_u1).
head(r_fr7_483,fr7_p1).
body(r_fr7_483,fr7_a2).
body(r_fr7_483,fr7_b2).
body(r_fr7_483,fr3_f1).
body(r_fr7_483,fr7_e2).
body(r_fr7_483,fr7_x2).
head(r_fr7_484,fr7_p1).
body(r_fr7_484,fr7_a2).
body(r_fr7_484,fr7_c1).
body(r_fr7_484,fr7_c3).
body(r_fr7_484,fr7_u1).
head(r_fr7_485,fr7_p1).
body(r_fr7_485,fr7_u1).
body(r_fr7_485,fr7_v2).
body(r_fr7_485,fr7_x2).
head(r_fr7_486,fr7_p1).
body(r_fr7_486,fr7_u1).
body(r_fr7_486,fr7_u2).
body(r_fr7_486,fr7_v2).
body(r_fr7_486,fr7_z2).
head(r_fr7_487,fr7_p1).
body(r_fr7_487,fr7_u1).
body(r_fr7_487,fr7_x2).
head(r_fr7_488,fr7_p1).
body(r_fr7_488,fr7_d2).
body(r_fr7_488,fr7_u1).
body(r_fr7_488,fr7_u2).
body(r_fr7_488,fr7_x2).
head(r_fr7_489,fr7_p1).
body(r_fr7_489,fr7_a2).
body(r_fr7_489,fr7_d1).
body(r_fr7_489,fr7_d2).
head(r_fr7_490,fr7_p1).
body(r_fr7_490,fr7_x2).
body(r_fr7_490,fr7_z2).
head(r_fr7_491,fr7_p1).
body(r_fr7_491,fr7_b2).
body(r_fr7_491,fr7_u1).
body(r_fr7_491,fr7_u2).
body(r_fr7_491,fr7_v2).
body(r_fr7_491,fr7_z2).
head(r_fr7_492,fr7_p1).
head(r_fr7_493,fr7_p1).
body(r_fr7_493,fr7_c3).
body(r_fr7_493,fr8_c1).
body(r_fr7_493,fr7_u2).
body(r_fr7_493,fr7_v2).
body(r_fr7_493,fr7_x2).
head(r_fr7_494,fr7_p1).
body(r_fr7_494,fr7_u2).
body(r_fr7_494,fr7_v2).
body(r_fr7_494,fr7_z2).
head(r_fr7_495,fr7_p1).
body(r_fr7_495,fr7_c1).
body(r_fr7_495,fr7_c3).
body(r_fr7_495,fr7_u1).
body(r_fr7_495,fr7_v2).

% exp_acyclic_depvary_step8_batch_yyy01.pl
assumption(fr8_a1).
assumption(fr8_b1).
assumption(fr8_c1).
assumption(fr8_d1).
assumption(fr8_e1).
assumption(fr8_f1).
assumption(fr8_a2).
assumption(fr8_b2).
assumption(fr8_c2).
assumption(fr8_d2).
assumption(fr8_e2).
assumption(fr8_f2).
assumption(fr8_a3).
assumption(fr8_b3).
assumption(fr8_c3).
assumption(fr8_d3).
assumption(fr8_e3).
assumption(fr8_f3).
assumption(fr8_a4).
assumption(fr8_b4).
assumption(fr8_c4).
assumption(fr8_d4).
assumption(fr8_e4).
assumption(fr8_f4).
assumption(fr8_a5).
assumption(fr8_b5).
assumption(fr8_c5).
contrary(fr8_a1,fr8_c3).
contrary(fr8_a2,fr8_t4).
contrary(fr8_a3,fr8_c1).
contrary(fr8_a4,fr8_v4).
contrary(fr8_a5,fr8_s3).
contrary(fr8_b1,fr8_r4).
contrary(fr8_b2,fr8_d1).
contrary(fr8_b3,fr8_y3).
contrary(fr8_b4,fr8_p5).
contrary(fr8_b5,fr8_v2).
contrary(fr8_c1,fr8_a5).
contrary(fr8_c2,fr8_f2).
contrary(fr8_c3,fr8_a3).
contrary(fr8_c4,fr8_a5).
contrary(fr8_c5,fr8_d2).
contrary(fr8_d1,fr8_v1).
contrary(fr8_d2,fr8_a5).
contrary(fr8_d3,fr8_e1).
contrary(fr8_d4,fr8_b3).
contrary(fr8_e1,fr8_v2).
contrary(fr8_e2,fr8_x2).
contrary(fr8_e3,fr8_y2).
contrary(fr8_e4,fr8_t3).
contrary(fr8_f1,fr8_d4).
contrary(fr8_f2,fr8_a1).
contrary(fr8_f3,fr8_c5).
contrary(fr8_f4,fr8_a1).
head(r_fr8_0,fr8_q2).
body(r_fr8_0,fr8_d2).
body(r_fr8_0,fr8_p2).
body(r_fr8_0,fr8_r3).
body(r_fr8_0,fr8_u2).
body(r_fr8_0,fr8_v3).
body(r_fr8_0,fr8_y3).
body(r_fr8_0,fr8_z1).
head(r_fr8_1,fr8_q2).
body(r_fr8_1,fr8_z2).
head(r_fr8_2,fr8_q2).
body(r_fr8_2,fr8_d1).
body(r_fr8_2,fr8_d2).
head(r_fr8_3,fr8_q2).
body(r_fr8_3,fr8_u3).
body(r_fr8_3,fr8_w3).
body(r_fr8_3,fr8_y2).
body(r_fr8_3,fr8_y3).
head(r_fr8_4,fr8_y3).
body(r_fr8_4,fr8_a3).
body(r_fr8_4,fr8_b4).
body(r_fr8_4,fr8_b5).
body(r_fr8_4,fr8_d1).
body(r_fr8_4,fr8_e2).
body(r_fr8_4,fr8_p5).
body(r_fr8_4,fr8_u4).
head(r_fr8_5,fr8_y3).
body(r_fr8_5,fr8_d3).
body(r_fr8_5,fr8_p3).
body(r_fr8_5,fr8_w4).
body(r_fr8_5,fr8_y2).
body(r_fr8_5,fr8_z1).
head(r_fr8_6,fr8_x1).
body(r_fr8_6,fr8_c3).
body(r_fr8_6,fr8_w4).
body(r_fr8_6,fr8_y2).
head(r_fr8_7,fr8_x1).
body(r_fr8_7,fr8_d1).
body(r_fr8_7,fr8_d3).
body(r_fr8_7,fr8_d4).
body(r_fr8_7,fr8_f4).
head(r_fr8_8,fr8_x1).
body(r_fr8_8,fr8_c5).
body(r_fr8_8,fr8_d2).
body(r_fr8_8,fr8_f1).
body(r_fr8_8,fr8_f2).
body(r_fr8_8,fr8_r4).
body(r_fr8_8,fr8_w2).
body(r_fr8_8,fr8_x4).
body(r_fr8_8,fr8_z2).
body(r_fr8_8,fr8_z3).
head(r_fr8_9,fr8_x1).
body(r_fr8_9,fr8_s3).
body(r_fr8_9,fr8_u2).
head(r_fr8_10,fr8_v2).
body(r_fr8_10,fr8_a2).
body(r_fr8_10,fr8_f3).
body(r_fr8_10,fr8_x4).
head(r_fr8_11,fr8_v2).
body(r_fr8_11,fr8_a1).
body(r_fr8_11,fr8_a4).
body(r_fr8_11,fr8_d3).
body(r_fr8_11,fr8_r1).
head(r_fr8_12,fr8_v2).
body(r_fr8_12,fr8_t3).
head(r_fr8_13,fr8_v2).
body(r_fr8_13,fr8_a1).
body(r_fr8_13,fr8_b4).
body(r_fr8_13,fr8_c3).
body(r_fr8_13,fr8_d1).
body(r_fr8_13,fr8_d4).
body(r_fr8_13,fr8_e2).
body(r_fr8_13,fr8_u2).
head(r_fr8_14,fr8_v2).
body(r_fr8_14,fr8_b1).
body(r_fr8_14,fr8_e4).
body(r_fr8_14,fr8_r4).
head(r_fr8_15,fr8_v2).
body(r_fr8_15,fr8_d1).
body(r_fr8_15,fr8_e3).
body(r_fr8_15,fr8_u2).
body(r_fr8_15,fr8_v4).
head(r_fr8_16,fr8_v2).
body(r_fr8_16,fr8_a5).
body(r_fr8_16,fr8_d3).
body(r_fr8_16,fr8_s2).
head(r_fr8_17,fr8_v2).
body(r_fr8_17,fr8_c4).
body(r_fr8_17,fr8_f4).
body(r_fr8_17,fr8_y1).
head(r_fr8_18,fr8_v2).
body(r_fr8_18,fr8_a3).
body(r_fr8_18,fr8_c2).
body(r_fr8_18,fr8_e1).
body(r_fr8_18,fr8_s2).
body(r_fr8_18,fr8_s3).
head(r_fr8_19,fr8_x3).
body(r_fr8_19,fr8_p4).
body(r_fr8_19,fr8_r1).
body(r_fr8_19,fr8_s4).
body(r_fr8_19,fr8_v4).
head(r_fr8_20,fr8_x3).
head(r_fr8_21,fr8_x3).
body(r_fr8_21,fr8_a1).
body(r_fr8_21,fr8_b1).
body(r_fr8_21,fr8_e4).
body(r_fr8_21,fr8_q4).
body(r_fr8_21,fr8_w1).
head(r_fr8_22,fr8_x3).
body(r_fr8_22,fr8_a1).
body(r_fr8_22,fr8_a4).
body(r_fr8_22,fr8_a5).
body(r_fr8_22,fr8_b1).
body(r_fr8_22,fr8_c5).
body(r_fr8_22,fr8_d2).
body(r_fr8_22,fr8_e3).
body(r_fr8_22,fr8_v3).
head(r_fr8_23,fr8_p4).
body(r_fr8_23,fr8_b2).
body(r_fr8_23,fr8_b5).
body(r_fr8_23,fr8_d3).
head(r_fr8_24,fr8_p4).
body(r_fr8_24,fr8_a3).
body(r_fr8_24,fr8_b4).
body(r_fr8_24,fr8_c4).
body(r_fr8_24,fr8_e1).
body(r_fr8_24,fr8_f1).
body(r_fr8_24,fr8_q1).
body(r_fr8_24,fr8_q3).
body(r_fr8_24,fr8_t3).
body(r_fr8_24,fr8_u2).
head(r_fr8_25,fr8_p4).
body(r_fr8_25,fr8_c1).
head(r_fr8_26,fr8_p4).
body(r_fr8_26,fr8_d1).
body(r_fr8_26,fr8_f2).
body(r_fr8_26,fr8_f3).
body(r_fr8_26,fr8_p5).
body(r_fr8_26,fr8_q1).
body(r_fr8_26,fr8_q3).
body(r_fr8_26,fr8_v1).
head(r_fr8_27,fr8_p4).
head(r_fr8_28,fr8_p4).
body(r_fr8_28,fr8_b1).
body(r_fr8_28,fr8_d2).
body(r_fr8_28,fr8_e1).
body(r_fr8_28,fr8_f2).
body(r_fr8_28,fr8_q3).
body(r_fr8_28,fr8_q4).
body(r_fr8_28,fr8_r3).
body(r_fr8_28,fr8_s1).
body(r_fr8_28,fr8_v3).
body(r_fr8_28,fr8_z1).
head(r_fr8_29,fr8_p4).
body(r_fr8_29,fr8_f1).
body(r_fr8_29,fr8_p2).
body(r_fr8_29,fr8_t2).
body(r_fr8_29,fr8_u3).
body(r_fr8_29,fr8_u4).
body(r_fr8_29,fr8_v3).
body(r_fr8_29,fr8_w3).
body(r_fr8_29,fr8_z3).
head(r_fr8_30,fr8_p4).
body(r_fr8_30,fr8_a3).
body(r_fr8_30,fr8_d4).
body(r_fr8_30,fr8_e1).
body(r_fr8_30,fr8_e4).
body(r_fr8_30,fr8_r1).
body(r_fr8_30,fr8_u3).
body(r_fr8_30,fr8_u4).
body(r_fr8_30,fr8_v4).
body(r_fr8_30,fr8_x2).
body(r_fr8_30,fr8_y4).
head(r_fr8_31,fr8_r4).
body(r_fr8_31,fr8_c1).
body(r_fr8_31,fr8_u4).
body(r_fr8_31,fr8_w1).
body(r_fr8_31,fr8_w3).
body(r_fr8_31,fr8_y1).
head(r_fr8_32,fr8_r4).
head(r_fr8_33,fr8_r4).
body(r_fr8_33,fr8_b2).
body(r_fr8_33,fr8_f1).
body(r_fr8_33,fr8_f4).
body(r_fr8_33,fr6_t3).
body(r_fr8_33,fr8_q4).
body(r_fr8_33,fr8_r3).
body(r_fr8_33,fr8_s2).
body(r_fr8_33,fr3_v3).
body(r_fr8_33,fr8_w4).
head(r_fr8_34,fr8_r4).
body(r_fr8_34,fr8_d2).
head(r_fr8_35,fr8_r4).
body(r_fr8_35,fr8_f3).
body(r_fr8_35,fr8_p5).
body(r_fr8_35,fr8_r1).
body(r_fr8_35,fr8_y2).
body(r_fr8_35,fr8_z1).
body(r_fr8_35,fr8_z2).
head(r_fr8_36,fr8_r4).
body(r_fr8_36,fr8_d3).
body(r_fr8_36,fr8_f2).
head(r_fr8_37,fr8_r4).
body(r_fr8_37,fr8_a4).
body(r_fr8_37,fr8_b1).
body(r_fr8_37,fr8_b3).
body(r_fr8_37,fr8_c5).
body(r_fr8_37,fr8_f4).
body(r_fr8_37,fr8_q4).
body(r_fr8_37,fr8_s4).
body(r_fr8_37,fr8_z2).
head(r_fr8_38,fr8_r4).
body(r_fr8_38,fr8_u2).
body(r_fr8_38,fr8_w1).
body(r_fr8_38,fr8_z2).
body(r_fr8_38,fr8_z4).
head(r_fr8_39,fr6_t3).
body(r_fr8_39,fr8_a5).
body(r_fr8_39,fr8_b2).
body(r_fr8_39,fr8_b4).
body(r_fr8_39,fr8_b5).
body(r_fr8_39,fr8_c3).
body(r_fr8_39,fr8_c4).
body(r_fr8_39,fr8_d1).
body(r_fr8_39,fr8_e1).
body(r_fr8_39,fr8_e2).
body(r_fr8_39,fr8_s1).
head(r_fr8_40,fr6_t3).
head(r_fr8_41,fr8_y1).
body(r_fr8_41,fr8_a2).
body(r_fr8_41,fr8_a3).
body(r_fr8_41,fr8_c1).
body(r_fr8_41,fr8_c2).
body(r_fr8_41,fr8_d2).
body(r_fr8_41,fr8_d3).
body(r_fr8_41,fr8_e1).
body(r_fr8_41,fr8_e4).
body(r_fr8_41,fr8_f1).
head(r_fr8_42,fr8_y1).
body(r_fr8_42,fr8_q4).
body(r_fr8_42,fr8_r3).
body(r_fr8_42,fr8_s1).
body(r_fr8_42,fr8_t4).
body(r_fr8_42,fr8_u1).
body(r_fr8_42,fr8_v1).
body(r_fr8_42,fr8_w1).
body(r_fr8_42,fr8_x4).
body(r_fr8_42,fr8_y4).
body(r_fr8_42,fr8_z1).
head(r_fr8_43,fr8_y1).
body(r_fr8_43,fr8_a2).
body(r_fr8_43,fr8_b1).
body(r_fr8_43,fr8_s4).
head(r_fr8_44,fr8_y1).
body(r_fr8_44,fr8_p5).
body(r_fr8_44,fr8_q1).
body(r_fr8_44,fr8_s1).
body(r_fr8_44,fr8_s3).
body(r_fr8_44,fr8_s4).
body(r_fr8_44,fr8_w4).
head(r_fr8_45,fr8_y1).
body(r_fr8_45,fr8_a1).
body(r_fr8_45,fr8_b3).
body(r_fr8_45,fr8_c5).
body(r_fr8_45,fr8_d1).
body(r_fr8_45,fr8_d2).
body(r_fr8_45,fr8_e2).
body(r_fr8_45,fr8_e3).
body(r_fr8_45,fr8_e4).
body(r_fr8_45,fr3_v3).
body(r_fr8_45,fr8_z3).
head(r_fr8_46,fr8_y1).
body(r_fr8_46,fr8_c2).
body(r_fr8_46,fr8_d1).
body(r_fr8_46,fr8_w4).
body(r_fr8_46,fr8_x4).
head(r_fr8_47,fr8_y1).
body(r_fr8_47,fr8_e2).
body(r_fr8_47,fr8_q4).
body(r_fr8_47,fr8_r3).
body(r_fr8_47,fr8_s3).
body(r_fr8_47,fr8_s4).
body(r_fr8_47,fr8_t3).
body(r_fr8_47,fr8_w3).
body(r_fr8_47,fr8_x4).
head(r_fr8_48,fr8_u2).
body(r_fr8_48,fr8_t2).
body(r_fr8_48,fr8_y2).
head(r_fr8_49,fr8_u2).
body(r_fr8_49,fr8_b2).
body(r_fr8_49,fr8_e3).
body(r_fr8_49,fr8_e4).
body(r_fr8_49,fr8_f2).
body(r_fr8_49,fr8_s1).
body(r_fr8_49,fr8_w4).
head(r_fr8_50,fr8_u2).
body(r_fr8_50,fr8_a1).
body(r_fr8_50,fr8_p5).
body(r_fr8_50,fr8_t3).
body(r_fr8_50,fr8_u1).
body(r_fr8_50,fr8_w2).
body(r_fr8_50,fr8_x4).
body(r_fr8_50,fr8_y4).
head(r_fr8_51,fr8_u2).
body(r_fr8_51,fr8_a3).
body(r_fr8_51,fr8_s4).
head(r_fr8_52,fr8_u2).
body(r_fr8_52,fr8_e2).
body(r_fr8_52,fr8_e4).
body(r_fr8_52,fr8_f2).
body(r_fr8_52,fr8_p2).
body(r_fr8_52,fr8_t2).
body(r_fr8_52,fr8_u1).
body(r_fr8_52,fr8_w4).
body(r_fr8_52,fr8_z3).
head(r_fr8_53,fr8_z3).
body(r_fr8_53,fr8_b4).
body(r_fr8_53,fr8_b5).
body(r_fr8_53,fr8_r2).
body(r_fr8_53,fr8_s3).
body(r_fr8_53,fr8_w2).
head(r_fr8_54,fr8_z3).
body(r_fr8_54,fr8_a2).
body(r_fr8_54,fr8_b5).
body(r_fr8_54,fr8_c3).
body(r_fr8_54,fr8_d3).
body(r_fr8_54,fr8_e4).
body(r_fr8_54,fr8_f3).
body(r_fr8_54,fr8_f4).
head(r_fr8_55,fr8_z3).
body(r_fr8_55,fr8_b3).
body(r_fr8_55,fr8_b5).
body(r_fr8_55,fr8_c5).
body(r_fr8_55,fr8_d1).
body(r_fr8_55,fr8_d2).
body(r_fr8_55,fr8_d4).
body(r_fr8_55,fr8_e2).
head(r_fr8_56,fr8_z3).
body(r_fr8_56,fr8_q3).
head(r_fr8_57,fr8_z3).
body(r_fr8_57,fr8_d1).
body(r_fr8_57,fr8_e2).
body(r_fr8_57,fr8_p3).
body(r_fr8_57,fr8_u3).
head(r_fr8_58,fr8_w2).
body(r_fr8_58,fr8_a1).
body(r_fr8_58,fr8_a5).
body(r_fr8_58,fr8_b4).
body(r_fr8_58,fr8_c1).
body(r_fr8_58,fr8_c3).
body(r_fr8_58,fr8_c4).
body(r_fr8_58,fr8_e1).
body(r_fr8_58,fr8_e2).
body(r_fr8_58,fr8_f1).
body(r_fr8_58,fr8_f4).
head(r_fr8_59,fr8_w2).
body(r_fr8_59,fr3_v3).
head(r_fr8_60,fr8_p2).
body(r_fr8_60,fr8_a4).
body(r_fr8_60,fr8_b1).
body(r_fr8_60,fr8_c1).
body(r_fr8_60,fr8_c4).
body(r_fr8_60,fr3_v3).
body(r_fr8_60,fr8_t4).
head(r_fr8_61,fr8_p2).
body(r_fr8_61,fr8_b1).
body(r_fr8_61,fr8_e4).
body(r_fr8_61,fr8_s2).
body(r_fr8_61,fr8_w3).
head(r_fr8_62,fr8_p2).
body(r_fr8_62,fr8_a1).
body(r_fr8_62,fr8_b2).
body(r_fr8_62,fr8_c3).
body(r_fr8_62,fr8_r3).
head(r_fr8_63,fr8_p2).
body(r_fr8_63,fr8_c3).
body(r_fr8_63,fr8_f2).
body(r_fr8_63,fr8_s1).
head(r_fr8_64,fr8_p2).
head(r_fr8_65,fr8_p2).
body(r_fr8_65,fr8_v1).
body(r_fr8_65,fr8_x2).
head(r_fr8_66,fr8_p2).
body(r_fr8_66,fr8_b2).
body(r_fr8_66,fr8_c5).
body(r_fr8_66,fr8_d4).
body(r_fr8_66,fr8_e3).
body(r_fr8_66,fr8_f3).
body(r_fr8_66,fr8_v1).
body(r_fr8_66,fr8_w4).
body(r_fr8_66,fr8_y2).
head(r_fr8_67,fr8_p2).
body(r_fr8_67,fr8_p5).
body(r_fr8_67,fr8_q1).
body(r_fr8_67,fr8_r1).
body(r_fr8_67,fr8_s2).
body(r_fr8_67,fr8_u3).
body(r_fr8_67,fr8_w3).
head(r_fr8_68,fr8_r3).
body(r_fr8_68,fr8_a1).
body(r_fr8_68,fr8_a2).
body(r_fr8_68,fr8_b1).
body(r_fr8_68,fr8_e4).
body(r_fr8_68,fr8_f3).
body(r_fr8_68,fr8_p3).
body(r_fr8_68,fr8_r2).
body(r_fr8_68,fr8_v4).
head(r_fr8_69,fr8_r3).
body(r_fr8_69,fr8_q3).
body(r_fr8_69,fr8_s4).
body(r_fr8_69,fr8_u4).
body(r_fr8_69,fr8_v4).
head(r_fr8_70,fr8_r3).
body(r_fr8_70,fr8_b2).
body(r_fr8_70,fr8_c3).
body(r_fr8_70,fr8_e1).
body(r_fr8_70,fr8_e4).
body(r_fr8_70,fr8_r2).
body(r_fr8_70,fr8_s4).
body(r_fr8_70,fr8_u1).
body(r_fr8_70,fr8_u3).
body(r_fr8_70,fr8_u4).
body(r_fr8_70,fr8_y4).
head(r_fr8_71,fr8_r3).
body(r_fr8_71,fr8_f2).
body(r_fr8_71,fr8_f3).
body(r_fr8_71,fr8_q4).
body(r_fr8_71,fr8_t3).
head(r_fr8_72,fr8_t4).
body(r_fr8_72,fr8_q3).
body(r_fr8_72,fr8_q4).
body(r_fr8_72,fr8_s1).
body(r_fr8_72,fr8_s3).
body(r_fr8_72,fr8_t2).
body(r_fr8_72,fr8_u1).
body(r_fr8_72,fr8_u4).
body(r_fr8_72,fr8_w3).
body(r_fr8_72,fr8_y2).
body(r_fr8_72,fr8_z4).
head(r_fr8_73,fr8_t4).
body(r_fr8_73,fr8_w3).
head(r_fr8_74,fr8_s3).
body(r_fr8_74,fr8_b2).
body(r_fr8_74,fr8_b5).
body(r_fr8_74,fr8_q3).
body(r_fr8_74,fr8_q4).
body(r_fr8_74,fr8_s2).
body(r_fr8_74,fr3_v3).
body(r_fr8_74,fr8_u3).
body(r_fr8_74,fr8_v3).
body(r_fr8_74,fr8_x4).
head(r_fr8_75,fr8_s3).
body(r_fr8_75,fr8_c5).
head(r_fr8_76,fr8_s3).
body(r_fr8_76,fr8_b5).
body(r_fr8_76,fr8_e4).
body(r_fr8_76,fr8_s1).
body(r_fr8_76,fr8_x2).
body(r_fr8_76,fr8_x4).
body(r_fr8_76,fr8_y2).
head(r_fr8_77,fr8_s3).
body(r_fr8_77,fr8_a3).
body(r_fr8_77,fr8_c4).
body(r_fr8_77,fr8_f1).
body(r_fr8_77,fr8_f2).
body(r_fr8_77,fr8_p5).
head(r_fr8_78,fr8_r1).
body(r_fr8_78,fr8_a1).
body(r_fr8_78,fr8_b5).
body(r_fr8_78,fr8_c2).
body(r_fr8_78,fr8_c3).
body(r_fr8_78,fr8_e2).
body(r_fr8_78,fr8_f2).
body(r_fr8_78,fr8_f3).
head(r_fr8_79,fr8_r1).
body(r_fr8_79,fr8_b3).
body(r_fr8_79,fr8_d3).
body(r_fr8_79,fr8_e4).
body(r_fr8_79,fr8_s2).
body(r_fr8_79,fr8_u1).
head(r_fr8_80,fr8_r1).
body(r_fr8_80,fr8_c4).
body(r_fr8_80,fr8_e4).
body(r_fr8_80,fr8_p5).
body(r_fr8_80,fr8_q3).
body(r_fr8_80,fr8_s1).
body(r_fr8_80,fr8_s4).
body(r_fr8_80,fr8_z1).
head(r_fr8_81,fr8_r1).
body(r_fr8_81,fr8_b5).
body(r_fr8_81,fr8_q3).
body(r_fr8_81,fr8_s2).
body(r_fr8_81,fr3_v3).
body(r_fr8_81,fr8_t3).
body(r_fr8_81,fr8_u3).
body(r_fr8_81,fr8_u4).
body(r_fr8_81,fr8_z2).
head(r_fr8_82,fr8_r1).
head(r_fr8_83,fr8_r1).
body(r_fr8_83,fr8_a3).
body(r_fr8_83,fr8_b4).
body(r_fr8_83,fr8_c1).
body(r_fr8_83,fr8_c5).
body(r_fr8_83,fr8_e1).
body(r_fr8_83,fr8_t2).
head(r_fr8_84,fr8_w4).
body(r_fr8_84,fr8_d4).
body(r_fr8_84,fr8_f3).
body(r_fr8_84,fr8_s1).
body(r_fr8_84,fr8_s4).
body(r_fr8_84,fr8_t2).
body(r_fr8_84,fr8_t3).
body(r_fr8_84,fr8_u1).
body(r_fr8_84,fr8_v1).
body(r_fr8_84,fr8_x4).
body(r_fr8_84,fr8_z2).
head(r_fr8_85,fr8_w4).
body(r_fr8_85,fr8_z2).
head(r_fr8_86,fr8_w4).
body(r_fr8_86,fr8_b4).
body(r_fr8_86,fr8_d2).
head(r_fr8_87,fr8_w4).
body(r_fr8_87,fr8_t2).
head(r_fr8_88,fr8_w4).
body(r_fr8_88,fr8_a4).
body(r_fr8_88,fr8_b3).
body(r_fr8_88,fr8_b4).
body(r_fr8_88,fr8_c1).
body(r_fr8_88,fr8_c3).
body(r_fr8_88,fr8_e1).
body(r_fr8_88,fr8_f1).
body(r_fr8_88,fr8_f2).
body(r_fr8_88,fr8_f3).
body(r_fr8_88,fr8_v1).
head(r_fr8_89,fr8_w4).
body(r_fr8_89,fr8_b1).
body(r_fr8_89,fr8_e4).
body(r_fr8_89,fr8_f2).
body(r_fr8_89,fr8_f3).
body(r_fr8_89,fr8_p3).
body(r_fr8_89,fr8_s1).
body(r_fr8_89,fr3_v3).
body(r_fr8_89,fr8_t2).
body(r_fr8_89,fr8_z4).
head(r_fr8_90,fr8_w4).
body(r_fr8_90,fr8_d3).
body(r_fr8_90,fr8_p3).
body(r_fr8_90,fr8_q1).
body(r_fr8_90,fr8_t2).
body(r_fr8_90,fr8_w1).
body(r_fr8_90,fr8_y2).
head(r_fr8_91,fr8_s2).
body(r_fr8_91,fr8_d1).
body(r_fr8_91,fr8_q1).
body(r_fr8_91,fr8_t3).
body(r_fr8_91,fr8_u4).
body(r_fr8_91,fr8_y2).
body(r_fr8_91,fr8_z1).
head(r_fr8_92,fr8_s2).
body(r_fr8_92,fr8_a1).
body(r_fr8_92,fr8_b5).
body(r_fr8_92,fr8_e3).
body(r_fr8_92,fr8_u3).
head(r_fr8_93,fr8_s2).
body(r_fr8_93,fr8_b1).
body(r_fr8_93,fr8_b3).
body(r_fr8_93,fr8_d1).
body(r_fr8_93,fr8_d2).
body(r_fr8_93,fr8_d3).
head(r_fr8_94,fr8_s2).
body(r_fr8_94,fr8_d3).
body(r_fr8_94,fr8_q4).
body(r_fr8_94,fr8_r2).
head(r_fr8_95,fr8_r2).
body(r_fr8_95,fr8_a4).
body(r_fr8_95,fr8_a5).
body(r_fr8_95,fr8_c4).
body(r_fr8_95,fr8_e2).
body(r_fr8_95,fr8_f2).
body(r_fr8_95,fr8_p5).
body(r_fr8_95,fr8_s1).
body(r_fr8_95,fr8_u1).
body(r_fr8_95,fr8_y4).
body(r_fr8_95,fr8_z2).
head(r_fr8_96,fr8_r2).
body(r_fr8_96,fr8_p3).
body(r_fr8_96,fr8_q4).
body(r_fr8_96,fr8_u1).
body(r_fr8_96,fr8_u3).
body(r_fr8_96,fr8_x2).
head(r_fr8_97,fr8_r2).
body(r_fr8_97,fr8_q3).
body(r_fr8_97,fr8_q4).
body(r_fr8_97,fr8_s4).
head(r_fr8_98,fr8_p3).
body(r_fr8_98,fr8_y2).
head(r_fr8_99,fr8_p3).
body(r_fr8_99,fr8_q1).
body(r_fr8_99,fr8_q3).
body(r_fr8_99,fr3_v3).
body(r_fr8_99,fr8_w1).
body(r_fr8_99,fr8_z1).
head(r_fr8_100,fr8_u4).
body(r_fr8_100,fr8_a1).
body(r_fr8_100,fr8_b1).
body(r_fr8_100,fr8_c3).
body(r_fr8_100,fr8_c5).
body(r_fr8_100,fr8_d1).
body(r_fr8_100,fr8_d4).
body(r_fr8_100,fr8_f1).
body(r_fr8_100,fr8_f4).
body(r_fr8_100,fr8_s4).
body(r_fr8_100,fr8_x4).
head(r_fr8_101,fr8_u4).
body(r_fr8_101,fr8_a4).
body(r_fr8_101,fr8_c1).
body(r_fr8_101,fr8_c5).
body(r_fr8_101,fr8_f4).
body(r_fr8_101,fr8_s1).
body(r_fr8_101,fr8_s4).
body(r_fr8_101,fr8_t3).
body(r_fr8_101,fr8_v4).
body(r_fr8_101,fr8_z1).
head(r_fr8_102,fr8_u4).
body(r_fr8_102,fr8_f2).
body(r_fr8_102,fr8_q3).
body(r_fr8_102,fr8_u1).
body(r_fr8_102,fr8_w1).
body(r_fr8_102,fr8_w3).
body(r_fr8_102,fr8_y2).
head(r_fr8_103,fr8_u4).
body(r_fr8_103,fr8_a2).
body(r_fr8_103,fr8_d3).
body(r_fr8_103,fr8_f1).
body(r_fr8_103,fr8_v4).
head(r_fr8_104,fr8_w1).
body(r_fr8_104,fr8_v1).
head(r_fr8_105,fr8_w1).
body(r_fr8_105,fr8_a2).
body(r_fr8_105,fr8_c2).
body(r_fr8_105,fr8_d4).
body(r_fr8_105,fr8_q1).
head(r_fr8_106,fr8_w1).
body(r_fr8_106,fr8_a2).
body(r_fr8_106,fr8_a3).
body(r_fr8_106,fr8_c3).
body(r_fr8_106,fr8_c5).
body(r_fr8_106,fr8_d2).
body(r_fr8_106,fr8_e3).
body(r_fr8_106,fr8_f3).
head(r_fr8_107,fr8_w1).
body(r_fr8_107,fr8_u3).
head(r_fr8_108,fr8_w1).
body(r_fr8_108,fr8_c1).
body(r_fr8_108,fr8_c4).
body(r_fr8_108,fr8_d4).
body(r_fr8_108,fr8_f2).
body(r_fr8_108,fr8_q3).
head(r_fr8_109,fr8_w1).
body(r_fr8_109,fr8_b2).
body(r_fr8_109,fr8_c3).
body(r_fr8_109,fr8_d1).
head(r_fr8_110,fr8_w1).
body(r_fr8_110,fr8_d3).
body(r_fr8_110,fr8_f4).
body(r_fr8_110,fr8_p5).
body(r_fr8_110,fr8_w3).
head(r_fr8_111,fr8_w1).
body(r_fr8_111,fr8_s4).
body(r_fr8_111,fr8_u1).
body(r_fr8_111,fr8_x4).
head(r_fr8_112,fr8_w1).
body(r_fr8_112,fr8_c1).
body(r_fr8_112,fr8_e3).
body(r_fr8_112,fr8_q1).
body(r_fr8_112,fr8_s1).
body(r_fr8_112,fr8_x4).
body(r_fr8_112,fr8_z2).
body(r_fr8_112,fr8_z4).
head(r_fr8_113,fr8_x2).
body(r_fr8_113,fr8_z1).
head(r_fr8_114,fr8_x2).
body(r_fr8_114,fr8_c3).
body(r_fr8_114,fr8_z2).
body(r_fr8_114,fr8_z4).
head(r_fr8_115,fr8_x2).
body(r_fr8_115,fr8_c3).
body(r_fr8_115,fr8_s4).
body(r_fr8_115,fr8_t2).
body(r_fr8_115,fr8_u1).
body(r_fr8_115,fr8_x4).
body(r_fr8_115,fr8_z1).
body(r_fr8_115,fr8_z2).
head(r_fr8_116,fr8_x2).
body(r_fr8_116,fr8_b1).
body(r_fr8_116,fr8_f2).
body(r_fr8_116,fr3_v3).
body(r_fr8_116,fr8_w3).
body(r_fr8_116,fr8_z2).
head(r_fr8_117,fr8_x2).
body(r_fr8_117,fr8_e1).
body(r_fr8_117,fr8_f1).
body(r_fr8_117,fr8_q4).
body(r_fr8_117,fr8_v4).
body(r_fr8_117,fr8_w3).
body(r_fr8_117,fr8_z2).
body(r_fr8_117,fr8_z4).
head(r_fr8_118,fr8_x2).
body(r_fr8_118,fr8_c1).
body(r_fr8_118,fr3_v3).
body(r_fr8_118,fr8_v1).
body(r_fr8_118,fr8_y2).
body(r_fr8_118,fr8_y4).
head(r_fr8_119,fr8_x2).
body(r_fr8_119,fr8_f2).
body(r_fr8_119,fr8_q3).
body(r_fr8_119,fr8_s1).
body(r_fr8_119,fr8_s4).
body(r_fr8_119,fr3_v3).
body(r_fr8_119,fr8_v1).
body(r_fr8_119,fr8_y2).
body(r_fr8_119,fr8_z2).
body(r_fr8_119,fr8_z4).
head(r_fr8_120,fr8_x2).
body(r_fr8_120,fr8_a1).
body(r_fr8_120,fr8_b2).
body(r_fr8_120,fr8_b3).
body(r_fr8_120,fr8_b4).
body(r_fr8_120,fr8_c4).
body(r_fr8_120,fr8_d3).
body(r_fr8_120,fr8_d4).
body(r_fr8_120,fr8_e2).
body(r_fr8_120,fr8_e3).
head(r_fr8_121,fr8_x2).
body(r_fr8_121,fr8_e4).
head(r_fr8_122,fr3_v3).
body(r_fr8_122,fr8_y4).
head(r_fr8_123,fr3_v3).
body(r_fr8_123,fr8_q1).
body(r_fr8_123,fr8_s4).
body(r_fr8_123,fr8_v1).
body(r_fr8_123,fr8_y2).
body(r_fr8_123,fr8_z4).
head(r_fr8_124,fr3_v3).
body(r_fr8_124,fr8_c2).
body(r_fr8_124,fr8_d3).
body(r_fr8_124,fr8_f2).
body(r_fr8_124,fr8_p5).
body(r_fr8_124,fr8_q3).
body(r_fr8_124,fr8_q4).
body(r_fr8_124,fr8_s4).
body(r_fr8_124,fr8_u1).
body(r_fr8_124,fr8_v1).
body(r_fr8_124,fr8_y2).
head(r_fr8_125,fr3_v3).
body(r_fr8_125,fr8_e4).
body(r_fr8_125,fr8_w3).
body(r_fr8_125,fr8_x4).
body(r_fr8_125,fr8_y4).
head(r_fr8_126,fr3_v3).
body(r_fr8_126,fr8_c4).
head(r_fr8_127,fr3_v3).
body(r_fr8_127,fr8_a5).
body(r_fr8_127,fr8_c2).
body(r_fr8_127,fr8_q4).
body(r_fr8_127,fr8_w3).
head(r_fr8_128,fr3_v3).
body(r_fr8_128,fr8_b1).
body(r_fr8_128,fr8_e1).
body(r_fr8_128,fr8_f3).
head(r_fr8_129,fr3_v3).
head(r_fr8_130,fr8_v3).
head(r_fr8_131,fr8_v3).
body(r_fr8_131,fr8_p5).
body(r_fr8_131,fr8_q1).
body(r_fr8_131,fr8_q3).
body(r_fr8_131,fr8_s1).
body(r_fr8_131,fr8_s4).
body(r_fr8_131,fr8_u1).
body(r_fr8_131,fr8_v1).
body(r_fr8_131,fr8_z1).
head(r_fr8_132,fr8_v3).
body(r_fr8_132,fr8_a5).
body(r_fr8_132,fr8_f2).
body(r_fr8_132,fr8_t2).
body(r_fr8_132,fr8_u3).
body(r_fr8_132,fr8_v4).
head(r_fr8_133,fr8_v3).
body(r_fr8_133,fr8_a1).
body(r_fr8_133,fr8_a3).
body(r_fr8_133,fr8_a4).
body(r_fr8_133,fr8_c3).
body(r_fr8_133,fr8_f2).
body(r_fr8_133,fr8_q1).
body(r_fr8_133,fr8_s4).
body(r_fr8_133,fr8_v1).
body(r_fr8_133,fr8_x4).
body(r_fr8_133,fr8_z4).
head(r_fr8_134,fr8_v3).
body(r_fr8_134,fr8_a2).
body(r_fr8_134,fr8_b1).
body(r_fr8_134,fr8_c1).
body(r_fr8_134,fr8_t3).
body(r_fr8_134,fr8_u3).
body(r_fr8_134,fr8_v1).
body(r_fr8_134,fr8_x4).
body(r_fr8_134,fr8_z1).
head(r_fr8_135,fr8_v3).
body(r_fr8_135,fr8_b2).
body(r_fr8_135,fr8_b3).
body(r_fr8_135,fr8_d1).
body(r_fr8_135,fr8_d3).
body(r_fr8_135,fr8_x4).
head(r_fr8_136,fr8_v3).
body(r_fr8_136,fr8_a4).
body(r_fr8_136,fr8_b1).
body(r_fr8_136,fr8_b2).
body(r_fr8_136,fr8_c4).
body(r_fr8_136,fr8_d2).
body(r_fr8_136,fr8_p5).
head(r_fr8_137,fr8_v3).
body(r_fr8_137,fr8_a1).
body(r_fr8_137,fr8_b1).
body(r_fr8_137,fr8_b4).
body(r_fr8_137,fr8_c5).
body(r_fr8_137,fr8_e2).
body(r_fr8_137,fr8_f4).
body(r_fr8_137,fr8_s1).
body(r_fr8_137,fr8_s4).
body(r_fr8_137,fr8_u1).
body(r_fr8_137,fr8_x4).
head(r_fr8_138,fr8_y4).
body(r_fr8_138,fr8_q3).
body(r_fr8_138,fr8_s4).
body(r_fr8_138,fr8_u1).
body(r_fr8_138,fr8_v4).
body(r_fr8_138,fr8_z4).
head(r_fr8_139,fr8_y4).
body(r_fr8_139,fr8_q1).
body(r_fr8_139,fr8_q3).
body(r_fr8_139,fr8_q4).
body(r_fr8_139,fr8_t2).
body(r_fr8_139,fr8_y2).
head(r_fr8_140,fr8_y4).
body(r_fr8_140,fr8_u3).
body(r_fr8_140,fr8_z4).
head(r_fr8_141,fr8_y4).
head(r_fr8_142,fr8_q1).
body(r_fr8_142,fr8_a2).
body(r_fr8_142,fr8_a3).
body(r_fr8_142,fr8_a4).
body(r_fr8_142,fr8_b4).
body(r_fr8_142,fr8_d3).
body(r_fr8_142,fr8_d4).
body(r_fr8_142,fr8_f4).
body(r_fr8_142,fr8_p5).
body(r_fr8_142,fr8_w3).
body(r_fr8_142,fr8_z1).
head(r_fr8_143,fr8_q1).
body(r_fr8_143,fr8_a5).
body(r_fr8_143,fr8_d3).
head(r_fr8_144,fr8_q1).
body(r_fr8_144,fr8_a2).
body(r_fr8_144,fr8_x4).
body(r_fr8_144,fr8_z2).
head(r_fr8_145,fr8_q1).
body(r_fr8_145,fr8_a3).
body(r_fr8_145,fr8_u3).
body(r_fr8_145,fr8_v4).
head(r_fr8_146,fr8_q1).
body(r_fr8_146,fr8_d2).
body(r_fr8_146,fr8_w3).
body(r_fr8_146,fr8_z1).
head(r_fr8_147,fr8_x4).
body(r_fr8_147,fr8_c1).
body(r_fr8_147,fr8_c2).
body(r_fr8_147,fr8_e3).
body(r_fr8_147,fr8_f1).
body(r_fr8_147,fr8_f2).
body(r_fr8_147,fr8_u3).
body(r_fr8_147,fr8_w3).
body(r_fr8_147,fr8_z1).
body(r_fr8_147,fr8_z4).
head(r_fr8_148,fr8_x4).
body(r_fr8_148,fr8_a3).
body(r_fr8_148,fr8_a5).
body(r_fr8_148,fr8_c4).
body(r_fr8_148,fr8_d2).
body(r_fr8_148,fr8_q4).
body(r_fr8_148,fr8_t3).
body(r_fr8_148,fr8_v1).
body(r_fr8_148,fr8_v4).
body(r_fr8_148,fr8_z4).
head(r_fr8_149,fr8_w3).
body(r_fr8_149,fr8_a2).
body(r_fr8_149,fr8_a3).
body(r_fr8_149,fr8_c3).
body(r_fr8_149,fr8_e1).
body(r_fr8_149,fr8_e3).
head(r_fr8_150,fr8_w3).
body(r_fr8_150,fr8_a4).
body(r_fr8_150,fr8_b2).
body(r_fr8_150,fr8_b5).
body(r_fr8_150,fr8_f2).
body(r_fr8_150,fr8_f4).
body(r_fr8_150,fr8_u1).
body(r_fr8_150,fr8_v4).
body(r_fr8_150,fr8_z4).
head(r_fr8_151,fr8_w3).
body(r_fr8_151,fr8_a1).
body(r_fr8_151,fr8_a5).
body(r_fr8_151,fr8_b1).
body(r_fr8_151,fr8_e2).
body(r_fr8_151,fr8_e3).
body(r_fr8_151,fr8_u1).
body(r_fr8_151,fr8_u3).
body(r_fr8_151,fr8_z2).
body(r_fr8_151,fr8_z4).
head(r_fr8_152,fr8_w3).
body(r_fr8_152,fr8_c1).
body(r_fr8_152,fr8_c2).
body(r_fr8_152,fr8_d3).
body(r_fr8_152,fr8_d4).
body(r_fr8_152,fr8_f2).
head(r_fr8_153,fr8_w3).
body(r_fr8_153,fr8_b1).
body(r_fr8_153,fr8_c2).
body(r_fr8_153,fr8_p5).
body(r_fr8_153,fr8_q3).
body(r_fr8_153,fr8_t3).
body(r_fr8_153,fr8_u1).
body(r_fr8_153,fr8_u3).
body(r_fr8_153,fr8_v4).
body(r_fr8_153,fr8_z4).
head(r_fr8_154,fr8_w3).
body(r_fr8_154,fr8_b4).
body(r_fr8_154,fr8_d1).
body(r_fr8_154,fr8_t2).
body(r_fr8_154,fr8_u1).
body(r_fr8_154,fr8_v4).
body(r_fr8_154,fr8_y2).
head(r_fr8_155,fr8_w3).
body(r_fr8_155,fr8_b2).
body(r_fr8_155,fr8_b4).
body(r_fr8_155,fr8_d3).
body(r_fr8_155,fr8_e3).
body(r_fr8_155,fr8_q4).
body(r_fr8_155,fr8_t3).
body(r_fr8_155,fr8_v4).
head(r_fr8_156,fr8_u3).
body(r_fr8_156,fr8_u1).
body(r_fr8_156,fr8_v4).
head(r_fr8_157,fr8_u3).
body(r_fr8_157,fr8_a4).
body(r_fr8_157,fr8_a5).
body(r_fr8_157,fr8_b1).
body(r_fr8_157,fr8_b2).
body(r_fr8_157,fr8_b5).
body(r_fr8_157,fr8_c1).
body(r_fr8_157,fr8_e1).
body(r_fr8_157,fr8_e4).
body(r_fr8_157,fr8_f1).
body(r_fr8_157,fr8_f4).
head(r_fr8_158,fr8_u3).
body(r_fr8_158,fr8_e1).
body(r_fr8_158,fr8_q3).
body(r_fr8_158,fr8_s4).
body(r_fr8_158,fr8_v1).
body(r_fr8_158,fr8_y2).
body(r_fr8_158,fr8_z1).
head(r_fr8_159,fr8_u3).
body(r_fr8_159,fr8_b4).
body(r_fr8_159,fr8_f2).
body(r_fr8_159,fr8_t2).
body(r_fr8_159,fr8_v1).
head(r_fr8_160,fr8_u3).
head(r_fr8_161,fr8_u3).
body(r_fr8_161,fr8_a2).
body(r_fr8_161,fr8_c4).
body(r_fr8_161,fr8_e1).
body(r_fr8_161,fr8_e3).
body(r_fr8_161,fr8_t2).
body(r_fr8_161,fr8_z2).
head(r_fr8_162,fr8_u3).
body(r_fr8_162,fr8_q4).
body(r_fr8_162,fr8_u1).
body(r_fr8_162,fr8_z1).
body(r_fr8_162,fr8_z2).
body(r_fr8_162,fr8_z4).
head(r_fr8_163,fr8_u3).
body(r_fr8_163,fr8_a3).
body(r_fr8_163,fr8_b4).
body(r_fr8_163,fr8_c3).
body(r_fr8_163,fr8_d1).
head(r_fr8_164,fr8_u3).
body(r_fr8_164,fr8_a2).
body(r_fr8_164,fr8_a4).
body(r_fr8_164,fr8_a5).
body(r_fr8_164,fr8_b3).
body(r_fr8_164,fr8_b5).
body(r_fr8_164,fr8_e1).
body(r_fr8_164,fr8_e2).
body(r_fr8_164,fr8_e4).
body(r_fr8_164,fr8_u1).
body(r_fr8_164,fr8_z4).
head(r_fr8_165,fr8_z2).
body(r_fr8_165,fr8_b1).
body(r_fr8_165,fr8_d1).
head(r_fr8_166,fr8_z2).
body(r_fr8_166,fr8_c3).
body(r_fr8_166,fr8_q3).
body(r_fr8_166,fr8_q4).
body(r_fr8_166,fr8_s4).
body(r_fr8_166,fr8_t3).
body(r_fr8_166,fr8_u1).
body(r_fr8_166,fr8_v1).
body(r_fr8_166,fr8_v4).
body(r_fr8_166,fr8_y2).
body(r_fr8_166,fr8_z1).
head(r_fr8_167,fr8_z2).
head(r_fr8_168,fr8_z2).
body(r_fr8_168,fr8_b2).
head(r_fr8_169,fr8_z2).
body(r_fr8_169,fr8_a2).
body(r_fr8_169,fr8_b1).
body(r_fr8_169,fr8_c3).
body(r_fr8_169,fr8_d3).
body(r_fr8_169,fr8_e1).
body(r_fr8_169,fr8_s4).
head(r_fr8_170,fr8_z2).
body(r_fr8_170,fr8_c4).
body(r_fr8_170,fr8_e3).
body(r_fr8_170,fr8_v4).
body(r_fr8_170,fr8_z4).
head(r_fr8_171,fr8_z2).
body(r_fr8_171,fr8_q3).
head(r_fr8_172,fr8_z2).
body(r_fr8_172,fr8_s1).
body(r_fr8_172,fr8_s4).
body(r_fr8_172,fr8_t2).
body(r_fr8_172,fr8_u1).
body(r_fr8_172,fr8_v1).
body(r_fr8_172,fr8_v4).
body(r_fr8_172,fr8_z1).
body(r_fr8_172,fr8_z4).
head(r_fr8_173,fr8_s4).
body(r_fr8_173,fr8_a2).
body(r_fr8_173,fr8_c1).
body(r_fr8_173,fr8_d4).
body(r_fr8_173,fr8_f1).
body(r_fr8_173,fr8_q4).
body(r_fr8_173,fr8_t2).
body(r_fr8_173,fr8_u1).
body(r_fr8_173,fr8_y2).
head(r_fr8_174,fr8_s4).
body(r_fr8_174,fr8_d1).
body(r_fr8_174,fr8_e2).
body(r_fr8_174,fr8_f2).
body(r_fr8_174,fr8_f4).
body(r_fr8_174,fr8_t2).
body(r_fr8_174,fr8_y2).
head(r_fr8_175,fr8_s4).
body(r_fr8_175,fr8_c2).
body(r_fr8_175,fr8_d2).
body(r_fr8_175,fr8_f2).
body(r_fr8_175,fr8_q4).
body(r_fr8_175,fr8_t2).
body(r_fr8_175,fr8_y2).
head(r_fr8_176,fr8_s4).
body(r_fr8_176,fr8_b5).
body(r_fr8_176,fr8_c2).
body(r_fr8_176,fr8_c3).
body(r_fr8_176,fr8_c5).
body(r_fr8_176,fr8_e2).
body(r_fr8_176,fr8_e3).
body(r_fr8_176,fr8_z4).
head(r_fr8_177,fr8_s4).
body(r_fr8_177,fr8_c4).
head(r_fr8_178,fr8_s4).
body(r_fr8_178,fr8_a1).
body(r_fr8_178,fr8_a4).
body(r_fr8_178,fr8_c1).
body(r_fr8_178,fr8_p5).
body(r_fr8_178,fr8_v1).
body(r_fr8_178,fr8_v4).
head(r_fr8_179,fr8_s4).
body(r_fr8_179,fr8_a3).
body(r_fr8_179,fr8_d4).
body(r_fr8_179,fr8_s1).
body(r_fr8_179,fr8_t3).
body(r_fr8_179,fr8_v1).
body(r_fr8_179,fr8_v4).
body(r_fr8_179,fr8_z1).
body(r_fr8_179,fr8_z4).
head(r_fr8_180,fr8_t3).
body(r_fr8_180,fr8_b5).
body(r_fr8_180,fr8_d2).
body(r_fr8_180,fr8_f2).
body(r_fr8_180,fr8_f4).
body(r_fr8_180,fr8_q3).
body(r_fr8_180,fr8_q4).
body(r_fr8_180,fr8_s1).
body(r_fr8_180,fr8_u1).
body(r_fr8_180,fr8_v4).
body(r_fr8_180,fr8_z4).
head(r_fr8_181,fr8_t3).
head(r_fr8_182,fr8_t3).
body(r_fr8_182,fr8_f1).
body(r_fr8_182,fr8_f2).
body(r_fr8_182,fr8_s1).
head(r_fr8_183,fr8_t3).
body(r_fr8_183,fr8_a3).
body(r_fr8_183,fr8_b1).
body(r_fr8_183,fr8_b2).
body(r_fr8_183,fr8_b4).
body(r_fr8_183,fr8_c1).
body(r_fr8_183,fr8_c3).
body(r_fr8_183,fr8_d2).
body(r_fr8_183,fr8_f2).
head(r_fr8_184,fr8_z1).
body(r_fr8_184,fr8_a3).
body(r_fr8_184,fr8_p5).
body(r_fr8_184,fr8_q4).
body(r_fr8_184,fr8_t2).
body(r_fr8_184,fr8_u1).
body(r_fr8_184,fr8_v1).
body(r_fr8_184,fr8_v4).
body(r_fr8_184,fr8_y2).
body(r_fr8_184,fr8_z4).
head(r_fr8_185,fr8_z1).
body(r_fr8_185,fr8_a4).
head(r_fr8_186,fr8_z1).
body(r_fr8_186,fr8_a1).
body(r_fr8_186,fr8_a4).
body(r_fr8_186,fr8_b4).
body(r_fr8_186,fr8_c2).
body(r_fr8_186,fr8_e1).
body(r_fr8_186,fr8_e3).
head(r_fr8_187,fr8_z1).
body(r_fr8_187,fr8_a1).
body(r_fr8_187,fr8_a5).
body(r_fr8_187,fr8_b4).
body(r_fr8_187,fr8_b5).
body(r_fr8_187,fr8_c5).
body(r_fr8_187,fr8_d2).
body(r_fr8_187,fr8_d4).
body(r_fr8_187,fr8_e2).
body(r_fr8_187,fr8_f2).
head(r_fr8_188,fr8_z4).
body(r_fr8_188,fr8_a1).
body(r_fr8_188,fr8_a3).
body(r_fr8_188,fr8_b1).
body(r_fr8_188,fr8_b5).
body(r_fr8_188,fr8_c3).
body(r_fr8_188,fr8_c5).
body(r_fr8_188,fr8_e1).
body(r_fr8_188,fr8_f3).
head(r_fr8_189,fr8_z4).
body(r_fr8_189,fr8_d2).
body(r_fr8_189,fr8_s1).
head(r_fr8_190,fr8_z4).
body(r_fr8_190,fr8_q3).
body(r_fr8_190,fr8_q4).
body(r_fr8_190,fr8_s1).
body(r_fr8_190,fr8_t2).
body(r_fr8_190,fr8_u1).
body(r_fr8_190,fr8_y2).
head(r_fr8_191,fr8_z4).
body(r_fr8_191,fr8_b3).
body(r_fr8_191,fr8_b5).
body(r_fr8_191,fr8_c2).
body(r_fr8_191,fr8_c5).
body(r_fr8_191,fr8_d2).
body(r_fr8_191,fr8_d3).
body(r_fr8_191,fr8_e1).
body(r_fr8_191,fr8_f2).
body(r_fr8_191,fr8_f3).
body(r_fr8_191,fr8_f4).
head(r_fr8_192,fr8_z4).
body(r_fr8_192,fr8_s1).
head(r_fr8_193,fr8_z4).
body(r_fr8_193,fr8_c5).

% exp_cycles_indvary1_step2_batch_yyy03.pl
assumption(fr9_a1).
assumption(fr9_b1).
assumption(fr9_c1).
assumption(fr9_d1).
assumption(fr9_e1).
assumption(fr9_f1).
assumption(fr1_r1).
assumption(fr9_b2).
assumption(fr9_c2).
assumption(fr9_d2).
assumption(fr9_e2).
assumption(fr9_f2).
assumption(fr9_a3).
assumption(fr9_b3).
assumption(fr9_c3).
contrary(fr9_a1,fr9_r2).
contrary(fr1_r1,fr9_x1).
contrary(fr9_a3,fr9_f1).
contrary(fr9_b1,fr9_c2).
contrary(fr9_b2,fr9_z1).
contrary(fr9_b3,fr9_c3).
contrary(fr9_c1,fr9_x1).
contrary(fr9_c2,fr9_c3).
contrary(fr9_c3,fr9_u1).
contrary(fr9_d1,fr9_b2).
contrary(fr9_d2,fr9_f1).
contrary(fr9_e1,fr9_c3).
contrary(fr9_e2,fr9_c1).
contrary(fr9_f1,fr9_w1).
contrary(fr9_f2,fr9_c1).
head(r_fr9_0,fr9_u1).
body(r_fr9_0,fr1_r1).
body(r_fr9_0,fr9_f1).
body(r_fr9_0,fr9_t1).
body(r_fr9_0,fr9_x1).
head(r_fr9_1,fr9_u1).
body(r_fr9_1,fr9_q1).
body(r_fr9_1,fr9_s1).
body(r_fr9_1,fr9_s2).
body(r_fr9_1,fr9_t1).
head(r_fr9_2,fr9_u1).
body(r_fr9_2,fr9_p1).
body(r_fr9_2,fr9_q2).
body(r_fr9_2,fr9_s1).
head(r_fr9_3,fr9_u1).
body(r_fr9_3,fr1_r1).
body(r_fr9_3,fr9_a3).
body(r_fr9_3,fr9_b1).
body(r_fr9_3,fr9_d1).
body(r_fr9_3,fr9_d2).
head(r_fr9_4,fr9_r1).
body(r_fr9_4,fr9_a1).
body(r_fr9_4,fr9_c2).
body(r_fr9_4,fr9_c3).
body(r_fr9_4,fr9_p2).
body(r_fr9_4,fr9_s1).
body(r_fr9_4,fr9_z1).
head(r_fr9_5,fr9_r1).
body(r_fr9_5,fr9_x1).
head(r_fr9_6,fr9_r1).
body(r_fr9_6,fr9_a1).
body(r_fr9_6,fr9_f2).
body(r_fr9_6,fr9_s1).
head(r_fr9_7,fr9_r1).
body(r_fr9_7,fr9_d2).
body(r_fr9_7,fr9_p1).
body(r_fr9_7,fr9_q1).
body(r_fr9_7,fr9_r2).
head(r_fr9_8,fr9_s1).
body(r_fr9_8,fr9_b1).
body(r_fr9_8,fr9_c3).
body(r_fr9_8,fr9_d2).
body(r_fr9_8,fr9_f2).
head(r_fr9_9,fr9_s1).
body(r_fr9_9,fr1_r1).
body(r_fr9_9,fr9_d2).
body(r_fr9_9,fr9_p1).
body(r_fr9_9,fr9_q2).
body(r_fr9_9,fr9_x1).
body(r_fr9_9,fr9_z1).
head(r_fr9_10,fr9_s1).
body(r_fr9_10,fr1_r1).
body(r_fr9_10,fr9_b2).
body(r_fr9_10,fr9_c2).
body(r_fr9_10,fr9_c3).
body(r_fr9_10,fr9_d2).
body(r_fr9_10,fr9_f2).
head(r_fr9_11,fr9_s1).
body(r_fr9_11,fr9_a1).
body(r_fr9_11,fr9_a3).
body(r_fr9_11,fr9_c1).
body(r_fr9_11,fr9_f1).
body(r_fr9_11,fr9_u1).
head(r_fr9_12,fr9_q2).
body(r_fr9_12,fr9_b1).
body(r_fr9_12,fr9_r2).
body(r_fr9_12,fr9_t1).
body(r_fr9_12,fr9_u1).
body(r_fr9_12,fr9_w1).
head(r_fr9_13,fr9_q2).
body(r_fr9_13,fr9_e1).
head(r_fr9_14,fr9_p1).
body(r_fr9_14,fr9_b2).
body(r_fr9_14,fr9_e2).
body(r_fr9_14,fr9_r2).
body(r_fr9_14,fr9_u1).
head(r_fr9_15,fr9_p1).
body(r_fr9_15,fr9_a1).
body(r_fr9_15,fr9_b1).
body(r_fr9_15,fr9_b3).
body(r_fr9_15,fr9_c1).
body(r_fr9_15,fr9_d1).
body(r_fr9_15,fr9_f1).
head(r_fr9_16,fr9_p1).
body(r_fr9_16,fr9_b3).
body(r_fr9_16,fr9_c2).
body(r_fr9_16,fr9_f1).
body(r_fr9_16,fr9_q2).
head(r_fr9_17,fr9_p1).
body(r_fr9_17,fr9_r2).
body(r_fr9_17,fr9_u1).
body(r_fr9_17,fr9_v1).
head(r_fr9_18,fr9_p1).
body(r_fr9_18,fr9_q1).
body(r_fr9_18,fr9_u1).
body(r_fr9_18,fr9_v1).
body(r_fr9_18,fr9_y1).
head(r_fr9_19,fr9_s2).
body(r_fr9_19,fr9_q2).
body(r_fr9_19,fr9_s1).
body(r_fr9_19,fr9_z1).
head(r_fr9_20,fr9_s2).
body(r_fr9_20,fr9_b2).
body(r_fr9_20,fr9_c2).
head(r_fr9_21,fr9_s2).
body(r_fr9_21,fr9_b1).
body(r_fr9_21,fr9_u1).
head(r_fr9_22,fr9_s2).
body(r_fr9_22,fr9_a1).
body(r_fr9_22,fr1_r1).
body(r_fr9_22,fr9_b3).
body(r_fr9_22,fr9_e1).
body(r_fr9_22,fr9_q2).
body(r_fr9_22,fr9_x1).
head(r_fr9_23,fr9_s2).
body(r_fr9_23,fr9_b1).
body(r_fr9_23,fr9_c2).
body(r_fr9_23,fr9_v1).
head(r_fr9_24,fr9_t1).
body(r_fr9_24,fr9_a1).
body(r_fr9_24,fr1_r1).
body(r_fr9_24,fr9_d1).
body(r_fr9_24,fr9_d2).
body(r_fr9_24,fr9_e1).
body(r_fr9_24,fr9_y1).
head(r_fr9_25,fr9_t1).
head(r_fr9_26,fr9_r2).
body(r_fr9_26,fr1_r1).
body(r_fr9_26,fr9_b3).
body(r_fr9_26,fr9_d2).
head(r_fr9_27,fr9_r2).
body(r_fr9_27,fr1_r1).
body(r_fr9_27,fr9_q1).
head(r_fr9_28,fr9_r2).
body(r_fr9_28,fr1_r1).
body(r_fr9_28,fr9_b3).
body(r_fr9_28,fr9_c1).
body(r_fr9_28,fr9_f1).
head(r_fr9_29,fr9_r2).
body(r_fr9_29,fr9_d1).
body(r_fr9_29,fr9_t1).
head(r_fr9_30,fr9_r2).
body(r_fr9_30,fr9_b1).
head(r_fr9_31,fr9_w1).
body(r_fr9_31,fr9_c2).
body(r_fr9_31,fr9_p1).
body(r_fr9_31,fr9_q1).
body(r_fr9_31,fr9_r2).
body(r_fr9_31,fr9_x1).
head(r_fr9_32,fr9_w1).
body(r_fr9_32,fr9_c1).
body(r_fr9_32,fr9_e1).
head(r_fr9_33,fr9_w1).
body(r_fr9_33,fr9_d2).
body(r_fr9_33,fr9_f2).
head(r_fr9_34,fr9_w1).
head(r_fr9_35,fr9_w1).
body(r_fr9_35,fr9_b1).
body(r_fr9_35,fr9_f2).
head(r_fr9_36,fr9_v1).
body(r_fr9_36,fr9_b1).
body(r_fr9_36,fr9_q2).
body(r_fr9_36,fr9_s1).
body(r_fr9_36,fr9_t1).
body(r_fr9_36,fr9_x1).
body(r_fr9_36,fr9_y1).
head(r_fr9_37,fr9_v1).
body(r_fr9_37,fr9_d1).
head(r_fr9_38,fr9_v1).
body(r_fr9_38,fr9_c2).
head(r_fr9_39,fr9_v1).
body(r_fr9_39,fr9_f1).
body(r_fr9_39,fr9_q1).
body(r_fr9_39,fr9_s2).
body(r_fr9_39,fr9_y1).
head(r_fr9_40,fr9_x1).
body(r_fr9_40,fr9_p1).
body(r_fr9_40,fr9_p2).
body(r_fr9_40,fr9_q1).
body(r_fr9_40,fr9_r1).
body(r_fr9_40,fr9_u1).
head(r_fr9_41,fr9_x1).
head(r_fr9_42,fr9_x1).
body(r_fr9_42,fr9_d1).
body(r_fr9_42,fr9_d2).
body(r_fr9_42,fr9_p2).
body(r_fr9_42,fr9_t1).
head(r_fr9_43,fr9_x1).
body(r_fr9_43,fr9_c3).
body(r_fr9_43,fr9_e2).
body(r_fr9_43,fr9_f1).
body(r_fr9_43,fr9_f2).
head(r_fr9_44,fr9_y1).
body(r_fr9_44,fr1_r1).
body(r_fr9_44,fr9_c1).
body(r_fr9_44,fr9_e1).
body(r_fr9_44,fr9_r2).
head(r_fr9_45,fr9_y1).
head(r_fr9_46,fr9_y1).
body(r_fr9_46,fr9_a3).
body(r_fr9_46,fr9_c1).
body(r_fr9_46,fr9_e1).
head(r_fr9_47,fr9_p2).
head(r_fr9_48,fr9_p2).
body(r_fr9_48,fr9_b1).
body(r_fr9_48,fr9_b2).
body(r_fr9_48,fr9_c3).
body(r_fr9_48,fr9_d2).
head(r_fr9_49,fr9_z1).
body(r_fr9_49,fr9_b2).
body(r_fr9_49,fr9_b3).
body(r_fr9_49,fr9_d1).
body(r_fr9_49,fr9_r2).
body(r_fr9_49,fr9_x1).
head(r_fr9_50,fr9_z1).
head(r_fr9_51,fr9_z1).
body(r_fr9_51,fr9_b2).
body(r_fr9_51,fr9_d1).
body(r_fr9_51,fr9_d2).
body(r_fr9_51,fr9_f2).
body(r_fr9_51,fr9_u1).
head(r_fr9_52,fr9_q1).
head(r_fr9_53,fr9_q1).
body(r_fr9_53,fr9_b3).
body(r_fr9_53,fr9_e2).
body(r_fr9_53,fr9_p1).
body(r_fr9_53,fr9_p2).
body(r_fr9_53,fr9_t1).

% exp_acyclic_depvary_step7_batch_yyy07.pl
assumption(fr10_a1).
assumption(fr10_b1).
assumption(fr10_c1).
assumption(fr9_s2).
assumption(fr10_e1).
assumption(fr10_f1).
assumption(fr10_a2).
assumption(fr10_b2).
assumption(fr10_c2).
assumption(fr10_d2).
assumption(fr10_e2).
assumption(fr7_b3).
assumption(fr10_a3).
assumption(fr3_r1).
assumption(fr5_v2).
assumption(fr10_d3).
assumption(fr10_e3).
assumption(fr5_r1).
assumption(fr10_a4).
assumption(fr10_b4).
assumption(fr10_c4).
assumption(fr10_d4).
assumption(fr10_e4).
assumption(fr10_f4).
contrary(fr10_a1,fr10_e4).
contrary(fr10_a2,fr10_q1).
contrary(fr10_a3,fr3_r1).
contrary(fr10_a4,fr10_p3).
contrary(fr10_b1,fr10_y3).
contrary(fr10_b2,fr10_p2).
contrary(fr3_r1,fr10_p2).
contrary(fr10_b4,fr10_q1).
contrary(fr10_c1,fr10_t3).
contrary(fr10_c2,fr10_q1).
contrary(fr5_v2,fr10_u2).
contrary(fr10_c4,fr8_e1).
contrary(fr9_s2,fr10_b1).
contrary(fr10_d2,fr10_u4).
contrary(fr10_d3,fr10_w2).
contrary(fr10_d4,fr10_a3).
contrary(fr10_e1,fr10_y3).
contrary(fr10_e2,fr10_t1).
contrary(fr10_e3,fr10_x2).
contrary(fr10_e4,fr10_a2).
contrary(fr10_f1,fr10_r1).
contrary(fr7_b3,fr10_s2).
contrary(fr5_r1,fr10_t3).
contrary(fr10_f4,fr10_z2).
head(r_fr10_0,fr10_r3).
body(r_fr10_0,fr10_a2).
body(r_fr10_0,fr10_b2).
body(r_fr10_0,fr3_r1).
body(r_fr10_0,fr10_b4).
body(r_fr10_0,fr10_c2).
body(r_fr10_0,fr10_c4).
body(r_fr10_0,fr10_d4).
body(r_fr10_0,fr10_e4).
head(r_fr10_1,fr10_r3).
body(r_fr10_1,fr10_a2).
body(r_fr10_1,fr10_a3).
body(r_fr10_1,fr10_d2).
body(r_fr10_1,fr10_f1).
body(r_fr10_1,fr5_r1).
head(r_fr10_2,fr10_r3).
body(r_fr10_2,fr10_a3).
body(r_fr10_2,fr10_q3).
body(r_fr10_2,fr10_r2).
body(r_fr10_2,fr10_x2).
body(r_fr10_2,fr10_y2).
head(r_fr10_3,fr10_r3).
body(r_fr10_3,fr10_p2).
body(r_fr10_3,fr10_q2).
head(r_fr10_4,fr10_r3).
body(r_fr10_4,fr10_u2).
body(r_fr10_4,fr10_w2).
body(r_fr10_4,fr10_w3).
head(r_fr10_5,fr10_r3).
body(r_fr10_5,fr10_q3).
body(r_fr10_5,fr10_w2).
head(r_fr10_6,fr10_r1).
body(r_fr10_6,fr10_d2).
body(r_fr10_6,fr7_b3).
body(r_fr10_6,fr10_p1).
body(r_fr10_6,fr10_r2).
body(r_fr10_6,fr10_u3).
body(r_fr10_6,fr10_w3).
body(r_fr10_6,fr10_y3).
head(r_fr10_7,fr10_r1).
body(r_fr10_7,fr10_b2).
body(r_fr10_7,fr10_b4).
body(r_fr10_7,fr10_t1).
body(r_fr10_7,fr10_v1).
body(r_fr10_7,fr10_w1).
body(r_fr10_7,fr10_x1).
body(r_fr10_7,fr10_x2).
body(r_fr10_7,fr10_y1).
head(r_fr10_8,fr10_r1).
head(r_fr10_9,fr10_r1).
body(r_fr10_9,fr10_a4).
body(r_fr10_9,fr10_b4).
body(r_fr10_9,fr5_v2).
body(r_fr10_9,fr9_s2).
body(r_fr10_9,fr10_e2).
body(r_fr10_9,fr10_e4).
body(r_fr10_9,fr5_r1).
body(r_fr10_9,fr10_f4).
body(r_fr10_9,fr10_t3).
head(r_fr10_10,fr10_r1).
body(r_fr10_10,fr10_p4).
body(r_fr10_10,fr10_r2).
head(r_fr10_11,fr10_r1).
body(r_fr10_11,fr3_r1).
head(r_fr10_12,fr10_u1).
body(r_fr10_12,fr10_a3).
body(r_fr10_12,fr10_b2).
body(r_fr10_12,fr10_c2).
body(r_fr10_12,fr5_v2).
body(r_fr10_12,fr10_d4).
body(r_fr10_12,fr10_e1).
body(r_fr10_12,fr10_e4).
body(r_fr10_12,fr10_w3).
head(r_fr10_13,fr10_u1).
body(r_fr10_13,fr10_a1).
body(r_fr10_13,fr10_a3).
body(r_fr10_13,fr10_c2).
body(r_fr10_13,fr10_c4).
body(r_fr10_13,fr10_e2).
body(r_fr10_13,fr10_f1).
head(r_fr10_14,fr10_u1).
body(r_fr10_14,fr10_b1).
body(r_fr10_14,fr10_b4).
body(r_fr10_14,fr10_c4).
body(r_fr10_14,fr10_e4).
body(r_fr10_14,fr10_q3).
body(r_fr10_14,fr10_r2).
body(r_fr10_14,fr10_r4).
body(r_fr10_14,fr10_u3).
body(r_fr10_14,fr10_v4).
head(r_fr10_15,fr10_q1).
body(r_fr10_15,fr10_a3).
body(r_fr10_15,fr3_r1).
body(r_fr10_15,fr5_v2).
body(r_fr10_15,fr10_d4).
body(r_fr10_15,fr10_v3).
body(r_fr10_15,fr10_w2).
head(r_fr10_16,fr10_q1).
body(r_fr10_16,fr10_a2).
body(r_fr10_16,fr10_t2).
body(r_fr10_16,fr10_w1).
body(r_fr10_16,fr10_z2).
head(r_fr10_17,fr10_q1).
body(r_fr10_17,fr10_a3).
body(r_fr10_17,fr10_c4).
body(r_fr10_17,fr10_e4).
head(r_fr10_18,fr10_q1).
body(r_fr10_18,fr10_u2).
body(r_fr10_18,fr10_v2).
body(r_fr10_18,fr10_v4).
head(r_fr10_19,fr10_q1).
body(r_fr10_19,fr10_p3).
head(r_fr10_20,fr10_q3).
body(r_fr10_20,fr10_a4).
body(r_fr10_20,fr10_c4).
body(r_fr10_20,fr10_t2).
body(r_fr10_20,fr10_t3).
head(r_fr10_21,fr10_q3).
body(r_fr10_21,fr10_d4).
head(r_fr10_22,fr10_q3).
body(r_fr10_22,fr10_a1).
body(r_fr10_22,fr10_c2).
body(r_fr10_22,fr10_e3).
body(r_fr10_22,fr10_f4).
body(r_fr10_22,fr10_p4).
head(r_fr10_23,fr10_q3).
body(r_fr10_23,fr10_d2).
body(r_fr10_23,fr10_t1).
body(r_fr10_23,fr10_t3).
body(r_fr10_23,fr10_u4).
head(r_fr10_24,fr10_q3).
body(r_fr10_24,fr10_b4).
body(r_fr10_24,fr9_s2).
body(r_fr10_24,fr10_f4).
head(r_fr10_25,fr10_q3).
body(r_fr10_25,fr3_r1).
body(r_fr10_25,fr10_c2).
head(r_fr10_26,fr10_q3).
head(r_fr10_27,fr10_q3).
body(r_fr10_27,fr3_r1).
body(r_fr10_27,fr10_b4).
body(r_fr10_27,fr10_c2).
body(r_fr10_27,fr5_r1).
body(r_fr10_27,fr10_q2).
body(r_fr10_27,fr10_s4).
body(r_fr10_27,fr10_v3).
head(r_fr10_28,fr10_v3).
body(r_fr10_28,fr10_a4).
body(r_fr10_28,fr10_b1).
body(r_fr10_28,fr10_b2).
body(r_fr10_28,fr5_v2).
body(r_fr10_28,fr10_c4).
body(r_fr10_28,fr10_p1).
body(r_fr10_28,fr10_z2).
head(r_fr10_29,fr10_v3).
body(r_fr10_29,fr10_a1).
body(r_fr10_29,fr10_c4).
body(r_fr10_29,fr10_r4).
body(r_fr10_29,fr10_t2).
body(r_fr10_29,fr10_t4).
body(r_fr10_29,fr10_v2).
head(r_fr10_30,fr10_v3).
body(r_fr10_30,fr10_a3).
body(r_fr10_30,fr10_c1).
body(r_fr10_30,fr10_c2).
body(r_fr10_30,fr10_d2).
head(r_fr10_31,fr10_v3).
head(r_fr10_32,fr10_v3).
body(r_fr10_32,fr10_a2).
head(r_fr10_33,fr10_v3).
body(r_fr10_33,fr10_p2).
body(r_fr10_33,fr10_s1).
body(r_fr10_33,fr10_t1).
body(r_fr10_33,fr10_u2).
body(r_fr10_33,fr10_w1).
body(r_fr10_33,fr10_w2).
body(r_fr10_33,fr10_x3).
head(r_fr10_34,fr10_x3).
body(r_fr10_34,fr10_t4).
body(r_fr10_34,fr10_w1).
body(r_fr10_34,fr10_y1).
head(r_fr10_35,fr10_x3).
body(r_fr10_35,fr10_f4).
body(r_fr10_35,fr10_p3).
body(r_fr10_35,fr10_t2).
body(r_fr10_35,fr10_t3).
body(r_fr10_35,fr10_u3).
head(r_fr10_36,fr10_x3).
body(r_fr10_36,fr10_a4).
head(r_fr10_37,fr10_x3).
body(r_fr10_37,fr10_p3).
body(r_fr10_37,fr10_s2).
body(r_fr10_37,fr10_s4).
body(r_fr10_37,fr10_t1).
body(r_fr10_37,fr10_u2).
body(r_fr10_37,fr10_w1).
body(r_fr10_37,fr10_w3).
body(r_fr10_37,fr10_x1).
head(r_fr10_38,fr10_x3).
body(r_fr10_38,fr10_a4).
body(r_fr10_38,fr10_b1).
body(r_fr10_38,fr10_e2).
body(r_fr10_38,fr10_f1).
body(r_fr10_38,fr10_q4).
body(r_fr10_38,fr10_s4).
body(r_fr10_38,fr10_t1).
body(r_fr10_38,fr10_v2).
body(r_fr10_38,fr8_e1).
head(r_fr10_39,fr10_x3).
body(r_fr10_39,fr10_b2).
body(r_fr10_39,fr3_r1).
body(r_fr10_39,fr9_s2).
body(r_fr10_39,fr10_d2).
body(r_fr10_39,fr7_b3).
body(r_fr10_39,fr10_p1).
body(r_fr10_39,fr10_y1).
head(r_fr10_40,fr10_x3).
body(r_fr10_40,fr10_a4).
body(r_fr10_40,fr10_c4).
body(r_fr10_40,fr10_q2).
body(r_fr10_40,fr10_s1).
body(r_fr10_40,fr10_u4).
body(r_fr10_40,fr10_w2).
body(r_fr10_40,fr10_y3).
head(r_fr10_41,fr10_x3).
body(r_fr10_41,fr10_a3).
body(r_fr10_41,fr10_b1).
body(r_fr10_41,fr10_e3).
body(r_fr10_41,fr10_p3).
body(r_fr10_41,fr10_z1).
head(r_fr10_42,fr8_e1).
body(r_fr10_42,fr10_e1).
body(r_fr10_42,fr5_r1).
body(r_fr10_42,fr10_f4).
body(r_fr10_42,fr10_q2).
body(r_fr10_42,fr10_t4).
body(r_fr10_42,fr10_w2).
body(r_fr10_42,fr10_x2).
head(r_fr10_43,fr8_e1).
body(r_fr10_43,fr9_s2).
body(r_fr10_43,fr10_e2).
body(r_fr10_43,fr10_s4).
body(r_fr10_43,fr10_t2).
body(r_fr10_43,fr10_u2).
body(r_fr10_43,fr10_u4).
body(r_fr10_43,fr10_v1).
body(r_fr10_43,fr10_v2).
body(r_fr10_43,fr10_v4).
head(r_fr10_44,fr10_r2).
body(r_fr10_44,fr3_r1).
body(r_fr10_44,fr10_d3).
body(r_fr10_44,fr10_f4).
body(r_fr10_44,fr10_q2).
body(r_fr10_44,fr10_t1).
body(r_fr10_44,fr10_t3).
head(r_fr10_45,fr10_r2).
body(r_fr10_45,fr10_s1).
body(r_fr10_45,fr10_x1).
head(r_fr10_46,fr10_t2).
body(r_fr10_46,fr10_t3).
head(r_fr10_47,fr10_t2).
body(r_fr10_47,fr10_e1).
body(r_fr10_47,fr10_p3).
body(r_fr10_47,fr10_s4).
body(r_fr10_47,fr10_t1).
body(r_fr10_47,fr10_t3).
body(r_fr10_47,fr10_t4).
body(r_fr10_47,fr10_v1).
body(r_fr10_47,fr10_v2).
body(r_fr10_47,fr10_v4).
head(r_fr10_48,fr10_t2).
body(r_fr10_48,fr10_q2).
head(r_fr10_49,fr10_t2).
body(r_fr10_49,fr10_a1).
body(r_fr10_49,fr10_c1).
body(r_fr10_49,fr10_e2).
body(r_fr10_49,fr10_w1).
body(r_fr10_49,fr10_w3).
body(r_fr10_49,fr10_y3).
head(r_fr10_50,fr10_t2).
body(r_fr10_50,fr10_d2).
body(r_fr10_50,fr10_d3).
body(r_fr10_50,fr10_q2).
body(r_fr10_50,fr10_s2).
body(r_fr10_50,fr10_s4).
body(r_fr10_50,fr10_t4).
body(r_fr10_50,fr10_u2).
body(r_fr10_50,fr10_u4).
head(r_fr10_51,fr10_t2).
body(r_fr10_51,fr10_a3).
body(r_fr10_51,fr5_v2).
body(r_fr10_51,fr10_p1).
body(r_fr10_51,fr10_q4).
body(r_fr10_51,fr10_s3).
body(r_fr10_51,fr10_v2).
head(r_fr10_52,fr10_z1).
body(r_fr10_52,fr10_p4).
body(r_fr10_52,fr10_w1).
body(r_fr10_52,fr10_w3).
body(r_fr10_52,fr10_y2).
head(r_fr10_53,fr10_z1).
body(r_fr10_53,fr10_c1).
body(r_fr10_53,fr10_c2).
body(r_fr10_53,fr10_w2).
head(r_fr10_54,fr10_z1).
body(r_fr10_54,fr10_a4).
body(r_fr10_54,fr10_c4).
body(r_fr10_54,fr9_s2).
body(r_fr10_54,fr7_b3).
body(r_fr10_54,fr5_r1).
body(r_fr10_54,fr10_u3).
body(r_fr10_54,fr10_x2).
head(r_fr10_55,fr10_z1).
body(r_fr10_55,fr10_a4).
body(r_fr10_55,fr10_c4).
body(r_fr10_55,fr7_b3).
body(r_fr10_55,fr10_s3).
head(r_fr10_56,fr10_z1).
body(r_fr10_56,fr10_a4).
body(r_fr10_56,fr10_d2).
body(r_fr10_56,fr7_b3).
body(r_fr10_56,fr10_p4).
head(r_fr10_57,fr10_z1).
body(r_fr10_57,fr10_b4).
body(r_fr10_57,fr10_d2).
body(r_fr10_57,fr10_s4).
body(r_fr10_57,fr10_y3).
head(r_fr10_58,fr10_z1).
body(r_fr10_58,fr10_b2).
body(r_fr10_58,fr3_r1).
body(r_fr10_58,fr10_u3).
body(r_fr10_58,fr10_v1).
body(r_fr10_58,fr10_z2).
head(r_fr10_59,fr10_z2).
body(r_fr10_59,fr10_a2).
body(r_fr10_59,fr10_c4).
body(r_fr10_59,fr9_s2).
body(r_fr10_59,fr10_p4).
body(r_fr10_59,fr10_s1).
body(r_fr10_59,fr10_t4).
body(r_fr10_59,fr10_v2).
body(r_fr10_59,fr10_y2).
head(r_fr10_60,fr10_z2).
body(r_fr10_60,fr10_p2).
body(r_fr10_60,fr10_u3).
head(r_fr10_61,fr10_z2).
body(r_fr10_61,fr10_a1).
body(r_fr10_61,fr10_c1).
body(r_fr10_61,fr10_c2).
body(r_fr10_61,fr10_d3).
body(r_fr10_61,fr10_e3).
body(r_fr10_61,fr5_r1).
body(r_fr10_61,fr10_s2).
body(r_fr10_61,fr10_u2).
body(r_fr10_61,fr10_v4).
head(r_fr10_62,fr10_z2).
body(r_fr10_62,fr10_a3).
body(r_fr10_62,fr10_b2).
body(r_fr10_62,fr7_b3).
head(r_fr10_63,fr10_z2).
body(r_fr10_63,fr10_b4).
body(r_fr10_63,fr10_e3).
body(r_fr10_63,fr10_p2).
body(r_fr10_63,fr10_q2).
body(r_fr10_63,fr10_r4).
body(r_fr10_63,fr10_s4).
body(r_fr10_63,fr10_v1).
body(r_fr10_63,fr10_w1).
body(r_fr10_63,fr10_x1).
head(r_fr10_64,fr10_z2).
body(r_fr10_64,fr10_d4).
body(r_fr10_64,fr10_e3).
body(r_fr10_64,fr7_b3).
body(r_fr10_64,fr10_u3).
body(r_fr10_64,fr10_y1).
head(r_fr10_65,fr10_t1).
body(r_fr10_65,fr10_t3).
body(r_fr10_65,fr10_v2).
head(r_fr10_66,fr10_t1).
body(r_fr10_66,fr10_c4).
body(r_fr10_66,fr9_s2).
body(r_fr10_66,fr10_s1).
body(r_fr10_66,fr10_v2).
head(r_fr10_67,fr10_t1).
body(r_fr10_67,fr10_a3).
body(r_fr10_67,fr3_r1).
body(r_fr10_67,fr5_v2).
body(r_fr10_67,fr5_r1).
body(r_fr10_67,fr10_p4).
body(r_fr10_67,fr10_w2).
head(r_fr10_68,fr10_s2).
body(r_fr10_68,fr10_e4).
body(r_fr10_68,fr10_s4).
body(r_fr10_68,fr10_t3).
head(r_fr10_69,fr10_s2).
body(r_fr10_69,fr10_a4).
body(r_fr10_69,fr5_r1).
head(r_fr10_70,fr10_s2).
body(r_fr10_70,fr10_d4).
body(r_fr10_70,fr10_p4).
body(r_fr10_70,fr10_r4).
body(r_fr10_70,fr10_t4).
body(r_fr10_70,fr10_w2).
head(r_fr10_71,fr10_s2).
body(r_fr10_71,fr3_r1).
body(r_fr10_71,fr10_c4).
body(r_fr10_71,fr9_s2).
body(r_fr10_71,fr10_d2).
body(r_fr10_71,fr10_e1).
body(r_fr10_71,fr10_e4).
body(r_fr10_71,fr10_x1).
head(r_fr10_72,fr10_s2).
body(r_fr10_72,fr10_a4).
body(r_fr10_72,fr10_c2).
body(r_fr10_72,fr5_v2).
body(r_fr10_72,fr10_e1).
body(r_fr10_72,fr7_b3).
body(r_fr10_72,fr10_p4).
body(r_fr10_72,fr10_s4).
body(r_fr10_72,fr10_t4).
body(r_fr10_72,fr10_u3).
head(r_fr10_73,fr10_s2).
body(r_fr10_73,fr10_c1).
body(r_fr10_73,fr10_c2).
body(r_fr10_73,fr5_v2).
body(r_fr10_73,fr10_d3).
body(r_fr10_73,fr10_e2).
body(r_fr10_73,fr10_e3).
body(r_fr10_73,fr10_t4).
body(r_fr10_73,fr10_u3).
body(r_fr10_73,fr10_w1).
head(r_fr10_74,fr10_s2).
body(r_fr10_74,fr10_c2).
body(r_fr10_74,fr9_s2).
body(r_fr10_74,fr10_f1).
body(r_fr10_74,fr10_v4).
head(r_fr10_75,fr10_s2).
body(r_fr10_75,fr10_p3).
body(r_fr10_75,fr10_q4).
body(r_fr10_75,fr10_u2).
body(r_fr10_75,fr10_u3).
body(r_fr10_75,fr10_u4).
body(r_fr10_75,fr10_v2).
body(r_fr10_75,fr10_y3).
head(r_fr10_76,fr10_r4).
body(r_fr10_76,fr10_b4).
body(r_fr10_76,fr10_q4).
body(r_fr10_76,fr10_s1).
body(r_fr10_76,fr10_t3).
body(r_fr10_76,fr10_t4).
body(r_fr10_76,fr10_u3).
body(r_fr10_76,fr10_w1).
body(r_fr10_76,fr10_x1).
body(r_fr10_76,fr10_y1).
head(r_fr10_77,fr10_r4).
body(r_fr10_77,fr10_b4).
body(r_fr10_77,fr5_v2).
body(r_fr10_77,fr10_d2).
body(r_fr10_77,fr10_f4).
body(r_fr10_77,fr10_p2).
body(r_fr10_77,fr10_q4).
body(r_fr10_77,fr10_x1).
body(r_fr10_77,fr10_y2).
head(r_fr10_78,fr10_r4).
body(r_fr10_78,fr10_c1).
head(r_fr10_79,fr10_r4).
body(r_fr10_79,fr10_p2).
body(r_fr10_79,fr10_q4).
body(r_fr10_79,fr10_w1).
head(r_fr10_80,fr10_r4).
body(r_fr10_80,fr10_a1).
body(r_fr10_80,fr10_d4).
body(r_fr10_80,fr10_e3).
head(r_fr10_81,fr10_y2).
body(r_fr10_81,fr10_c1).
body(r_fr10_81,fr7_b3).
body(r_fr10_81,fr10_p4).
body(r_fr10_81,fr10_u4).
head(r_fr10_82,fr10_y2).
body(r_fr10_82,fr10_b1).
body(r_fr10_82,fr9_s2).
body(r_fr10_82,fr10_e3).
head(r_fr10_83,fr10_y2).
body(r_fr10_83,fr7_b3).
body(r_fr10_83,fr5_r1).
body(r_fr10_83,fr10_w2).
head(r_fr10_84,fr10_y2).
body(r_fr10_84,fr9_s2).
body(r_fr10_84,fr10_p2).
body(r_fr10_84,fr10_p4).
body(r_fr10_84,fr10_s1).
body(r_fr10_84,fr10_u3).
body(r_fr10_84,fr10_v4).
body(r_fr10_84,fr10_w1).
head(r_fr10_85,fr10_y2).
body(r_fr10_85,fr9_s2).
head(r_fr10_86,fr10_y3).
body(r_fr10_86,fr10_b1).
body(r_fr10_86,fr5_v2).
body(r_fr10_86,fr10_e1).
body(r_fr10_86,fr10_e3).
body(r_fr10_86,fr7_b3).
head(r_fr10_87,fr10_y3).
body(r_fr10_87,fr10_a1).
body(r_fr10_87,fr5_r1).
body(r_fr10_87,fr10_f4).
body(r_fr10_87,fr10_p1).
body(r_fr10_87,fr10_q4).
body(r_fr10_87,fr10_u3).
head(r_fr10_88,fr10_y3).
body(r_fr10_88,fr10_d3).
body(r_fr10_88,fr10_f4).
head(r_fr10_89,fr10_y3).
body(r_fr10_89,fr10_b2).
body(r_fr10_89,fr10_c2).
body(r_fr10_89,fr10_p1).
body(r_fr10_89,fr10_p2).
body(r_fr10_89,fr10_s3).
head(r_fr10_90,fr10_y3).
body(r_fr10_90,fr5_r1).
body(r_fr10_90,fr10_q4).
body(r_fr10_90,fr10_t4).
body(r_fr10_90,fr10_v1).
body(r_fr10_90,fr10_w1).
body(r_fr10_90,fr10_w2).
head(r_fr10_91,fr10_y3).
body(r_fr10_91,fr10_s1).
head(r_fr10_92,fr10_y3).
body(r_fr10_92,fr10_y1).
head(r_fr10_93,fr10_y3).
body(r_fr10_93,fr10_d4).
body(r_fr10_93,fr10_e3).
body(r_fr10_93,fr10_u3).
head(r_fr10_94,fr10_w2).
body(r_fr10_94,fr10_q4).
body(r_fr10_94,fr10_u2).
body(r_fr10_94,fr10_u3).
body(r_fr10_94,fr10_u4).
body(r_fr10_94,fr10_x2).
head(r_fr10_95,fr10_w2).
body(r_fr10_95,fr10_a1).
body(r_fr10_95,fr10_b2).
body(r_fr10_95,fr3_r1).
body(r_fr10_95,fr10_f1).
body(r_fr10_95,fr10_s3).
body(r_fr10_95,fr10_t4).
body(r_fr10_95,fr10_u3).
body(r_fr10_95,fr10_v1).
body(r_fr10_95,fr10_x2).
head(r_fr10_96,fr10_u4).
body(r_fr10_96,fr10_b1).
body(r_fr10_96,fr10_c2).
body(r_fr10_96,fr10_p1).
body(r_fr10_96,fr10_p2).
body(r_fr10_96,fr10_p4).
body(r_fr10_96,fr10_s4).
body(r_fr10_96,fr10_v1).
body(r_fr10_96,fr10_v2).
body(r_fr10_96,fr10_x2).
head(r_fr10_97,fr10_u4).
head(r_fr10_98,fr10_u4).
body(r_fr10_98,fr10_a2).
body(r_fr10_98,fr10_a4).
body(r_fr10_98,fr10_d2).
body(r_fr10_98,fr10_e1).
body(r_fr10_98,fr10_e2).
head(r_fr10_99,fr10_u4).
body(r_fr10_99,fr10_q4).
head(r_fr10_100,fr10_u4).
body(r_fr10_100,fr10_a1).
body(r_fr10_100,fr10_a2).
body(r_fr10_100,fr10_c1).
body(r_fr10_100,fr10_d3).
body(r_fr10_100,fr10_e1).
body(r_fr10_100,fr10_p3).
body(r_fr10_100,fr10_q2).
body(r_fr10_100,fr10_w1).
head(r_fr10_101,fr10_u4).
body(r_fr10_101,fr10_a1).
body(r_fr10_101,fr10_b2).
body(r_fr10_101,fr10_c2).
body(r_fr10_101,fr10_d2).
body(r_fr10_101,fr10_f1).
body(r_fr10_101,fr10_f4).
body(r_fr10_101,fr10_u3).
head(r_fr10_102,fr10_u4).
body(r_fr10_102,fr10_a1).
body(r_fr10_102,fr10_a4).
body(r_fr10_102,fr10_b2).
body(r_fr10_102,fr10_c1).
body(r_fr10_102,fr5_v2).
body(r_fr10_102,fr10_c4).
body(r_fr10_102,fr10_d2).
body(r_fr10_102,fr10_e1).
head(r_fr10_103,fr10_u4).
body(r_fr10_103,fr10_a2).
body(r_fr10_103,fr10_b4).
body(r_fr10_103,fr10_d3).
body(r_fr10_103,fr10_d4).
body(r_fr10_103,fr10_s3).
body(r_fr10_103,fr10_u3).
head(r_fr10_104,fr10_s4).
body(r_fr10_104,fr10_a4).
body(r_fr10_104,fr10_b2).
body(r_fr10_104,fr10_c2).
body(r_fr10_104,fr10_e1).
body(r_fr10_104,fr10_f1).
body(r_fr10_104,fr7_b3).
body(r_fr10_104,fr5_r1).
body(r_fr10_104,fr10_p2).
body(r_fr10_104,fr10_p4).
head(r_fr10_105,fr10_s4).
body(r_fr10_105,fr10_a1).
body(r_fr10_105,fr10_b1).
body(r_fr10_105,fr10_b2).
body(r_fr10_105,fr10_b4).
body(r_fr10_105,fr10_e3).
body(r_fr10_105,fr10_e4).
body(r_fr10_105,fr10_f1).
body(r_fr10_105,fr7_b3).
body(r_fr10_105,fr10_y1).
head(r_fr10_106,fr10_s4).
body(r_fr10_106,fr10_q4).
body(r_fr10_106,fr10_w3).
body(r_fr10_106,fr10_x2).
head(r_fr10_107,fr10_s4).
body(r_fr10_107,fr5_v2).
body(r_fr10_107,fr9_s2).
body(r_fr10_107,fr10_d2).
body(r_fr10_107,fr10_y1).
head(r_fr10_108,fr10_s4).
body(r_fr10_108,fr10_e2).
body(r_fr10_108,fr10_e3).
body(r_fr10_108,fr10_p2).
body(r_fr10_108,fr10_t4).
body(r_fr10_108,fr10_w1).
body(r_fr10_108,fr10_w3).
head(r_fr10_109,fr10_s4).
body(r_fr10_109,fr10_p1).
body(r_fr10_109,fr10_x2).
head(r_fr10_110,fr10_x1).
head(r_fr10_111,fr10_x1).
body(r_fr10_111,fr10_a4).
head(r_fr10_112,fr10_x1).
body(r_fr10_112,fr10_c4).
body(r_fr10_112,fr10_p1).
body(r_fr10_112,fr10_v1).
body(r_fr10_112,fr10_y1).
head(r_fr10_113,fr10_x1).
body(r_fr10_113,fr10_a1).
body(r_fr10_113,fr10_b2).
body(r_fr10_113,fr10_f1).
body(r_fr10_113,fr10_u3).
head(r_fr10_114,fr10_v1).
body(r_fr10_114,fr10_a1).
body(r_fr10_114,fr10_b4).
body(r_fr10_114,fr10_e2).
body(r_fr10_114,fr10_e3).
head(r_fr10_115,fr10_v1).
body(r_fr10_115,fr10_d3).
body(r_fr10_115,fr10_p1).
head(r_fr10_116,fr10_v1).
body(r_fr10_116,fr10_d2).
head(r_fr10_117,fr10_v1).
body(r_fr10_117,fr10_u2).
head(r_fr10_118,fr10_v1).
body(r_fr10_118,fr10_a3).
body(r_fr10_118,fr10_a4).
body(r_fr10_118,fr10_c1).
body(r_fr10_118,fr10_c4).
body(r_fr10_118,fr10_e4).
head(r_fr10_119,fr10_p1).
body(r_fr10_119,fr10_p2).
body(r_fr10_119,fr10_p3).
body(r_fr10_119,fr10_s3).
body(r_fr10_119,fr10_u3).
body(r_fr10_119,fr10_v4).
body(r_fr10_119,fr10_w3).
body(r_fr10_119,fr10_x2).
head(r_fr10_120,fr10_p1).
body(r_fr10_120,fr3_r1).
body(r_fr10_120,fr10_d4).
body(r_fr10_120,fr10_e4).
body(r_fr10_120,fr5_r1).
head(r_fr10_121,fr10_p1).
body(r_fr10_121,fr10_d4).
body(r_fr10_121,fr10_e2).
body(r_fr10_121,fr10_e3).
head(r_fr10_122,fr10_p1).
body(r_fr10_122,fr10_b4).
body(r_fr10_122,fr10_e2).
head(r_fr10_123,fr10_p1).
body(r_fr10_123,fr10_d4).
body(r_fr10_123,fr10_e3).
head(r_fr10_124,fr10_p1).
body(r_fr10_124,fr10_b4).
body(r_fr10_124,fr10_c1).
body(r_fr10_124,fr10_d2).
body(r_fr10_124,fr10_w1).
head(r_fr10_125,fr10_p1).
body(r_fr10_125,fr10_a2).
body(r_fr10_125,fr10_q2).
body(r_fr10_125,fr10_u2).
body(r_fr10_125,fr10_w1).
head(r_fr10_126,fr10_w3).
body(r_fr10_126,fr10_d4).
body(r_fr10_126,fr10_e4).
body(r_fr10_126,fr5_r1).
head(r_fr10_127,fr10_w3).
body(r_fr10_127,fr10_p4).
body(r_fr10_127,fr10_q4).
body(r_fr10_127,fr10_s3).
body(r_fr10_127,fr10_t3).
body(r_fr10_127,fr10_t4).
body(r_fr10_127,fr10_u2).
body(r_fr10_127,fr10_v4).
body(r_fr10_127,fr10_x2).
body(r_fr10_127,fr10_y1).
head(r_fr10_128,fr10_w3).
body(r_fr10_128,fr10_c2).
body(r_fr10_128,fr10_c4).
body(r_fr10_128,fr10_d2).
body(r_fr10_128,fr10_e4).
body(r_fr10_128,fr5_r1).
body(r_fr10_128,fr10_f4).
body(r_fr10_128,fr10_t3).
body(r_fr10_128,fr10_y1).
head(r_fr10_129,fr10_y1).
body(r_fr10_129,fr10_c1).
body(r_fr10_129,fr10_p3).
body(r_fr10_129,fr10_s1).
head(r_fr10_130,fr10_y1).
head(r_fr10_131,fr10_y1).
body(r_fr10_131,fr10_a3).
body(r_fr10_131,fr3_r1).
body(r_fr10_131,fr5_v2).
body(r_fr10_131,fr10_e1).
body(r_fr10_131,fr10_e3).
body(r_fr10_131,fr10_p3).
body(r_fr10_131,fr10_t3).
body(r_fr10_131,fr10_t4).
body(r_fr10_131,fr10_w1).
head(r_fr10_132,fr10_y1).
body(r_fr10_132,fr10_b2).
body(r_fr10_132,fr10_t3).
head(r_fr10_133,fr10_y1).
body(r_fr10_133,fr9_s2).
body(r_fr10_133,fr10_p4).
body(r_fr10_133,fr10_q4).
body(r_fr10_133,fr10_s1).
body(r_fr10_133,fr10_s3).
body(r_fr10_133,fr10_t3).
body(r_fr10_133,fr10_u2).
body(r_fr10_133,fr10_u3).
body(r_fr10_133,fr10_v2).
head(r_fr10_134,fr10_u2).
body(r_fr10_134,fr10_d3).
body(r_fr10_134,fr10_e4).
body(r_fr10_134,fr10_s1).
head(r_fr10_135,fr10_u2).
body(r_fr10_135,fr10_b2).
body(r_fr10_135,fr10_p2).
body(r_fr10_135,fr10_p3).
body(r_fr10_135,fr10_p4).
body(r_fr10_135,fr10_t4).
body(r_fr10_135,fr10_u3).
head(r_fr10_136,fr10_u2).
body(r_fr10_136,fr10_b1).
body(r_fr10_136,fr9_s2).
body(r_fr10_136,fr10_e2).
body(r_fr10_136,fr7_b3).
body(r_fr10_136,fr10_f4).
body(r_fr10_136,fr10_s3).
body(r_fr10_136,fr10_t3).
body(r_fr10_136,fr10_v2).
head(r_fr10_137,fr10_u2).
body(r_fr10_137,fr10_a1).
body(r_fr10_137,fr10_a2).
body(r_fr10_137,fr10_a4).
body(r_fr10_137,fr10_b2).
body(r_fr10_137,fr5_v2).
body(r_fr10_137,fr10_c4).
body(r_fr10_137,fr10_d4).
body(r_fr10_137,fr10_f1).
body(r_fr10_137,fr7_b3).
head(r_fr10_138,fr10_u2).
body(r_fr10_138,fr10_s3).
head(r_fr10_139,fr10_u2).
body(r_fr10_139,fr5_v2).
body(r_fr10_139,fr10_p4).
body(r_fr10_139,fr10_v2).
head(r_fr10_140,fr10_u2).
head(r_fr10_141,fr10_s3).
body(r_fr10_141,fr10_t3).
body(r_fr10_141,fr10_v2).
head(r_fr10_142,fr10_s3).
body(r_fr10_142,fr3_r1).
body(r_fr10_142,fr10_c2).
body(r_fr10_142,fr5_v2).
body(r_fr10_142,fr5_r1).
body(r_fr10_142,fr10_p4).
body(r_fr10_142,fr10_q2).
body(r_fr10_142,fr10_t3).
body(r_fr10_142,fr10_u3).
body(r_fr10_142,fr10_v4).
head(r_fr10_143,fr10_s3).
body(r_fr10_143,fr10_p2).
body(r_fr10_143,fr10_v2).
body(r_fr10_143,fr10_v4).
head(r_fr10_144,fr10_s3).
body(r_fr10_144,fr10_p3).
body(r_fr10_144,fr10_t4).
body(r_fr10_144,fr10_v2).
body(r_fr10_144,fr10_v4).
body(r_fr10_144,fr10_x2).
head(r_fr10_145,fr10_s3).
body(r_fr10_145,fr10_a1).
body(r_fr10_145,fr10_p3).
body(r_fr10_145,fr10_q2).
body(r_fr10_145,fr10_t3).
body(r_fr10_145,fr10_t4).
body(r_fr10_145,fr10_v4).
body(r_fr10_145,fr10_x2).
head(r_fr10_146,fr10_u3).
body(r_fr10_146,fr10_a1).
body(r_fr10_146,fr10_b1).
body(r_fr10_146,fr9_s2).
body(r_fr10_146,fr7_b3).
head(r_fr10_147,fr10_u3).
body(r_fr10_147,fr10_b4).
head(r_fr10_148,fr10_u3).
body(r_fr10_148,fr10_a1).
body(r_fr10_148,fr10_s1).
body(r_fr10_148,fr10_v4).
body(r_fr10_148,fr10_w1).
head(r_fr10_149,fr10_u3).
body(r_fr10_149,fr10_b1).
body(r_fr10_149,fr10_b4).
head(r_fr10_150,fr10_p3).
body(r_fr10_150,fr10_a3).
body(r_fr10_150,fr10_e1).
body(r_fr10_150,fr10_e2).
body(r_fr10_150,fr10_f1).
body(r_fr10_150,fr10_f4).
body(r_fr10_150,fr10_p4).
body(r_fr10_150,fr10_q2).
body(r_fr10_150,fr10_v2).
body(r_fr10_150,fr10_x2).
head(r_fr10_151,fr10_p3).
body(r_fr10_151,fr10_p2).
body(r_fr10_151,fr10_q4).
body(r_fr10_151,fr10_s1).
body(r_fr10_151,fr10_t3).
body(r_fr10_151,fr10_v4).
body(r_fr10_151,fr10_x2).
head(r_fr10_152,fr10_p3).
body(r_fr10_152,fr10_a3).
body(r_fr10_152,fr10_b1).
body(r_fr10_152,fr10_b2).
body(r_fr10_152,fr10_d3).
body(r_fr10_152,fr10_f1).
body(r_fr10_152,fr7_b3).
body(r_fr10_152,fr5_r1).
body(r_fr10_152,fr10_t4).
body(r_fr10_152,fr10_w1).
head(r_fr10_153,fr10_p3).
body(r_fr10_153,fr10_b1).
head(r_fr10_154,fr10_p3).
head(r_fr10_155,fr10_p3).
body(r_fr10_155,fr10_c4).
body(r_fr10_155,fr10_d2).
body(r_fr10_155,fr10_e3).
body(r_fr10_155,fr10_e4).
body(r_fr10_155,fr10_q4).
head(r_fr10_156,fr10_p3).
body(r_fr10_156,fr7_b3).
body(r_fr10_156,fr10_p2).
body(r_fr10_156,fr10_p4).
body(r_fr10_156,fr10_q2).
body(r_fr10_156,fr10_t3).
body(r_fr10_156,fr10_v4).
body(r_fr10_156,fr10_x2).
head(r_fr10_157,fr10_p4).
body(r_fr10_157,fr10_a2).
body(r_fr10_157,fr10_a3).
body(r_fr10_157,fr10_p2).
body(r_fr10_157,fr10_q2).
head(r_fr10_158,fr10_p4).
body(r_fr10_158,fr10_p2).
head(r_fr10_159,fr10_p4).
head(r_fr10_160,fr10_p4).
body(r_fr10_160,fr10_b4).
body(r_fr10_160,fr10_c1).
body(r_fr10_160,fr10_c4).
body(r_fr10_160,fr10_d4).
body(r_fr10_160,fr10_q2).
body(r_fr10_160,fr10_x2).
head(r_fr10_161,fr10_p4).
body(r_fr10_161,fr10_a1).
body(r_fr10_161,fr10_a3).
body(r_fr10_161,fr10_b2).
body(r_fr10_161,fr5_v2).
body(r_fr10_161,fr10_e2).
body(r_fr10_161,fr10_e4).
body(r_fr10_161,fr10_f1).
body(r_fr10_161,fr7_b3).
body(r_fr10_161,fr5_r1).
head(r_fr10_162,fr10_v4).
body(r_fr10_162,fr10_p2).
body(r_fr10_162,fr10_q2).
body(r_fr10_162,fr10_s1).
body(r_fr10_162,fr10_t3).
body(r_fr10_162,fr10_v2).
body(r_fr10_162,fr10_w1).
body(r_fr10_162,fr10_x2).
head(r_fr10_163,fr10_v4).
body(r_fr10_163,fr10_d4).
body(r_fr10_163,fr10_t3).
body(r_fr10_163,fr10_w1).
head(r_fr10_164,fr10_v4).
body(r_fr10_164,fr10_b2).
body(r_fr10_164,fr10_d2).
body(r_fr10_164,fr10_e2).
body(r_fr10_164,fr10_q2).
body(r_fr10_164,fr10_q4).
body(r_fr10_164,fr10_s1).
body(r_fr10_164,fr10_w1).
head(r_fr10_165,fr10_v4).
body(r_fr10_165,fr3_r1).
body(r_fr10_165,fr10_q2).
body(r_fr10_165,fr10_q4).
head(r_fr10_166,fr10_v4).
body(r_fr10_166,fr10_c4).
body(r_fr10_166,fr10_p2).
body(r_fr10_166,fr10_q2).
body(r_fr10_166,fr10_q4).
body(r_fr10_166,fr10_s1).
body(r_fr10_166,fr10_t4).
body(r_fr10_166,fr10_v2).
body(r_fr10_166,fr10_w1).
body(r_fr10_166,fr10_x2).
head(r_fr10_167,fr10_v4).
body(r_fr10_167,fr10_e2).
body(r_fr10_167,fr10_p2).
body(r_fr10_167,fr10_t4).
body(r_fr10_167,fr10_x2).
head(r_fr10_168,fr10_s1).
body(r_fr10_168,fr10_b2).
body(r_fr10_168,fr10_b4).
body(r_fr10_168,fr10_e3).
body(r_fr10_168,fr10_f4).
body(r_fr10_168,fr10_t3).
head(r_fr10_169,fr10_s1).
body(r_fr10_169,fr10_e2).
body(r_fr10_169,fr10_f1).
body(r_fr10_169,fr5_r1).
head(r_fr10_170,fr10_s1).
head(r_fr10_171,fr10_s1).
body(r_fr10_171,fr10_a1).
body(r_fr10_171,fr10_b2).
body(r_fr10_171,fr10_d4).
body(r_fr10_171,fr10_f4).
body(r_fr10_171,fr10_t3).
body(r_fr10_171,fr10_v2).
body(r_fr10_171,fr10_w1).

