assumption(fr12_d1).
assumption(fr1_b1).
assumption(fr9_c3).
assumption(fr1_d1).
assumption(fr9_b2).
assumption(fr1_f1).
assumption(fr1_a2).
assumption(fr12_d1).
assumption(fr1_c2).
assumption(fr1_d2).
assumption(fr1_e2).
assumption(fr12_d1).
assumption(fr1_a3).
assumption(fr9_b2).
assumption(fr22_e1).
assumption(fr11_e2).
assumption(fr25_f2).
assumption(fr17_d2).
contrary(fr12_d1,fr21_r2).
contrary(fr1_a2,fr1_p1).
contrary(fr1_a3,fr5_s1).
contrary(fr1_b1,fr1_d2).
contrary(fr12_d1,fr5_s1).
contrary(fr9_b2,fr21_r2).
contrary(fr9_c3,fr1_q2).
contrary(fr1_c2,fr12_d1).
contrary(fr22_e1,fr1_d1).
contrary(fr1_d1,fr9_b2).
contrary(fr1_d2,fr1_y1).
contrary(fr11_e2,fr18_v2).
contrary(fr9_b2,fr5_s1).
contrary(fr1_e2,fr1_q2).
contrary(fr25_f2,fr8_u2).
contrary(fr1_f1,fr12_d1).
contrary(fr12_d1,fr1_e2).
contrary(fr17_d2,fr21_r2).
head(r_fr1_0,fr1_z1).
body(r_fr1_0,fr12_d1).
body(r_fr1_0,fr12_d1).
body(r_fr1_0,fr18_v2).
head(r_fr1_1,fr1_z1).
body(r_fr1_1,fr21_r2).
head(r_fr1_2,fr1_z1).
body(r_fr1_2,fr1_a3).
body(r_fr1_2,fr12_d1).
body(r_fr1_2,fr9_b2).
body(r_fr1_2,fr1_d1).
head(r_fr1_3,fr1_z1).
body(r_fr1_3,fr1_q1).
body(r_fr1_3,fr1_r3).
body(r_fr1_3,fr10_r3).
body(r_fr1_3,fr2_y3).
head(r_fr1_4,fr1_z1).
body(r_fr1_4,fr17_d2).
head(r_fr1_5,fr21_r2).
body(r_fr1_5,fr12_d1).
body(r_fr1_5,fr1_p1).
body(r_fr1_5,fr1_s3).
body(r_fr1_5,fr1_v3).
body(r_fr1_5,fr21_r2).
head(r_fr1_6,fr21_r2).
body(r_fr1_6,fr24_s1).
body(r_fr1_6,fr11_r3).
head(r_fr1_7,fr21_r2).
body(r_fr1_7,fr12_d1).
body(r_fr1_7,fr12_d1).
body(r_fr1_7,fr1_c2).
body(r_fr1_7,fr22_e1).
body(r_fr1_7,fr1_f1).
head(r_fr1_8,fr21_r2).
body(r_fr1_8,fr1_b1).
body(r_fr1_8,fr9_b2).
body(r_fr1_8,fr9_c3).
body(r_fr1_8,fr1_c2).
body(r_fr1_8,fr22_e1).
body(r_fr1_8,fr25_f2).
body(r_fr1_8,fr17_d2).
head(r_fr1_9,fr21_r2).
head(r_fr1_10,fr8_u2).
body(r_fr1_10,fr18_v2).
body(r_fr1_10,fr1_q2).
body(r_fr1_10,fr24_y2).
body(r_fr1_10,fr1_v1).
head(r_fr1_11,fr8_u2).
body(r_fr1_11,fr1_a3).
body(r_fr1_11,fr25_f2).
body(r_fr1_11,fr1_f1).
body(r_fr1_11,fr12_d1).
body(r_fr1_11,fr1_s3).
head(r_fr1_12,fr8_u2).
head(r_fr1_13,fr1_r1).
body(r_fr1_13,fr1_a2).
body(r_fr1_13,fr9_c3).
body(r_fr1_13,fr1_c2).
body(r_fr1_13,fr1_d1).
body(r_fr1_13,fr1_d2).
body(r_fr1_13,fr1_e2).
body(r_fr1_13,fr1_r3).
head(r_fr1_14,fr1_r1).
body(r_fr1_14,fr1_a2).
body(r_fr1_14,fr1_d2).
head(r_fr1_15,fr13_q3).
body(r_fr1_15,fr1_a2).
body(r_fr1_15,fr11_e2).
body(r_fr1_15,fr1_e2).
body(r_fr1_15,fr1_f1).
body(r_fr1_15,fr1_r3).
body(r_fr1_15,fr21_r2).
body(r_fr1_15,fr2_y3).
head(r_fr1_16,fr13_q3).
body(r_fr1_16,fr1_a3).
body(r_fr1_16,fr22_e1).
body(r_fr1_16,fr1_p1).
head(r_fr1_17,fr13_q3).
body(r_fr1_17,fr1_b1).
body(r_fr1_17,fr12_d1).
body(r_fr1_17,fr1_c2).
body(r_fr1_17,fr1_d1).
body(r_fr1_17,fr25_y2).
body(r_fr1_17,fr1_v1).
body(r_fr1_17,fr3_q2).
head(r_fr1_18,fr13_q3).
body(r_fr1_18,fr12_d1).
body(r_fr1_18,fr12_d1).
body(r_fr1_18,fr11_e2).
body(r_fr1_18,fr1_r3).
body(r_fr1_18,fr10_r3).
body(r_fr1_18,fr1_u1).
body(r_fr1_18,fr21_r2).
head(r_fr1_19,fr13_q3).
body(r_fr1_19,fr9_c3).
body(r_fr1_19,fr1_e2).
body(r_fr1_19,fr1_f1).
body(r_fr1_19,fr5_s1).
body(r_fr1_19,fr1_v1).
head(r_fr1_20,fr13_q3).
body(r_fr1_20,fr24_s1).
body(r_fr1_20,fr1_q1).
body(r_fr1_20,fr5_s1).
body(r_fr1_20,fr24_y2).
body(r_fr1_20,fr21_r2).
head(r_fr1_21,fr21_r2).
body(r_fr1_21,fr1_a2).
body(r_fr1_21,fr1_f1).
body(r_fr1_21,fr18_v2).
body(r_fr1_21,fr1_u1).
body(r_fr1_21,fr21_r2).
body(r_fr1_21,fr1_y1).
head(r_fr1_22,fr21_r2).
body(r_fr1_22,fr22_e1).
body(r_fr1_22,fr1_d1).
body(r_fr1_22,fr9_b2).
body(r_fr1_22,fr12_d1).
body(r_fr1_22,fr11_r3).
body(r_fr1_22,fr1_v1).
head(r_fr1_23,fr10_r3).
body(r_fr1_23,fr1_a2).
body(r_fr1_23,fr1_b1).
body(r_fr1_23,fr22_e1).
body(r_fr1_23,fr1_d2).
body(r_fr1_23,fr1_r3).
body(r_fr1_23,fr5_s1).
body(r_fr1_23,fr2_y3).
head(r_fr1_24,fr10_r3).
body(r_fr1_24,fr1_a2).
body(r_fr1_24,fr1_a3).
body(r_fr1_24,fr9_c3).
body(r_fr1_24,fr1_d2).
body(r_fr1_24,fr25_f2).
body(r_fr1_24,fr5_s1).
head(r_fr1_25,fr10_r3).
body(r_fr1_25,fr9_b2).
body(r_fr1_25,fr1_y1).
head(r_fr1_26,fr10_r3).
body(r_fr1_26,fr1_a3).
body(r_fr1_26,fr9_c3).
body(r_fr1_26,fr18_v2).
body(r_fr1_26,fr24_y2).
head(r_fr1_27,fr10_r3).
body(r_fr1_27,fr9_b2).
body(r_fr1_27,fr9_c3).
body(r_fr1_27,fr1_e2).
body(r_fr1_27,fr1_f1).
body(r_fr1_27,fr21_r2).
body(r_fr1_27,fr21_r2).
head(r_fr1_28,fr25_y2).
body(r_fr1_28,fr9_c3).
body(r_fr1_28,fr1_e2).
body(r_fr1_28,fr25_f2).
body(r_fr1_28,fr1_f1).
body(r_fr1_28,fr12_d1).
body(r_fr1_28,fr17_d2).
body(r_fr1_28,fr1_r3).
head(r_fr1_29,fr25_y2).
body(r_fr1_29,fr1_d1).
body(r_fr1_29,fr1_d2).
body(r_fr1_29,fr18_v2).
body(r_fr1_29,fr1_q2).
head(r_fr1_30,fr3_q2).
body(r_fr1_30,fr22_e1).
body(r_fr1_30,fr11_e2).
body(r_fr1_30,fr1_p1).
body(r_fr1_30,fr21_r2).
head(r_fr1_31,fr3_q2).
body(r_fr1_31,fr9_c3).
body(r_fr1_31,fr22_e1).
body(r_fr1_31,fr25_f2).
body(r_fr1_31,fr1_q3).
body(r_fr1_31,fr1_y1).
head(r_fr1_32,fr3_q2).
body(r_fr1_32,fr1_d2).
body(r_fr1_32,fr24_s1).
body(r_fr1_32,fr18_v2).
body(r_fr1_32,fr1_r3).
body(r_fr1_32,fr5_s1).
body(r_fr1_32,fr1_v1).
body(r_fr1_32,fr1_y1).
head(r_fr1_33,fr3_q2).
body(r_fr1_33,fr1_b1).
body(r_fr1_33,fr9_b2).
body(r_fr1_33,fr25_f2).
body(r_fr1_33,fr1_v1).
head(r_fr1_34,fr2_y3).
body(r_fr1_34,fr1_a3).
body(r_fr1_34,fr1_b1).
body(r_fr1_34,fr9_b2).
body(r_fr1_34,fr9_c3).
body(r_fr1_34,fr1_d1).
body(r_fr1_34,fr25_f2).
body(r_fr1_34,fr1_f1).
head(r_fr1_35,fr2_y3).
head(r_fr1_36,fr2_y3).
body(r_fr1_36,fr5_s1).
body(r_fr1_36,fr11_r3).
head(r_fr1_37,fr2_y3).
body(r_fr1_37,fr1_f1).
body(r_fr1_37,fr21_r2).
body(r_fr1_37,fr1_v1).
body(r_fr1_37,fr21_r2).
body(r_fr1_37,fr1_y1).
head(r_fr1_38,fr2_y3).
body(r_fr1_38,fr18_v2).
body(r_fr1_38,fr1_q2).
body(r_fr1_38,fr1_q3).
body(r_fr1_38,fr1_r3).
body(r_fr1_38,fr1_s3).
body(r_fr1_38,fr5_s1).
head(r_fr1_39,fr2_y3).
body(r_fr1_39,fr1_e2).
body(r_fr1_39,fr1_p1).
body(r_fr1_39,fr1_q1).
body(r_fr1_39,fr24_y2).
body(r_fr1_39,fr1_y1).
head(r_fr1_40,fr25_y2).
body(r_fr1_40,fr1_d1).
body(r_fr1_40,fr1_r3).
body(r_fr1_40,fr24_y2).
body(r_fr1_40,fr1_u1).
body(r_fr1_40,fr1_v1).
body(r_fr1_40,fr21_r2).
head(r_fr1_41,fr25_y2).
body(r_fr1_41,fr12_d1).
body(r_fr1_41,fr12_d1).
body(r_fr1_41,fr9_b2).
body(r_fr1_41,fr22_e1).
body(r_fr1_41,fr24_s1).
body(r_fr1_41,fr5_s1).
body(r_fr1_41,fr1_y1).
head(r_fr1_42,fr25_y2).
body(r_fr1_42,fr12_d1).
body(r_fr1_42,fr25_f2).
body(r_fr1_42,fr18_v2).
body(r_fr1_42,fr1_q1).
body(r_fr1_42,fr1_s3).
body(r_fr1_42,fr5_s1).
body(r_fr1_42,fr1_u1).
head(r_fr1_43,fr1_r3).
body(r_fr1_43,fr1_a2).
body(r_fr1_43,fr1_d1).
body(r_fr1_43,fr12_d1).
body(r_fr1_43,fr17_d2).
head(r_fr1_44,fr1_r3).
body(r_fr1_44,fr1_d2).
body(r_fr1_44,fr9_b2).
head(r_fr1_45,fr1_r3).
body(r_fr1_45,fr1_p1).
body(r_fr1_45,fr1_q2).
body(r_fr1_45,fr5_s1).
body(r_fr1_45,fr24_y2).
body(r_fr1_45,fr21_r2).
body(r_fr1_45,fr1_y1).
head(r_fr1_46,fr1_r3).
body(r_fr1_46,fr12_d1).
body(r_fr1_46,fr9_b2).
head(r_fr1_47,fr1_r3).
body(r_fr1_47,fr1_a3).
body(r_fr1_47,fr1_b1).
body(r_fr1_47,fr9_b2).
body(r_fr1_47,fr22_e1).
body(r_fr1_47,fr11_e2).
body(r_fr1_47,fr1_e2).
body(r_fr1_47,fr1_q3).
head(r_fr1_48,fr1_r3).
body(r_fr1_48,fr18_v2).
body(r_fr1_48,fr1_v3).
head(r_fr1_49,fr1_q1).
body(r_fr1_49,fr12_d1).
body(r_fr1_49,fr9_b2).
body(r_fr1_49,fr11_e2).
body(r_fr1_49,fr17_d2).
body(r_fr1_49,fr5_s1).
head(r_fr1_50,fr1_q1).
head(r_fr1_51,fr1_q1).
body(r_fr1_51,fr11_r3).
body(r_fr1_51,fr1_u1).
body(r_fr1_51,fr21_r2).
head(r_fr1_52,fr1_q1).
body(r_fr1_52,fr9_b2).
body(r_fr1_52,fr18_v2).
body(r_fr1_52,fr24_y2).
body(r_fr1_52,fr1_u1).
head(r_fr1_53,fr1_q1).
body(r_fr1_53,fr24_s1).
body(r_fr1_53,fr1_y1).
head(r_fr1_54,fr1_u1).
body(r_fr1_54,fr1_e2).
body(r_fr1_54,fr12_d1).
body(r_fr1_54,fr1_p1).
body(r_fr1_54,fr1_v3).
body(r_fr1_54,fr21_r2).
body(r_fr1_54,fr1_y1).
head(r_fr1_55,fr1_u1).
body(r_fr1_55,fr1_s3).
body(r_fr1_55,fr11_r3).
body(r_fr1_55,fr21_r2).
body(r_fr1_55,fr1_v1).
body(r_fr1_55,fr21_r2).
head(r_fr1_56,fr1_u1).
body(r_fr1_56,fr12_d1).
body(r_fr1_56,fr1_f1).
head(r_fr1_57,fr1_u1).
body(r_fr1_57,fr1_f1).
body(r_fr1_57,fr1_p1).
body(r_fr1_57,fr1_q2).
body(r_fr1_57,fr5_s1).
body(r_fr1_57,fr21_r2).
body(r_fr1_57,fr21_r2).
body(r_fr1_57,fr1_y1).
head(r_fr1_58,fr1_u1).
body(r_fr1_58,fr12_d1).
body(r_fr1_58,fr22_e1).
body(r_fr1_58,fr1_d1).
body(r_fr1_58,fr25_f2).
head(r_fr1_59,fr1_u1).
head(r_fr1_60,fr18_v2).
body(r_fr1_60,fr9_c3).
body(r_fr1_60,fr1_c2).
body(r_fr1_60,fr1_e2).
body(r_fr1_60,fr12_d1).
head(r_fr1_61,fr18_v2).
body(r_fr1_61,fr1_p1).
body(r_fr1_61,fr24_s1).
body(r_fr1_61,fr21_r2).
body(r_fr1_61,fr1_v3).
body(r_fr1_61,fr21_r2).
head(r_fr1_62,fr18_v2).
body(r_fr1_62,fr5_s1).
head(r_fr1_63,fr1_v3).
body(r_fr1_63,fr1_a2).
body(r_fr1_63,fr1_a3).
body(r_fr1_63,fr1_d2).
head(r_fr1_64,fr1_v3).
body(r_fr1_64,fr24_s1).
body(r_fr1_64,fr1_q3).
body(r_fr1_64,fr5_s1).
body(r_fr1_64,fr1_s3).
body(r_fr1_64,fr1_v1).
body(r_fr1_64,fr21_r2).
body(r_fr1_64,fr21_r2).
head(r_fr1_65,fr1_v3).
body(r_fr1_65,fr1_a3).
body(r_fr1_65,fr1_q2).
body(r_fr1_65,fr5_s1).
head(r_fr1_66,fr1_v3).
body(r_fr1_66,fr1_p1).
body(r_fr1_66,fr11_r3).
body(r_fr1_66,fr24_y2).
body(r_fr1_66,fr21_r2).
head(r_fr1_67,fr1_v3).
body(r_fr1_67,fr12_d1).
body(r_fr1_67,fr5_s1).
body(r_fr1_67,fr21_r2).
head(r_fr1_68,fr24_s1).
body(r_fr1_68,fr1_c2).
body(r_fr1_68,fr9_b2).
body(r_fr1_68,fr5_s1).
body(r_fr1_68,fr11_r3).
body(r_fr1_68,fr24_y2).
head(r_fr1_69,fr24_s1).
body(r_fr1_69,fr22_e1).
body(r_fr1_69,fr25_f2).
head(r_fr1_70,fr24_s1).
body(r_fr1_70,fr12_d1).
body(r_fr1_70,fr12_d1).
body(r_fr1_70,fr9_b2).
body(r_fr1_70,fr22_e1).
body(r_fr1_70,fr1_f1).
head(r_fr1_71,fr24_s1).
body(r_fr1_71,fr12_d1).
body(r_fr1_71,fr1_q2).
body(r_fr1_71,fr1_q3).
body(r_fr1_71,fr5_s1).
body(r_fr1_71,fr21_r2).
body(r_fr1_71,fr21_r2).
body(r_fr1_71,fr1_y1).
head(r_fr1_72,fr1_q3).
body(r_fr1_72,fr12_d1).
body(r_fr1_72,fr1_a3).
body(r_fr1_72,fr9_c3).
body(r_fr1_72,fr25_f2).
body(r_fr1_72,fr1_f1).
body(r_fr1_72,fr21_r2).
body(r_fr1_72,fr21_r2).
head(r_fr1_73,fr1_q3).
body(r_fr1_73,fr1_a3).
body(r_fr1_73,fr1_y1).
head(r_fr1_74,fr1_q3).
body(r_fr1_74,fr24_y2).
head(r_fr1_75,fr1_q3).
body(r_fr1_75,fr1_b1).
body(r_fr1_75,fr12_d1).
body(r_fr1_75,fr1_d1).
body(r_fr1_75,fr24_y2).
body(r_fr1_75,fr1_v1).
body(r_fr1_75,fr21_r2).
body(r_fr1_75,fr1_y1).
head(r_fr1_76,fr1_q3).
head(r_fr1_77,fr1_q3).
body(r_fr1_77,fr5_s1).
body(r_fr1_77,fr24_y2).
head(r_fr1_78,fr5_s1).
body(r_fr1_78,fr1_p1).
body(r_fr1_78,fr5_s1).
body(r_fr1_78,fr1_v1).
body(r_fr1_78,fr21_r2).
head(r_fr1_79,fr5_s1).
body(r_fr1_79,fr22_e1).
body(r_fr1_79,fr11_e2).
body(r_fr1_79,fr1_p1).
body(r_fr1_79,fr1_s3).
head(r_fr1_80,fr5_s1).
body(r_fr1_80,fr12_d1).
body(r_fr1_80,fr9_b2).
body(r_fr1_80,fr21_r2).
head(r_fr1_81,fr5_s1).
body(r_fr1_81,fr1_a2).
body(r_fr1_81,fr1_a3).
body(r_fr1_81,fr1_b1).
body(r_fr1_81,fr12_d1).
body(r_fr1_81,fr1_d1).
body(r_fr1_81,fr1_f1).
body(r_fr1_81,fr24_y2).
head(r_fr1_82,fr5_s1).
body(r_fr1_82,fr12_d1).
body(r_fr1_82,fr12_d1).
body(r_fr1_82,fr11_r3).
body(r_fr1_82,fr24_y2).
body(r_fr1_82,fr21_r2).
body(r_fr1_82,fr1_y1).
head(r_fr1_83,fr5_s1).
body(r_fr1_83,fr1_a2).
body(r_fr1_83,fr1_a3).
body(r_fr1_83,fr9_b2).
body(r_fr1_83,fr22_e1).
body(r_fr1_83,fr1_d2).
body(r_fr1_83,fr1_e2).
head(r_fr1_84,fr5_s1).
body(r_fr1_84,fr9_b2).
body(r_fr1_84,fr1_s3).
body(r_fr1_84,fr21_r2).
body(r_fr1_84,fr1_v1).
body(r_fr1_84,fr21_r2).
head(r_fr1_85,fr5_s1).
body(r_fr1_85,fr11_r3).
body(r_fr1_85,fr21_r2).
body(r_fr1_85,fr21_r2).
head(r_fr1_86,fr21_r2).
body(r_fr1_86,fr1_d2).
body(r_fr1_86,fr24_y2).
head(r_fr1_87,fr21_r2).
body(r_fr1_87,fr1_q2).
body(r_fr1_87,fr1_s3).
body(r_fr1_87,fr24_y2).
body(r_fr1_87,fr21_r2).
body(r_fr1_87,fr1_v1).
body(r_fr1_87,fr1_y1).
head(r_fr1_88,fr21_r2).
body(r_fr1_88,fr9_c3).
body(r_fr1_88,fr24_y2).
body(r_fr1_88,fr21_r2).
head(r_fr1_89,fr21_r2).
body(r_fr1_89,fr9_b2).
body(r_fr1_89,fr1_c2).
body(r_fr1_89,fr1_d2).
body(r_fr1_89,fr17_d2).
head(r_fr1_90,fr24_y2).
body(r_fr1_90,fr12_d1).
body(r_fr1_90,fr9_c3).
body(r_fr1_90,fr22_e1).
body(r_fr1_90,fr11_e2).
body(r_fr1_90,fr1_s3).
body(r_fr1_90,fr21_r2).
body(r_fr1_90,fr1_y1).
head(r_fr1_91,fr24_y2).
body(r_fr1_91,fr1_d2).
head(r_fr1_92,fr24_y2).
body(r_fr1_92,fr1_d2).
body(r_fr1_92,fr1_e2).
body(r_fr1_92,fr1_q2).
body(r_fr1_92,fr1_s3).
body(r_fr1_92,fr11_r3).
body(r_fr1_92,fr21_r2).
body(r_fr1_92,fr21_r2).
head(r_fr1_93,fr24_y2).
body(r_fr1_93,fr1_b1).
body(r_fr1_93,fr9_b2).
body(r_fr1_93,fr21_r2).
head(r_fr1_94,fr11_r3).
body(r_fr1_94,fr1_q2).
body(r_fr1_94,fr1_s3).
body(r_fr1_94,fr1_v1).
body(r_fr1_94,fr1_y1).
head(r_fr1_95,fr11_r3).
body(r_fr1_95,fr12_d1).
body(r_fr1_95,fr1_b1).
body(r_fr1_95,fr9_b2).
body(r_fr1_95,fr1_c2).
body(r_fr1_95,fr9_b2).
body(r_fr1_95,fr25_f2).
body(r_fr1_95,fr17_d2).
head(r_fr1_96,fr11_r3).
body(r_fr1_96,fr1_a2).
body(r_fr1_96,fr12_d1).
body(r_fr1_96,fr25_f2).
body(r_fr1_96,fr12_d1).
body(r_fr1_96,fr17_d2).
body(r_fr1_96,fr1_q2).
body(r_fr1_96,fr1_y1).
head(r_fr1_97,fr11_r3).
head(r_fr1_98,fr11_r3).
body(r_fr1_98,fr12_d1).
body(r_fr1_98,fr1_e2).
body(r_fr1_98,fr17_d2).
body(r_fr1_98,fr1_p1).
body(r_fr1_98,fr1_q2).
body(r_fr1_98,fr1_v1).
head(r_fr1_99,fr11_r3).
body(r_fr1_99,fr9_b2).
body(r_fr1_99,fr1_d2).
body(r_fr1_99,fr1_s3).
head(r_fr1_100,fr1_y1).
body(r_fr1_100,fr1_a3).
body(r_fr1_100,fr1_d1).
body(r_fr1_100,fr1_p1).
body(r_fr1_100,fr1_v1).
head(r_fr1_101,fr1_y1).
body(r_fr1_101,fr25_f2).
body(r_fr1_101,fr1_s3).
body(r_fr1_101,fr21_r2).
head(r_fr1_102,fr1_y1).
head(r_fr1_103,fr1_y1).
body(r_fr1_103,fr9_c3).
body(r_fr1_103,fr25_f2).
body(r_fr1_103,fr1_s3).
body(r_fr1_103,fr21_r2).
body(r_fr1_103,fr21_r2).

assumption(fr2_a1).
assumption(fr2_b1).
assumption(fr17_d2).
assumption(fr9_c3).
assumption(fr2_e1).
assumption(fr2_f1).
assumption(fr12_d1).
assumption(fr24_f1).
assumption(fr17_d2).
assumption(fr12_d1).
assumption(fr17_d2).
assumption(fr12_d1).
assumption(fr24_d2).
assumption(fr9_a3).
assumption(fr12_d1).
contrary(fr2_a1,fr23_z1).
contrary(fr12_d1,fr24_f1).
contrary(fr24_d2,fr21_r2).
contrary(fr2_b1,fr17_d2).
contrary(fr24_f1,fr17_d2).
contrary(fr9_a3,fr2_e1).
contrary(fr17_d2,fr12_d1).
contrary(fr17_d2,fr9_c3).
contrary(fr12_d1,fr23_z1).
contrary(fr9_c3,fr2_b1).
contrary(fr12_d1,fr21_r2).
contrary(fr2_e1,fr2_p4).
contrary(fr17_d2,fr2_w3).
contrary(fr2_f1,fr23_z1).
contrary(fr12_d1,fr19_u1).
head(r_fr2_0,fr2_w2).
body(r_fr2_0,fr24_d2).
body(r_fr2_0,fr2_b1).
body(r_fr2_0,fr17_d2).
body(r_fr2_0,fr12_d1).
body(r_fr2_0,fr9_c3).
body(r_fr2_0,fr12_d1).
body(r_fr2_0,fr19_u1).
body(r_fr2_0,fr23_z1).
body(r_fr2_0,fr21_r2).
body(r_fr2_0,fr2_s2).
body(r_fr2_0,fr21_r2).
body(r_fr2_0,fr11_r3).
body(r_fr2_0,fr2_v1).
body(r_fr2_0,fr24_p3).
body(r_fr2_0,fr3_q2).
head(r_fr2_1,fr2_w2).
body(r_fr2_1,fr24_f1).
body(r_fr2_1,fr12_d1).
body(r_fr2_1,fr2_e1).
body(r_fr2_1,fr2_p1).
body(r_fr2_1,fr5_s1).
body(r_fr2_1,fr19_u1).
body(r_fr2_1,fr23_z1).
body(r_fr2_1,fr21_r2).
body(r_fr2_1,fr23_z1).
body(r_fr2_1,fr2_s1).
body(r_fr2_1,fr2_s2).
body(r_fr2_1,fr23_z1).
body(r_fr2_1,fr11_r3).
body(r_fr2_1,fr21_r2).
body(r_fr2_1,fr2_w3).
body(r_fr2_1,fr24_p3).
body(r_fr2_1,fr2_y2).
body(r_fr2_1,fr19_p3).
head(r_fr2_2,fr2_w2).
body(r_fr2_2,fr17_d2).
body(r_fr2_2,fr2_f1).
body(r_fr2_2,fr5_s1).
body(r_fr2_2,fr2_p4).
body(r_fr2_2,fr19_u1).
body(r_fr2_2,fr5_s1).
body(r_fr2_2,fr21_r2).
body(r_fr2_2,fr2_s2).
body(r_fr2_2,fr23_z1).
body(r_fr2_2,fr17_p3).
body(r_fr2_2,fr21_r2).
body(r_fr2_2,fr11_r3).
body(r_fr2_2,fr2_u2).
body(r_fr2_2,fr2_v2).
body(r_fr2_2,fr21_r2).
body(r_fr2_2,fr6_y1).
body(r_fr2_2,fr3_q2).
body(r_fr2_2,fr2_z2).
head(r_fr2_3,fr21_r2).
body(r_fr2_3,fr12_d1).
body(r_fr2_3,fr2_p1).
body(r_fr2_3,fr10_u2).
body(r_fr2_3,fr2_p4).
body(r_fr2_3,fr23_z1).
body(r_fr2_3,fr21_r2).
body(r_fr2_3,fr23_z1).
body(r_fr2_3,fr2_s1).
body(r_fr2_3,fr23_z1).
body(r_fr2_3,fr21_r2).
body(r_fr2_3,fr2_v2).
body(r_fr2_3,fr2_v3).
body(r_fr2_3,fr2_w2).
body(r_fr2_3,fr2_w3).
body(r_fr2_3,fr24_p3).
body(r_fr2_3,fr2_y2).
body(r_fr2_3,fr2_z2).
head(r_fr2_4,fr21_r2).
body(r_fr2_4,fr24_d2).
body(r_fr2_4,fr2_b1).
body(r_fr2_4,fr17_d2).
body(r_fr2_4,fr9_c3).
body(r_fr2_4,fr17_d2).
body(r_fr2_4,fr12_d1).
body(r_fr2_4,fr2_p1).
body(r_fr2_4,fr5_s1).
body(r_fr2_4,fr23_z1).
body(r_fr2_4,fr21_r2).
body(r_fr2_4,fr2_s1).
body(r_fr2_4,fr2_v2).
body(r_fr2_4,fr2_w2).
body(r_fr2_4,fr2_w3).
body(r_fr2_4,fr2_y3).
body(r_fr2_4,fr2_z2).
head(r_fr2_5,fr11_r3).
body(r_fr2_5,fr2_p1).
body(r_fr2_5,fr5_s1).
body(r_fr2_5,fr2_p4).
body(r_fr2_5,fr5_s1).
body(r_fr2_5,fr21_r2).
body(r_fr2_5,fr23_z1).
body(r_fr2_5,fr2_r2).
body(r_fr2_5,fr23_q1).
body(r_fr2_5,fr2_t2).
body(r_fr2_5,fr2_v2).
body(r_fr2_5,fr24_p3).
body(r_fr2_5,fr6_y1).
body(r_fr2_5,fr2_y2).
body(r_fr2_5,fr2_y3).
body(r_fr2_5,fr3_q2).
head(r_fr2_6,fr11_r3).
body(r_fr2_6,fr24_d2).
body(r_fr2_6,fr2_e1).
body(r_fr2_6,fr5_s1).
body(r_fr2_6,fr10_u2).
body(r_fr2_6,fr19_u1).
body(r_fr2_6,fr23_z1).
body(r_fr2_6,fr2_s1).
body(r_fr2_6,fr2_s2).
body(r_fr2_6,fr21_r2).
body(r_fr2_6,fr2_u2).
body(r_fr2_6,fr2_w2).
body(r_fr2_6,fr2_w3).
body(r_fr2_6,fr24_x1).
body(r_fr2_6,fr2_y3).
body(r_fr2_6,fr3_q2).
body(r_fr2_6,fr19_p3).
head(r_fr2_7,fr11_r3).
body(r_fr2_7,fr10_u2).
body(r_fr2_7,fr5_s1).
body(r_fr2_7,fr2_r2).
body(r_fr2_7,fr2_s1).
body(r_fr2_7,fr23_z1).
body(r_fr2_7,fr2_t2).
body(r_fr2_7,fr21_r2).
body(r_fr2_7,fr2_v2).
body(r_fr2_7,fr19_u2).
body(r_fr2_7,fr2_w2).
body(r_fr2_7,fr6_y1).
body(r_fr2_7,fr2_y2).
body(r_fr2_7,fr3_q2).
body(r_fr2_7,fr2_z2).
body(r_fr2_7,fr19_p3).
head(r_fr2_8,fr6_y1).
body(r_fr2_8,fr2_b1).
body(r_fr2_8,fr9_a3).
body(r_fr2_8,fr17_d2).
body(r_fr2_8,fr17_d2).
body(r_fr2_8,fr2_e1).
body(r_fr2_8,fr17_d2).
body(r_fr2_8,fr19_u1).
body(r_fr2_8,fr23_z1).
body(r_fr2_8,fr21_r2).
body(r_fr2_8,fr23_z1).
body(r_fr2_8,fr23_z1).
body(r_fr2_8,fr21_r2).
body(r_fr2_8,fr2_v1).
body(r_fr2_8,fr2_v2).
body(r_fr2_8,fr2_w2).
body(r_fr2_8,fr2_w3).
body(r_fr2_8,fr24_p3).
body(r_fr2_8,fr19_p3).
head(r_fr2_9,fr6_y1).
body(r_fr2_9,fr23_z1).
body(r_fr2_9,fr2_r2).
body(r_fr2_9,fr23_q1).
body(r_fr2_9,fr2_s2).
body(r_fr2_9,fr23_z1).
body(r_fr2_9,fr21_r2).
body(r_fr2_9,fr11_r3).
body(r_fr2_9,fr2_v1).
body(r_fr2_9,fr2_v2).
body(r_fr2_9,fr2_v3).
body(r_fr2_9,fr2_w2).
body(r_fr2_9,fr2_w3).
body(r_fr2_9,fr24_x1).
body(r_fr2_9,fr2_y3).
body(r_fr2_9,fr3_q2).
head(r_fr2_10,fr6_y1).
body(r_fr2_10,fr2_a1).
body(r_fr2_10,fr24_d2).
body(r_fr2_10,fr17_d2).
body(r_fr2_10,fr12_d1).
body(r_fr2_10,fr2_f1).
body(r_fr2_10,fr5_s1).
body(r_fr2_10,fr19_u1).
body(r_fr2_10,fr5_s1).
body(r_fr2_10,fr23_z1).
body(r_fr2_10,fr2_r2).
body(r_fr2_10,fr17_p3).
body(r_fr2_10,fr2_u2).
body(r_fr2_10,fr21_r2).
body(r_fr2_10,fr3_q2).
body(r_fr2_10,fr2_z2).
body(r_fr2_10,fr19_p3).
head(r_fr2_11,fr6_y1).
body(r_fr2_11,fr2_a1).
body(r_fr2_11,fr12_d1).
body(r_fr2_11,fr17_d2).
body(r_fr2_11,fr17_d2).
body(r_fr2_11,fr5_s1).
body(r_fr2_11,fr10_u2).
body(r_fr2_11,fr2_p4).
body(r_fr2_11,fr19_u1).
body(r_fr2_11,fr5_s1).
body(r_fr2_11,fr2_t2).
body(r_fr2_11,fr21_r2).
body(r_fr2_11,fr11_r3).
body(r_fr2_11,fr2_u2).
body(r_fr2_11,fr2_w2).
body(r_fr2_11,fr2_w3).
body(r_fr2_11,fr2_y2).
body(r_fr2_11,fr2_y3).
body(r_fr2_11,fr3_q2).
head(r_fr2_12,fr6_y1).
body(r_fr2_12,fr2_a1).
body(r_fr2_12,fr2_p1).
body(r_fr2_12,fr5_s1).
body(r_fr2_12,fr2_p4).
body(r_fr2_12,fr19_u1).
body(r_fr2_12,fr5_s1).
body(r_fr2_12,fr21_r2).
body(r_fr2_12,fr23_z1).
body(r_fr2_12,fr23_q1).
body(r_fr2_12,fr2_s1).
body(r_fr2_12,fr23_z1).
body(r_fr2_12,fr17_p3).
body(r_fr2_12,fr2_u2).
body(r_fr2_12,fr21_r2).
body(r_fr2_12,fr2_v1).
body(r_fr2_12,fr24_p3).
body(r_fr2_12,fr2_z2).
head(r_fr2_13,fr2_z2).
body(r_fr2_13,fr9_a3).
body(r_fr2_13,fr12_d1).
body(r_fr2_13,fr5_s1).
body(r_fr2_13,fr10_u2).
body(r_fr2_13,fr19_u1).
body(r_fr2_13,fr2_s2).
body(r_fr2_13,fr11_r3).
body(r_fr2_13,fr2_u2).
body(r_fr2_13,fr2_v2).
body(r_fr2_13,fr19_u2).
body(r_fr2_13,fr2_w2).
body(r_fr2_13,fr2_w3).
body(r_fr2_13,fr21_r2).
body(r_fr2_13,fr2_y3).
body(r_fr2_13,fr3_q2).
body(r_fr2_13,fr19_p3).
head(r_fr2_14,fr2_z2).
body(r_fr2_14,fr2_a1).
body(r_fr2_14,fr24_d2).
body(r_fr2_14,fr2_p1).
body(r_fr2_14,fr10_u2).
body(r_fr2_14,fr2_p4).
body(r_fr2_14,fr19_u1).
body(r_fr2_14,fr21_r2).
body(r_fr2_14,fr23_z1).
body(r_fr2_14,fr2_s1).
body(r_fr2_14,fr2_t2).
body(r_fr2_14,fr21_r2).
body(r_fr2_14,fr11_r3).
body(r_fr2_14,fr2_u2).
body(r_fr2_14,fr2_w3).
body(r_fr2_14,fr24_x1).
body(r_fr2_14,fr6_y1).
body(r_fr2_14,fr2_y2).
body(r_fr2_14,fr19_p3).
head(r_fr2_15,fr2_z2).
body(r_fr2_15,fr17_d2).
body(r_fr2_15,fr12_d1).
body(r_fr2_15,fr9_c3).
body(r_fr2_15,fr2_p1).
body(r_fr2_15,fr5_s1).
body(r_fr2_15,fr19_u1).
body(r_fr2_15,fr5_s1).
body(r_fr2_15,fr21_r2).
body(r_fr2_15,fr2_r2).
body(r_fr2_15,fr2_s2).
body(r_fr2_15,fr23_z1).
body(r_fr2_15,fr17_p3).
body(r_fr2_15,fr2_t2).
body(r_fr2_15,fr21_r2).
body(r_fr2_15,fr2_v3).
body(r_fr2_15,fr24_p3).
body(r_fr2_15,fr2_y3).
head(r_fr2_16,fr2_z2).
body(r_fr2_16,fr12_d1).
body(r_fr2_16,fr2_b1).
body(r_fr2_16,fr17_d2).
body(r_fr2_16,fr17_d2).
body(r_fr2_16,fr2_f1).
body(r_fr2_16,fr12_d1).
body(r_fr2_16,fr2_p1).
body(r_fr2_16,fr23_z1).
body(r_fr2_16,fr2_s1).
body(r_fr2_16,fr2_s2).
body(r_fr2_16,fr17_p3).
body(r_fr2_16,fr2_t2).
body(r_fr2_16,fr19_u2).
body(r_fr2_16,fr6_y1).
body(r_fr2_16,fr3_q2).
head(r_fr2_17,fr19_p3).
body(r_fr2_17,fr10_u2).
body(r_fr2_17,fr2_p4).
body(r_fr2_17,fr19_u1).
body(r_fr2_17,fr23_z1).
body(r_fr2_17,fr2_s1).
body(r_fr2_17,fr2_s2).
body(r_fr2_17,fr23_z1).
body(r_fr2_17,fr2_t2).
body(r_fr2_17,fr21_r2).
body(r_fr2_17,fr21_r2).
body(r_fr2_17,fr2_v3).
body(r_fr2_17,fr19_u2).
body(r_fr2_17,fr21_r2).
body(r_fr2_17,fr24_p3).
body(r_fr2_17,fr2_z2).
head(r_fr2_18,fr19_p3).
body(r_fr2_18,fr24_d2).
body(r_fr2_18,fr9_c3).
body(r_fr2_18,fr12_d1).
body(r_fr2_18,fr2_e1).
body(r_fr2_18,fr2_f1).
body(r_fr2_18,fr2_p1).
body(r_fr2_18,fr2_p4).
body(r_fr2_18,fr19_u1).
body(r_fr2_18,fr21_r2).
body(r_fr2_18,fr23_z1).
body(r_fr2_18,fr2_s2).
body(r_fr2_18,fr21_r2).
body(r_fr2_18,fr2_u2).
body(r_fr2_18,fr21_r2).
body(r_fr2_18,fr6_y1).
body(r_fr2_18,fr3_q2).
head(r_fr2_19,fr19_p3).
body(r_fr2_19,fr5_s1).
body(r_fr2_19,fr2_p4).
body(r_fr2_19,fr19_u1).
body(r_fr2_19,fr23_z1).
body(r_fr2_19,fr21_r2).
body(r_fr2_19,fr23_z1).
body(r_fr2_19,fr2_r2).
body(r_fr2_19,fr2_s1).
body(r_fr2_19,fr2_t2).
body(r_fr2_19,fr21_r2).
body(r_fr2_19,fr11_r3).
body(r_fr2_19,fr2_u2).
body(r_fr2_19,fr21_r2).
body(r_fr2_19,fr2_v2).
body(r_fr2_19,fr2_v3).
body(r_fr2_19,fr2_w2).
body(r_fr2_19,fr2_w3).
body(r_fr2_19,fr2_y2).
head(r_fr2_20,fr19_p3).
body(r_fr2_20,fr12_d1).
body(r_fr2_20,fr17_d2).
body(r_fr2_20,fr17_d2).
body(r_fr2_20,fr9_c3).
body(r_fr2_20,fr2_f1).
body(r_fr2_20,fr5_s1).
body(r_fr2_20,fr10_u2).
body(r_fr2_20,fr19_u1).
body(r_fr2_20,fr5_s1).
body(r_fr2_20,fr2_r2).
body(r_fr2_20,fr2_s1).
body(r_fr2_20,fr23_z1).
body(r_fr2_20,fr19_u2).
body(r_fr2_20,fr6_y1).
body(r_fr2_20,fr2_y3).
head(r_fr2_21,fr19_p3).
body(r_fr2_21,fr9_a3).
body(r_fr2_21,fr2_p1).
body(r_fr2_21,fr19_u1).
body(r_fr2_21,fr23_z1).
body(r_fr2_21,fr21_r2).
body(r_fr2_21,fr23_z1).
body(r_fr2_21,fr23_q1).
body(r_fr2_21,fr2_u2).
body(r_fr2_21,fr2_v2).
body(r_fr2_21,fr2_v3).
body(r_fr2_21,fr19_u2).
body(r_fr2_21,fr2_w2).
body(r_fr2_21,fr2_w3).
body(r_fr2_21,fr24_x1).
body(r_fr2_21,fr2_y2).
body(r_fr2_21,fr3_q2).
head(r_fr2_22,fr2_s2).
body(r_fr2_22,fr17_d2).
body(r_fr2_22,fr17_d2).
body(r_fr2_22,fr9_c3).
body(r_fr2_22,fr17_d2).
body(r_fr2_22,fr2_p1).
body(r_fr2_22,fr5_s1).
body(r_fr2_22,fr2_r2).
body(r_fr2_22,fr2_s1).
body(r_fr2_22,fr23_z1).
body(r_fr2_22,fr17_p3).
body(r_fr2_22,fr2_v1).
body(r_fr2_22,fr2_w2).
body(r_fr2_22,fr21_r2).
body(r_fr2_22,fr24_x1).
body(r_fr2_22,fr6_y1).
body(r_fr2_22,fr2_y3).
body(r_fr2_22,fr2_z2).
head(r_fr2_23,fr2_s2).
body(r_fr2_23,fr2_b1).
body(r_fr2_23,fr9_c3).
body(r_fr2_23,fr2_p1).
body(r_fr2_23,fr19_u1).
body(r_fr2_23,fr23_z1).
body(r_fr2_23,fr2_r2).
body(r_fr2_23,fr2_s1).
body(r_fr2_23,fr2_t2).
body(r_fr2_23,fr11_r3).
body(r_fr2_23,fr19_u2).
body(r_fr2_23,fr2_w3).
body(r_fr2_23,fr24_x1).
body(r_fr2_23,fr24_p3).
body(r_fr2_23,fr6_y1).
body(r_fr2_23,fr2_y3).
body(r_fr2_23,fr3_q2).
body(r_fr2_23,fr2_z2).
body(r_fr2_23,fr19_p3).
head(r_fr2_24,fr2_s2).
body(r_fr2_24,fr2_a1).
body(r_fr2_24,fr24_d2).
body(r_fr2_24,fr12_d1).
body(r_fr2_24,fr2_p1).
body(r_fr2_24,fr19_u1).
body(r_fr2_24,fr23_z1).
body(r_fr2_24,fr2_s1).
body(r_fr2_24,fr17_p3).
body(r_fr2_24,fr11_r3).
body(r_fr2_24,fr2_v1).
body(r_fr2_24,fr2_v3).
body(r_fr2_24,fr2_w2).
body(r_fr2_24,fr2_w3).
body(r_fr2_24,fr21_r2).
body(r_fr2_24,fr24_x1).
body(r_fr2_24,fr24_p3).
body(r_fr2_24,fr2_y3).
body(r_fr2_24,fr19_p3).
head(r_fr2_25,fr2_s2).
body(r_fr2_25,fr12_d1).
body(r_fr2_25,fr24_f1).
body(r_fr2_25,fr2_p4).
body(r_fr2_25,fr5_s1).
body(r_fr2_25,fr23_z1).
body(r_fr2_25,fr21_r2).
body(r_fr2_25,fr23_z1).
body(r_fr2_25,fr21_r2).
body(r_fr2_25,fr2_v1).
body(r_fr2_25,fr2_v2).
body(r_fr2_25,fr19_u2).
body(r_fr2_25,fr21_r2).
body(r_fr2_25,fr6_y1).
body(r_fr2_25,fr2_z2).
body(r_fr2_25,fr19_p3).
head(r_fr2_26,fr3_q2).
body(r_fr2_26,fr2_a1).
body(r_fr2_26,fr17_d2).
body(r_fr2_26,fr12_d1).
body(r_fr2_26,fr17_d2).
body(r_fr2_26,fr12_d1).
body(r_fr2_26,fr2_p1).
body(r_fr2_26,fr10_u2).
body(r_fr2_26,fr21_r2).
body(r_fr2_26,fr2_r2).
body(r_fr2_26,fr2_s2).
body(r_fr2_26,fr21_r2).
body(r_fr2_26,fr2_v1).
body(r_fr2_26,fr2_v2).
body(r_fr2_26,fr19_u2).
body(r_fr2_26,fr2_w3).
body(r_fr2_26,fr24_p3).
body(r_fr2_26,fr6_y1).
body(r_fr2_26,fr19_p3).
head(r_fr2_27,fr3_q2).
body(r_fr2_27,fr12_d1).
body(r_fr2_27,fr24_d2).
body(r_fr2_27,fr2_b1).
body(r_fr2_27,fr17_d2).
body(r_fr2_27,fr2_f1).
body(r_fr2_27,fr2_p1).
body(r_fr2_27,fr10_u2).
body(r_fr2_27,fr21_r2).
body(r_fr2_27,fr23_z1).
body(r_fr2_27,fr23_q1).
body(r_fr2_27,fr2_s1).
body(r_fr2_27,fr23_z1).
body(r_fr2_27,fr2_t2).
body(r_fr2_27,fr2_v3).
body(r_fr2_27,fr2_w2).
body(r_fr2_27,fr21_r2).
head(r_fr2_28,fr3_q2).
body(r_fr2_28,fr2_a1).
body(r_fr2_28,fr17_d2).
body(r_fr2_28,fr17_d2).
body(r_fr2_28,fr17_d2).
body(r_fr2_28,fr2_f1).
body(r_fr2_28,fr2_p1).
body(r_fr2_28,fr23_z1).
body(r_fr2_28,fr21_r2).
body(r_fr2_28,fr23_z1).
body(r_fr2_28,fr2_s2).
body(r_fr2_28,fr23_z1).
body(r_fr2_28,fr17_p3).
body(r_fr2_28,fr21_r2).
body(r_fr2_28,fr2_u2).
body(r_fr2_28,fr21_r2).
body(r_fr2_28,fr2_v2).
body(r_fr2_28,fr6_y1).
body(r_fr2_28,fr2_y2).
head(r_fr2_29,fr2_p1).
body(r_fr2_29,fr2_a1).
body(r_fr2_29,fr12_d1).
body(r_fr2_29,fr24_f1).
body(r_fr2_29,fr17_d2).
body(r_fr2_29,fr9_c3).
body(r_fr2_29,fr12_d1).
body(r_fr2_29,fr10_u2).
body(r_fr2_29,fr21_r2).
body(r_fr2_29,fr2_r2).
body(r_fr2_29,fr2_s2).
body(r_fr2_29,fr21_r2).
body(r_fr2_29,fr24_p3).
body(r_fr2_29,fr6_y1).
body(r_fr2_29,fr2_y2).
body(r_fr2_29,fr2_y3).
body(r_fr2_29,fr2_z2).
head(r_fr2_30,fr2_p1).
body(r_fr2_30,fr9_a3).
body(r_fr2_30,fr12_d1).
body(r_fr2_30,fr2_p4).
body(r_fr2_30,fr5_s1).
body(r_fr2_30,fr23_z1).
body(r_fr2_30,fr2_r2).
body(r_fr2_30,fr23_q1).
body(r_fr2_30,fr23_z1).
body(r_fr2_30,fr21_r2).
body(r_fr2_30,fr11_r3).
body(r_fr2_30,fr21_r2).
body(r_fr2_30,fr2_v2).
body(r_fr2_30,fr2_w3).
body(r_fr2_30,fr24_p3).
body(r_fr2_30,fr2_y2).
body(r_fr2_30,fr3_q2).
body(r_fr2_30,fr19_p3).
head(r_fr2_31,fr2_p4).
body(r_fr2_31,fr12_d1).
body(r_fr2_31,fr5_s1).
body(r_fr2_31,fr10_u2).
body(r_fr2_31,fr2_r2).
body(r_fr2_31,fr2_s1).
body(r_fr2_31,fr17_p3).
body(r_fr2_31,fr2_t2).
body(r_fr2_31,fr2_v3).
body(r_fr2_31,fr2_w2).
body(r_fr2_31,fr2_w3).
body(r_fr2_31,fr6_y1).
body(r_fr2_31,fr2_y2).
body(r_fr2_31,fr2_y3).
body(r_fr2_31,fr3_q2).
body(r_fr2_31,fr19_p3).
head(r_fr2_32,fr2_p4).
body(r_fr2_32,fr24_d2).
body(r_fr2_32,fr24_f1).
body(r_fr2_32,fr12_d1).
body(r_fr2_32,fr10_u2).
body(r_fr2_32,fr21_r2).
body(r_fr2_32,fr23_z1).
body(r_fr2_32,fr23_q1).
body(r_fr2_32,fr2_s1).
body(r_fr2_32,fr21_r2).
body(r_fr2_32,fr11_r3).
body(r_fr2_32,fr21_r2).
body(r_fr2_32,fr19_u2).
body(r_fr2_32,fr21_r2).
body(r_fr2_32,fr24_p3).
body(r_fr2_32,fr2_y3).
body(r_fr2_32,fr2_z2).
head(r_fr2_33,fr21_r2).
body(r_fr2_33,fr12_d1).
body(r_fr2_33,fr2_p4).
body(r_fr2_33,fr19_u1).
body(r_fr2_33,fr5_s1).
body(r_fr2_33,fr23_z1).
body(r_fr2_33,fr23_q1).
body(r_fr2_33,fr2_s1).
body(r_fr2_33,fr2_s2).
body(r_fr2_33,fr17_p3).
body(r_fr2_33,fr2_t2).
body(r_fr2_33,fr21_r2).
body(r_fr2_33,fr2_w3).
body(r_fr2_33,fr24_p3).
body(r_fr2_33,fr6_y1).
body(r_fr2_33,fr2_z2).
head(r_fr2_34,fr21_r2).
body(r_fr2_34,fr2_b1).
body(r_fr2_34,fr24_f1).
body(r_fr2_34,fr9_a3).
body(r_fr2_34,fr17_d2).
body(r_fr2_34,fr12_d1).
body(r_fr2_34,fr10_u2).
body(r_fr2_34,fr23_z1).
body(r_fr2_34,fr2_r2).
body(r_fr2_34,fr23_z1).
body(r_fr2_34,fr21_r2).
body(r_fr2_34,fr21_r2).
body(r_fr2_34,fr2_v1).
body(r_fr2_34,fr2_v2).
body(r_fr2_34,fr2_w3).
body(r_fr2_34,fr24_x1).
body(r_fr2_34,fr6_y1).
body(r_fr2_34,fr2_y3).
body(r_fr2_34,fr2_z2).
head(r_fr2_35,fr17_p3).
body(r_fr2_35,fr9_c3).
body(r_fr2_35,fr2_e1).
body(r_fr2_35,fr2_p1).
body(r_fr2_35,fr5_s1).
body(r_fr2_35,fr10_u2).
body(r_fr2_35,fr2_p4).
body(r_fr2_35,fr19_u1).
body(r_fr2_35,fr21_r2).
body(r_fr2_35,fr2_r2).
body(r_fr2_35,fr2_s1).
body(r_fr2_35,fr23_z1).
body(r_fr2_35,fr21_r2).
body(r_fr2_35,fr2_u2).
body(r_fr2_35,fr21_r2).
body(r_fr2_35,fr2_y2).
body(r_fr2_35,fr2_z2).
body(r_fr2_35,fr19_p3).
head(r_fr2_36,fr17_p3).
body(r_fr2_36,fr5_s1).
body(r_fr2_36,fr10_u2).
body(r_fr2_36,fr2_p4).
body(r_fr2_36,fr5_s1).
body(r_fr2_36,fr2_s1).
body(r_fr2_36,fr2_s2).
body(r_fr2_36,fr2_t2).
body(r_fr2_36,fr21_r2).
body(r_fr2_36,fr2_v1).
body(r_fr2_36,fr2_v2).
body(r_fr2_36,fr2_v3).
body(r_fr2_36,fr19_u2).
body(r_fr2_36,fr2_w2).
body(r_fr2_36,fr2_w3).
body(r_fr2_36,fr21_r2).
body(r_fr2_36,fr6_y1).
body(r_fr2_36,fr19_p3).
head(r_fr2_37,fr5_s1).
body(r_fr2_37,fr12_d1).
body(r_fr2_37,fr2_b1).
body(r_fr2_37,fr17_d2).
body(r_fr2_37,fr9_c3).
body(r_fr2_37,fr2_p4).
body(r_fr2_37,fr19_u1).
body(r_fr2_37,fr23_z1).
body(r_fr2_37,fr17_p3).
body(r_fr2_37,fr2_t2).
body(r_fr2_37,fr21_r2).
body(r_fr2_37,fr11_r3).
body(r_fr2_37,fr2_v1).
body(r_fr2_37,fr21_r2).
body(r_fr2_37,fr2_y3).
body(r_fr2_37,fr2_z2).
head(r_fr2_38,fr5_s1).
body(r_fr2_38,fr5_s1).
body(r_fr2_38,fr19_u1).
body(r_fr2_38,fr23_z1).
body(r_fr2_38,fr21_r2).
body(r_fr2_38,fr2_r2).
body(r_fr2_38,fr23_q1).
body(r_fr2_38,fr2_s1).
body(r_fr2_38,fr23_z1).
body(r_fr2_38,fr17_p3).
body(r_fr2_38,fr11_r3).
body(r_fr2_38,fr21_r2).
body(r_fr2_38,fr2_v2).
body(r_fr2_38,fr2_v3).
body(r_fr2_38,fr2_w2).
body(r_fr2_38,fr24_x1).
body(r_fr2_38,fr6_y1).
body(r_fr2_38,fr3_q2).
body(r_fr2_38,fr2_z2).
head(r_fr2_39,fr5_s1).
body(r_fr2_39,fr12_d1).
body(r_fr2_39,fr5_s1).
body(r_fr2_39,fr21_r2).
body(r_fr2_39,fr23_q1).
body(r_fr2_39,fr17_p3).
body(r_fr2_39,fr21_r2).
body(r_fr2_39,fr2_u2).
body(r_fr2_39,fr2_v2).
body(r_fr2_39,fr2_v3).
body(r_fr2_39,fr2_w2).
body(r_fr2_39,fr24_x1).
body(r_fr2_39,fr6_y1).
body(r_fr2_39,fr2_y3).
body(r_fr2_39,fr3_q2).
body(r_fr2_39,fr2_z2).
head(r_fr2_40,fr10_u2).
body(r_fr2_40,fr17_d2).
body(r_fr2_40,fr9_c3).
body(r_fr2_40,fr2_e1).
body(r_fr2_40,fr5_s1).
body(r_fr2_40,fr19_u1).
body(r_fr2_40,fr23_z1).
body(r_fr2_40,fr2_r2).
body(r_fr2_40,fr23_q1).
body(r_fr2_40,fr2_s1).
body(r_fr2_40,fr23_z1).
body(r_fr2_40,fr17_p3).
body(r_fr2_40,fr21_r2).
body(r_fr2_40,fr2_w2).
body(r_fr2_40,fr2_w3).
body(r_fr2_40,fr21_r2).
body(r_fr2_40,fr24_p3).
body(r_fr2_40,fr6_y1).
body(r_fr2_40,fr2_z2).
head(r_fr2_41,fr10_u2).
body(r_fr2_41,fr24_f1).
body(r_fr2_41,fr9_a3).
body(r_fr2_41,fr17_d2).
body(r_fr2_41,fr2_e1).
body(r_fr2_41,fr17_d2).
body(r_fr2_41,fr12_d1).
body(r_fr2_41,fr5_s1).
body(r_fr2_41,fr23_q1).
body(r_fr2_41,fr2_s2).
body(r_fr2_41,fr17_p3).
body(r_fr2_41,fr2_t2).
body(r_fr2_41,fr2_u2).
body(r_fr2_41,fr2_v3).
body(r_fr2_41,fr2_w3).
body(r_fr2_41,fr24_p3).
body(r_fr2_41,fr2_y2).
head(r_fr2_42,fr19_u1).
body(r_fr2_42,fr24_f1).
body(r_fr2_42,fr9_a3).
body(r_fr2_42,fr12_d1).
body(r_fr2_42,fr2_e1).
body(r_fr2_42,fr2_p1).
body(r_fr2_42,fr5_s1).
body(r_fr2_42,fr2_p4).
body(r_fr2_42,fr23_z1).
body(r_fr2_42,fr21_r2).
body(r_fr2_42,fr23_q1).
body(r_fr2_42,fr2_s1).
body(r_fr2_42,fr17_p3).
body(r_fr2_42,fr2_u2).
body(r_fr2_42,fr2_v3).
body(r_fr2_42,fr2_w2).
body(r_fr2_42,fr24_p3).
body(r_fr2_42,fr6_y1).
body(r_fr2_42,fr3_q2).
head(r_fr2_43,fr19_u1).
body(r_fr2_43,fr2_a1).
body(r_fr2_43,fr9_a3).
body(r_fr2_43,fr9_c3).
body(r_fr2_43,fr17_d2).
body(r_fr2_43,fr5_s1).
body(r_fr2_43,fr10_u2).
body(r_fr2_43,fr21_r2).
body(r_fr2_43,fr2_s2).
body(r_fr2_43,fr17_p3).
body(r_fr2_43,fr2_t2).
body(r_fr2_43,fr21_r2).
body(r_fr2_43,fr2_u2).
body(r_fr2_43,fr2_v2).
body(r_fr2_43,fr2_w3).
body(r_fr2_43,fr24_x1).
body(r_fr2_43,fr24_p3).
body(r_fr2_43,fr2_z2).
head(r_fr2_44,fr19_u1).
body(r_fr2_44,fr2_a1).
body(r_fr2_44,fr5_s1).
body(r_fr2_44,fr10_u2).
body(r_fr2_44,fr23_z1).
body(r_fr2_44,fr2_s1).
body(r_fr2_44,fr2_s2).
body(r_fr2_44,fr23_z1).
body(r_fr2_44,fr17_p3).
body(r_fr2_44,fr2_v2).
body(r_fr2_44,fr2_w2).
body(r_fr2_44,fr21_r2).
body(r_fr2_44,fr24_x1).
body(r_fr2_44,fr24_p3).
body(r_fr2_44,fr6_y1).
body(r_fr2_44,fr2_y3).
body(r_fr2_44,fr3_q2).
body(r_fr2_44,fr2_z2).
body(r_fr2_44,fr19_p3).
head(r_fr2_45,fr19_u1).
body(r_fr2_45,fr2_e1).
body(r_fr2_45,fr2_p4).
body(r_fr2_45,fr23_z1).
body(r_fr2_45,fr2_r2).
body(r_fr2_45,fr2_s1).
body(r_fr2_45,fr2_s2).
body(r_fr2_45,fr2_t2).
body(r_fr2_45,fr21_r2).
body(r_fr2_45,fr11_r3).
body(r_fr2_45,fr21_r2).
body(r_fr2_45,fr24_x1).
body(r_fr2_45,fr24_p3).
body(r_fr2_45,fr6_y1).
body(r_fr2_45,fr2_y2).
body(r_fr2_45,fr2_y3).
head(r_fr2_46,fr2_u2).
body(r_fr2_46,fr2_a1).
body(r_fr2_46,fr24_d2).
body(r_fr2_46,fr9_a3).
body(r_fr2_46,fr17_d2).
body(r_fr2_46,fr2_f1).
body(r_fr2_46,fr10_u2).
body(r_fr2_46,fr23_q1).
body(r_fr2_46,fr2_s1).
body(r_fr2_46,fr21_r2).
body(r_fr2_46,fr2_v2).
body(r_fr2_46,fr2_v3).
body(r_fr2_46,fr19_u2).
body(r_fr2_46,fr21_r2).
body(r_fr2_46,fr24_p3).
body(r_fr2_46,fr2_z2).
body(r_fr2_46,fr19_p3).
head(r_fr2_47,fr2_u2).
body(r_fr2_47,fr2_a1).
body(r_fr2_47,fr12_d1).
body(r_fr2_47,fr24_d2).
body(r_fr2_47,fr2_b1).
body(r_fr2_47,fr17_d2).
body(r_fr2_47,fr2_f1).
body(r_fr2_47,fr5_s1).
body(r_fr2_47,fr23_z1).
body(r_fr2_47,fr2_r2).
body(r_fr2_47,fr23_z1).
body(r_fr2_47,fr2_v1).
body(r_fr2_47,fr2_v2).
body(r_fr2_47,fr2_v3).
body(r_fr2_47,fr3_q2).
body(r_fr2_47,fr2_z2).
head(r_fr2_48,fr23_z1).
body(r_fr2_48,fr17_d2).
body(r_fr2_48,fr2_p1).
body(r_fr2_48,fr2_p4).
body(r_fr2_48,fr5_s1).
body(r_fr2_48,fr2_r2).
body(r_fr2_48,fr23_q1).
body(r_fr2_48,fr2_s2).
body(r_fr2_48,fr17_p3).
body(r_fr2_48,fr11_r3).
body(r_fr2_48,fr21_r2).
body(r_fr2_48,fr2_w2).
body(r_fr2_48,fr2_w3).
body(r_fr2_48,fr21_r2).
body(r_fr2_48,fr24_x1).
body(r_fr2_48,fr24_p3).
body(r_fr2_48,fr6_y1).
body(r_fr2_48,fr2_y3).
body(r_fr2_48,fr19_p3).
head(r_fr2_49,fr23_z1).
body(r_fr2_49,fr2_p1).
body(r_fr2_49,fr5_s1).
body(r_fr2_49,fr21_r2).
body(r_fr2_49,fr2_r2).
body(r_fr2_49,fr2_s1).
body(r_fr2_49,fr2_s2).
body(r_fr2_49,fr23_z1).
body(r_fr2_49,fr2_t2).
body(r_fr2_49,fr11_r3).
body(r_fr2_49,fr2_u2).
body(r_fr2_49,fr2_v3).
body(r_fr2_49,fr19_u2).
body(r_fr2_49,fr2_w3).
body(r_fr2_49,fr21_r2).
body(r_fr2_49,fr24_x1).
body(r_fr2_49,fr24_p3).
body(r_fr2_49,fr2_y2).
body(r_fr2_49,fr2_y3).
head(r_fr2_50,fr23_z1).
body(r_fr2_50,fr2_a1).
body(r_fr2_50,fr12_d1).
body(r_fr2_50,fr24_f1).
body(r_fr2_50,fr9_a3).
body(r_fr2_50,fr17_d2).
body(r_fr2_50,fr12_d1).
body(r_fr2_50,fr2_p1).
body(r_fr2_50,fr23_z1).
body(r_fr2_50,fr2_r2).
body(r_fr2_50,fr23_q1).
body(r_fr2_50,fr2_s1).
body(r_fr2_50,fr23_z1).
body(r_fr2_50,fr17_p3).
body(r_fr2_50,fr2_u2).
body(r_fr2_50,fr2_v1).
body(r_fr2_50,fr6_y1).
head(r_fr2_51,fr23_z1).
body(r_fr2_51,fr24_d2).
body(r_fr2_51,fr2_b1).
body(r_fr2_51,fr24_f1).
body(r_fr2_51,fr9_a3).
body(r_fr2_51,fr17_d2).
body(r_fr2_51,fr17_d2).
body(r_fr2_51,fr2_p1).
body(r_fr2_51,fr5_s1).
body(r_fr2_51,fr21_r2).
body(r_fr2_51,fr2_s1).
body(r_fr2_51,fr17_p3).
body(r_fr2_51,fr11_r3).
body(r_fr2_51,fr2_u2).
body(r_fr2_51,fr24_x1).
body(r_fr2_51,fr6_y1).
body(r_fr2_51,fr2_y3).
body(r_fr2_51,fr3_q2).
head(r_fr2_52,fr23_z1).
body(r_fr2_52,fr17_d2).
body(r_fr2_52,fr17_d2).
body(r_fr2_52,fr2_e1).
body(r_fr2_52,fr17_d2).
body(r_fr2_52,fr5_s1).
body(r_fr2_52,fr2_p4).
body(r_fr2_52,fr2_r2).
body(r_fr2_52,fr23_q1).
body(r_fr2_52,fr17_p3).
body(r_fr2_52,fr2_t2).
body(r_fr2_52,fr21_r2).
body(r_fr2_52,fr2_v3).
body(r_fr2_52,fr21_r2).
body(r_fr2_52,fr24_p3).
body(r_fr2_52,fr6_y1).
body(r_fr2_52,fr2_z2).
head(r_fr2_53,fr23_q1).
body(r_fr2_53,fr24_d2).
body(r_fr2_53,fr9_a3).
body(r_fr2_53,fr12_d1).
body(r_fr2_53,fr2_e1).
body(r_fr2_53,fr17_d2).
body(r_fr2_53,fr5_s1).
body(r_fr2_53,fr10_u2).
body(r_fr2_53,fr2_p4).
body(r_fr2_53,fr5_s1).
body(r_fr2_53,fr23_z1).
body(r_fr2_53,fr2_s2).
body(r_fr2_53,fr21_r2).
body(r_fr2_53,fr2_v2).
body(r_fr2_53,fr2_w3).
body(r_fr2_53,fr24_p3).
body(r_fr2_53,fr6_y1).
body(r_fr2_53,fr2_y2).
head(r_fr2_54,fr23_q1).
body(r_fr2_54,fr12_d1).
body(r_fr2_54,fr12_d1).
body(r_fr2_54,fr2_p1).
body(r_fr2_54,fr2_p4).
body(r_fr2_54,fr19_u1).
body(r_fr2_54,fr23_z1).
body(r_fr2_54,fr2_r2).
body(r_fr2_54,fr23_z1).
body(r_fr2_54,fr17_p3).
body(r_fr2_54,fr2_t2).
body(r_fr2_54,fr11_r3).
body(r_fr2_54,fr21_r2).
body(r_fr2_54,fr2_v1).
body(r_fr2_54,fr2_v2).
body(r_fr2_54,fr6_y1).
body(r_fr2_54,fr2_y2).
body(r_fr2_54,fr2_z2).
head(r_fr2_55,fr2_y3).
body(r_fr2_55,fr2_b1).
body(r_fr2_55,fr12_d1).
body(r_fr2_55,fr10_u2).
body(r_fr2_55,fr2_p4).
body(r_fr2_55,fr23_z1).
body(r_fr2_55,fr2_r2).
body(r_fr2_55,fr2_s2).
body(r_fr2_55,fr17_p3).
body(r_fr2_55,fr2_t2).
body(r_fr2_55,fr11_r3).
body(r_fr2_55,fr2_v2).
body(r_fr2_55,fr2_w2).
body(r_fr2_55,fr2_w3).
body(r_fr2_55,fr24_x1).
body(r_fr2_55,fr24_p3).
body(r_fr2_55,fr6_y1).
body(r_fr2_55,fr2_z2).
body(r_fr2_55,fr19_p3).
head(r_fr2_56,fr2_y3).
body(r_fr2_56,fr24_d2).
body(r_fr2_56,fr12_d1).
body(r_fr2_56,fr9_c3).
body(r_fr2_56,fr12_d1).
body(r_fr2_56,fr17_d2).
body(r_fr2_56,fr23_z1).
body(r_fr2_56,fr21_r2).
body(r_fr2_56,fr2_r2).
body(r_fr2_56,fr2_s2).
body(r_fr2_56,fr23_z1).
body(r_fr2_56,fr2_u2).
body(r_fr2_56,fr21_r2).
body(r_fr2_56,fr2_v3).
body(r_fr2_56,fr19_u2).
body(r_fr2_56,fr2_w2).
body(r_fr2_56,fr2_z2).
body(r_fr2_56,fr19_p3).
head(r_fr2_57,fr2_y3).
body(r_fr2_57,fr2_a1).
body(r_fr2_57,fr12_d1).
body(r_fr2_57,fr2_e1).
body(r_fr2_57,fr2_f1).
body(r_fr2_57,fr12_d1).
body(r_fr2_57,fr2_p1).
body(r_fr2_57,fr5_s1).
body(r_fr2_57,fr10_u2).
body(r_fr2_57,fr19_u1).
body(r_fr2_57,fr2_s2).
body(r_fr2_57,fr23_z1).
body(r_fr2_57,fr2_u2).
body(r_fr2_57,fr21_r2).
body(r_fr2_57,fr2_v3).
body(r_fr2_57,fr19_u2).
body(r_fr2_57,fr21_r2).
head(r_fr2_58,fr2_y3).
body(r_fr2_58,fr24_d2).
body(r_fr2_58,fr9_c3).
body(r_fr2_58,fr2_e1).
body(r_fr2_58,fr12_d1).
body(r_fr2_58,fr2_p4).
body(r_fr2_58,fr19_u1).
body(r_fr2_58,fr5_s1).
body(r_fr2_58,fr21_r2).
body(r_fr2_58,fr23_q1).
body(r_fr2_58,fr23_z1).
body(r_fr2_58,fr2_t2).
body(r_fr2_58,fr2_u2).
body(r_fr2_58,fr21_r2).
body(r_fr2_58,fr2_v1).
body(r_fr2_58,fr6_y1).
body(r_fr2_58,fr2_y2).
head(r_fr2_59,fr23_z1).
body(r_fr2_59,fr12_d1).
body(r_fr2_59,fr2_b1).
body(r_fr2_59,fr9_a3).
body(r_fr2_59,fr17_d2).
body(r_fr2_59,fr12_d1).
body(r_fr2_59,fr17_d2).
body(r_fr2_59,fr2_p4).
body(r_fr2_59,fr17_p3).
body(r_fr2_59,fr2_u2).
body(r_fr2_59,fr2_v1).
body(r_fr2_59,fr2_v2).
body(r_fr2_59,fr19_u2).
body(r_fr2_59,fr2_w2).
body(r_fr2_59,fr2_w3).
body(r_fr2_59,fr24_p3).
body(r_fr2_59,fr2_z2).
head(r_fr2_60,fr23_z1).
body(r_fr2_60,fr2_a1).
body(r_fr2_60,fr2_b1).
body(r_fr2_60,fr24_f1).
body(r_fr2_60,fr9_a3).
body(r_fr2_60,fr17_d2).
body(r_fr2_60,fr12_d1).
body(r_fr2_60,fr2_p1).
body(r_fr2_60,fr10_u2).
body(r_fr2_60,fr5_s1).
body(r_fr2_60,fr2_s2).
body(r_fr2_60,fr2_u2).
body(r_fr2_60,fr2_v1).
body(r_fr2_60,fr2_v3).
body(r_fr2_60,fr24_x1).
body(r_fr2_60,fr24_p3).
body(r_fr2_60,fr2_y2).
body(r_fr2_60,fr2_y3).

assumption(fr6_d3).
assumption(fr10_e1).
assumption(fr12_d1).
assumption(fr16_f1).
assumption(fr3_e1).
assumption(fr12_d1).
assumption(fr3_a2).
assumption(fr17_d2).
assumption(fr3_c2).
assumption(fr3_d2).
assumption(fr3_e2).
assumption(fr2_e1).
assumption(fr17_d2).
assumption(fr12_d1).
assumption(fr12_d1).
contrary(fr6_d3,fr3_p2).
contrary(fr3_a2,fr21_r2).
contrary(fr17_d2,fr3_x1).
contrary(fr10_e1,fr12_d1).
contrary(fr17_d2,fr3_z3).
contrary(fr12_d1,fr12_d1).
contrary(fr12_d1,fr13_w2).
contrary(fr3_c2,fr3_s2).
contrary(fr12_d1,fr3_z3).
contrary(fr16_f1,fr3_e1).
contrary(fr3_d2,fr17_d2).
contrary(fr3_e1,fr3_u2).
contrary(fr3_e2,fr12_d1).
contrary(fr12_d1,fr12_d1).
contrary(fr2_e1,fr6_d3).
head(r_fr3_0,fr13_w2).
body(r_fr3_0,fr12_d1).
body(r_fr3_0,fr3_e2).
body(r_fr3_0,fr3_p3).
body(r_fr3_0,fr25_p3).
body(r_fr3_0,fr3_s2).
body(r_fr3_0,fr3_w2).
body(r_fr3_0,fr15_x1).
body(r_fr3_0,fr21_r2).
body(r_fr3_0,fr3_z2).
head(r_fr3_1,fr13_w2).
body(r_fr3_1,fr17_d2).
body(r_fr3_1,fr17_d2).
body(r_fr3_1,fr12_d1).
body(r_fr3_1,fr3_d2).
body(r_fr3_1,fr3_e1).
body(r_fr3_1,fr3_e2).
body(r_fr3_1,fr24_z3).
body(r_fr3_1,fr12_y1).
head(r_fr3_2,fr13_w2).
body(r_fr3_2,fr12_d1).
body(r_fr3_2,fr16_f1).
body(r_fr3_2,fr3_d2).
body(r_fr3_2,fr3_p4).
body(r_fr3_2,fr3_s2).
body(r_fr3_2,fr2_y3).
body(r_fr3_2,fr3_u2).
body(r_fr3_2,fr6_t2).
head(r_fr3_3,fr13_w2).
body(r_fr3_3,fr3_a2).
body(r_fr3_3,fr17_d2).
body(r_fr3_3,fr12_d1).
body(r_fr3_3,fr12_d1).
body(r_fr3_3,fr3_e1).
body(r_fr3_3,fr12_d1).
body(r_fr3_3,fr21_r2).
body(r_fr3_3,fr3_q2).
head(r_fr3_4,fr21_r2).
body(r_fr3_4,fr17_d2).
body(r_fr3_4,fr3_c2).
body(r_fr3_4,fr3_e2).
body(r_fr3_4,fr12_d1).
body(r_fr3_4,fr21_r2).
body(r_fr3_4,fr24_z3).
body(r_fr3_4,fr13_w2).
head(r_fr3_5,fr21_r2).
body(r_fr3_5,fr3_p2).
body(r_fr3_5,fr25_p3).
body(r_fr3_5,fr17_p3).
body(r_fr3_5,fr23_z1).
body(r_fr3_5,fr3_u2).
body(r_fr3_5,fr3_w2).
body(r_fr3_5,fr3_y2).
body(r_fr3_5,fr3_z1).
body(r_fr3_5,fr3_z2).
head(r_fr3_6,fr21_r2).
body(r_fr3_6,fr6_d3).
body(r_fr3_6,fr17_d2).
body(r_fr3_6,fr12_d1).
body(r_fr3_6,fr12_d1).
body(r_fr3_6,fr3_e1).
body(r_fr3_6,fr12_d1).
body(r_fr3_6,fr3_w1).
head(r_fr3_7,fr21_r2).
body(r_fr3_7,fr6_d3).
body(r_fr3_7,fr3_a2).
body(r_fr3_7,fr12_d1).
body(r_fr3_7,fr3_e2).
body(r_fr3_7,fr12_d1).
body(r_fr3_7,fr2_e1).
body(r_fr3_7,fr3_p4).
body(r_fr3_7,fr3_t3).
body(r_fr3_7,fr3_w1).
head(r_fr3_8,fr3_p2).
body(r_fr3_8,fr17_d2).
body(r_fr3_8,fr3_e1).
body(r_fr3_8,fr3_r1).
body(r_fr3_8,fr3_v1).
body(r_fr3_8,fr9_q1).
body(r_fr3_8,fr3_w1).
body(r_fr3_8,fr3_w2).
body(r_fr3_8,fr15_x1).
body(r_fr3_8,fr3_z1).
head(r_fr3_9,fr3_p2).
body(r_fr3_9,fr3_c2).
body(r_fr3_9,fr21_r2).
body(r_fr3_9,fr3_s2).
body(r_fr3_9,fr20_u3).
body(r_fr3_9,fr13_w2).
body(r_fr3_9,fr3_w1).
body(r_fr3_9,fr3_x1).
body(r_fr3_9,fr21_r2).
head(r_fr3_10,fr3_x2).
body(r_fr3_10,fr3_c2).
body(r_fr3_10,fr3_p4).
body(r_fr3_10,fr6_t2).
body(r_fr3_10,fr9_q1).
body(r_fr3_10,fr21_r2).
body(r_fr3_10,fr3_z1).
head(r_fr3_11,fr3_x2).
body(r_fr3_11,fr3_a2).
body(r_fr3_11,fr12_d1).
body(r_fr3_11,fr12_d1).
body(r_fr3_11,fr12_d1).
body(r_fr3_11,fr5_s1).
body(r_fr3_11,fr3_w1).
body(r_fr3_11,fr3_w2).
body(r_fr3_11,fr3_x3).
head(r_fr3_12,fr3_x2).
body(r_fr3_12,fr17_d2).
body(r_fr3_12,fr3_c2).
body(r_fr3_12,fr2_e1).
body(r_fr3_12,fr3_p3).
body(r_fr3_12,fr24_z3).
body(r_fr3_12,fr3_z2).
head(r_fr3_13,fr2_y3).
body(r_fr3_13,fr6_d3).
body(r_fr3_13,fr3_e2).
body(r_fr3_13,fr3_p4).
body(r_fr3_13,fr23_z1).
body(r_fr3_13,fr3_s2).
body(r_fr3_13,fr9_q1).
head(r_fr3_14,fr2_y3).
body(r_fr3_14,fr3_a2).
body(r_fr3_14,fr17_d2).
body(r_fr3_14,fr3_c2).
body(r_fr3_14,fr12_d1).
body(r_fr3_14,fr3_e1).
body(r_fr3_14,fr2_e1).
body(r_fr3_14,fr17_p3).
body(r_fr3_14,fr23_z1).
body(r_fr3_14,fr3_x3).
head(r_fr3_15,fr2_y3).
body(r_fr3_15,fr17_d2).
body(r_fr3_15,fr12_d1).
body(r_fr3_15,fr12_d1).
body(r_fr3_15,fr3_e2).
body(r_fr3_15,fr12_d1).
body(r_fr3_15,fr21_r2).
body(r_fr3_15,fr6_t2).
body(r_fr3_15,fr3_v1).
head(r_fr3_16,fr2_y3).
body(r_fr3_16,fr6_r3).
body(r_fr3_16,fr17_p3).
body(r_fr3_16,fr5_s1).
body(r_fr3_16,fr6_t2).
body(r_fr3_16,fr15_x1).
body(r_fr3_16,fr3_x3).
body(r_fr3_16,fr3_y2).
body(r_fr3_16,fr3_z3).
head(r_fr3_17,fr3_v1).
body(r_fr3_17,fr17_d2).
body(r_fr3_17,fr17_d2).
body(r_fr3_17,fr12_d1).
body(r_fr3_17,fr12_d1).
body(r_fr3_17,fr3_e1).
body(r_fr3_17,fr12_d1).
head(r_fr3_18,fr3_v1).
body(r_fr3_18,fr3_a2).
body(r_fr3_18,fr17_d2).
body(r_fr3_18,fr3_p2).
body(r_fr3_18,fr3_p3).
body(r_fr3_18,fr3_t3).
body(r_fr3_18,fr13_w2).
body(r_fr3_18,fr3_x2).
body(r_fr3_18,fr3_y2).
body(r_fr3_18,fr3_z3).
head(r_fr3_19,fr3_v1).
body(r_fr3_19,fr12_d1).
body(r_fr3_19,fr3_r1).
body(r_fr3_19,fr3_s2).
body(r_fr3_19,fr2_y3).
body(r_fr3_19,fr13_w2).
body(r_fr3_19,fr3_x1).
body(r_fr3_19,fr3_z2).
head(r_fr3_20,fr3_v1).
body(r_fr3_20,fr17_d2).
body(r_fr3_20,fr10_e1).
body(r_fr3_20,fr12_d1).
body(r_fr3_20,fr16_f1).
body(r_fr3_20,fr3_e1).
body(r_fr3_20,fr12_d1).
body(r_fr3_20,fr3_p2).
body(r_fr3_20,fr23_z1).
head(r_fr3_21,fr3_v1).
body(r_fr3_21,fr3_a2).
body(r_fr3_21,fr10_e1).
body(r_fr3_21,fr21_r2).
body(r_fr3_21,fr23_z1).
body(r_fr3_21,fr3_s2).
body(r_fr3_21,fr15_x1).
body(r_fr3_21,fr3_x1).
body(r_fr3_21,fr21_r2).
head(r_fr3_22,fr6_r3).
body(r_fr3_22,fr17_d2).
body(r_fr3_22,fr12_d1).
body(r_fr3_22,fr3_c2).
body(r_fr3_22,fr3_e2).
body(r_fr3_22,fr3_w2).
body(r_fr3_22,fr3_x1).
head(r_fr3_23,fr6_r3).
body(r_fr3_23,fr3_a2).
body(r_fr3_23,fr17_d2).
body(r_fr3_23,fr10_e1).
body(r_fr3_23,fr12_d1).
body(r_fr3_23,fr16_f1).
body(r_fr3_23,fr3_e1).
body(r_fr3_23,fr12_d1).
head(r_fr3_24,fr15_x1).
body(r_fr3_24,fr3_a2).
body(r_fr3_24,fr17_d2).
body(r_fr3_24,fr12_d1).
body(r_fr3_24,fr3_p2).
body(r_fr3_24,fr3_p4).
body(r_fr3_24,fr24_z3).
body(r_fr3_24,fr20_u3).
body(r_fr3_24,fr3_w2).
head(r_fr3_25,fr15_x1).
body(r_fr3_25,fr12_d1).
body(r_fr3_25,fr12_d1).
body(r_fr3_25,fr16_f1).
body(r_fr3_25,fr3_e1).
body(r_fr3_25,fr3_e2).
body(r_fr3_25,fr12_d1).
body(r_fr3_25,fr3_w2).
head(r_fr3_26,fr15_x1).
body(r_fr3_26,fr3_d2).
body(r_fr3_26,fr3_p2).
body(r_fr3_26,fr24_z3).
body(r_fr3_26,fr25_p3).
body(r_fr3_26,fr20_u3).
body(r_fr3_26,fr2_y3).
body(r_fr3_26,fr3_u2).
body(r_fr3_26,fr6_t2).
body(r_fr3_26,fr3_v1).
head(r_fr3_27,fr15_x1).
body(r_fr3_27,fr17_d2).
body(r_fr3_27,fr12_d1).
body(r_fr3_27,fr23_z1).
body(r_fr3_27,fr12_y1).
body(r_fr3_27,fr13_w2).
body(r_fr3_27,fr9_q1).
body(r_fr3_27,fr3_w2).
head(r_fr3_28,fr15_x1).
body(r_fr3_28,fr3_p2).
body(r_fr3_28,fr3_q2).
body(r_fr3_28,fr3_t3).
body(r_fr3_28,fr3_u2).
body(r_fr3_28,fr6_t2).
body(r_fr3_28,fr1_u1).
head(r_fr3_29,fr1_u1).
body(r_fr3_29,fr3_a2).
body(r_fr3_29,fr6_r3).
body(r_fr3_29,fr13_w2).
body(r_fr3_29,fr3_w2).
body(r_fr3_29,fr15_x1).
body(r_fr3_29,fr3_x3).
body(r_fr3_29,fr3_z2).
head(r_fr3_30,fr1_u1).
body(r_fr3_30,fr10_e1).
body(r_fr3_30,fr3_p2).
body(r_fr3_30,fr3_q2).
body(r_fr3_30,fr5_s1).
body(r_fr3_30,fr6_t2).
body(r_fr3_30,fr3_w2).
body(r_fr3_30,fr15_x1).
body(r_fr3_30,fr3_x1).
body(r_fr3_30,fr3_z2).
head(r_fr3_31,fr1_u1).
body(r_fr3_31,fr3_a2).
body(r_fr3_31,fr17_d2).
body(r_fr3_31,fr12_d1).
body(r_fr3_31,fr3_d2).
body(r_fr3_31,fr3_e1).
body(r_fr3_31,fr24_z3).
body(r_fr3_31,fr5_s1).
head(r_fr3_32,fr3_p3).
body(r_fr3_32,fr12_d1).
body(r_fr3_32,fr3_d2).
body(r_fr3_32,fr3_e2).
body(r_fr3_32,fr21_r2).
body(r_fr3_32,fr25_p3).
body(r_fr3_32,fr3_v1).
body(r_fr3_32,fr15_x1).
head(r_fr3_33,fr3_p3).
body(r_fr3_33,fr3_c2).
body(r_fr3_33,fr3_e1).
body(r_fr3_33,fr3_e2).
body(r_fr3_33,fr12_d1).
body(r_fr3_33,fr21_r2).
body(r_fr3_33,fr23_z1).
body(r_fr3_33,fr13_w2).
body(r_fr3_33,fr3_z1).
head(r_fr3_34,fr3_p3).
body(r_fr3_34,fr12_d1).
body(r_fr3_34,fr3_p2).
body(r_fr3_34,fr6_r3).
body(r_fr3_34,fr9_q1).
body(r_fr3_34,fr3_x2).
body(r_fr3_34,fr3_x3).
head(r_fr3_35,fr3_p3).
body(r_fr3_35,fr3_p4).
body(r_fr3_35,fr24_z3).
body(r_fr3_35,fr6_r3).
body(r_fr3_35,fr3_r1).
body(r_fr3_35,fr13_w2).
body(r_fr3_35,fr3_w1).
body(r_fr3_35,fr3_x2).
body(r_fr3_35,fr3_x3).
body(r_fr3_35,fr3_z1).
head(r_fr3_36,fr12_y1).
body(r_fr3_36,fr6_d3).
body(r_fr3_36,fr12_d1).
body(r_fr3_36,fr12_d1).
body(r_fr3_36,fr24_z3).
body(r_fr3_36,fr25_p3).
body(r_fr3_36,fr5_s1).
body(r_fr3_36,fr3_x3).
body(r_fr3_36,fr3_z2).
head(r_fr3_37,fr12_y1).
body(r_fr3_37,fr10_e1).
body(r_fr3_37,fr12_d1).
body(r_fr3_37,fr12_d1).
body(r_fr3_37,fr3_e2).
body(r_fr3_37,fr21_r2).
body(r_fr3_37,fr3_x1).
body(r_fr3_37,fr21_r2).
head(r_fr3_38,fr3_x1).
body(r_fr3_38,fr17_d2).
body(r_fr3_38,fr12_d1).
body(r_fr3_38,fr16_f1).
body(r_fr3_38,fr3_p3).
body(r_fr3_38,fr25_p3).
body(r_fr3_38,fr1_u1).
body(r_fr3_38,fr3_z1).
head(r_fr3_39,fr3_x1).
body(r_fr3_39,fr6_d3).
body(r_fr3_39,fr12_d1).
body(r_fr3_39,fr16_f1).
body(r_fr3_39,fr2_e1).
body(r_fr3_39,fr3_q2).
body(r_fr3_39,fr3_y2).
head(r_fr3_40,fr3_x1).
body(r_fr3_40,fr6_d3).
body(r_fr3_40,fr3_a2).
body(r_fr3_40,fr17_d2).
body(r_fr3_40,fr3_e1).
body(r_fr3_40,fr12_d1).
body(r_fr3_40,fr12_y1).
body(r_fr3_40,fr3_t3).
body(r_fr3_40,fr3_w2).
body(r_fr3_40,fr3_z2).
head(r_fr3_41,fr3_z2).
body(r_fr3_41,fr12_d1).
body(r_fr3_41,fr3_d2).
body(r_fr3_41,fr3_e1).
body(r_fr3_41,fr3_e2).
body(r_fr3_41,fr21_r2).
body(r_fr3_41,fr3_w2).
head(r_fr3_42,fr3_z2).
body(r_fr3_42,fr6_r3).
body(r_fr3_42,fr21_r2).
body(r_fr3_42,fr17_p3).
body(r_fr3_42,fr12_y1).
body(r_fr3_42,fr3_u2).
body(r_fr3_42,fr15_x1).
head(r_fr3_43,fr3_z2).
body(r_fr3_43,fr6_d3).
body(r_fr3_43,fr3_a2).
body(r_fr3_43,fr3_e1).
body(r_fr3_43,fr24_z3).
body(r_fr3_43,fr3_r1).
body(r_fr3_43,fr9_q1).
head(r_fr3_44,fr3_z2).
body(r_fr3_44,fr17_d2).
body(r_fr3_44,fr3_p2).
body(r_fr3_44,fr9_q1).
body(r_fr3_44,fr3_x1).
body(r_fr3_44,fr3_y2).
body(r_fr3_44,fr3_z3).
head(r_fr3_45,fr3_z2).
body(r_fr3_45,fr3_a2).
body(r_fr3_45,fr3_e1).
body(r_fr3_45,fr6_r3).
body(r_fr3_45,fr3_v1).
body(r_fr3_45,fr3_x1).
body(r_fr3_45,fr3_x3).
head(r_fr3_46,fr3_s2).
body(r_fr3_46,fr3_a2).
body(r_fr3_46,fr12_d1).
body(r_fr3_46,fr12_d1).
body(r_fr3_46,fr16_f1).
body(r_fr3_46,fr3_d2).
body(r_fr3_46,fr3_e1).
body(r_fr3_46,fr3_t3).
head(r_fr3_47,fr3_s2).
body(r_fr3_47,fr21_r2).
body(r_fr3_47,fr3_p2).
body(r_fr3_47,fr3_p4).
body(r_fr3_47,fr20_u3).
body(r_fr3_47,fr12_y1).
body(r_fr3_47,fr3_v1).
body(r_fr3_47,fr3_w2).
body(r_fr3_47,fr21_r2).
body(r_fr3_47,fr3_z1).
head(r_fr3_48,fr3_s2).
body(r_fr3_48,fr10_e1).
body(r_fr3_48,fr17_d2).
body(r_fr3_48,fr3_c2).
body(r_fr3_48,fr3_e1).
body(r_fr3_48,fr2_e1).
body(r_fr3_48,fr6_t2).
body(r_fr3_48,fr3_y2).
head(r_fr3_49,fr3_s2).
body(r_fr3_49,fr6_d3).
body(r_fr3_49,fr10_e1).
body(r_fr3_49,fr12_d1).
body(r_fr3_49,fr3_c2).
body(r_fr3_49,fr12_d1).
body(r_fr3_49,fr3_e2).
body(r_fr3_49,fr6_r3).
body(r_fr3_49,fr3_w1).
body(r_fr3_49,fr1_u1).
head(r_fr3_50,fr3_y2).
body(r_fr3_50,fr24_z3).
body(r_fr3_50,fr6_r3).
body(r_fr3_50,fr3_s2).
body(r_fr3_50,fr5_s1).
body(r_fr3_50,fr6_t2).
body(r_fr3_50,fr3_w2).
body(r_fr3_50,fr15_x1).
head(r_fr3_51,fr3_y2).
body(r_fr3_51,fr6_d3).
body(r_fr3_51,fr12_d1).
body(r_fr3_51,fr3_c2).
body(r_fr3_51,fr16_f1).
body(r_fr3_51,fr3_d2).
body(r_fr3_51,fr3_e1).
head(r_fr3_52,fr3_y2).
body(r_fr3_52,fr3_a2).
body(r_fr3_52,fr16_f1).
body(r_fr3_52,fr23_z1).
body(r_fr3_52,fr20_u3).
body(r_fr3_52,fr3_u2).
body(r_fr3_52,fr1_u1).
body(r_fr3_52,fr3_z2).
head(r_fr3_53,fr3_y2).
body(r_fr3_53,fr17_d2).
body(r_fr3_53,fr17_d2).
body(r_fr3_53,fr12_d1).
body(r_fr3_53,fr16_f1).
body(r_fr3_53,fr3_e1).
body(r_fr3_53,fr12_d1).
body(r_fr3_53,fr3_p3).
head(r_fr3_54,fr3_r1).
body(r_fr3_54,fr6_d3).
body(r_fr3_54,fr3_a2).
body(r_fr3_54,fr12_d1).
body(r_fr3_54,fr12_d1).
body(r_fr3_54,fr21_r2).
body(r_fr3_54,fr3_p4).
body(r_fr3_54,fr15_x1).
body(r_fr3_54,fr3_z1).
head(r_fr3_55,fr3_r1).
body(r_fr3_55,fr6_d3).
body(r_fr3_55,fr3_a2).
body(r_fr3_55,fr10_e1).
body(r_fr3_55,fr12_d1).
body(r_fr3_55,fr3_d2).
body(r_fr3_55,fr2_e1).
head(r_fr3_56,fr3_r1).
body(r_fr3_56,fr3_a2).
body(r_fr3_56,fr12_d1).
body(r_fr3_56,fr3_e1).
body(r_fr3_56,fr23_z1).
body(r_fr3_56,fr3_t3).
body(r_fr3_56,fr5_s1).
body(r_fr3_56,fr3_x2).
head(r_fr3_57,fr17_p3).
body(r_fr3_57,fr17_d2).
body(r_fr3_57,fr10_e1).
body(r_fr3_57,fr3_q2).
body(r_fr3_57,fr21_r2).
body(r_fr3_57,fr3_s2).
body(r_fr3_57,fr3_z2).
head(r_fr3_58,fr17_p3).
body(r_fr3_58,fr12_d1).
body(r_fr3_58,fr12_d1).
body(r_fr3_58,fr12_d1).
body(r_fr3_58,fr16_f1).
body(r_fr3_58,fr12_d1).
body(r_fr3_58,fr2_e1).
body(r_fr3_58,fr21_r2).
body(r_fr3_58,fr23_z1).
body(r_fr3_58,fr3_s2).
head(r_fr3_59,fr17_p3).
body(r_fr3_59,fr6_d3).
body(r_fr3_59,fr17_d2).
body(r_fr3_59,fr12_d1).
body(r_fr3_59,fr12_d1).
body(r_fr3_59,fr3_c2).
body(r_fr3_59,fr3_e2).
body(r_fr3_59,fr3_r1).
body(r_fr3_59,fr3_v1).
body(r_fr3_59,fr3_x3).
head(r_fr3_60,fr23_z1).
body(r_fr3_60,fr17_d2).
body(r_fr3_60,fr3_c2).
body(r_fr3_60,fr12_d1).
body(r_fr3_60,fr16_f1).
body(r_fr3_60,fr3_e1).
body(r_fr3_60,fr12_d1).
body(r_fr3_60,fr6_r3).
body(r_fr3_60,fr3_r1).
head(r_fr3_61,fr23_z1).
body(r_fr3_61,fr6_d3).
body(r_fr3_61,fr17_d2).
body(r_fr3_61,fr3_d2).
body(r_fr3_61,fr3_r1).
body(r_fr3_61,fr12_y1).
body(r_fr3_61,fr3_t3).
body(r_fr3_61,fr3_u2).
body(r_fr3_61,fr3_x1).
head(r_fr3_62,fr21_r2).
body(r_fr3_62,fr3_a2).
body(r_fr3_62,fr17_d2).
body(r_fr3_62,fr16_f1).
body(r_fr3_62,fr2_e1).
body(r_fr3_62,fr3_t3).
body(r_fr3_62,fr6_t2).
head(r_fr3_63,fr21_r2).
body(r_fr3_63,fr17_d2).
body(r_fr3_63,fr12_d1).
body(r_fr3_63,fr12_d1).
body(r_fr3_63,fr12_d1).
body(r_fr3_63,fr2_e1).
body(r_fr3_63,fr3_p3).
body(r_fr3_63,fr3_z1).
head(r_fr3_64,fr3_w1).
body(r_fr3_64,fr3_p3).
body(r_fr3_64,fr3_q2).
body(r_fr3_64,fr20_u3).
body(r_fr3_64,fr12_y1).
body(r_fr3_64,fr15_x1).
body(r_fr3_64,fr3_x2).
body(r_fr3_64,fr21_r2).
head(r_fr3_65,fr3_w1).
body(r_fr3_65,fr3_a2).
body(r_fr3_65,fr12_d1).
body(r_fr3_65,fr12_d1).
body(r_fr3_65,fr3_e2).
body(r_fr3_65,fr12_d1).
body(r_fr3_65,fr2_e1).
body(r_fr3_65,fr21_r2).
body(r_fr3_65,fr6_r3).
body(r_fr3_65,fr1_u1).

assumption(fr4_a1).
assumption(fr4_b1).
assumption(fr24_f1).
assumption(fr7_f4).
assumption(fr4_e1).
assumption(fr12_d1).
assumption(fr9_f2).
assumption(fr17_d2).
assumption(fr4_c2).
assumption(fr4_d2).
assumption(fr12_d1).
assumption(fr4_f2).
assumption(fr4_a3).
assumption(fr12_d1).
assumption(fr17_d2).
contrary(fr4_a1,fr4_z1).
contrary(fr9_f2,fr17_d2).
contrary(fr4_a3,fr17_d2).
contrary(fr4_b1,fr3_q2).
contrary(fr17_d2,fr12_d1).
contrary(fr12_d1,fr4_d2).
contrary(fr24_f1,fr21_r2).
contrary(fr4_c2,fr2_y3).
contrary(fr17_d2,fr21_r2).
contrary(fr7_f4,fr21_r2).
contrary(fr4_d2,fr4_w1).
contrary(fr4_e1,fr21_r2).
contrary(fr12_d1,fr10_r3).
contrary(fr12_d1,fr17_d2).
contrary(fr4_f2,fr21_r2).
head(r_fr4_0,fr4_w1).
body(r_fr4_0,fr4_c2).
body(r_fr4_0,fr4_q2).
body(r_fr4_0,fr12_u1).
head(r_fr4_1,fr4_w1).
body(r_fr4_1,fr4_a3).
head(r_fr4_2,fr4_w1).
head(r_fr4_3,fr4_w1).
body(r_fr4_3,fr4_a3).
body(r_fr4_3,fr4_d2).
head(r_fr4_4,fr4_w1).
body(r_fr4_4,fr9_f2).
body(r_fr4_4,fr4_a3).
body(r_fr4_4,fr7_f4).
body(r_fr4_4,fr21_r2).
body(r_fr4_4,fr4_t2).
body(r_fr4_4,fr4_v1).
head(r_fr4_5,fr4_w1).
body(r_fr4_5,fr4_c2).
body(r_fr4_5,fr21_r2).
body(r_fr4_5,fr2_y3).
head(r_fr4_6,fr4_w1).
body(r_fr4_6,fr21_r2).
body(r_fr4_6,fr4_s2).
body(r_fr4_6,fr4_t2).
head(r_fr4_7,fr4_w1).
body(r_fr4_7,fr4_a3).
body(r_fr4_7,fr17_d2).
body(r_fr4_7,fr12_d1).
body(r_fr4_7,fr12_d1).
body(r_fr4_7,fr24_p3).
body(r_fr4_7,fr2_y3).
head(r_fr4_8,fr4_w1).
body(r_fr4_8,fr5_s1).
head(r_fr4_9,fr4_w1).
body(r_fr4_9,fr24_f1).
body(r_fr4_9,fr4_e1).
body(r_fr4_9,fr4_s2).
head(r_fr4_10,fr4_w1).
body(r_fr4_10,fr23_z1).
head(r_fr4_11,fr4_w1).
body(r_fr4_11,fr4_a3).
body(r_fr4_11,fr5_s1).
head(r_fr4_12,fr4_w1).
body(r_fr4_12,fr12_d1).
body(r_fr4_12,fr7_z4).
head(r_fr4_13,fr4_w1).
body(r_fr4_13,fr24_f1).
body(r_fr4_13,fr21_r2).
body(r_fr4_13,fr4_q2).
head(r_fr4_14,fr4_w1).
body(r_fr4_14,fr4_a3).
body(r_fr4_14,fr12_d1).
body(r_fr4_14,fr4_e1).
body(r_fr4_14,fr4_f2).
body(r_fr4_14,fr23_z1).
head(r_fr4_15,fr4_w1).
body(r_fr4_15,fr17_d2).
body(r_fr4_15,fr7_f4).
body(r_fr4_15,fr12_d1).
body(r_fr4_15,fr17_x1).
body(r_fr4_15,fr2_y3).
head(r_fr4_16,fr4_w1).
body(r_fr4_16,fr4_a1).
body(r_fr4_16,fr17_d2).
body(r_fr4_16,fr17_d2).
head(r_fr4_17,fr4_w1).
body(r_fr4_17,fr2_y3).
head(r_fr4_18,fr4_w1).
body(r_fr4_18,fr12_d1).
body(r_fr4_18,fr7_f4).
body(r_fr4_18,fr12_d1).
head(r_fr4_19,fr4_w1).
body(r_fr4_19,fr12_d1).
body(r_fr4_19,fr24_f1).
body(r_fr4_19,fr17_d2).
body(r_fr4_19,fr2_y3).
head(r_fr4_20,fr2_y3).
body(r_fr4_20,fr7_f4).
body(r_fr4_20,fr4_f2).
head(r_fr4_21,fr2_y3).
body(r_fr4_21,fr17_d2).
body(r_fr4_21,fr12_d1).
body(r_fr4_21,fr4_c2).
body(r_fr4_21,fr7_f4).
head(r_fr4_22,fr2_y3).
body(r_fr4_22,fr24_f1).
body(r_fr4_22,fr7_f4).
body(r_fr4_22,fr4_d2).
body(r_fr4_22,fr21_r2).
head(r_fr4_23,fr2_y3).
body(r_fr4_23,fr4_b1).
body(r_fr4_23,fr4_c2).
head(r_fr4_24,fr2_y3).
body(r_fr4_24,fr17_d2).
body(r_fr4_24,fr12_d1).
body(r_fr4_24,fr7_f4).
head(r_fr4_25,fr2_y3).
body(r_fr4_25,fr4_a3).
head(r_fr4_26,fr2_y3).
body(r_fr4_26,fr7_z4).
head(r_fr4_27,fr2_y3).
head(r_fr4_28,fr2_y3).
body(r_fr4_28,fr3_q2).
head(r_fr4_29,fr2_y3).
body(r_fr4_29,fr24_f1).
body(r_fr4_29,fr2_y3).
head(r_fr4_30,fr2_y3).
body(r_fr4_30,fr24_p3).
head(r_fr4_31,fr2_y3).
body(r_fr4_31,fr12_d1).
body(r_fr4_31,fr12_d1).
head(r_fr4_32,fr2_y3).
body(r_fr4_32,fr24_f1).
body(r_fr4_32,fr17_d2).
body(r_fr4_32,fr7_z4).
body(r_fr4_32,fr2_y3).
body(r_fr4_32,fr24_p3).
head(r_fr4_33,fr2_y3).
body(r_fr4_33,fr17_d2).
body(r_fr4_33,fr7_f4).
body(r_fr4_33,fr10_r3).
body(r_fr4_33,fr5_s1).
head(r_fr4_34,fr2_y3).
body(r_fr4_34,fr4_a3).
body(r_fr4_34,fr4_c2).
body(r_fr4_34,fr4_s2).
body(r_fr4_34,fr24_p3).
head(r_fr4_35,fr2_y3).
body(r_fr4_35,fr4_f2).
body(r_fr4_35,fr17_x1).
body(r_fr4_35,fr5_s1).
body(r_fr4_35,fr2_y3).
body(r_fr4_35,fr5_s1).
head(r_fr4_36,fr2_y3).
body(r_fr4_36,fr9_f2).
body(r_fr4_36,fr7_f4).
body(r_fr4_36,fr4_d2).
head(r_fr4_37,fr2_y3).
body(r_fr4_37,fr9_f2).
body(r_fr4_37,fr4_b1).
body(r_fr4_37,fr17_d2).
body(r_fr4_37,fr24_f1).
body(r_fr4_37,fr4_e1).
body(r_fr4_37,fr12_d1).
head(r_fr4_38,fr4_s2).
body(r_fr4_38,fr4_a1).
body(r_fr4_38,fr12_d1).
body(r_fr4_38,fr3_q2).
head(r_fr4_39,fr4_s2).
body(r_fr4_39,fr4_v1).
head(r_fr4_40,fr4_s2).
body(r_fr4_40,fr23_z1).
body(r_fr4_40,fr5_s1).
body(r_fr4_40,fr21_r2).
body(r_fr4_40,fr7_z4).
body(r_fr4_40,fr4_t2).
body(r_fr4_40,fr5_s1).
head(r_fr4_41,fr4_s2).
body(r_fr4_41,fr4_a1).
body(r_fr4_41,fr17_d2).
body(r_fr4_41,fr4_t2).
head(r_fr4_42,fr4_s2).
head(r_fr4_43,fr4_s2).
body(r_fr4_43,fr4_a3).
body(r_fr4_43,fr12_d1).
body(r_fr4_43,fr4_c2).
head(r_fr4_44,fr4_s2).
body(r_fr4_44,fr4_a1).
body(r_fr4_44,fr9_f2).
body(r_fr4_44,fr4_f2).
body(r_fr4_44,fr4_z1).
head(r_fr4_45,fr4_s2).
body(r_fr4_45,fr4_a1).
body(r_fr4_45,fr12_d1).
body(r_fr4_45,fr12_d1).
body(r_fr4_45,fr3_q2).
body(r_fr4_45,fr4_z1).
head(r_fr4_46,fr4_s2).
body(r_fr4_46,fr4_b1).
body(r_fr4_46,fr12_d1).
body(r_fr4_46,fr2_y3).
head(r_fr4_47,fr4_s2).
body(r_fr4_47,fr4_c2).
body(r_fr4_47,fr7_f4).
body(r_fr4_47,fr4_d2).
body(r_fr4_47,fr12_d1).
body(r_fr4_47,fr12_d1).
body(r_fr4_47,fr4_f2).
head(r_fr4_48,fr4_s2).
body(r_fr4_48,fr4_a1).
body(r_fr4_48,fr4_c2).
body(r_fr4_48,fr4_d2).
body(r_fr4_48,fr12_d1).
head(r_fr4_49,fr4_s2).
body(r_fr4_49,fr9_f2).
head(r_fr4_50,fr4_s2).
body(r_fr4_50,fr4_b1).
body(r_fr4_50,fr21_r2).
head(r_fr4_51,fr4_s2).
body(r_fr4_51,fr4_b1).
body(r_fr4_51,fr4_f2).
body(r_fr4_51,fr4_t2).
head(r_fr4_52,fr4_s2).
body(r_fr4_52,fr9_f2).
body(r_fr4_52,fr4_a3).
body(r_fr4_52,fr12_d1).
body(r_fr4_52,fr4_f2).
head(r_fr4_53,fr4_s2).
body(r_fr4_53,fr24_f1).
body(r_fr4_53,fr12_d1).
body(r_fr4_53,fr4_f2).
body(r_fr4_53,fr2_y3).
head(r_fr4_54,fr4_s2).
body(r_fr4_54,fr9_f2).
body(r_fr4_54,fr4_v1).
head(r_fr4_55,fr4_s2).
body(r_fr4_55,fr23_z1).
body(r_fr4_55,fr5_s1).
body(r_fr4_55,fr4_q2).
body(r_fr4_55,fr21_r2).
head(r_fr4_56,fr5_s1).
body(r_fr4_56,fr23_z1).
body(r_fr4_56,fr21_r2).
body(r_fr4_56,fr4_q2).
head(r_fr4_57,fr5_s1).
body(r_fr4_57,fr4_a3).
body(r_fr4_57,fr4_b1).
body(r_fr4_57,fr24_f1).
body(r_fr4_57,fr4_e1).
body(r_fr4_57,fr12_d1).
body(r_fr4_57,fr2_y3).
head(r_fr4_58,fr5_s1).
body(r_fr4_58,fr17_d2).
head(r_fr4_59,fr5_s1).
body(r_fr4_59,fr2_y3).
head(r_fr4_60,fr5_s1).
head(r_fr4_61,fr5_s1).
body(r_fr4_61,fr4_a3).
body(r_fr4_61,fr12_d1).
body(r_fr4_61,fr24_f1).
body(r_fr4_61,fr4_e1).
body(r_fr4_61,fr12_d1).
head(r_fr4_62,fr5_s1).
body(r_fr4_62,fr9_f2).
body(r_fr4_62,fr4_d2).
body(r_fr4_62,fr12_d1).
body(r_fr4_62,fr21_r2).
head(r_fr4_63,fr5_s1).
body(r_fr4_63,fr4_a3).
head(r_fr4_64,fr5_s1).
body(r_fr4_64,fr12_d1).
body(r_fr4_64,fr23_z1).
body(r_fr4_64,fr5_s1).
head(r_fr4_65,fr5_s1).
body(r_fr4_65,fr24_f1).
body(r_fr4_65,fr23_z1).
head(r_fr4_66,fr5_s1).
body(r_fr4_66,fr24_f1).
body(r_fr4_66,fr4_c2).
body(r_fr4_66,fr17_d2).
body(r_fr4_66,fr4_d2).
body(r_fr4_66,fr4_f2).
head(r_fr4_67,fr5_s1).
body(r_fr4_67,fr4_a3).
body(r_fr4_67,fr17_d2).
body(r_fr4_67,fr4_v1).
head(r_fr4_68,fr5_s1).
body(r_fr4_68,fr7_f4).
body(r_fr4_68,fr12_d1).
body(r_fr4_68,fr4_f2).
body(r_fr4_68,fr24_p3).
body(r_fr4_68,fr5_s1).
head(r_fr4_69,fr5_s1).
body(r_fr4_69,fr4_a3).
body(r_fr4_69,fr17_p3).
body(r_fr4_69,fr4_s2).
body(r_fr4_69,fr4_w1).
body(r_fr4_69,fr2_y3).
body(r_fr4_69,fr4_z1).
head(r_fr4_70,fr5_s1).
body(r_fr4_70,fr9_f2).
body(r_fr4_70,fr12_d1).
body(r_fr4_70,fr4_v1).
head(r_fr4_71,fr5_s1).
body(r_fr4_71,fr23_z1).
body(r_fr4_71,fr17_x1).
body(r_fr4_71,fr7_z4).
body(r_fr4_71,fr21_r2).
body(r_fr4_71,fr2_y3).
head(r_fr4_72,fr5_s1).
body(r_fr4_72,fr4_a3).
body(r_fr4_72,fr4_c2).
body(r_fr4_72,fr12_d1).
head(r_fr4_73,fr17_x1).
body(r_fr4_73,fr12_d1).
body(r_fr4_73,fr4_c2).
body(r_fr4_73,fr12_d1).
body(r_fr4_73,fr4_q2).
body(r_fr4_73,fr17_p3).
body(r_fr4_73,fr4_t2).
head(r_fr4_74,fr17_x1).
body(r_fr4_74,fr4_q2).
head(r_fr4_75,fr17_x1).
body(r_fr4_75,fr4_s2).
body(r_fr4_75,fr10_r3).
head(r_fr4_76,fr17_x1).
body(r_fr4_76,fr7_f4).
head(r_fr4_77,fr17_x1).
body(r_fr4_77,fr12_d1).
body(r_fr4_77,fr17_p3).
body(r_fr4_77,fr17_x1).
head(r_fr4_78,fr17_x1).
body(r_fr4_78,fr5_s1).
head(r_fr4_79,fr17_x1).
body(r_fr4_79,fr24_f1).
body(r_fr4_79,fr4_d2).
body(r_fr4_79,fr4_q2).
body(r_fr4_79,fr5_s1).
body(r_fr4_79,fr21_r2).
head(r_fr4_80,fr17_x1).
body(r_fr4_80,fr23_z1).
body(r_fr4_80,fr17_x1).
body(r_fr4_80,fr21_r2).
body(r_fr4_80,fr10_r3).
head(r_fr4_81,fr17_x1).
body(r_fr4_81,fr4_a3).
body(r_fr4_81,fr17_d2).
body(r_fr4_81,fr7_f4).
head(r_fr4_82,fr17_x1).
body(r_fr4_82,fr17_x1).
body(r_fr4_82,fr21_r2).
body(r_fr4_82,fr21_r2).
body(r_fr4_82,fr5_s1).
head(r_fr4_83,fr17_x1).
body(r_fr4_83,fr24_f1).
body(r_fr4_83,fr4_c2).
body(r_fr4_83,fr2_y3).
head(r_fr4_84,fr17_x1).
body(r_fr4_84,fr4_a3).
head(r_fr4_85,fr17_x1).
body(r_fr4_85,fr23_z1).
body(r_fr4_85,fr4_q2).
body(r_fr4_85,fr21_r2).
body(r_fr4_85,fr2_y3).
head(r_fr4_86,fr17_x1).
body(r_fr4_86,fr17_d2).
body(r_fr4_86,fr4_q2).
body(r_fr4_86,fr12_u1).
head(r_fr4_87,fr17_x1).
body(r_fr4_87,fr12_d1).
body(r_fr4_87,fr4_s2).
head(r_fr4_88,fr17_x1).
head(r_fr4_89,fr17_x1).
body(r_fr4_89,fr5_s1).
body(r_fr4_89,fr4_q2).
body(r_fr4_89,fr17_x1).
body(r_fr4_89,fr7_z4).
body(r_fr4_89,fr4_t2).
body(r_fr4_89,fr10_r3).
head(r_fr4_90,fr17_x1).
body(r_fr4_90,fr9_f2).
body(r_fr4_90,fr4_a3).
body(r_fr4_90,fr24_f1).
body(r_fr4_90,fr4_c2).
body(r_fr4_90,fr4_e1).
body(r_fr4_90,fr3_q2).
head(r_fr4_91,fr17_x1).
body(r_fr4_91,fr12_d1).
body(r_fr4_91,fr4_e1).
head(r_fr4_92,fr21_r2).
body(r_fr4_92,fr4_a3).
body(r_fr4_92,fr7_f4).
head(r_fr4_93,fr21_r2).
body(r_fr4_93,fr4_q2).
body(r_fr4_93,fr17_p3).
body(r_fr4_93,fr17_x1).
body(r_fr4_93,fr21_r2).
body(r_fr4_93,fr2_y3).
body(r_fr4_93,fr24_p3).
head(r_fr4_94,fr21_r2).
body(r_fr4_94,fr4_a1).
body(r_fr4_94,fr17_d2).
body(r_fr4_94,fr4_s2).
body(r_fr4_94,fr21_r2).
body(r_fr4_94,fr2_y3).
head(r_fr4_95,fr21_r2).
body(r_fr4_95,fr4_a3).
body(r_fr4_95,fr24_f1).
body(r_fr4_95,fr4_c2).
body(r_fr4_95,fr17_d2).
body(r_fr4_95,fr4_d2).
body(r_fr4_95,fr21_r2).
head(r_fr4_96,fr21_r2).
head(r_fr4_97,fr21_r2).
body(r_fr4_97,fr4_t2).
head(r_fr4_98,fr21_r2).
body(r_fr4_98,fr9_f2).
body(r_fr4_98,fr17_d2).
head(r_fr4_99,fr21_r2).
body(r_fr4_99,fr17_x1).
body(r_fr4_99,fr21_r2).
body(r_fr4_99,fr4_v1).
head(r_fr4_100,fr21_r2).
body(r_fr4_100,fr17_p3).
body(r_fr4_100,fr4_t2).
body(r_fr4_100,fr4_v1).
head(r_fr4_101,fr21_r2).
body(r_fr4_101,fr21_r2).
head(r_fr4_102,fr21_r2).
body(r_fr4_102,fr12_d1).
body(r_fr4_102,fr4_e1).
body(r_fr4_102,fr2_y3).
head(r_fr4_103,fr21_r2).
body(r_fr4_103,fr4_a3).
body(r_fr4_103,fr3_q2).
head(r_fr4_104,fr21_r2).
body(r_fr4_104,fr4_e1).
body(r_fr4_104,fr12_d1).
body(r_fr4_104,fr4_s2).
body(r_fr4_104,fr4_t2).
body(r_fr4_104,fr4_w1).
body(r_fr4_104,fr4_z1).
head(r_fr4_105,fr21_r2).
body(r_fr4_105,fr12_d1).
body(r_fr4_105,fr4_c2).
body(r_fr4_105,fr2_y3).
head(r_fr4_106,fr21_r2).
body(r_fr4_106,fr4_d2).
head(r_fr4_107,fr21_r2).
body(r_fr4_107,fr12_d1).
body(r_fr4_107,fr17_d2).
body(r_fr4_107,fr17_x1).
head(r_fr4_108,fr21_r2).
body(r_fr4_108,fr9_f2).
body(r_fr4_108,fr24_f1).
body(r_fr4_108,fr4_d2).
body(r_fr4_108,fr21_r2).
head(r_fr4_109,fr2_y3).
body(r_fr4_109,fr7_f4).
body(r_fr4_109,fr3_q2).
head(r_fr4_110,fr2_y3).
body(r_fr4_110,fr4_a1).
body(r_fr4_110,fr9_f2).
body(r_fr4_110,fr4_a3).
body(r_fr4_110,fr4_b1).
body(r_fr4_110,fr5_s1).
head(r_fr4_111,fr2_y3).
body(r_fr4_111,fr4_b1).
body(r_fr4_111,fr17_d2).
body(r_fr4_111,fr7_f4).
body(r_fr4_111,fr4_f2).
head(r_fr4_112,fr2_y3).
body(r_fr4_112,fr17_d2).
head(r_fr4_113,fr2_y3).
body(r_fr4_113,fr17_d2).
body(r_fr4_113,fr12_d1).
body(r_fr4_113,fr4_f2).
head(r_fr4_114,fr2_y3).
body(r_fr4_114,fr17_d2).
body(r_fr4_114,fr7_f4).
body(r_fr4_114,fr24_p3).
head(r_fr4_115,fr2_y3).
body(r_fr4_115,fr4_a3).
body(r_fr4_115,fr12_d1).
body(r_fr4_115,fr24_f1).
body(r_fr4_115,fr17_x1).
head(r_fr4_116,fr2_y3).
body(r_fr4_116,fr12_d1).
body(r_fr4_116,fr24_f1).
body(r_fr4_116,fr7_f4).
body(r_fr4_116,fr4_d2).
body(r_fr4_116,fr4_f2).
head(r_fr4_117,fr2_y3).
body(r_fr4_117,fr4_b1).
body(r_fr4_117,fr17_x1).
body(r_fr4_117,fr5_s1).
body(r_fr4_117,fr2_y3).
body(r_fr4_117,fr4_w1).
head(r_fr4_118,fr2_y3).
body(r_fr4_118,fr4_c2).
head(r_fr4_119,fr2_y3).
body(r_fr4_119,fr12_d1).
head(r_fr4_120,fr2_y3).
head(r_fr4_121,fr2_y3).
body(r_fr4_121,fr17_d2).
body(r_fr4_121,fr12_d1).
body(r_fr4_121,fr17_d2).
body(r_fr4_121,fr7_f4).
body(r_fr4_121,fr4_d2).
body(r_fr4_121,fr5_s1).
head(r_fr4_122,fr2_y3).
body(r_fr4_122,fr10_r3).
head(r_fr4_123,fr2_y3).
body(r_fr4_123,fr4_q2).
body(r_fr4_123,fr7_z4).
body(r_fr4_123,fr3_q2).
body(r_fr4_123,fr4_z1).
head(r_fr4_124,fr2_y3).
body(r_fr4_124,fr17_d2).
body(r_fr4_124,fr4_f2).
body(r_fr4_124,fr17_p3).
body(r_fr4_124,fr21_r2).
body(r_fr4_124,fr3_q2).
head(r_fr4_125,fr2_y3).
body(r_fr4_125,fr4_a1).
body(r_fr4_125,fr4_e1).
body(r_fr4_125,fr3_q2).
head(r_fr4_126,fr10_r3).
body(r_fr4_126,fr21_r2).
body(r_fr4_126,fr4_s2).
body(r_fr4_126,fr5_s1).
head(r_fr4_127,fr10_r3).
body(r_fr4_127,fr9_f2).
body(r_fr4_127,fr4_a3).
body(r_fr4_127,fr17_d2).
body(r_fr4_127,fr4_f2).
body(r_fr4_127,fr4_s2).
body(r_fr4_127,fr21_r2).
head(r_fr4_128,fr10_r3).
body(r_fr4_128,fr17_x1).
body(r_fr4_128,fr17_x1).
body(r_fr4_128,fr12_u1).
body(r_fr4_128,fr3_q2).
head(r_fr4_129,fr10_r3).
body(r_fr4_129,fr4_q2).
body(r_fr4_129,fr4_s2).
head(r_fr4_130,fr10_r3).
body(r_fr4_130,fr7_f4).
head(r_fr4_131,fr10_r3).
body(r_fr4_131,fr4_a3).
body(r_fr4_131,fr4_e1).
body(r_fr4_131,fr12_d1).
body(r_fr4_131,fr2_y3).
head(r_fr4_132,fr10_r3).
body(r_fr4_132,fr24_f1).
body(r_fr4_132,fr5_s1).
body(r_fr4_132,fr4_q2).
body(r_fr4_132,fr2_y3).
body(r_fr4_132,fr2_y3).
body(r_fr4_132,fr5_s1).
head(r_fr4_133,fr10_r3).
body(r_fr4_133,fr4_e1).
body(r_fr4_133,fr4_f2).
body(r_fr4_133,fr17_x1).
body(r_fr4_133,fr2_y3).
body(r_fr4_133,fr2_y3).
head(r_fr4_134,fr10_r3).
body(r_fr4_134,fr17_d2).
body(r_fr4_134,fr12_d1).
body(r_fr4_134,fr23_z1).
body(r_fr4_134,fr21_r2).
body(r_fr4_134,fr4_s2).
body(r_fr4_134,fr2_y3).
head(r_fr4_135,fr10_r3).
head(r_fr4_136,fr10_r3).
body(r_fr4_136,fr4_c2).
body(r_fr4_136,fr12_d1).
head(r_fr4_137,fr10_r3).
body(r_fr4_137,fr4_a3).
body(r_fr4_137,fr12_d1).
body(r_fr4_137,fr7_f4).
body(r_fr4_137,fr4_d2).
head(r_fr4_138,fr10_r3).
body(r_fr4_138,fr4_b1).
body(r_fr4_138,fr4_f2).
body(r_fr4_138,fr23_z1).
body(r_fr4_138,fr2_y3).
body(r_fr4_138,fr5_s1).
head(r_fr4_139,fr10_r3).
body(r_fr4_139,fr23_z1).
body(r_fr4_139,fr2_y3).
body(r_fr4_139,fr4_t2).
body(r_fr4_139,fr2_y3).
body(r_fr4_139,fr2_y3).
head(r_fr4_140,fr10_r3).
body(r_fr4_140,fr5_s1).
body(r_fr4_140,fr12_u1).
body(r_fr4_140,fr4_v1).
body(r_fr4_140,fr2_y3).
body(r_fr4_140,fr5_s1).
head(r_fr4_141,fr10_r3).
body(r_fr4_141,fr4_a1).
body(r_fr4_141,fr12_d1).
body(r_fr4_141,fr4_e1).
body(r_fr4_141,fr21_r2).
body(r_fr4_141,fr7_z4).
body(r_fr4_141,fr4_s2).
head(r_fr4_142,fr10_r3).
body(r_fr4_142,fr17_d2).
body(r_fr4_142,fr4_e1).
body(r_fr4_142,fr12_d1).
body(r_fr4_142,fr2_y3).
body(r_fr4_142,fr4_z1).
head(r_fr4_143,fr10_r3).
body(r_fr4_143,fr4_a3).
body(r_fr4_143,fr12_d1).
head(r_fr4_144,fr10_r3).
body(r_fr4_144,fr17_x1).
body(r_fr4_144,fr3_q2).
head(r_fr4_145,fr21_r2).
body(r_fr4_145,fr9_f2).
body(r_fr4_145,fr4_c2).
body(r_fr4_145,fr4_f2).
head(r_fr4_146,fr21_r2).
body(r_fr4_146,fr17_p3).
body(r_fr4_146,fr5_s1).
head(r_fr4_147,fr21_r2).
body(r_fr4_147,fr5_s1).
body(r_fr4_147,fr24_p3).
head(r_fr4_148,fr21_r2).
body(r_fr4_148,fr17_d2).
head(r_fr4_149,fr21_r2).
body(r_fr4_149,fr4_a3).
body(r_fr4_149,fr12_u1).
body(r_fr4_149,fr2_y3).
head(r_fr4_150,fr21_r2).
body(r_fr4_150,fr4_d2).
body(r_fr4_150,fr23_z1).
body(r_fr4_150,fr5_s1).
body(r_fr4_150,fr21_r2).
head(r_fr4_151,fr21_r2).
body(r_fr4_151,fr4_a3).
body(r_fr4_151,fr17_d2).
body(r_fr4_151,fr7_f4).
body(r_fr4_151,fr5_s1).
body(r_fr4_151,fr4_v1).
body(r_fr4_151,fr4_w1).
head(r_fr4_152,fr21_r2).
body(r_fr4_152,fr23_z1).
body(r_fr4_152,fr5_s1).
body(r_fr4_152,fr4_s2).
head(r_fr4_153,fr21_r2).
body(r_fr4_153,fr4_a1).
body(r_fr4_153,fr4_d2).
body(r_fr4_153,fr12_d1).
body(r_fr4_153,fr12_d1).
body(r_fr4_153,fr24_p3).
body(r_fr4_153,fr4_z1).
head(r_fr4_154,fr21_r2).
body(r_fr4_154,fr9_f2).
body(r_fr4_154,fr12_d1).
body(r_fr4_154,fr12_d1).
body(r_fr4_154,fr4_s2).
head(r_fr4_155,fr21_r2).
body(r_fr4_155,fr9_f2).
body(r_fr4_155,fr4_d2).
body(r_fr4_155,fr17_x1).
head(r_fr4_156,fr21_r2).
body(r_fr4_156,fr21_r2).
body(r_fr4_156,fr2_y3).
head(r_fr4_157,fr21_r2).
body(r_fr4_157,fr24_f1).
body(r_fr4_157,fr12_d1).
head(r_fr4_158,fr21_r2).
body(r_fr4_158,fr4_e1).
body(r_fr4_158,fr12_d1).
body(r_fr4_158,fr23_z1).
body(r_fr4_158,fr12_u1).
head(r_fr4_159,fr21_r2).
body(r_fr4_159,fr9_f2).
body(r_fr4_159,fr4_a3).
body(r_fr4_159,fr12_d1).
body(r_fr4_159,fr21_r2).
body(r_fr4_159,fr10_r3).
head(r_fr4_160,fr21_r2).
head(r_fr4_161,fr21_r2).
body(r_fr4_161,fr21_r2).
body(r_fr4_161,fr21_r2).
body(r_fr4_161,fr4_v1).
body(r_fr4_161,fr10_r3).
head(r_fr4_162,fr21_r2).
body(r_fr4_162,fr12_d1).
body(r_fr4_162,fr23_z1).
body(r_fr4_162,fr10_r3).
head(r_fr4_163,fr2_y3).
body(r_fr4_163,fr4_a1).
body(r_fr4_163,fr4_b1).
body(r_fr4_163,fr4_c2).
body(r_fr4_163,fr4_d2).
body(r_fr4_163,fr21_r2).
body(r_fr4_163,fr4_z1).
head(r_fr4_164,fr2_y3).
body(r_fr4_164,fr17_d2).
body(r_fr4_164,fr21_r2).
body(r_fr4_164,fr3_q2).
head(r_fr4_165,fr2_y3).
body(r_fr4_165,fr4_s2).
body(r_fr4_165,fr21_r2).
body(r_fr4_165,fr4_v1).
body(r_fr4_165,fr2_y3).
head(r_fr4_166,fr2_y3).
body(r_fr4_166,fr12_d1).
head(r_fr4_167,fr2_y3).
body(r_fr4_167,fr5_s1).
body(r_fr4_167,fr5_s1).
body(r_fr4_167,fr12_u1).
body(r_fr4_167,fr2_y3).
head(r_fr4_168,fr2_y3).
body(r_fr4_168,fr9_f2).
head(r_fr4_169,fr2_y3).
body(r_fr4_169,fr4_a3).
body(r_fr4_169,fr17_d2).
body(r_fr4_169,fr17_x1).
body(r_fr4_169,fr4_t2).
body(r_fr4_169,fr10_r3).
head(r_fr4_170,fr2_y3).
body(r_fr4_170,fr4_c2).
body(r_fr4_170,fr4_e1).
body(r_fr4_170,fr12_d1).
body(r_fr4_170,fr2_y3).
head(r_fr4_171,fr2_y3).
body(r_fr4_171,fr17_d2).
head(r_fr4_172,fr2_y3).
body(r_fr4_172,fr12_d1).
head(r_fr4_173,fr2_y3).
body(r_fr4_173,fr4_a3).
body(r_fr4_173,fr24_p3).
head(r_fr4_174,fr2_y3).
body(r_fr4_174,fr4_a1).
body(r_fr4_174,fr17_p3).
body(r_fr4_174,fr17_x1).
body(r_fr4_174,fr4_s2).
head(r_fr4_175,fr2_y3).
body(r_fr4_175,fr12_d1).
body(r_fr4_175,fr17_x1).
head(r_fr4_176,fr2_y3).
body(r_fr4_176,fr17_p3).
body(r_fr4_176,fr7_z4).
body(r_fr4_176,fr4_v1).
head(r_fr4_177,fr2_y3).
head(r_fr4_178,fr2_y3).
body(r_fr4_178,fr4_a3).
body(r_fr4_178,fr17_d2).
body(r_fr4_178,fr7_f4).
body(r_fr4_178,fr10_r3).
head(r_fr4_179,fr2_y3).
body(r_fr4_179,fr17_d2).
body(r_fr4_179,fr4_f2).
head(r_fr4_180,fr24_p3).
body(r_fr4_180,fr4_a1).
body(r_fr4_180,fr4_a3).
body(r_fr4_180,fr4_v1).
body(r_fr4_180,fr10_r3).
head(r_fr4_181,fr24_p3).
body(r_fr4_181,fr5_s1).
head(r_fr4_182,fr24_p3).
head(r_fr4_183,fr24_p3).
body(r_fr4_183,fr17_d2).
body(r_fr4_183,fr23_z1).
body(r_fr4_183,fr2_y3).
head(r_fr4_184,fr24_p3).
body(r_fr4_184,fr4_b1).
head(r_fr4_185,fr24_p3).
body(r_fr4_185,fr4_c2).
body(r_fr4_185,fr7_f4).
body(r_fr4_185,fr4_d2).
body(r_fr4_185,fr12_d1).
body(r_fr4_185,fr4_f2).
head(r_fr4_186,fr24_p3).
body(r_fr4_186,fr12_d1).
body(r_fr4_186,fr21_r2).
body(r_fr4_186,fr4_q2).
body(r_fr4_186,fr5_s1).
body(r_fr4_186,fr4_t2).
body(r_fr4_186,fr4_w1).
head(r_fr4_187,fr24_p3).
body(r_fr4_187,fr12_d1).
body(r_fr4_187,fr23_z1).
body(r_fr4_187,fr5_s1).
body(r_fr4_187,fr17_x1).
head(r_fr4_188,fr24_p3).
body(r_fr4_188,fr21_r2).
body(r_fr4_188,fr2_y3).
body(r_fr4_188,fr12_u1).
head(r_fr4_189,fr24_p3).
body(r_fr4_189,fr4_c2).
body(r_fr4_189,fr17_d2).
head(r_fr4_190,fr24_p3).
body(r_fr4_190,fr4_b1).
body(r_fr4_190,fr24_f1).
body(r_fr4_190,fr17_d2).
body(r_fr4_190,fr4_e1).
body(r_fr4_190,fr12_d1).
head(r_fr4_191,fr24_p3).
body(r_fr4_191,fr24_f1).
body(r_fr4_191,fr21_r2).
body(r_fr4_191,fr21_r2).
body(r_fr4_191,fr5_s1).
head(r_fr4_192,fr24_p3).
body(r_fr4_192,fr4_z1).
head(r_fr4_193,fr24_p3).
body(r_fr4_193,fr4_e1).
body(r_fr4_193,fr17_p3).
body(r_fr4_193,fr17_x1).
body(r_fr4_193,fr3_q2).
body(r_fr4_193,fr10_r3).
head(r_fr4_194,fr24_p3).
body(r_fr4_194,fr2_y3).
head(r_fr4_195,fr24_p3).
body(r_fr4_195,fr17_d2).
body(r_fr4_195,fr5_s1).
body(r_fr4_195,fr17_p3).
body(r_fr4_195,fr4_s2).
body(r_fr4_195,fr2_y3).
head(r_fr4_196,fr24_p3).
body(r_fr4_196,fr4_a1).
body(r_fr4_196,fr12_d1).
head(r_fr4_197,fr23_z1).
body(r_fr4_197,fr4_b1).
body(r_fr4_197,fr4_c2).
body(r_fr4_197,fr7_f4).
body(r_fr4_197,fr4_d2).
body(r_fr4_197,fr21_r2).
body(r_fr4_197,fr5_s1).
head(r_fr4_198,fr23_z1).
body(r_fr4_198,fr17_d2).
body(r_fr4_198,fr4_e1).
body(r_fr4_198,fr5_s1).
body(r_fr4_198,fr21_r2).
body(r_fr4_198,fr12_u1).
head(r_fr4_199,fr23_z1).
body(r_fr4_199,fr4_b1).
body(r_fr4_199,fr17_x1).
body(r_fr4_199,fr5_s1).
head(r_fr4_200,fr23_z1).
body(r_fr4_200,fr4_d2).
body(r_fr4_200,fr21_r2).
body(r_fr4_200,fr4_s2).
body(r_fr4_200,fr21_r2).
body(r_fr4_200,fr2_y3).
body(r_fr4_200,fr5_s1).
head(r_fr4_201,fr23_z1).
body(r_fr4_201,fr4_d2).
body(r_fr4_201,fr4_e1).
body(r_fr4_201,fr12_d1).
body(r_fr4_201,fr24_p3).
body(r_fr4_201,fr2_y3).
body(r_fr4_201,fr5_s1).
head(r_fr4_202,fr23_z1).
body(r_fr4_202,fr4_a3).
body(r_fr4_202,fr4_c2).
body(r_fr4_202,fr12_d1).
body(r_fr4_202,fr2_y3).
body(r_fr4_202,fr10_r3).
body(r_fr4_202,fr2_y3).
head(r_fr4_203,fr23_z1).
body(r_fr4_203,fr4_b1).
body(r_fr4_203,fr12_d1).
body(r_fr4_203,fr24_f1).
body(r_fr4_203,fr12_d1).
head(r_fr4_204,fr23_z1).
body(r_fr4_204,fr4_c2).
body(r_fr4_204,fr7_f4).
body(r_fr4_204,fr4_f2).
body(r_fr4_204,fr5_s1).
body(r_fr4_204,fr3_q2).
head(r_fr4_205,fr23_z1).
body(r_fr4_205,fr24_f1).
body(r_fr4_205,fr4_c2).
body(r_fr4_205,fr4_q2).
body(r_fr4_205,fr5_s1).
body(r_fr4_205,fr2_y3).
head(r_fr4_206,fr23_z1).
body(r_fr4_206,fr24_f1).
body(r_fr4_206,fr12_d1).
body(r_fr4_206,fr7_z4).
body(r_fr4_206,fr21_r2).
head(r_fr4_207,fr23_z1).
body(r_fr4_207,fr21_r2).
body(r_fr4_207,fr12_u1).
head(r_fr4_208,fr23_z1).
body(r_fr4_208,fr12_d1).
body(r_fr4_208,fr17_x1).
body(r_fr4_208,fr21_r2).
body(r_fr4_208,fr24_p3).
body(r_fr4_208,fr2_y3).
body(r_fr4_208,fr5_s1).
head(r_fr4_209,fr23_z1).
body(r_fr4_209,fr7_f4).
head(r_fr4_210,fr23_z1).
body(r_fr4_210,fr9_f2).
body(r_fr4_210,fr4_d2).
body(r_fr4_210,fr4_e1).
body(r_fr4_210,fr12_d1).
body(r_fr4_210,fr4_t2).
body(r_fr4_210,fr2_y3).
head(r_fr4_211,fr23_z1).
body(r_fr4_211,fr4_e1).
body(r_fr4_211,fr12_d1).
head(r_fr4_212,fr23_z1).
body(r_fr4_212,fr12_d1).
body(r_fr4_212,fr4_f2).
body(r_fr4_212,fr21_r2).
body(r_fr4_212,fr4_q2).
body(r_fr4_212,fr5_s1).
head(r_fr4_213,fr23_z1).
body(r_fr4_213,fr5_s1).
body(r_fr4_213,fr7_z4).
body(r_fr4_213,fr2_y3).
body(r_fr4_213,fr21_r2).
head(r_fr4_214,fr23_z1).
body(r_fr4_214,fr12_d1).
head(r_fr4_215,fr4_q2).
body(r_fr4_215,fr24_p3).
head(r_fr4_216,fr4_q2).
body(r_fr4_216,fr21_r2).
head(r_fr4_217,fr4_q2).
body(r_fr4_217,fr4_a1).
body(r_fr4_217,fr9_f2).
body(r_fr4_217,fr17_d2).
body(r_fr4_217,fr4_d2).
body(r_fr4_217,fr4_e1).
body(r_fr4_217,fr12_d1).
head(r_fr4_218,fr4_q2).
body(r_fr4_218,fr17_d2).
body(r_fr4_218,fr4_f2).
body(r_fr4_218,fr4_z1).
head(r_fr4_219,fr4_q2).
body(r_fr4_219,fr2_y3).
body(r_fr4_219,fr12_u1).
body(r_fr4_219,fr2_y3).
body(r_fr4_219,fr2_y3).
head(r_fr4_220,fr4_q2).
body(r_fr4_220,fr4_a1).
body(r_fr4_220,fr17_d2).
body(r_fr4_220,fr24_f1).
body(r_fr4_220,fr12_d1).
body(r_fr4_220,fr12_d1).
body(r_fr4_220,fr4_f2).
head(r_fr4_221,fr4_q2).
body(r_fr4_221,fr4_b1).
body(r_fr4_221,fr17_d2).
body(r_fr4_221,fr4_c2).
body(r_fr4_221,fr12_d1).
body(r_fr4_221,fr23_z1).
head(r_fr4_222,fr4_q2).
body(r_fr4_222,fr17_d2).
body(r_fr4_222,fr7_f4).
body(r_fr4_222,fr21_r2).
head(r_fr4_223,fr4_q2).
body(r_fr4_223,fr4_a1).
body(r_fr4_223,fr4_a3).
body(r_fr4_223,fr7_f4).
body(r_fr4_223,fr17_p3).
head(r_fr4_224,fr4_q2).
body(r_fr4_224,fr4_v1).
head(r_fr4_225,fr4_q2).
body(r_fr4_225,fr4_c2).
body(r_fr4_225,fr17_x1).
body(r_fr4_225,fr5_s1).
body(r_fr4_225,fr5_s1).
body(r_fr4_225,fr7_z4).
body(r_fr4_225,fr2_y3).
head(r_fr4_226,fr4_q2).
body(r_fr4_226,fr4_b1).
body(r_fr4_226,fr17_d2).
head(r_fr4_227,fr4_q2).
body(r_fr4_227,fr2_y3).
head(r_fr4_228,fr4_q2).
body(r_fr4_228,fr4_a1).
body(r_fr4_228,fr12_d1).
body(r_fr4_228,fr4_c2).
body(r_fr4_228,fr17_d2).
body(r_fr4_228,fr4_f2).
body(r_fr4_228,fr17_x1).
head(r_fr4_229,fr4_q2).
body(r_fr4_229,fr17_d2).
body(r_fr4_229,fr12_d1).
body(r_fr4_229,fr17_d2).
head(r_fr4_230,fr4_q2).
body(r_fr4_230,fr17_d2).
body(r_fr4_230,fr4_d2).
body(r_fr4_230,fr12_d1).
body(r_fr4_230,fr17_x1).
body(r_fr4_230,fr2_y3).
head(r_fr4_231,fr4_q2).
body(r_fr4_231,fr4_d2).
head(r_fr4_232,fr4_q2).
body(r_fr4_232,fr12_d1).
body(r_fr4_232,fr17_p3).
head(r_fr4_233,fr4_q2).
head(r_fr4_234,fr4_q2).
body(r_fr4_234,fr17_d2).
head(r_fr4_235,fr4_z1).
body(r_fr4_235,fr7_z4).
body(r_fr4_235,fr2_y3).
body(r_fr4_235,fr24_p3).
body(r_fr4_235,fr10_r3).
body(r_fr4_235,fr5_s1).
head(r_fr4_236,fr4_z1).
body(r_fr4_236,fr4_d2).
body(r_fr4_236,fr7_z4).
body(r_fr4_236,fr4_s2).
head(r_fr4_237,fr4_z1).
body(r_fr4_237,fr9_f2).
body(r_fr4_237,fr12_d1).
body(r_fr4_237,fr24_f1).
body(r_fr4_237,fr4_q2).
body(r_fr4_237,fr4_t2).
body(r_fr4_237,fr3_q2).
head(r_fr4_238,fr4_z1).
body(r_fr4_238,fr4_c2).
body(r_fr4_238,fr4_q2).
head(r_fr4_239,fr4_z1).
body(r_fr4_239,fr2_y3).
head(r_fr4_240,fr4_z1).
body(r_fr4_240,fr4_a1).
body(r_fr4_240,fr17_d2).
body(r_fr4_240,fr24_f1).
body(r_fr4_240,fr17_d2).
body(r_fr4_240,fr4_f2).
head(r_fr4_241,fr4_z1).
body(r_fr4_241,fr12_d1).
body(r_fr4_241,fr12_d1).
body(r_fr4_241,fr17_x1).
body(r_fr4_241,fr7_z4).
head(r_fr4_242,fr4_z1).
body(r_fr4_242,fr9_f2).
body(r_fr4_242,fr17_x1).
body(r_fr4_242,fr21_r2).
body(r_fr4_242,fr4_t2).
body(r_fr4_242,fr4_v1).
body(r_fr4_242,fr2_y3).
head(r_fr4_243,fr4_z1).
body(r_fr4_243,fr12_d1).
body(r_fr4_243,fr7_z4).
body(r_fr4_243,fr12_u1).
body(r_fr4_243,fr2_y3).
body(r_fr4_243,fr4_w1).
body(r_fr4_243,fr2_y3).
head(r_fr4_244,fr4_z1).
body(r_fr4_244,fr4_a1).
head(r_fr4_245,fr4_z1).
body(r_fr4_245,fr4_a1).
body(r_fr4_245,fr9_f2).
body(r_fr4_245,fr4_a3).
body(r_fr4_245,fr12_d1).
body(r_fr4_245,fr4_c2).
body(r_fr4_245,fr4_q2).
head(r_fr4_246,fr4_z1).
body(r_fr4_246,fr23_z1).
body(r_fr4_246,fr4_q2).
body(r_fr4_246,fr4_t2).
body(r_fr4_246,fr2_y3).
body(r_fr4_246,fr3_q2).
body(r_fr4_246,fr2_y3).
head(r_fr4_247,fr4_z1).
body(r_fr4_247,fr17_d2).
body(r_fr4_247,fr4_e1).
head(r_fr4_248,fr4_z1).
body(r_fr4_248,fr9_f2).
body(r_fr4_248,fr4_a3).
body(r_fr4_248,fr7_f4).
body(r_fr4_248,fr12_d1).
body(r_fr4_248,fr17_p3).
head(r_fr4_249,fr4_z1).
body(r_fr4_249,fr12_d1).
body(r_fr4_249,fr17_d2).
body(r_fr4_249,fr7_f4).
body(r_fr4_249,fr4_d2).
body(r_fr4_249,fr4_e1).
body(r_fr4_249,fr12_d1).
head(r_fr4_250,fr4_z1).
head(r_fr4_251,fr4_z1).
body(r_fr4_251,fr9_f2).
body(r_fr4_251,fr12_d1).
head(r_fr4_252,fr4_z1).
body(r_fr4_252,fr2_y3).
body(r_fr4_252,fr3_q2).
body(r_fr4_252,fr5_s1).
head(r_fr4_253,fr4_z1).
body(r_fr4_253,fr4_a3).
body(r_fr4_253,fr12_d1).
body(r_fr4_253,fr7_f4).
body(r_fr4_253,fr21_r2).
head(r_fr4_254,fr4_z1).
body(r_fr4_254,fr7_f4).
body(r_fr4_254,fr2_y3).
head(r_fr4_255,fr4_t2).
body(r_fr4_255,fr12_u1).
head(r_fr4_256,fr4_t2).
body(r_fr4_256,fr5_s1).
body(r_fr4_256,fr17_x1).
body(r_fr4_256,fr12_u1).
body(r_fr4_256,fr4_w1).
head(r_fr4_257,fr4_t2).
body(r_fr4_257,fr4_a3).
body(r_fr4_257,fr17_x1).
body(r_fr4_257,fr5_s1).
body(r_fr4_257,fr17_x1).
body(r_fr4_257,fr4_v1).
body(r_fr4_257,fr3_q2).
head(r_fr4_258,fr4_t2).
body(r_fr4_258,fr4_b1).
body(r_fr4_258,fr24_p3).
body(r_fr4_258,fr4_z1).
head(r_fr4_259,fr4_t2).
head(r_fr4_260,fr4_t2).
body(r_fr4_260,fr4_b1).
body(r_fr4_260,fr12_d1).
body(r_fr4_260,fr7_f4).
body(r_fr4_260,fr4_d2).
body(r_fr4_260,fr4_q2).
body(r_fr4_260,fr3_q2).
head(r_fr4_261,fr4_t2).
body(r_fr4_261,fr9_f2).
body(r_fr4_261,fr4_b1).
body(r_fr4_261,fr24_f1).
body(r_fr4_261,fr24_p3).
head(r_fr4_262,fr4_t2).
body(r_fr4_262,fr9_f2).
body(r_fr4_262,fr4_a3).
body(r_fr4_262,fr4_c2).
body(r_fr4_262,fr12_d1).
body(r_fr4_262,fr4_z1).
head(r_fr4_263,fr4_t2).
body(r_fr4_263,fr4_a1).
body(r_fr4_263,fr4_c2).
body(r_fr4_263,fr5_s1).
head(r_fr4_264,fr4_t2).
body(r_fr4_264,fr4_b1).
body(r_fr4_264,fr12_d1).
body(r_fr4_264,fr7_f4).
body(r_fr4_264,fr12_d1).
head(r_fr4_265,fr4_t2).
body(r_fr4_265,fr9_f2).
body(r_fr4_265,fr4_f2).
body(r_fr4_265,fr23_z1).
body(r_fr4_265,fr2_y3).
body(r_fr4_265,fr3_q2).
body(r_fr4_265,fr10_r3).
head(r_fr4_266,fr4_t2).
body(r_fr4_266,fr24_f1).
body(r_fr4_266,fr17_d2).
body(r_fr4_266,fr7_f4).
body(r_fr4_266,fr4_e1).
body(r_fr4_266,fr12_d1).
body(r_fr4_266,fr2_y3).
head(r_fr4_267,fr4_t2).
body(r_fr4_267,fr4_a1).
body(r_fr4_267,fr17_d2).
head(r_fr4_268,fr4_t2).
body(r_fr4_268,fr17_d2).
body(r_fr4_268,fr7_f4).
body(r_fr4_268,fr12_d1).
head(r_fr4_269,fr4_t2).
body(r_fr4_269,fr4_e1).
body(r_fr4_269,fr12_d1).
head(r_fr4_270,fr4_t2).
body(r_fr4_270,fr4_b1).
body(r_fr4_270,fr4_c2).
body(r_fr4_270,fr12_d1).
head(r_fr4_271,fr4_t2).
body(r_fr4_271,fr7_f4).
head(r_fr4_272,fr3_q2).
body(r_fr4_272,fr7_f4).
body(r_fr4_272,fr4_e1).
body(r_fr4_272,fr12_d1).
body(r_fr4_272,fr4_z1).
head(r_fr4_273,fr3_q2).
body(r_fr4_273,fr4_a1).
body(r_fr4_273,fr24_f1).
body(r_fr4_273,fr7_f4).
body(r_fr4_273,fr4_d2).
body(r_fr4_273,fr12_d1).
body(r_fr4_273,fr4_f2).
head(r_fr4_274,fr3_q2).
body(r_fr4_274,fr12_d1).
head(r_fr4_275,fr3_q2).
body(r_fr4_275,fr4_a3).
body(r_fr4_275,fr17_d2).
body(r_fr4_275,fr24_f1).
body(r_fr4_275,fr7_f4).
body(r_fr4_275,fr4_q2).
head(r_fr4_276,fr3_q2).
body(r_fr4_276,fr4_b1).
body(r_fr4_276,fr17_d2).
body(r_fr4_276,fr24_f1).
body(r_fr4_276,fr7_f4).
body(r_fr4_276,fr4_d2).
body(r_fr4_276,fr10_r3).
head(r_fr4_277,fr3_q2).
body(r_fr4_277,fr4_d2).
head(r_fr4_278,fr3_q2).
body(r_fr4_278,fr4_a3).
body(r_fr4_278,fr4_e1).
body(r_fr4_278,fr12_d1).
body(r_fr4_278,fr21_r2).
head(r_fr4_279,fr3_q2).
body(r_fr4_279,fr12_d1).
body(r_fr4_279,fr17_d2).
body(r_fr4_279,fr7_f4).
head(r_fr4_280,fr3_q2).
head(r_fr4_281,fr3_q2).
body(r_fr4_281,fr4_b1).
body(r_fr4_281,fr12_d1).
head(r_fr4_282,fr3_q2).
body(r_fr4_282,fr4_b1).
body(r_fr4_282,fr12_d1).
body(r_fr4_282,fr17_d2).
body(r_fr4_282,fr7_f4).
head(r_fr4_283,fr3_q2).
body(r_fr4_283,fr12_d1).
body(r_fr4_283,fr24_f1).
body(r_fr4_283,fr7_f4).
head(r_fr4_284,fr3_q2).
body(r_fr4_284,fr24_f1).
body(r_fr4_284,fr21_r2).
body(r_fr4_284,fr2_y3).
body(r_fr4_284,fr4_v1).
body(r_fr4_284,fr24_p3).
head(r_fr4_285,fr3_q2).
body(r_fr4_285,fr21_r2).
head(r_fr4_286,fr3_q2).
body(r_fr4_286,fr12_d1).
head(r_fr4_287,fr3_q2).
body(r_fr4_287,fr21_r2).
body(r_fr4_287,fr2_y3).
head(r_fr4_288,fr3_q2).
body(r_fr4_288,fr4_d2).
body(r_fr4_288,fr4_f2).
body(r_fr4_288,fr12_u1).
head(r_fr4_289,fr3_q2).
body(r_fr4_289,fr4_w1).
head(r_fr4_290,fr3_q2).
body(r_fr4_290,fr9_f2).
body(r_fr4_290,fr4_e1).
body(r_fr4_290,fr5_s1).
body(r_fr4_290,fr17_p3).
body(r_fr4_290,fr4_w1).
body(r_fr4_290,fr10_r3).
head(r_fr4_291,fr3_q2).
body(r_fr4_291,fr12_d1).
head(r_fr4_292,fr2_y3).
body(r_fr4_292,fr4_a3).
body(r_fr4_292,fr4_b1).
body(r_fr4_292,fr24_f1).
body(r_fr4_292,fr4_d2).
body(r_fr4_292,fr12_d1).
body(r_fr4_292,fr4_q2).
head(r_fr4_293,fr2_y3).
body(r_fr4_293,fr4_a1).
body(r_fr4_293,fr7_f4).
body(r_fr4_293,fr5_s1).
body(r_fr4_293,fr4_t2).
body(r_fr4_293,fr21_r2).
body(r_fr4_293,fr2_y3).
head(r_fr4_294,fr2_y3).
body(r_fr4_294,fr9_f2).
body(r_fr4_294,fr4_a3).
body(r_fr4_294,fr4_b1).
body(r_fr4_294,fr4_c2).
body(r_fr4_294,fr4_d2).
head(r_fr4_295,fr2_y3).
body(r_fr4_295,fr4_a1).
body(r_fr4_295,fr17_d2).
body(r_fr4_295,fr12_d1).
body(r_fr4_295,fr21_r2).
body(r_fr4_295,fr4_t2).
body(r_fr4_295,fr12_u1).
head(r_fr4_296,fr2_y3).
body(r_fr4_296,fr4_q2).
body(r_fr4_296,fr4_t2).
head(r_fr4_297,fr2_y3).
body(r_fr4_297,fr4_a3).
body(r_fr4_297,fr24_f1).
head(r_fr4_298,fr2_y3).
body(r_fr4_298,fr4_a3).
body(r_fr4_298,fr24_f1).
body(r_fr4_298,fr5_s1).
body(r_fr4_298,fr21_r2).
head(r_fr4_299,fr2_y3).
body(r_fr4_299,fr5_s1).
head(r_fr4_300,fr2_y3).
body(r_fr4_300,fr4_c2).
head(r_fr4_301,fr2_y3).
body(r_fr4_301,fr12_d1).
head(r_fr4_302,fr2_y3).
body(r_fr4_302,fr4_b1).
body(r_fr4_302,fr17_d2).
body(r_fr4_302,fr4_e1).
body(r_fr4_302,fr12_d1).
body(r_fr4_302,fr4_f2).
head(r_fr4_303,fr2_y3).
body(r_fr4_303,fr24_f1).
head(r_fr4_304,fr2_y3).
head(r_fr4_305,fr2_y3).
body(r_fr4_305,fr5_s1).
head(r_fr4_306,fr2_y3).
body(r_fr4_306,fr9_f2).
body(r_fr4_306,fr4_q2).
body(r_fr4_306,fr17_p3).
body(r_fr4_306,fr4_v1).
body(r_fr4_306,fr2_y3).
head(r_fr4_307,fr2_y3).
body(r_fr4_307,fr4_e1).
body(r_fr4_307,fr2_y3).
head(r_fr4_308,fr2_y3).
body(r_fr4_308,fr4_a3).
body(r_fr4_308,fr5_s1).
body(r_fr4_308,fr2_y3).
head(r_fr4_309,fr2_y3).
body(r_fr4_309,fr4_b1).
body(r_fr4_309,fr12_d1).
body(r_fr4_309,fr12_d1).
body(r_fr4_309,fr12_d1).
head(r_fr4_310,fr2_y3).
body(r_fr4_310,fr9_f2).
head(r_fr4_311,fr5_s1).
body(r_fr4_311,fr4_a3).
body(r_fr4_311,fr12_d1).
body(r_fr4_311,fr24_f1).
body(r_fr4_311,fr21_r2).
body(r_fr4_311,fr4_s2).
body(r_fr4_311,fr2_y3).
head(r_fr4_312,fr5_s1).
body(r_fr4_312,fr12_d1).
body(r_fr4_312,fr7_f4).
head(r_fr4_313,fr5_s1).
body(r_fr4_313,fr4_a1).
body(r_fr4_313,fr9_f2).
body(r_fr4_313,fr2_y3).
head(r_fr4_314,fr5_s1).
body(r_fr4_314,fr4_a1).
body(r_fr4_314,fr4_b1).
body(r_fr4_314,fr4_c2).
body(r_fr4_314,fr24_p3).
body(r_fr4_314,fr4_z1).
head(r_fr4_315,fr5_s1).
body(r_fr4_315,fr4_a1).
body(r_fr4_315,fr5_s1).
head(r_fr4_316,fr5_s1).
body(r_fr4_316,fr17_x1).
body(r_fr4_316,fr5_s1).
body(r_fr4_316,fr3_q2).
body(r_fr4_316,fr24_p3).
body(r_fr4_316,fr2_y3).
head(r_fr4_317,fr5_s1).
body(r_fr4_317,fr12_d1).
body(r_fr4_317,fr4_e1).
head(r_fr4_318,fr5_s1).
body(r_fr4_318,fr9_f2).
body(r_fr4_318,fr17_d2).
body(r_fr4_318,fr2_y3).
head(r_fr4_319,fr5_s1).
body(r_fr4_319,fr4_d2).
body(r_fr4_319,fr2_y3).
body(r_fr4_319,fr24_p3).
body(r_fr4_319,fr10_r3).
body(r_fr4_319,fr4_z1).
head(r_fr4_320,fr5_s1).
body(r_fr4_320,fr17_d2).
body(r_fr4_320,fr12_d1).
body(r_fr4_320,fr21_r2).
body(r_fr4_320,fr2_y3).
body(r_fr4_320,fr3_q2).
head(r_fr4_321,fr5_s1).
body(r_fr4_321,fr9_f2).
body(r_fr4_321,fr4_a3).
body(r_fr4_321,fr4_b1).
body(r_fr4_321,fr24_f1).
body(r_fr4_321,fr17_d2).
body(r_fr4_321,fr7_f4).
head(r_fr4_322,fr5_s1).
body(r_fr4_322,fr7_z4).
head(r_fr4_323,fr5_s1).
body(r_fr4_323,fr21_r2).
body(r_fr4_323,fr4_q2).
body(r_fr4_323,fr2_y3).
head(r_fr4_324,fr5_s1).
body(r_fr4_324,fr5_s1).
body(r_fr4_324,fr21_r2).
head(r_fr4_325,fr5_s1).
body(r_fr4_325,fr4_b1).
body(r_fr4_325,fr12_d1).
body(r_fr4_325,fr4_q2).
body(r_fr4_325,fr24_p3).
body(r_fr4_325,fr10_r3).
head(r_fr4_326,fr5_s1).
body(r_fr4_326,fr4_a1).
body(r_fr4_326,fr10_r3).
head(r_fr4_327,fr5_s1).
body(r_fr4_327,fr4_c2).
body(r_fr4_327,fr4_d2).
body(r_fr4_327,fr5_s1).
body(r_fr4_327,fr21_r2).
body(r_fr4_327,fr10_r3).
head(r_fr4_328,fr21_r2).
body(r_fr4_328,fr4_a1).
body(r_fr4_328,fr17_d2).
body(r_fr4_328,fr12_d1).
body(r_fr4_328,fr4_f2).
body(r_fr4_328,fr7_z4).
head(r_fr4_329,fr21_r2).
body(r_fr4_329,fr17_x1).
body(r_fr4_329,fr21_r2).
body(r_fr4_329,fr4_s2).
body(r_fr4_329,fr10_r3).
body(r_fr4_329,fr2_y3).
head(r_fr4_330,fr21_r2).
body(r_fr4_330,fr23_z1).
body(r_fr4_330,fr4_t2).
body(r_fr4_330,fr10_r3).
head(r_fr4_331,fr21_r2).
body(r_fr4_331,fr4_a1).
body(r_fr4_331,fr17_d2).
body(r_fr4_331,fr4_d2).
body(r_fr4_331,fr12_d1).
head(r_fr4_332,fr21_r2).
body(r_fr4_332,fr12_d1).
body(r_fr4_332,fr5_s1).
body(r_fr4_332,fr4_q2).
body(r_fr4_332,fr4_t2).
body(r_fr4_332,fr4_v1).
head(r_fr4_333,fr21_r2).
body(r_fr4_333,fr4_a3).
body(r_fr4_333,fr17_x1).
body(r_fr4_333,fr3_q2).
head(r_fr4_334,fr21_r2).
body(r_fr4_334,fr5_s1).
head(r_fr4_335,fr21_r2).
body(r_fr4_335,fr12_d1).
body(r_fr4_335,fr17_p3).
body(r_fr4_335,fr4_z1).
head(r_fr4_336,fr21_r2).
body(r_fr4_336,fr4_c2).
body(r_fr4_336,fr4_e1).
body(r_fr4_336,fr17_x1).
body(r_fr4_336,fr12_u1).
head(r_fr4_337,fr21_r2).
body(r_fr4_337,fr4_a3).
body(r_fr4_337,fr4_c2).
body(r_fr4_337,fr7_z4).
head(r_fr4_338,fr21_r2).
body(r_fr4_338,fr4_q2).
body(r_fr4_338,fr17_x1).
body(r_fr4_338,fr10_r3).
head(r_fr4_339,fr21_r2).
body(r_fr4_339,fr4_d2).
body(r_fr4_339,fr21_r2).
body(r_fr4_339,fr5_s1).
body(r_fr4_339,fr7_z4).
body(r_fr4_339,fr3_q2).
body(r_fr4_339,fr4_z1).
head(r_fr4_340,fr21_r2).
body(r_fr4_340,fr12_d1).
body(r_fr4_340,fr4_c2).
body(r_fr4_340,fr4_s2).
body(r_fr4_340,fr5_s1).
head(r_fr4_341,fr21_r2).
body(r_fr4_341,fr4_a1).
body(r_fr4_341,fr12_u1).
head(r_fr4_342,fr21_r2).
body(r_fr4_342,fr4_a1).
body(r_fr4_342,fr17_d2).
body(r_fr4_342,fr12_d1).
body(r_fr4_342,fr4_c2).
body(r_fr4_342,fr12_d1).
body(r_fr4_342,fr21_r2).
head(r_fr4_343,fr21_r2).
body(r_fr4_343,fr4_b1).
body(r_fr4_343,fr4_f2).
body(r_fr4_343,fr4_q2).
body(r_fr4_343,fr5_s1).
head(r_fr4_344,fr21_r2).
body(r_fr4_344,fr9_f2).
body(r_fr4_344,fr12_d1).
head(r_fr4_345,fr21_r2).
head(r_fr4_346,fr21_r2).
body(r_fr4_346,fr4_a3).
body(r_fr4_346,fr4_b1).
body(r_fr4_346,fr4_c2).
body(r_fr4_346,fr4_d2).
body(r_fr4_346,fr12_d1).
body(r_fr4_346,fr12_d1).
head(r_fr4_347,fr12_u1).
body(r_fr4_347,fr7_f4).
body(r_fr4_347,fr12_d1).
body(r_fr4_347,fr4_f2).
body(r_fr4_347,fr10_r3).
head(r_fr4_348,fr12_u1).
body(r_fr4_348,fr9_f2).
body(r_fr4_348,fr21_r2).
head(r_fr4_349,fr12_u1).
body(r_fr4_349,fr7_f4).
head(r_fr4_350,fr12_u1).
body(r_fr4_350,fr9_f2).
body(r_fr4_350,fr4_a3).
body(r_fr4_350,fr17_d2).
body(r_fr4_350,fr17_d2).
head(r_fr4_351,fr12_u1).
body(r_fr4_351,fr24_p3).
head(r_fr4_352,fr12_u1).
body(r_fr4_352,fr17_x1).
body(r_fr4_352,fr4_s2).
head(r_fr4_353,fr12_u1).
body(r_fr4_353,fr4_a1).
body(r_fr4_353,fr9_f2).
body(r_fr4_353,fr12_d1).
body(r_fr4_353,fr5_s1).
body(r_fr4_353,fr2_y3).
head(r_fr4_354,fr12_u1).
body(r_fr4_354,fr12_d1).
head(r_fr4_355,fr12_u1).
body(r_fr4_355,fr4_a1).
body(r_fr4_355,fr12_d1).
head(r_fr4_356,fr12_u1).
body(r_fr4_356,fr17_x1).
body(r_fr4_356,fr5_s1).
body(r_fr4_356,fr4_w1).
head(r_fr4_357,fr12_u1).
body(r_fr4_357,fr9_f2).
body(r_fr4_357,fr17_d2).
body(r_fr4_357,fr4_d2).
body(r_fr4_357,fr5_s1).
body(r_fr4_357,fr17_x1).
body(r_fr4_357,fr21_r2).
head(r_fr4_358,fr12_u1).
body(r_fr4_358,fr9_f2).
body(r_fr4_358,fr4_b1).
body(r_fr4_358,fr7_f4).
head(r_fr4_359,fr12_u1).
body(r_fr4_359,fr4_a3).
body(r_fr4_359,fr12_d1).
body(r_fr4_359,fr21_r2).
body(r_fr4_359,fr4_q2).
body(r_fr4_359,fr5_s1).
body(r_fr4_359,fr4_v1).
head(r_fr4_360,fr12_u1).
body(r_fr4_360,fr17_d2).
body(r_fr4_360,fr4_e1).
body(r_fr4_360,fr4_f2).
body(r_fr4_360,fr5_s1).
body(r_fr4_360,fr21_r2).
body(r_fr4_360,fr2_y3).
head(r_fr4_361,fr12_u1).
head(r_fr4_362,fr12_u1).
body(r_fr4_362,fr4_b1).
body(r_fr4_362,fr17_d2).
body(r_fr4_362,fr4_q2).
body(r_fr4_362,fr2_y3).
body(r_fr4_362,fr5_s1).
head(r_fr4_363,fr12_u1).
body(r_fr4_363,fr4_a1).
body(r_fr4_363,fr7_f4).

assumption(fr17_d2).
assumption(fr12_d1).
assumption(fr12_d1).
assumption(fr17_d2).
assumption(fr17_d2).
assumption(fr20_c2).
contrary(fr17_d2,fr5_y1).
contrary(fr12_d1,fr25_y2).
contrary(fr12_d1,fr25_y2).
contrary(fr17_d2,fr17_d2).
contrary(fr17_d2,fr5_s1).
contrary(fr20_c2,fr12_d1).
head(r_fr5_0,fr23_z1).
head(r_fr5_1,fr23_z1).
body(r_fr5_1,fr11_r3).
head(r_fr5_2,fr5_s1).
head(r_fr5_3,fr5_s1).
body(r_fr5_3,fr12_d1).
body(r_fr5_3,fr17_d2).
head(r_fr5_4,fr5_y1).
body(r_fr5_4,fr17_d2).
body(r_fr5_4,fr17_d2).
head(r_fr5_5,fr5_y1).
body(r_fr5_5,fr17_d2).
body(r_fr5_5,fr11_y3).
head(r_fr5_6,fr11_r3).
body(r_fr5_6,fr17_d2).
head(r_fr5_7,fr11_r3).
head(r_fr5_8,fr11_r3).
body(r_fr5_8,fr2_y3).
head(r_fr5_9,fr11_r3).
head(r_fr5_10,fr11_y3).
body(r_fr5_10,fr20_c2).
body(r_fr5_10,fr2_y3).
head(r_fr5_11,fr11_y3).
body(r_fr5_11,fr5_s1).
head(r_fr5_12,fr5_s1).
body(r_fr5_12,fr4_q2).
head(r_fr5_13,fr5_s1).
body(r_fr5_13,fr17_d2).
head(r_fr5_14,fr2_y3).
body(r_fr5_14,fr12_d1).
head(r_fr5_15,fr2_y3).
body(r_fr5_15,fr25_y2).

assumption(fr6_a1).
assumption(fr6_b1).
assumption(fr6_c1).
assumption(fr12_d1).
assumption(fr12_d1).
assumption(fr12_d1).
assumption(fr22_a2).
assumption(fr6_b2).
assumption(fr6_c2).
assumption(fr6_d2).
assumption(fr6_e2).
assumption(fr6_f2).
assumption(fr2_e1).
assumption(fr12_d1).
assumption(fr6_c3).
assumption(fr6_d3).
assumption(fr6_e3).
assumption(fr6_f3).
assumption(fr6_a4).
assumption(fr6_b4).
assumption(fr12_d1).
assumption(fr6_d4).
assumption(fr12_d1).
assumption(fr6_f4).
assumption(fr17_d2).
assumption(fr6_b5).
assumption(fr6_c5).
contrary(fr6_a1,fr6_p4).
contrary(fr22_a2,fr3_q2).
contrary(fr2_e1,fr6_e3).
contrary(fr6_a4,fr12_d1).
contrary(fr17_d2,fr12_d1).
contrary(fr6_b1,fr6_u3).
contrary(fr6_b2,fr25_y2).
contrary(fr12_d1,fr6_b2).
contrary(fr6_b4,fr6_w4).
contrary(fr6_b5,fr6_q4).
contrary(fr6_c1,fr6_u3).
contrary(fr6_c2,fr6_r3).
contrary(fr6_c3,fr6_u3).
contrary(fr12_d1,fr6_t2).
contrary(fr6_c5,fr21_r2).
contrary(fr12_d1,fr6_u3).
contrary(fr6_d2,fr6_e2).
contrary(fr6_d3,fr6_w2).
contrary(fr6_d4,fr3_q2).
contrary(fr12_d1,fr6_f4).
contrary(fr6_e2,fr6_v1).
contrary(fr6_e3,fr6_c1).
contrary(fr12_d1,fr6_p4).
contrary(fr12_d1,fr19_u2).
contrary(fr6_f2,fr24_s1).
contrary(fr6_f3,fr13_v2).
contrary(fr6_f4,fr6_c3).
head(r_fr6_0,fr6_x3).
body(r_fr6_0,fr6_b4).
body(r_fr6_0,fr12_d1).
body(r_fr6_0,fr6_p1).
body(r_fr6_0,fr6_p4).
body(r_fr6_0,fr25_y2).
body(r_fr6_0,fr6_s4).
body(r_fr6_0,fr6_t4).
body(r_fr6_0,fr6_v1).
body(r_fr6_0,fr3_q2).
body(r_fr6_0,fr6_z1).
head(r_fr6_1,fr6_x3).
body(r_fr6_1,fr6_f3).
head(r_fr6_2,fr6_x3).
body(r_fr6_2,fr21_r2).
body(r_fr6_2,fr6_t2).
body(r_fr6_2,fr6_u1).
body(r_fr6_2,fr6_u4).
body(r_fr6_2,fr6_w2).
head(r_fr6_3,fr24_s1).
body(r_fr6_3,fr12_d1).
body(r_fr6_3,fr12_d1).
body(r_fr6_3,fr6_p5).
body(r_fr6_3,fr6_r3).
body(r_fr6_3,fr6_s3).
body(r_fr6_3,fr6_s4).
body(r_fr6_3,fr6_t4).
body(r_fr6_3,fr6_u3).
body(r_fr6_3,fr6_w4).
body(r_fr6_3,fr6_z1).
head(r_fr6_4,fr24_s1).
body(r_fr6_4,fr6_p4).
body(r_fr6_4,fr6_q3).
body(r_fr6_4,fr25_y2).
body(r_fr6_4,fr6_s3).
body(r_fr6_4,fr6_v4).
body(r_fr6_4,fr19_u2).
body(r_fr6_4,fr5_s1).
head(r_fr6_5,fr24_s1).
head(r_fr6_6,fr6_w2).
body(r_fr6_6,fr22_a2).
body(r_fr6_6,fr12_d1).
body(r_fr6_6,fr6_p3).
body(r_fr6_6,fr25_y2).
body(r_fr6_6,fr6_u4).
head(r_fr6_7,fr6_w2).
body(r_fr6_7,fr17_d2).
body(r_fr6_7,fr6_b1).
body(r_fr6_7,fr6_f4).
head(r_fr6_8,fr6_w2).
body(r_fr6_8,fr6_a1).
body(r_fr6_8,fr22_a2).
body(r_fr6_8,fr6_b4).
body(r_fr6_8,fr6_b5).
body(r_fr6_8,fr6_c1).
body(r_fr6_8,fr6_c3).
body(r_fr6_8,fr12_d1).
body(r_fr6_8,fr6_e3).
body(r_fr6_8,fr12_d1).
body(r_fr6_8,fr6_f2).
head(r_fr6_9,fr6_w2).
body(r_fr6_9,fr12_d1).
body(r_fr6_9,fr12_d1).
body(r_fr6_9,fr6_c5).
body(r_fr6_9,fr6_d2).
body(r_fr6_9,fr12_d1).
body(r_fr6_9,fr6_f2).
body(r_fr6_9,fr6_p2).
body(r_fr6_9,fr2_y3).
head(r_fr6_10,fr6_w2).
body(r_fr6_10,fr6_a4).
body(r_fr6_10,fr17_d2).
body(r_fr6_10,fr6_b4).
body(r_fr6_10,fr6_c5).
body(r_fr6_10,fr6_d4).
body(r_fr6_10,fr12_d1).
body(r_fr6_10,fr12_d1).
body(r_fr6_10,fr6_f2).
body(r_fr6_10,fr6_u2).
body(r_fr6_10,fr6_w4).
head(r_fr6_11,fr6_w2).
body(r_fr6_11,fr6_a4).
body(r_fr6_11,fr12_d1).
body(r_fr6_11,fr6_f2).
body(r_fr6_11,fr6_f3).
body(r_fr6_11,fr6_s4).
head(r_fr6_12,fr6_w2).
body(r_fr6_12,fr2_e1).
body(r_fr6_12,fr12_d1).
body(r_fr6_12,fr12_d1).
head(r_fr6_13,fr6_w2).
head(r_fr6_14,fr6_t2).
body(r_fr6_14,fr6_a1).
body(r_fr6_14,fr6_a4).
body(r_fr6_14,fr6_b5).
body(r_fr6_14,fr6_c3).
body(r_fr6_14,fr12_d1).
body(r_fr6_14,fr6_f4).
body(r_fr6_14,fr6_q4).
body(r_fr6_14,fr11_y3).
head(r_fr6_15,fr6_t2).
body(r_fr6_15,fr6_p1).
body(r_fr6_15,fr2_y3).
head(r_fr6_16,fr6_t2).
body(r_fr6_16,fr6_b4).
body(r_fr6_16,fr12_d1).
body(r_fr6_16,fr6_p1).
body(r_fr6_16,fr6_q1).
body(r_fr6_16,fr6_r4).
body(r_fr6_16,fr6_v1).
body(r_fr6_16,fr6_y1).
head(r_fr6_17,fr6_t2).
head(r_fr6_18,fr6_t2).
body(r_fr6_18,fr6_a4).
body(r_fr6_18,fr12_d1).
body(r_fr6_18,fr12_d1).
body(r_fr6_18,fr6_d4).
body(r_fr6_18,fr6_e2).
body(r_fr6_18,fr12_d1).
body(r_fr6_18,fr6_v2).
body(r_fr6_18,fr6_z1).
body(r_fr6_18,fr6_z2).
head(r_fr6_19,fr6_t2).
body(r_fr6_19,fr6_c1).
body(r_fr6_19,fr6_d4).
body(r_fr6_19,fr6_p1).
body(r_fr6_19,fr13_q2).
body(r_fr6_19,fr19_u2).
body(r_fr6_19,fr6_x2).
body(r_fr6_19,fr23_z1).
head(r_fr6_20,fr6_r4).
body(r_fr6_20,fr6_d2).
body(r_fr6_20,fr6_d4).
body(r_fr6_20,fr12_d1).
body(r_fr6_20,fr6_p5).
body(r_fr6_20,fr25_y2).
body(r_fr6_20,fr25_y2).
head(r_fr6_21,fr6_r4).
body(r_fr6_21,fr12_d1).
body(r_fr6_21,fr6_d3).
body(r_fr6_21,fr6_v2).
body(r_fr6_21,fr11_y3).
head(r_fr6_22,fr6_r4).
body(r_fr6_22,fr12_d1).
body(r_fr6_22,fr6_d4).
body(r_fr6_22,fr6_r3).
body(r_fr6_22,fr6_u3).
head(r_fr6_23,fr6_r4).
body(r_fr6_23,fr13_q2).
body(r_fr6_23,fr6_y4).
head(r_fr6_24,fr8_u2).
body(r_fr6_24,fr6_p3).
body(r_fr6_24,fr6_p5).
body(r_fr6_24,fr6_q1).
body(r_fr6_24,fr6_u2).
body(r_fr6_24,fr6_v2).
body(r_fr6_24,fr6_w4).
body(r_fr6_24,fr3_q2).
body(r_fr6_24,fr5_s1).
head(r_fr6_25,fr8_u2).
body(r_fr6_25,fr6_a1).
body(r_fr6_25,fr6_d4).
body(r_fr6_25,fr12_d1).
body(r_fr6_25,fr25_y2).
body(r_fr6_25,fr19_u2).
body(r_fr6_25,fr6_y1).
head(r_fr6_26,fr8_u2).
body(r_fr6_26,fr6_b2).
body(r_fr6_26,fr12_d1).
body(r_fr6_26,fr6_p3).
head(r_fr6_27,fr8_u2).
body(r_fr6_27,fr6_b4).
body(r_fr6_27,fr6_p2).
body(r_fr6_27,fr6_q1).
body(r_fr6_27,fr6_q4).
body(r_fr6_27,fr25_y2).
head(r_fr6_28,fr6_r3).
body(r_fr6_28,fr17_d2).
body(r_fr6_28,fr6_b2).
body(r_fr6_28,fr6_b4).
body(r_fr6_28,fr6_x2).
body(r_fr6_28,fr23_z1).
body(r_fr6_28,fr6_z1).
head(r_fr6_29,fr6_r3).
body(r_fr6_29,fr6_p1).
head(r_fr6_30,fr6_r3).
body(r_fr6_30,fr2_e1).
body(r_fr6_30,fr17_d2).
body(r_fr6_30,fr6_b2).
body(r_fr6_30,fr6_c3).
body(r_fr6_30,fr12_d1).
body(r_fr6_30,fr12_d1).
body(r_fr6_30,fr6_e3).
body(r_fr6_30,fr12_d1).
body(r_fr6_30,fr6_f3).
body(r_fr6_30,fr6_t1).
head(r_fr6_31,fr3_q2).
body(r_fr6_31,fr6_a4).
body(r_fr6_31,fr12_d1).
body(r_fr6_31,fr6_d2).
body(r_fr6_31,fr13_v2).
head(r_fr6_32,fr3_q2).
body(r_fr6_32,fr6_c5).
body(r_fr6_32,fr25_y2).
body(r_fr6_32,fr6_u1).
body(r_fr6_32,fr6_v2).
body(r_fr6_32,fr6_v4).
head(r_fr6_33,fr3_q2).
body(r_fr6_33,fr6_b2).
body(r_fr6_33,fr12_d1).
body(r_fr6_33,fr6_e2).
body(r_fr6_33,fr6_q4).
body(r_fr6_33,fr5_s1).
head(r_fr6_34,fr3_q2).
body(r_fr6_34,fr6_e2).
body(r_fr6_34,fr6_f3).
body(r_fr6_34,fr6_z1).
head(r_fr6_35,fr6_z1).
body(r_fr6_35,fr6_a1).
body(r_fr6_35,fr6_f3).
body(r_fr6_35,fr25_y2).
body(r_fr6_35,fr13_q2).
body(r_fr6_35,fr6_s4).
body(r_fr6_35,fr6_v2).
body(r_fr6_35,fr11_y3).
body(r_fr6_35,fr6_v4).
body(r_fr6_35,fr2_y3).
head(r_fr6_36,fr6_z1).
body(r_fr6_36,fr6_a1).
body(r_fr6_36,fr2_e1).
body(r_fr6_36,fr6_b4).
body(r_fr6_36,fr6_b5).
body(r_fr6_36,fr6_c2).
body(r_fr6_36,fr6_c3).
body(r_fr6_36,fr12_d1).
body(r_fr6_36,fr12_d1).
body(r_fr6_36,fr6_f4).
body(r_fr6_36,fr2_y3).
head(r_fr6_37,fr6_z1).
body(r_fr6_37,fr2_e1).
body(r_fr6_37,fr25_y2).
body(r_fr6_37,fr6_s4).
body(r_fr6_37,fr6_u3).
body(r_fr6_37,fr6_u4).
body(r_fr6_37,fr6_v4).
body(r_fr6_37,fr6_x2).
head(r_fr6_38,fr6_z1).
body(r_fr6_38,fr17_d2).
body(r_fr6_38,fr6_b4).
body(r_fr6_38,fr12_d1).
body(r_fr6_38,fr6_c5).
body(r_fr6_38,fr6_f3).
body(r_fr6_38,fr6_q3).
body(r_fr6_38,fr6_y1).
body(r_fr6_38,fr13_v2).
head(r_fr6_39,fr6_z1).
body(r_fr6_39,fr6_c1).
body(r_fr6_39,fr6_f4).
body(r_fr6_39,fr6_p1).
body(r_fr6_39,fr6_s4).
body(r_fr6_39,fr6_v1).
body(r_fr6_39,fr6_w4).
body(r_fr6_39,fr5_s1).
head(r_fr6_40,fr6_p5).
body(r_fr6_40,fr6_a1).
body(r_fr6_40,fr22_a2).
body(r_fr6_40,fr2_e1).
body(r_fr6_40,fr6_b4).
body(r_fr6_40,fr6_b5).
body(r_fr6_40,fr6_c2).
body(r_fr6_40,fr12_d1).
body(r_fr6_40,fr6_d2).
head(r_fr6_41,fr6_p5).
body(r_fr6_41,fr6_a4).
body(r_fr6_41,fr6_c3).
body(r_fr6_41,fr6_c5).
body(r_fr6_41,fr6_p2).
body(r_fr6_41,fr6_q4).
body(r_fr6_41,fr6_s4).
body(r_fr6_41,fr6_u1).
body(r_fr6_41,fr6_v4).
body(r_fr6_41,fr6_y4).
head(r_fr6_42,fr6_x2).
body(r_fr6_42,fr6_b4).
body(r_fr6_42,fr6_c3).
body(r_fr6_42,fr6_p2).
body(r_fr6_42,fr6_q3).
body(r_fr6_42,fr6_u1).
body(r_fr6_42,fr3_q2).
body(r_fr6_42,fr2_y3).
head(r_fr6_43,fr6_x2).
body(r_fr6_43,fr6_b5).
body(r_fr6_43,fr6_c1).
body(r_fr6_43,fr6_c2).
body(r_fr6_43,fr6_p2).
body(r_fr6_43,fr6_p3).
body(r_fr6_43,fr25_y2).
body(r_fr6_43,fr13_v2).
body(r_fr6_43,fr6_u2).
body(r_fr6_43,fr6_u4).
body(r_fr6_43,fr13_v2).
head(r_fr6_44,fr2_y3).
head(r_fr6_45,fr2_y3).
body(r_fr6_45,fr6_a4).
body(r_fr6_45,fr6_d3).
body(r_fr6_45,fr6_v4).
head(r_fr6_46,fr2_y3).
body(r_fr6_46,fr2_e1).
body(r_fr6_46,fr6_c2).
body(r_fr6_46,fr6_d4).
body(r_fr6_46,fr11_y3).
head(r_fr6_47,fr2_y3).
body(r_fr6_47,fr22_a2).
body(r_fr6_47,fr2_e1).
body(r_fr6_47,fr6_b5).
body(r_fr6_47,fr12_d1).
body(r_fr6_47,fr6_f2).
body(r_fr6_47,fr6_p3).
body(r_fr6_47,fr6_q3).
body(r_fr6_47,fr25_y2).
body(r_fr6_47,fr6_y4).
head(r_fr6_48,fr2_y3).
body(r_fr6_48,fr3_q2).
head(r_fr6_49,fr6_t1).
body(r_fr6_49,fr6_a4).
body(r_fr6_49,fr6_d3).
body(r_fr6_49,fr6_p3).
body(r_fr6_49,fr6_u2).
body(r_fr6_49,fr6_u4).
body(r_fr6_49,fr6_y4).
head(r_fr6_50,fr6_t1).
body(r_fr6_50,fr22_a2).
body(r_fr6_50,fr6_p2).
head(r_fr6_51,fr6_t1).
body(r_fr6_51,fr6_a1).
body(r_fr6_51,fr17_d2).
body(r_fr6_51,fr21_r2).
body(r_fr6_51,fr6_s4).
body(r_fr6_51,fr6_v1).
head(r_fr6_52,fr6_u4).
body(r_fr6_52,fr2_e1).
body(r_fr6_52,fr6_b2).
body(r_fr6_52,fr6_b5).
body(r_fr6_52,fr6_c1).
body(r_fr6_52,fr6_p1).
body(r_fr6_52,fr6_q1).
body(r_fr6_52,fr21_r2).
head(r_fr6_53,fr6_u4).
body(r_fr6_53,fr6_c5).
body(r_fr6_53,fr6_f4).
body(r_fr6_53,fr6_q3).
head(r_fr6_54,fr6_u4).
body(r_fr6_54,fr2_e1).
body(r_fr6_54,fr6_c2).
body(r_fr6_54,fr6_d3).
body(r_fr6_54,fr6_e3).
body(r_fr6_54,fr6_f4).
body(r_fr6_54,fr21_r2).
body(r_fr6_54,fr6_u2).
body(r_fr6_54,fr19_u2).
body(r_fr6_54,fr6_y1).
head(r_fr6_55,fr21_r2).
body(r_fr6_55,fr6_c3).
body(r_fr6_55,fr6_p2).
body(r_fr6_55,fr6_y1).
body(r_fr6_55,fr6_z2).
head(r_fr6_56,fr21_r2).
head(r_fr6_57,fr6_u2).
body(r_fr6_57,fr13_q2).
head(r_fr6_58,fr6_u2).
body(r_fr6_58,fr6_b4).
body(r_fr6_58,fr6_b5).
body(r_fr6_58,fr6_d2).
body(r_fr6_58,fr6_e2).
body(r_fr6_58,fr6_q1).
body(r_fr6_58,fr6_q4).
body(r_fr6_58,fr13_q2).
body(r_fr6_58,fr6_t4).
body(r_fr6_58,fr3_q2).
head(r_fr6_59,fr6_u2).
body(r_fr6_59,fr12_d1).
body(r_fr6_59,fr5_s1).
head(r_fr6_60,fr6_u2).
body(r_fr6_60,fr6_p2).
body(r_fr6_60,fr6_p4).
body(r_fr6_60,fr6_q3).
body(r_fr6_60,fr13_v2).
body(r_fr6_60,fr6_s4).
body(r_fr6_60,fr6_v2).
body(r_fr6_60,fr3_q2).
body(r_fr6_60,fr23_z1).
head(r_fr6_61,fr5_s1).
body(r_fr6_61,fr6_q1).
body(r_fr6_61,fr13_v2).
head(r_fr6_62,fr5_s1).
body(r_fr6_62,fr17_d2).
body(r_fr6_62,fr6_f2).
body(r_fr6_62,fr6_p2).
body(r_fr6_62,fr6_q3).
body(r_fr6_62,fr13_q2).
body(r_fr6_62,fr6_v4).
body(r_fr6_62,fr19_u2).
head(r_fr6_63,fr6_u3).
body(r_fr6_63,fr17_d2).
body(r_fr6_63,fr12_d1).
body(r_fr6_63,fr6_d4).
body(r_fr6_63,fr12_d1).
body(r_fr6_63,fr13_v2).
body(r_fr6_63,fr6_s4).
head(r_fr6_64,fr6_u3).
body(r_fr6_64,fr6_p1).
body(r_fr6_64,fr6_q4).
body(r_fr6_64,fr25_y2).
body(r_fr6_64,fr6_s4).
body(r_fr6_64,fr6_u1).
body(r_fr6_64,fr6_v2).
body(r_fr6_64,fr19_u2).
body(r_fr6_64,fr6_y4).
body(r_fr6_64,fr13_v2).
head(r_fr6_65,fr6_p1).
body(r_fr6_65,fr6_f3).
body(r_fr6_65,fr6_p2).
body(r_fr6_65,fr6_p4).
body(r_fr6_65,fr6_v1).
body(r_fr6_65,fr6_v4).
body(r_fr6_65,fr23_z1).
head(r_fr6_66,fr6_p1).
body(r_fr6_66,fr6_a1).
body(r_fr6_66,fr6_c5).
body(r_fr6_66,fr6_p4).
body(r_fr6_66,fr6_q1).
body(r_fr6_66,fr6_q4).
body(r_fr6_66,fr6_v4).
body(r_fr6_66,fr3_q2).
body(r_fr6_66,fr6_y1).
body(r_fr6_66,fr6_z2).
body(r_fr6_66,fr13_v2).
head(r_fr6_67,fr6_p1).
body(r_fr6_67,fr6_b1).
body(r_fr6_67,fr6_q4).
body(r_fr6_67,fr25_y2).
body(r_fr6_67,fr6_y4).
body(r_fr6_67,fr13_v2).
head(r_fr6_68,fr6_p1).
body(r_fr6_68,fr25_y2).
body(r_fr6_68,fr6_q3).
body(r_fr6_68,fr6_s3).
head(r_fr6_69,fr6_p1).
body(r_fr6_69,fr6_c1).
body(r_fr6_69,fr12_d1).
body(r_fr6_69,fr6_p2).
body(r_fr6_69,fr25_y2).
body(r_fr6_69,fr13_q2).
head(r_fr6_70,fr6_p1).
body(r_fr6_70,fr6_a1).
body(r_fr6_70,fr22_a2).
body(r_fr6_70,fr6_b2).
body(r_fr6_70,fr6_d2).
body(r_fr6_70,fr6_e2).
body(r_fr6_70,fr6_p3).
body(r_fr6_70,fr6_v1).
body(r_fr6_70,fr6_v2).
body(r_fr6_70,fr23_z1).
body(r_fr6_70,fr6_y4).
head(r_fr6_71,fr6_p1).
body(r_fr6_71,fr6_a1).
body(r_fr6_71,fr2_e1).
body(r_fr6_71,fr6_a4).
body(r_fr6_71,fr6_b1).
body(r_fr6_71,fr12_d1).
body(r_fr6_71,fr12_d1).
body(r_fr6_71,fr6_e3).
body(r_fr6_71,fr6_f2).
body(r_fr6_71,fr6_w4).
head(r_fr6_72,fr6_p1).
body(r_fr6_72,fr6_p2).
body(r_fr6_72,fr6_y4).
head(r_fr6_73,fr13_q2).
body(r_fr6_73,fr6_t4).
head(r_fr6_74,fr13_q2).
body(r_fr6_74,fr12_d1).
body(r_fr6_74,fr12_d1).
body(r_fr6_74,fr13_v2).
body(r_fr6_74,fr23_z1).
head(r_fr6_75,fr13_q2).
body(r_fr6_75,fr6_a4).
body(r_fr6_75,fr6_p3).
body(r_fr6_75,fr25_y2).
body(r_fr6_75,fr11_y3).
body(r_fr6_75,fr6_y1).
body(r_fr6_75,fr6_y4).
head(r_fr6_76,fr13_q2).
body(r_fr6_76,fr6_w4).
head(r_fr6_77,fr13_q2).
body(r_fr6_77,fr6_d2).
body(r_fr6_77,fr6_p3).
body(r_fr6_77,fr6_q1).
body(r_fr6_77,fr6_q4).
body(r_fr6_77,fr25_y2).
body(r_fr6_77,fr13_v2).
body(r_fr6_77,fr6_s4).
body(r_fr6_77,fr11_y3).
body(r_fr6_77,fr19_u2).
body(r_fr6_77,fr13_v2).
head(r_fr6_78,fr13_q2).
body(r_fr6_78,fr12_d1).
body(r_fr6_78,fr6_f2).
head(r_fr6_79,fr13_q2).
body(r_fr6_79,fr6_s3).
body(r_fr6_79,fr6_y4).
head(r_fr6_80,fr6_v2).
body(r_fr6_80,fr6_a1).
body(r_fr6_80,fr12_d1).
body(r_fr6_80,fr6_c1).
body(r_fr6_80,fr12_d1).
body(r_fr6_80,fr12_d1).
body(r_fr6_80,fr6_e3).
body(r_fr6_80,fr6_f2).
body(r_fr6_80,fr6_f4).
body(r_fr6_80,fr6_q4).
body(r_fr6_80,fr6_y4).
head(r_fr6_81,fr6_v2).
body(r_fr6_81,fr22_a2).
body(r_fr6_81,fr6_c1).
body(r_fr6_81,fr6_p3).
body(r_fr6_81,fr6_q1).
body(r_fr6_81,fr6_q4).
head(r_fr6_82,fr6_v2).
body(r_fr6_82,fr2_e1).
body(r_fr6_82,fr6_b2).
body(r_fr6_82,fr6_b4).
body(r_fr6_82,fr19_u2).
body(r_fr6_82,fr6_w4).
head(r_fr6_83,fr6_v2).
body(r_fr6_83,fr6_b1).
body(r_fr6_83,fr12_d1).
body(r_fr6_83,fr12_d1).
body(r_fr6_83,fr6_s3).
body(r_fr6_83,fr6_s4).
head(r_fr6_84,fr6_p3).
body(r_fr6_84,fr6_b1).
body(r_fr6_84,fr12_d1).
body(r_fr6_84,fr6_f2).
body(r_fr6_84,fr6_f3).
body(r_fr6_84,fr25_y2).
head(r_fr6_85,fr6_p3).
body(r_fr6_85,fr6_a4).
body(r_fr6_85,fr6_b2).
body(r_fr6_85,fr6_c3).
body(r_fr6_85,fr6_f3).
body(r_fr6_85,fr6_u1).
head(r_fr6_86,fr6_p3).
body(r_fr6_86,fr6_b4).
body(r_fr6_86,fr6_c3).
body(r_fr6_86,fr12_d1).
body(r_fr6_86,fr6_e3).
body(r_fr6_86,fr12_d1).
body(r_fr6_86,fr6_v1).
head(r_fr6_87,fr6_p3).
body(r_fr6_87,fr6_a1).
body(r_fr6_87,fr22_a2).
body(r_fr6_87,fr6_c3).
body(r_fr6_87,fr6_c5).
body(r_fr6_87,fr6_d2).
body(r_fr6_87,fr6_d3).
body(r_fr6_87,fr12_d1).
body(r_fr6_87,fr6_w4).
head(r_fr6_88,fr6_y1).
body(r_fr6_88,fr6_a1).
body(r_fr6_88,fr6_b2).
body(r_fr6_88,fr12_d1).
body(r_fr6_88,fr6_f3).
body(r_fr6_88,fr6_p2).
body(r_fr6_88,fr6_q1).
body(r_fr6_88,fr6_v4).
body(r_fr6_88,fr19_u2).
body(r_fr6_88,fr3_q2).
head(r_fr6_89,fr6_y1).
body(r_fr6_89,fr6_a4).
body(r_fr6_89,fr6_b2).
body(r_fr6_89,fr12_d1).
body(r_fr6_89,fr6_c5).
body(r_fr6_89,fr6_d3).
body(r_fr6_89,fr6_e3).
body(r_fr6_89,fr6_f2).
body(r_fr6_89,fr23_z1).
head(r_fr6_90,fr6_y1).
body(r_fr6_90,fr22_a2).
body(r_fr6_90,fr6_d2).
body(r_fr6_90,fr6_p2).
body(r_fr6_90,fr6_q3).
body(r_fr6_90,fr6_s4).
body(r_fr6_90,fr6_u1).
body(r_fr6_90,fr11_y3).
body(r_fr6_90,fr6_v4).
body(r_fr6_90,fr19_u2).
body(r_fr6_90,fr13_v2).
head(r_fr6_91,fr6_y1).
body(r_fr6_91,fr17_d2).
body(r_fr6_91,fr6_f4).
body(r_fr6_91,fr6_p2).
body(r_fr6_91,fr25_y2).
body(r_fr6_91,fr13_v2).
body(r_fr6_91,fr6_s4).
body(r_fr6_91,fr19_u2).
head(r_fr6_92,fr6_y1).
body(r_fr6_92,fr6_b2).
head(r_fr6_93,fr6_y1).
body(r_fr6_93,fr12_d1).
head(r_fr6_94,fr6_y1).
body(r_fr6_94,fr6_a1).
body(r_fr6_94,fr12_d1).
body(r_fr6_94,fr6_c3).
body(r_fr6_94,fr6_c5).
body(r_fr6_94,fr6_e3).
body(r_fr6_94,fr6_f2).
body(r_fr6_94,fr6_f3).
body(r_fr6_94,fr6_v4).
head(r_fr6_95,fr6_y1).
body(r_fr6_95,fr12_d1).
body(r_fr6_95,fr6_w4).
head(r_fr6_96,fr25_y2).
body(r_fr6_96,fr6_p2).
body(r_fr6_96,fr6_q3).
body(r_fr6_96,fr13_v2).
body(r_fr6_96,fr6_v1).
head(r_fr6_97,fr25_y2).
body(r_fr6_97,fr6_b5).
body(r_fr6_97,fr6_c2).
body(r_fr6_97,fr25_y2).
body(r_fr6_97,fr6_v4).
body(r_fr6_97,fr6_w4).
head(r_fr6_98,fr25_y2).
body(r_fr6_98,fr6_p4).
body(r_fr6_98,fr13_v2).
head(r_fr6_99,fr25_y2).
body(r_fr6_99,fr6_a4).
body(r_fr6_99,fr12_d1).
body(r_fr6_99,fr6_b4).
body(r_fr6_99,fr6_b5).
body(r_fr6_99,fr12_d1).
body(r_fr6_99,fr12_d1).
body(r_fr6_99,fr6_f2).
body(r_fr6_99,fr6_f3).
body(r_fr6_99,fr6_f4).
head(r_fr6_100,fr25_y2).
body(r_fr6_100,fr6_c3).
body(r_fr6_100,fr6_e2).
body(r_fr6_100,fr6_s3).
head(r_fr6_101,fr25_y2).
head(r_fr6_102,fr3_q2).
body(r_fr6_102,fr6_p4).
body(r_fr6_102,fr6_q1).
body(r_fr6_102,fr6_q3).
body(r_fr6_102,fr6_q4).
body(r_fr6_102,fr6_s4).
body(r_fr6_102,fr6_t4).
head(r_fr6_103,fr3_q2).
body(r_fr6_103,fr11_y3).
body(r_fr6_103,fr6_y4).
head(r_fr6_104,fr13_v2).
body(r_fr6_104,fr6_b1).
body(r_fr6_104,fr6_q1).
body(r_fr6_104,fr13_v2).
body(r_fr6_104,fr6_u1).
body(r_fr6_104,fr6_v4).
head(r_fr6_105,fr13_v2).
body(r_fr6_105,fr6_b4).
body(r_fr6_105,fr6_c2).
body(r_fr6_105,fr12_d1).
body(r_fr6_105,fr6_d4).
body(r_fr6_105,fr6_s4).
body(r_fr6_105,fr11_y3).
head(r_fr6_106,fr11_y3).
body(r_fr6_106,fr6_b2).
body(r_fr6_106,fr6_c3).
body(r_fr6_106,fr6_q4).
body(r_fr6_106,fr6_u1).
body(r_fr6_106,fr6_v1).
body(r_fr6_106,fr6_v4).
body(r_fr6_106,fr6_z2).
head(r_fr6_107,fr11_y3).
body(r_fr6_107,fr6_p2).
body(r_fr6_107,fr6_q1).
body(r_fr6_107,fr6_q4).
body(r_fr6_107,fr13_v2).
body(r_fr6_107,fr6_t4).
body(r_fr6_107,fr6_v1).
body(r_fr6_107,fr6_v4).
body(r_fr6_107,fr6_w4).
body(r_fr6_107,fr6_y4).
head(r_fr6_108,fr11_y3).
body(r_fr6_108,fr6_b5).
body(r_fr6_108,fr6_c3).
body(r_fr6_108,fr6_p4).
head(r_fr6_109,fr6_y4).
body(r_fr6_109,fr22_a2).
body(r_fr6_109,fr17_d2).
body(r_fr6_109,fr6_b2).
body(r_fr6_109,fr6_c3).
body(r_fr6_109,fr6_d2).
body(r_fr6_109,fr6_f4).
body(r_fr6_109,fr6_s3).
head(r_fr6_110,fr6_y4).
head(r_fr6_111,fr6_y4).
body(r_fr6_111,fr6_a1).
body(r_fr6_111,fr12_d1).
body(r_fr6_111,fr6_s3).
body(r_fr6_111,fr6_u1).
head(r_fr6_112,fr6_y4).
body(r_fr6_112,fr6_f4).
body(r_fr6_112,fr6_s3).
head(r_fr6_113,fr6_y4).
body(r_fr6_113,fr2_e1).
head(r_fr6_114,fr6_y4).
body(r_fr6_114,fr22_a2).
body(r_fr6_114,fr2_e1).
body(r_fr6_114,fr6_a4).
body(r_fr6_114,fr17_d2).
body(r_fr6_114,fr6_b2).
body(r_fr6_114,fr6_c1).
body(r_fr6_114,fr12_d1).
body(r_fr6_114,fr12_d1).
body(r_fr6_114,fr25_y2).
body(r_fr6_114,fr6_w4).
head(r_fr6_115,fr13_v2).
body(r_fr6_115,fr6_b2).
body(r_fr6_115,fr6_s3).
body(r_fr6_115,fr6_t4).
body(r_fr6_115,fr6_v4).
head(r_fr6_116,fr13_v2).
body(r_fr6_116,fr22_a2).
body(r_fr6_116,fr6_e2).
head(r_fr6_117,fr6_p4).
body(r_fr6_117,fr22_a2).
body(r_fr6_117,fr12_d1).
body(r_fr6_117,fr6_s4).
body(r_fr6_117,fr23_z1).
head(r_fr6_118,fr6_p4).
body(r_fr6_118,fr6_e3).
head(r_fr6_119,fr6_p4).
body(r_fr6_119,fr12_d1).
body(r_fr6_119,fr6_e3).
head(r_fr6_120,fr6_p4).
body(r_fr6_120,fr6_p2).
body(r_fr6_120,fr6_q1).
body(r_fr6_120,fr6_t4).
body(r_fr6_120,fr6_v1).
body(r_fr6_120,fr6_v4).
body(r_fr6_120,fr19_u2).
body(r_fr6_120,fr6_w4).
body(r_fr6_120,fr23_z1).
body(r_fr6_120,fr6_z2).
head(r_fr6_121,fr6_p4).
body(r_fr6_121,fr6_s3).
body(r_fr6_121,fr6_v4).
body(r_fr6_121,fr23_z1).
head(r_fr6_122,fr6_p4).
body(r_fr6_122,fr6_b4).
body(r_fr6_122,fr6_w4).
head(r_fr6_123,fr6_p4).
body(r_fr6_123,fr6_b1).
body(r_fr6_123,fr6_b2).
body(r_fr6_123,fr6_b4).
body(r_fr6_123,fr12_d1).
body(r_fr6_123,fr6_d4).
body(r_fr6_123,fr12_d1).
body(r_fr6_123,fr6_f2).
body(r_fr6_123,fr6_q3).
body(r_fr6_123,fr6_t4).
body(r_fr6_123,fr6_v1).
head(r_fr6_124,fr6_s3).
body(r_fr6_124,fr2_e1).
body(r_fr6_124,fr12_d1).
body(r_fr6_124,fr6_z2).
head(r_fr6_125,fr6_s3).
body(r_fr6_125,fr12_d1).
body(r_fr6_125,fr6_c3).
body(r_fr6_125,fr6_q4).
body(r_fr6_125,fr25_y2).
body(r_fr6_125,fr6_t4).
body(r_fr6_125,fr6_v1).
body(r_fr6_125,fr6_v4).
body(r_fr6_125,fr6_w4).
body(r_fr6_125,fr23_z1).
body(r_fr6_125,fr6_z2).
head(r_fr6_126,fr6_s3).
body(r_fr6_126,fr6_q1).
body(r_fr6_126,fr6_q3).
body(r_fr6_126,fr6_q4).
body(r_fr6_126,fr6_t4).
body(r_fr6_126,fr6_v1).
body(r_fr6_126,fr6_v4).
body(r_fr6_126,fr19_u2).
body(r_fr6_126,fr6_w4).
body(r_fr6_126,fr23_z1).
body(r_fr6_126,fr6_z2).
head(r_fr6_127,fr6_s3).
body(r_fr6_127,fr22_a2).
body(r_fr6_127,fr6_c1).
body(r_fr6_127,fr12_d1).
body(r_fr6_127,fr6_d2).
body(r_fr6_127,fr6_f3).
head(r_fr6_128,fr6_s3).
body(r_fr6_128,fr6_p2).
body(r_fr6_128,fr6_t4).
body(r_fr6_128,fr23_z1).
head(r_fr6_129,fr6_w4).
body(r_fr6_129,fr22_a2).
body(r_fr6_129,fr6_a4).
body(r_fr6_129,fr6_b1).
body(r_fr6_129,fr6_b2).
body(r_fr6_129,fr6_b4).
body(r_fr6_129,fr6_c1).
body(r_fr6_129,fr12_d1).
body(r_fr6_129,fr6_f3).
body(r_fr6_129,fr6_q3).
body(r_fr6_129,fr25_y2).
head(r_fr6_130,fr6_w4).
body(r_fr6_130,fr2_e1).
body(r_fr6_130,fr17_d2).
body(r_fr6_130,fr12_d1).
body(r_fr6_130,fr6_c5).
body(r_fr6_130,fr6_e3).
body(r_fr6_130,fr12_d1).
body(r_fr6_130,fr6_f3).
head(r_fr6_131,fr6_w4).
body(r_fr6_131,fr6_b1).
body(r_fr6_131,fr12_d1).
body(r_fr6_131,fr6_c5).
body(r_fr6_131,fr12_d1).
body(r_fr6_131,fr6_e3).
body(r_fr6_131,fr6_q3).
body(r_fr6_131,fr6_v4).
head(r_fr6_132,fr6_w4).
body(r_fr6_132,fr2_e1).
body(r_fr6_132,fr6_c1).
body(r_fr6_132,fr6_e2).
head(r_fr6_133,fr6_w4).
head(r_fr6_134,fr6_w4).
body(r_fr6_134,fr6_e2).
head(r_fr6_135,fr6_w4).
body(r_fr6_135,fr6_a1).
body(r_fr6_135,fr2_e1).
body(r_fr6_135,fr6_a4).
body(r_fr6_135,fr6_c1).
body(r_fr6_135,fr12_d1).
body(r_fr6_135,fr6_f3).
body(r_fr6_135,fr6_q4).
body(r_fr6_135,fr6_s4).
body(r_fr6_135,fr6_u1).
head(r_fr6_136,fr23_z1).
body(r_fr6_136,fr6_c1).
body(r_fr6_136,fr25_y2).
body(r_fr6_136,fr6_v1).
body(r_fr6_136,fr19_u2).
head(r_fr6_137,fr23_z1).
body(r_fr6_137,fr17_d2).
body(r_fr6_137,fr6_b1).
body(r_fr6_137,fr6_d2).
body(r_fr6_137,fr6_d3).
body(r_fr6_137,fr12_d1).
body(r_fr6_137,fr6_p2).
body(r_fr6_137,fr6_t4).
head(r_fr6_138,fr23_z1).
body(r_fr6_138,fr19_u2).
head(r_fr6_139,fr23_z1).
body(r_fr6_139,fr6_a4).
body(r_fr6_139,fr6_e2).
head(r_fr6_140,fr23_z1).
body(r_fr6_140,fr6_d2).
body(r_fr6_140,fr6_q1).
body(r_fr6_140,fr6_q4).
body(r_fr6_140,fr6_s4).
head(r_fr6_141,fr23_z1).
head(r_fr6_142,fr23_z1).
body(r_fr6_142,fr2_e1).
body(r_fr6_142,fr6_b1).
body(r_fr6_142,fr6_c3).
body(r_fr6_142,fr6_d3).
body(r_fr6_142,fr6_q4).
body(r_fr6_142,fr6_s4).
body(r_fr6_142,fr6_v1).
body(r_fr6_142,fr19_u2).
head(r_fr6_143,fr19_u2).
body(r_fr6_143,fr12_d1).
body(r_fr6_143,fr12_d1).
body(r_fr6_143,fr6_p2).
body(r_fr6_143,fr6_q1).
body(r_fr6_143,fr25_y2).
body(r_fr6_143,fr6_s4).
head(r_fr6_144,fr19_u2).
body(r_fr6_144,fr6_v1).
head(r_fr6_145,fr19_u2).
body(r_fr6_145,fr6_a1).
body(r_fr6_145,fr6_b4).
body(r_fr6_145,fr6_b5).
body(r_fr6_145,fr6_c5).
body(r_fr6_145,fr6_e3).
body(r_fr6_145,fr12_d1).
body(r_fr6_145,fr6_q3).
body(r_fr6_145,fr6_u1).
head(r_fr6_146,fr19_u2).
body(r_fr6_146,fr6_b1).
body(r_fr6_146,fr12_d1).
body(r_fr6_146,fr6_c3).
body(r_fr6_146,fr12_d1).
body(r_fr6_146,fr6_d2).
body(r_fr6_146,fr6_d4).
body(r_fr6_146,fr12_d1).
body(r_fr6_146,fr12_d1).
body(r_fr6_146,fr6_f3).
body(r_fr6_146,fr6_v1).
head(r_fr6_147,fr19_u2).
body(r_fr6_147,fr22_a2).
body(r_fr6_147,fr2_e1).
body(r_fr6_147,fr17_d2).
head(r_fr6_148,fr19_u2).
body(r_fr6_148,fr12_d1).
body(r_fr6_148,fr6_e3).
body(r_fr6_148,fr6_p2).
body(r_fr6_148,fr6_q3).
body(r_fr6_148,fr6_s4).
body(r_fr6_148,fr6_t4).
body(r_fr6_148,fr6_u1).
body(r_fr6_148,fr6_v4).
head(r_fr6_149,fr25_y2).
body(r_fr6_149,fr6_p2).
body(r_fr6_149,fr6_q1).
body(r_fr6_149,fr6_q4).
body(r_fr6_149,fr6_s4).
body(r_fr6_149,fr6_t4).
body(r_fr6_149,fr6_u1).
body(r_fr6_149,fr6_v1).
body(r_fr6_149,fr6_v4).
body(r_fr6_149,fr6_z2).
head(r_fr6_150,fr25_y2).
body(r_fr6_150,fr6_c2).
body(r_fr6_150,fr6_e2).
head(r_fr6_151,fr25_y2).
body(r_fr6_151,fr6_b4).
body(r_fr6_151,fr6_b5).
body(r_fr6_151,fr12_d1).
body(r_fr6_151,fr12_d1).
body(r_fr6_151,fr6_p2).
body(r_fr6_151,fr6_q1).
body(r_fr6_151,fr6_q3).
body(r_fr6_151,fr6_v1).
body(r_fr6_151,fr6_z2).
head(r_fr6_152,fr25_y2).
body(r_fr6_152,fr2_e1).
body(r_fr6_152,fr6_b1).
body(r_fr6_152,fr12_d1).
body(r_fr6_152,fr6_c1).
body(r_fr6_152,fr12_d1).
body(r_fr6_152,fr6_e3).
body(r_fr6_152,fr12_d1).
head(r_fr6_153,fr6_v1).
body(r_fr6_153,fr22_a2).
body(r_fr6_153,fr12_d1).
body(r_fr6_153,fr6_q1).
body(r_fr6_153,fr6_q3).
body(r_fr6_153,fr6_q4).
body(r_fr6_153,fr6_u1).
body(r_fr6_153,fr6_v4).
head(r_fr6_154,fr6_v1).
body(r_fr6_154,fr6_p2).
body(r_fr6_154,fr6_q1).
body(r_fr6_154,fr6_q3).
body(r_fr6_154,fr6_q4).
body(r_fr6_154,fr6_s4).
body(r_fr6_154,fr6_t4).
body(r_fr6_154,fr6_u1).
body(r_fr6_154,fr6_v4).
body(r_fr6_154,fr6_z2).
head(r_fr6_155,fr6_v1).
body(r_fr6_155,fr6_a1).
body(r_fr6_155,fr12_d1).
body(r_fr6_155,fr6_q3).
head(r_fr6_156,fr6_v1).
body(r_fr6_156,fr6_b2).
body(r_fr6_156,fr6_c2).
body(r_fr6_156,fr6_d3).
body(r_fr6_156,fr12_d1).
body(r_fr6_156,fr6_f2).
body(r_fr6_156,fr6_f3).
body(r_fr6_156,fr6_f4).
body(r_fr6_156,fr6_q4).
body(r_fr6_156,fr6_t4).
head(r_fr6_157,fr6_v1).
body(r_fr6_157,fr22_a2).
body(r_fr6_157,fr12_d1).
body(r_fr6_157,fr6_b5).
body(r_fr6_157,fr12_d1).
body(r_fr6_157,fr6_d2).
body(r_fr6_157,fr6_e3).
body(r_fr6_157,fr6_f3).
head(r_fr6_158,fr6_v1).
body(r_fr6_158,fr22_a2).
body(r_fr6_158,fr6_b4).
body(r_fr6_158,fr6_c5).
body(r_fr6_158,fr12_d1).
body(r_fr6_158,fr6_f2).
body(r_fr6_158,fr6_p2).
body(r_fr6_158,fr6_t4).
body(r_fr6_158,fr6_v4).
body(r_fr6_158,fr6_z2).

assumption(fr17_d3).
assumption(fr7_b1).
assumption(fr12_d1).
assumption(fr7_d1).
assumption(fr21_d2).
assumption(fr7_f1).
assumption(fr9_c3).
assumption(fr7_b2).
assumption(fr2_b1).
assumption(fr7_d2).
assumption(fr7_e2).
assumption(fr7_f2).
assumption(fr7_a3).
assumption(fr7_b3).
assumption(fr11_e2).
assumption(fr7_d3).
assumption(fr20_c2).
assumption(fr12_d1).
assumption(fr7_a4).
assumption(fr18_b3).
assumption(fr14_e2).
assumption(fr7_d4).
assumption(fr6_d2).
assumption(fr7_f4).
assumption(fr8_a2).
assumption(fr17_d2).
assumption(fr2_a1).
contrary(fr17_d3,fr7_z4).
contrary(fr9_c3,fr24_s3).
contrary(fr7_a3,fr24_t3).
contrary(fr7_a4,fr7_t2).
contrary(fr8_a2,fr20_u3).
contrary(fr7_b1,fr13_v2).
contrary(fr7_b2,fr11_e2).
contrary(fr7_b3,fr11_e2).
contrary(fr18_b3,fr10_r1).
contrary(fr17_d2,fr18_b3).
contrary(fr12_d1,fr18_b3).
contrary(fr2_b1,fr7_r2).
contrary(fr11_e2,fr2_a1).
contrary(fr14_e2,fr10_r1).
contrary(fr2_a1,fr11_r3).
contrary(fr7_d1,fr7_u1).
contrary(fr7_d2,fr5_s1).
contrary(fr7_d3,fr7_s1).
contrary(fr7_d4,fr7_x1).
contrary(fr21_d2,fr24_s3).
contrary(fr7_e2,fr5_s1).
contrary(fr20_c2,fr12_d1).
contrary(fr6_d2,fr7_x1).
contrary(fr7_f1,fr7_d4).
contrary(fr7_f2,fr20_c2).
contrary(fr12_d1,fr7_f2).
contrary(fr7_f4,fr24_s1).
head(r_fr7_0,fr21_r2).
body(r_fr7_0,fr7_f2).
head(r_fr7_1,fr21_r2).
body(r_fr7_1,fr21_u5).
body(r_fr7_1,fr7_q2).
body(r_fr7_1,fr24_v2).
body(r_fr7_1,fr7_s1).
body(r_fr7_1,fr7_s2).
body(r_fr7_1,fr5_s1).
body(r_fr7_1,fr7_x1).
body(r_fr7_1,fr20_u3).
head(r_fr7_2,fr21_r2).
body(r_fr7_2,fr7_d4).
head(r_fr7_3,fr21_r2).
head(r_fr7_4,fr21_r2).
body(r_fr7_4,fr20_c2).
body(r_fr7_4,fr7_q3).
body(r_fr7_4,fr7_t2).
body(r_fr7_4,fr7_u1).
head(r_fr7_5,fr21_r2).
body(r_fr7_5,fr18_b3).
body(r_fr7_5,fr12_d1).
body(r_fr7_5,fr14_e2).
body(r_fr7_5,fr2_a1).
body(r_fr7_5,fr7_d1).
body(r_fr7_5,fr7_e2).
body(r_fr7_5,fr20_c2).
body(r_fr7_5,fr7_f1).
body(r_fr7_5,fr25_q3).
body(r_fr7_5,fr24_s3).
head(r_fr7_6,fr21_r2).
body(r_fr7_6,fr9_c3).
body(r_fr7_6,fr7_b3).
body(r_fr7_6,fr2_b1).
body(r_fr7_6,fr14_e2).
body(r_fr7_6,fr13_v2).
head(r_fr7_7,fr21_r2).
body(r_fr7_7,fr9_c3).
body(r_fr7_7,fr7_b1).
body(r_fr7_7,fr7_b2).
body(r_fr7_7,fr2_b1).
body(r_fr7_7,fr14_e2).
body(r_fr7_7,fr6_d2).
body(r_fr7_7,fr7_f2).
body(r_fr7_7,fr7_t4).
body(r_fr7_7,fr7_v1).
head(r_fr7_8,fr7_r1).
body(r_fr7_8,fr7_b3).
body(r_fr7_8,fr7_d3).
body(r_fr7_8,fr7_e2).
body(r_fr7_8,fr6_d2).
body(r_fr7_8,fr7_f1).
body(r_fr7_8,fr7_f4).
head(r_fr7_9,fr7_r1).
body(r_fr7_9,fr7_p3).
body(r_fr7_9,fr11_r3).
body(r_fr7_9,fr5_s1).
head(r_fr7_10,fr7_r1).
body(r_fr7_10,fr8_a2).
body(r_fr7_10,fr7_b2).
body(r_fr7_10,fr11_e2).
body(r_fr7_10,fr7_d2).
body(r_fr7_10,fr7_d3).
body(r_fr7_10,fr21_d2).
body(r_fr7_10,fr20_c2).
body(r_fr7_10,fr6_d2).
body(r_fr7_10,fr13_v2).
body(r_fr7_10,fr7_x3).
head(r_fr7_11,fr7_r1).
body(r_fr7_11,fr17_d3).
body(r_fr7_11,fr7_d3).
body(r_fr7_11,fr6_d2).
body(r_fr7_11,fr6_s3).
body(r_fr7_11,fr7_z4).
head(r_fr7_12,fr7_r1).
body(r_fr7_12,fr17_d3).
body(r_fr7_12,fr7_a3).
body(r_fr7_12,fr7_b2).
body(r_fr7_12,fr7_b3).
body(r_fr7_12,fr18_b3).
body(r_fr7_12,fr14_e2).
body(r_fr7_12,fr2_a1).
body(r_fr7_12,fr7_d3).
body(r_fr7_12,fr7_e2).
body(r_fr7_12,fr12_d1).
head(r_fr7_13,fr7_r1).
body(r_fr7_13,fr12_d1).
body(r_fr7_13,fr2_a1).
body(r_fr7_13,fr7_d4).
head(r_fr7_14,fr7_r1).
body(r_fr7_14,fr7_a4).
body(r_fr7_14,fr17_d2).
body(r_fr7_14,fr11_e2).
body(r_fr7_14,fr7_e2).
head(r_fr7_15,fr7_r1).
body(r_fr7_15,fr17_d3).
body(r_fr7_15,fr7_a4).
body(r_fr7_15,fr7_d1).
body(r_fr7_15,fr21_d2).
body(r_fr7_15,fr20_c2).
body(r_fr7_15,fr6_d2).
body(r_fr7_15,fr7_w1).
head(r_fr7_16,fr7_r1).
head(r_fr7_17,fr7_z1).
body(r_fr7_17,fr17_d3).
body(r_fr7_17,fr7_q2).
body(r_fr7_17,fr7_s1).
body(r_fr7_17,fr7_s3).
body(r_fr7_17,fr7_t2).
body(r_fr7_17,fr24_s3).
body(r_fr7_17,fr24_t3).
head(r_fr7_18,fr7_z1).
body(r_fr7_18,fr21_u7).
head(r_fr7_19,fr7_z1).
body(r_fr7_19,fr9_c3).
body(r_fr7_19,fr7_a4).
body(r_fr7_19,fr7_b1).
body(r_fr7_19,fr14_e2).
body(r_fr7_19,fr7_f4).
body(r_fr7_19,fr24_s1).
body(r_fr7_19,fr13_v2).
head(r_fr7_20,fr7_z1).
body(r_fr7_20,fr7_y4).
body(r_fr7_20,fr7_z1).
head(r_fr7_21,fr7_z1).
body(r_fr7_21,fr7_d3).
body(r_fr7_21,fr20_c2).
body(r_fr7_21,fr13_q3).
body(r_fr7_21,fr7_r2).
body(r_fr7_21,fr24_s1).
body(r_fr7_21,fr24_t3).
head(r_fr7_22,fr7_z1).
body(r_fr7_22,fr18_b3).
head(r_fr7_23,fr7_p3).
body(r_fr7_23,fr7_a4).
body(r_fr7_23,fr7_b2).
body(r_fr7_23,fr17_d2).
body(r_fr7_23,fr7_f2).
head(r_fr7_24,fr7_p3).
body(r_fr7_24,fr17_d3).
body(r_fr7_24,fr9_c3).
body(r_fr7_24,fr20_c2).
body(r_fr7_24,fr7_q2).
body(r_fr7_24,fr7_q3).
body(r_fr7_24,fr10_r1).
body(r_fr7_24,fr7_v4).
body(r_fr7_24,fr7_x3).
body(r_fr7_24,fr21_r2).
body(r_fr7_24,fr7_z3).
head(r_fr7_25,fr7_p3).
body(r_fr7_25,fr8_a2).
body(r_fr7_25,fr12_d1).
body(r_fr7_25,fr13_q3).
body(r_fr7_25,fr24_s3).
body(r_fr7_25,fr21_u7).
body(r_fr7_25,fr7_v4).
body(r_fr7_25,fr20_u3).
body(r_fr7_25,fr7_z3).
head(r_fr7_26,fr7_q2).
body(r_fr7_26,fr7_a3).
body(r_fr7_26,fr7_b2).
body(r_fr7_26,fr12_d1).
body(r_fr7_26,fr7_d1).
body(r_fr7_26,fr21_d2).
body(r_fr7_26,fr7_f2).
body(r_fr7_26,fr12_d1).
body(r_fr7_26,fr7_f4).
head(r_fr7_27,fr7_q2).
body(r_fr7_27,fr7_f1).
head(r_fr7_28,fr7_q2).
body(r_fr7_28,fr17_p3).
body(r_fr7_28,fr1_p1).
body(r_fr7_28,fr7_s1).
body(r_fr7_28,fr7_t2).
body(r_fr7_28,fr7_t4).
body(r_fr7_28,fr7_x1).
body(r_fr7_28,fr7_x4).
head(r_fr7_29,fr7_q2).
body(r_fr7_29,fr25_y2).
body(r_fr7_29,fr21_u5).
body(r_fr7_29,fr7_x4).
head(r_fr7_30,fr7_q2).
head(r_fr7_31,fr7_q2).
body(r_fr7_31,fr9_c3).
body(r_fr7_31,fr7_b2).
body(r_fr7_31,fr18_b3).
body(r_fr7_31,fr7_d1).
body(r_fr7_31,fr6_d2).
body(r_fr7_31,fr12_d1).
body(r_fr7_31,fr17_p3).
body(r_fr7_31,fr7_t2).
body(r_fr7_31,fr7_t4).
head(r_fr7_32,fr7_q2).
body(r_fr7_32,fr7_b2).
body(r_fr7_32,fr6_d2).
body(r_fr7_32,fr12_d1).
body(r_fr7_32,fr21_u5).
body(r_fr7_32,fr24_v2).
body(r_fr7_32,fr7_s2).
body(r_fr7_32,fr5_s1).
body(r_fr7_32,fr7_u1).
body(r_fr7_32,fr7_y3).
head(r_fr7_33,fr7_q2).
body(r_fr7_33,fr18_b3).
body(r_fr7_33,fr14_e2).
body(r_fr7_33,fr2_a1).
body(r_fr7_33,fr7_f2).
head(r_fr7_34,fr7_q2).
body(r_fr7_34,fr17_p3).
body(r_fr7_34,fr7_q3).
body(r_fr7_34,fr1_p1).
body(r_fr7_34,fr7_w1).
body(r_fr7_34,fr21_r2).
head(r_fr7_35,fr13_v2).
body(r_fr7_35,fr13_q3).
body(r_fr7_35,fr7_t2).
body(r_fr7_35,fr25_q3).
body(r_fr7_35,fr7_x3).
head(r_fr7_36,fr13_v2).
body(r_fr7_36,fr7_a3).
body(r_fr7_36,fr7_a4).
body(r_fr7_36,fr7_b2).
body(r_fr7_36,fr18_b3).
body(r_fr7_36,fr7_d1).
body(r_fr7_36,fr7_d3).
body(r_fr7_36,fr21_d2).
body(r_fr7_36,fr7_e2).
body(r_fr7_36,fr7_f1).
body(r_fr7_36,fr21_r2).
head(r_fr7_37,fr7_v1).
body(r_fr7_37,fr7_x1).
body(r_fr7_37,fr7_y3).
head(r_fr7_38,fr7_v1).
body(r_fr7_38,fr7_d1).
body(r_fr7_38,fr7_t2).
body(r_fr7_38,fr7_v2).
body(r_fr7_38,fr9_q1).
head(r_fr7_39,fr7_v1).
body(r_fr7_39,fr17_d3).
body(r_fr7_39,fr7_a3).
body(r_fr7_39,fr11_e2).
body(r_fr7_39,fr25_y2).
body(r_fr7_39,fr7_s3).
body(r_fr7_39,fr21_u7).
head(r_fr7_40,fr7_v1).
body(r_fr7_40,fr17_d3).
body(r_fr7_40,fr7_f4).
body(r_fr7_40,fr25_q3).
head(r_fr7_41,fr7_y3).
body(r_fr7_41,fr17_d3).
body(r_fr7_41,fr7_a3).
body(r_fr7_41,fr8_a2).
body(r_fr7_41,fr18_b3).
body(r_fr7_41,fr14_e2).
body(r_fr7_41,fr7_f1).
body(r_fr7_41,fr5_s1).
body(r_fr7_41,fr7_z3).
head(r_fr7_42,fr7_y3).
body(r_fr7_42,fr7_b2).
body(r_fr7_42,fr7_q3).
body(r_fr7_42,fr7_r2).
body(r_fr7_42,fr7_s2).
body(r_fr7_42,fr24_s1).
body(r_fr7_42,fr7_z1).
head(r_fr7_43,fr7_y3).
body(r_fr7_43,fr7_a4).
body(r_fr7_43,fr12_d1).
body(r_fr7_43,fr25_y2).
head(r_fr7_44,fr5_s1).
body(r_fr7_44,fr14_e2).
body(r_fr7_44,fr25_y2).
body(r_fr7_44,fr7_u1).
head(r_fr7_45,fr5_s1).
body(r_fr7_45,fr11_e2).
body(r_fr7_45,fr2_a1).
body(r_fr7_45,fr7_v2).
body(r_fr7_45,fr24_s1).
body(r_fr7_45,fr9_q1).
head(r_fr7_46,fr5_s1).
body(r_fr7_46,fr7_t2).
body(r_fr7_46,fr21_r2).
body(r_fr7_46,fr6_s3).
head(r_fr7_47,fr5_s1).
body(r_fr7_47,fr17_d2).
body(r_fr7_47,fr7_d1).
body(r_fr7_47,fr11_r3).
body(r_fr7_47,fr7_v4).
head(r_fr7_48,fr5_s1).
body(r_fr7_48,fr11_e2).
body(r_fr7_48,fr6_d2).
body(r_fr7_48,fr1_p1).
body(r_fr7_48,fr24_s3).
body(r_fr7_48,fr7_w1).
body(r_fr7_48,fr6_s3).
body(r_fr7_48,fr7_z4).
head(r_fr7_49,fr24_s3).
body(r_fr7_49,fr7_a3).
body(r_fr7_49,fr7_f2).
body(r_fr7_49,fr21_u5).
body(r_fr7_49,fr7_q3).
body(r_fr7_49,fr7_s1).
body(r_fr7_49,fr7_t4).
body(r_fr7_49,fr24_s1).
body(r_fr7_49,fr6_s3).
head(r_fr7_50,fr24_s3).
body(r_fr7_50,fr18_b3).
body(r_fr7_50,fr7_d4).
body(r_fr7_50,fr10_r1).
head(r_fr7_51,fr24_s3).
body(r_fr7_51,fr11_e2).
body(r_fr7_51,fr7_d2).
body(r_fr7_51,fr7_d4).
body(r_fr7_51,fr7_f4).
body(r_fr7_51,fr13_q3).
head(r_fr7_52,fr24_s3).
body(r_fr7_52,fr1_p1).
body(r_fr7_52,fr10_r1).
head(r_fr7_53,fr24_s3).
body(r_fr7_53,fr14_e2).
body(r_fr7_53,fr7_d2).
body(r_fr7_53,fr25_q3).
body(r_fr7_53,fr7_u1).
body(r_fr7_53,fr21_u7).
body(r_fr7_53,fr7_v2).
body(r_fr7_53,fr24_s1).
body(r_fr7_53,fr7_v4).
body(r_fr7_53,fr21_r2).
body(r_fr7_53,fr7_z1).
head(r_fr7_54,fr24_s3).
body(r_fr7_54,fr7_e2).
head(r_fr7_55,fr24_s3).
body(r_fr7_55,fr7_b1).
body(r_fr7_55,fr20_u3).
head(r_fr7_56,fr24_s3).
body(r_fr7_56,fr9_c3).
body(r_fr7_56,fr2_b1).
body(r_fr7_56,fr11_e2).
body(r_fr7_56,fr7_d2).
body(r_fr7_56,fr21_u5).
body(r_fr7_56,fr7_t2).
body(r_fr7_56,fr7_y4).
head(r_fr7_57,fr24_s3).
body(r_fr7_57,fr7_w1).
body(r_fr7_57,fr7_x4).
head(r_fr7_58,fr7_w1).
body(r_fr7_58,fr1_p1).
body(r_fr7_58,fr7_t4).
body(r_fr7_58,fr5_s1).
body(r_fr7_58,fr7_x1).
body(r_fr7_58,fr7_x4).
body(r_fr7_58,fr20_u3).
body(r_fr7_58,fr7_z1).
head(r_fr7_59,fr7_w1).
body(r_fr7_59,fr7_t4).
head(r_fr7_60,fr7_w1).
body(r_fr7_60,fr7_b2).
body(r_fr7_60,fr7_b3).
body(r_fr7_60,fr11_e2).
body(r_fr7_60,fr7_e2).
body(r_fr7_60,fr7_f2).
body(r_fr7_60,fr7_f4).
body(r_fr7_60,fr13_q3).
head(r_fr7_61,fr7_w1).
body(r_fr7_61,fr7_b1).
head(r_fr7_62,fr7_w1).
body(r_fr7_62,fr7_a4).
body(r_fr7_62,fr7_f1).
body(r_fr7_62,fr13_q3).
head(r_fr7_63,fr10_r1).
body(r_fr7_63,fr8_a2).
body(r_fr7_63,fr7_d3).
body(r_fr7_63,fr21_d2).
body(r_fr7_63,fr1_p1).
body(r_fr7_63,fr7_t2).
body(r_fr7_63,fr7_u1).
body(r_fr7_63,fr9_q1).
body(r_fr7_63,fr20_u3).
body(r_fr7_63,fr7_y4).
body(r_fr7_63,fr7_z1).
head(r_fr7_64,fr10_r1).
body(r_fr7_64,fr7_b1).
body(r_fr7_64,fr7_b2).
body(r_fr7_64,fr11_r3).
body(r_fr7_64,fr24_v2).
body(r_fr7_64,fr5_s1).
head(r_fr7_65,fr10_r1).
body(r_fr7_65,fr9_c3).
body(r_fr7_65,fr7_a4).
body(r_fr7_65,fr7_b2).
body(r_fr7_65,fr7_b3).
body(r_fr7_65,fr12_d1).
body(r_fr7_65,fr2_b1).
body(r_fr7_65,fr11_e2).
body(r_fr7_65,fr7_d3).
body(r_fr7_65,fr20_c2).
head(r_fr7_66,fr10_r1).
body(r_fr7_66,fr8_a2).
body(r_fr7_66,fr14_e2).
body(r_fr7_66,fr21_d2).
body(r_fr7_66,fr7_r2).
body(r_fr7_66,fr6_s3).
head(r_fr7_67,fr10_r1).
body(r_fr7_67,fr25_y2).
body(r_fr7_67,fr7_s3).
body(r_fr7_67,fr25_q3).
body(r_fr7_67,fr7_t4).
body(r_fr7_67,fr20_u3).
body(r_fr7_67,fr7_z1).
head(r_fr7_68,fr10_r1).
body(r_fr7_68,fr24_s1).
body(r_fr7_68,fr20_u3).
head(r_fr7_69,fr20_u3).
body(r_fr7_69,fr8_a2).
body(r_fr7_69,fr7_b1).
body(r_fr7_69,fr11_e2).
body(r_fr7_69,fr2_a1).
body(r_fr7_69,fr24_v2).
body(r_fr7_69,fr7_z4).
head(r_fr7_70,fr20_u3).
body(r_fr7_70,fr17_d3).
body(r_fr7_70,fr7_a4).
body(r_fr7_70,fr7_b1).
body(r_fr7_70,fr18_b3).
body(r_fr7_70,fr14_e2).
body(r_fr7_70,fr7_f1).
body(r_fr7_70,fr7_f2).
body(r_fr7_70,fr17_p3).
body(r_fr7_70,fr7_t4).
head(r_fr7_71,fr20_u3).
body(r_fr7_71,fr7_b2).
body(r_fr7_71,fr2_b1).
body(r_fr7_71,fr7_d3).
body(r_fr7_71,fr20_c2).
body(r_fr7_71,fr12_d1).
head(r_fr7_72,fr20_u3).
body(r_fr7_72,fr7_a4).
body(r_fr7_72,fr12_d1).
body(r_fr7_72,fr2_a1).
body(r_fr7_72,fr25_y2).
body(r_fr7_72,fr7_r2).
body(r_fr7_72,fr7_t4).
body(r_fr7_72,fr21_u7).
head(r_fr7_73,fr17_p3).
body(r_fr7_73,fr7_f4).
head(r_fr7_74,fr17_p3).
body(r_fr7_74,fr17_d3).
body(r_fr7_74,fr8_a2).
body(r_fr7_74,fr7_b3).
body(r_fr7_74,fr14_e2).
body(r_fr7_74,fr7_d1).
body(r_fr7_74,fr7_r2).
body(r_fr7_74,fr7_s2).
body(r_fr7_74,fr7_u1).
body(r_fr7_74,fr7_v4).
head(r_fr7_75,fr17_p3).
body(r_fr7_75,fr17_d3).
body(r_fr7_75,fr24_v2).
head(r_fr7_76,fr17_p3).
body(r_fr7_76,fr17_d3).
body(r_fr7_76,fr7_b3).
body(r_fr7_76,fr7_d1).
body(r_fr7_76,fr7_d2).
body(r_fr7_76,fr21_d2).
body(r_fr7_76,fr20_c2).
body(r_fr7_76,fr7_v4).
body(r_fr7_76,fr5_s1).
body(r_fr7_76,fr7_z1).
body(r_fr7_76,fr7_z4).
head(r_fr7_77,fr17_p3).
body(r_fr7_77,fr9_c3).
body(r_fr7_77,fr8_a2).
body(r_fr7_77,fr17_d2).
body(r_fr7_77,fr2_b1).
body(r_fr7_77,fr11_e2).
body(r_fr7_77,fr14_e2).
body(r_fr7_77,fr2_a1).
body(r_fr7_77,fr21_d2).
body(r_fr7_77,fr7_f1).
body(r_fr7_77,fr9_q1).
head(r_fr7_78,fr17_p3).
body(r_fr7_78,fr7_a4).
body(r_fr7_78,fr2_a1).
body(r_fr7_78,fr25_y2).
body(r_fr7_78,fr1_p1).
body(r_fr7_78,fr24_v2).
body(r_fr7_78,fr7_t2).
body(r_fr7_78,fr5_s1).
body(r_fr7_78,fr7_x4).
body(r_fr7_78,fr7_z1).
body(r_fr7_78,fr7_z3).
head(r_fr7_79,fr7_s1).
body(r_fr7_79,fr1_p1).
body(r_fr7_79,fr7_t2).
body(r_fr7_79,fr21_u7).
body(r_fr7_79,fr5_s1).
body(r_fr7_79,fr21_r2).
body(r_fr7_79,fr7_y4).
head(r_fr7_80,fr7_s1).
body(r_fr7_80,fr18_b3).
body(r_fr7_80,fr7_d2).
body(r_fr7_80,fr21_u5).
body(r_fr7_80,fr24_v2).
body(r_fr7_80,fr7_u1).
body(r_fr7_80,fr24_t3).
body(r_fr7_80,fr7_y4).
body(r_fr7_80,fr7_z1).
body(r_fr7_80,fr6_s3).
body(r_fr7_80,fr7_z4).
head(r_fr7_81,fr21_r2).
body(r_fr7_81,fr7_b2).
body(r_fr7_81,fr17_d2).
body(r_fr7_81,fr12_d1).
body(r_fr7_81,fr7_d3).
body(r_fr7_81,fr7_e2).
body(r_fr7_81,fr13_q3).
body(r_fr7_81,fr7_t4).
body(r_fr7_81,fr5_s1).
body(r_fr7_81,fr7_x3).
body(r_fr7_81,fr6_s3).
head(r_fr7_82,fr21_r2).
body(r_fr7_82,fr7_a4).
body(r_fr7_82,fr18_b3).
body(r_fr7_82,fr17_d2).
body(r_fr7_82,fr12_d1).
body(r_fr7_82,fr2_b1).
body(r_fr7_82,fr14_e2).
body(r_fr7_82,fr7_d2).
body(r_fr7_82,fr7_e2).
body(r_fr7_82,fr20_c2).
body(r_fr7_82,fr7_f1).
head(r_fr7_83,fr21_r2).
body(r_fr7_83,fr7_b1).
body(r_fr7_83,fr7_b2).
body(r_fr7_83,fr13_q3).
body(r_fr7_83,fr7_s2).
body(r_fr7_83,fr5_s1).
body(r_fr7_83,fr24_t3).
head(r_fr7_84,fr21_r2).
body(r_fr7_84,fr12_d1).
body(r_fr7_84,fr7_f4).
head(r_fr7_85,fr21_r2).
body(r_fr7_85,fr7_d1).
body(r_fr7_85,fr24_v2).
body(r_fr7_85,fr7_s2).
body(r_fr7_85,fr25_q3).
head(r_fr7_86,fr21_r2).
body(r_fr7_86,fr25_y2).
body(r_fr7_86,fr7_s2).
body(r_fr7_86,fr9_q1).
head(r_fr7_87,fr21_r2).
body(r_fr7_87,fr18_b3).
body(r_fr7_87,fr2_b1).
body(r_fr7_87,fr7_x3).
head(r_fr7_88,fr21_r2).
body(r_fr7_88,fr7_f2).
head(r_fr7_89,fr21_r2).
body(r_fr7_89,fr17_d3).
body(r_fr7_89,fr9_c3).
body(r_fr7_89,fr7_a3).
body(r_fr7_89,fr7_e2).
body(r_fr7_89,fr6_d2).
body(r_fr7_89,fr7_f2).
body(r_fr7_89,fr7_s2).
body(r_fr7_89,fr7_t2).
body(r_fr7_89,fr7_u1).
body(r_fr7_89,fr5_s1).
head(r_fr7_90,fr25_y2).
body(r_fr7_90,fr7_a3).
body(r_fr7_90,fr7_d1).
body(r_fr7_90,fr7_d2).
body(r_fr7_90,fr7_d4).
body(r_fr7_90,fr12_d1).
body(r_fr7_90,fr7_f4).
body(r_fr7_90,fr7_r2).
body(r_fr7_90,fr24_t3).
head(r_fr7_91,fr25_y2).
body(r_fr7_91,fr8_a2).
body(r_fr7_91,fr7_b2).
body(r_fr7_91,fr2_b1).
body(r_fr7_91,fr14_e2).
body(r_fr7_91,fr12_d1).
body(r_fr7_91,fr7_r2).
body(r_fr7_91,fr7_s3).
body(r_fr7_91,fr7_v4).
head(r_fr7_92,fr5_s1).
body(r_fr7_92,fr7_v2).
head(r_fr7_93,fr5_s1).
body(r_fr7_93,fr17_d2).
body(r_fr7_93,fr12_d1).
body(r_fr7_93,fr7_f1).
head(r_fr7_94,fr5_s1).
body(r_fr7_94,fr7_b3).
body(r_fr7_94,fr7_f2).
body(r_fr7_94,fr13_q3).
head(r_fr7_95,fr5_s1).
body(r_fr7_95,fr7_d1).
body(r_fr7_95,fr7_r2).
body(r_fr7_95,fr7_u1).
body(r_fr7_95,fr21_u7).
body(r_fr7_95,fr24_s1).
body(r_fr7_95,fr24_t3).
body(r_fr7_95,fr7_x4).
body(r_fr7_95,fr7_z1).
head(r_fr7_96,fr5_s1).
body(r_fr7_96,fr9_c3).
head(r_fr7_97,fr5_s1).
head(r_fr7_98,fr7_q3).
body(r_fr7_98,fr7_d4).
head(r_fr7_99,fr7_q3).
body(r_fr7_99,fr18_b3).
body(r_fr7_99,fr14_e2).
body(r_fr7_99,fr21_d2).
head(r_fr7_100,fr7_q3).
body(r_fr7_100,fr7_b2).
body(r_fr7_100,fr7_d1).
body(r_fr7_100,fr7_r2).
body(r_fr7_100,fr25_q3).
body(r_fr7_100,fr7_x1).
body(r_fr7_100,fr6_s3).
head(r_fr7_101,fr7_q3).
body(r_fr7_101,fr7_a3).
body(r_fr7_101,fr7_b2).
body(r_fr7_101,fr7_d1).
body(r_fr7_101,fr7_d2).
body(r_fr7_101,fr20_c2).
body(r_fr7_101,fr7_f2).
body(r_fr7_101,fr7_f4).
body(r_fr7_101,fr7_r2).
body(r_fr7_101,fr24_s1).
body(r_fr7_101,fr6_s3).
head(r_fr7_102,fr7_q3).
body(r_fr7_102,fr12_d1).
body(r_fr7_102,fr13_q3).
body(r_fr7_102,fr7_s2).
body(r_fr7_102,fr7_t4).
body(r_fr7_102,fr24_s1).
body(r_fr7_102,fr7_v4).
body(r_fr7_102,fr9_q1).
body(r_fr7_102,fr7_x1).
body(r_fr7_102,fr7_x3).
head(r_fr7_103,fr7_q3).
body(r_fr7_103,fr9_c3).
body(r_fr7_103,fr7_a4).
body(r_fr7_103,fr6_d2).
body(r_fr7_103,fr12_d1).
body(r_fr7_103,fr21_u5).
body(r_fr7_103,fr24_v2).
body(r_fr7_103,fr7_s3).
body(r_fr7_103,fr24_t3).
body(r_fr7_103,fr7_z1).
body(r_fr7_103,fr7_z3).
head(r_fr7_104,fr7_q3).
body(r_fr7_104,fr20_c2).
body(r_fr7_104,fr7_f4).
body(r_fr7_104,fr7_r2).
body(r_fr7_104,fr7_s2).
body(r_fr7_104,fr7_x3).
head(r_fr7_105,fr7_q3).
body(r_fr7_105,fr17_d3).
body(r_fr7_105,fr18_b3).
body(r_fr7_105,fr17_d2).
body(r_fr7_105,fr7_d1).
body(r_fr7_105,fr7_d2).
body(r_fr7_105,fr7_s3).
body(r_fr7_105,fr21_u7).
body(r_fr7_105,fr7_x4).
body(r_fr7_105,fr7_y4).
body(r_fr7_105,fr7_z1).
head(r_fr7_106,fr7_q3).
body(r_fr7_106,fr8_a2).
body(r_fr7_106,fr7_e2).
body(r_fr7_106,fr7_f1).
body(r_fr7_106,fr7_f2).
body(r_fr7_106,fr7_x1).
head(r_fr7_107,fr1_p1).
head(r_fr7_108,fr1_p1).
body(r_fr7_108,fr17_d3).
body(r_fr7_108,fr7_b2).
body(r_fr7_108,fr18_b3).
body(r_fr7_108,fr12_d1).
body(r_fr7_108,fr11_e2).
body(r_fr7_108,fr7_d3).
body(r_fr7_108,fr12_d1).
body(r_fr7_108,fr7_s2).
body(r_fr7_108,fr7_t2).
body(r_fr7_108,fr7_v4).
head(r_fr7_109,fr1_p1).
body(r_fr7_109,fr17_d3).
body(r_fr7_109,fr9_c3).
body(r_fr7_109,fr7_d2).
body(r_fr7_109,fr21_d2).
head(r_fr7_110,fr1_p1).
body(r_fr7_110,fr7_a3).
body(r_fr7_110,fr11_r3).
body(r_fr7_110,fr24_v2).
body(r_fr7_110,fr7_t2).
body(r_fr7_110,fr24_t3).
head(r_fr7_111,fr1_p1).
body(r_fr7_111,fr17_d2).
body(r_fr7_111,fr7_d2).
body(r_fr7_111,fr12_d1).
body(r_fr7_111,fr11_r3).
body(r_fr7_111,fr7_s2).
body(r_fr7_111,fr7_u1).
body(r_fr7_111,fr7_y4).
body(r_fr7_111,fr7_z4).
head(r_fr7_112,fr1_p1).
body(r_fr7_112,fr7_f1).
body(r_fr7_112,fr7_y4).
head(r_fr7_113,fr1_p1).
body(r_fr7_113,fr17_d3).
body(r_fr7_113,fr7_z1).
head(r_fr7_114,fr1_p1).
body(r_fr7_114,fr7_r2).
body(r_fr7_114,fr7_v2).
body(r_fr7_114,fr7_v4).
body(r_fr7_114,fr7_x4).
body(r_fr7_114,fr6_s3).
head(r_fr7_115,fr7_t4).
body(r_fr7_115,fr17_d3).
body(r_fr7_115,fr7_a3).
body(r_fr7_115,fr2_a1).
body(r_fr7_115,fr7_e2).
body(r_fr7_115,fr12_d1).
body(r_fr7_115,fr7_f4).
body(r_fr7_115,fr6_s3).
body(r_fr7_115,fr7_z3).
head(r_fr7_116,fr7_t4).
body(r_fr7_116,fr7_d2).
body(r_fr7_116,fr7_f1).
body(r_fr7_116,fr24_v2).
head(r_fr7_117,fr7_t4).
body(r_fr7_117,fr7_a3).
body(r_fr7_117,fr6_d2).
body(r_fr7_117,fr25_q3).
head(r_fr7_118,fr7_t4).
body(r_fr7_118,fr7_e2).
body(r_fr7_118,fr7_r2).
body(r_fr7_118,fr7_v4).
body(r_fr7_118,fr9_q1).
body(r_fr7_118,fr24_t3).
head(r_fr7_119,fr7_t4).
body(r_fr7_119,fr7_x1).
head(r_fr7_120,fr7_t4).
body(r_fr7_120,fr24_v2).
body(r_fr7_120,fr7_u1).
body(r_fr7_120,fr7_v4).
body(r_fr7_120,fr24_t3).
body(r_fr7_120,fr7_x3).
body(r_fr7_120,fr6_s3).
head(r_fr7_121,fr7_t4).
body(r_fr7_121,fr8_a2).
body(r_fr7_121,fr12_d1).
body(r_fr7_121,fr14_e2).
body(r_fr7_121,fr7_f2).
body(r_fr7_121,fr13_q3).
body(r_fr7_121,fr24_v2).
body(r_fr7_121,fr7_s3).
body(r_fr7_121,fr9_q1).
body(r_fr7_121,fr7_z1).
head(r_fr7_122,fr7_t4).
body(r_fr7_122,fr9_c3).
body(r_fr7_122,fr11_e2).
body(r_fr7_122,fr2_a1).
body(r_fr7_122,fr11_r3).
body(r_fr7_122,fr7_t2).
head(r_fr7_123,fr7_t4).
body(r_fr7_123,fr2_a1).
body(r_fr7_123,fr12_d1).
body(r_fr7_123,fr21_u5).
body(r_fr7_123,fr7_z1).
body(r_fr7_123,fr6_s3).
head(r_fr7_124,fr7_y4).
body(r_fr7_124,fr7_a3).
body(r_fr7_124,fr11_e2).
body(r_fr7_124,fr7_d4).
body(r_fr7_124,fr7_f1).
body(r_fr7_124,fr7_f4).
body(r_fr7_124,fr21_u7).
head(r_fr7_125,fr7_y4).
body(r_fr7_125,fr2_b1).
body(r_fr7_125,fr7_e2).
body(r_fr7_125,fr7_f1).
body(r_fr7_125,fr7_f4).
body(r_fr7_125,fr13_q3).
body(r_fr7_125,fr7_z1).
body(r_fr7_125,fr6_s3).
body(r_fr7_125,fr7_z3).
head(r_fr7_126,fr7_y4).
body(r_fr7_126,fr7_a4).
body(r_fr7_126,fr8_a2).
body(r_fr7_126,fr7_d2).
body(r_fr7_126,fr7_d4).
body(r_fr7_126,fr21_d2).
body(r_fr7_126,fr12_d1).
body(r_fr7_126,fr7_r2).
body(r_fr7_126,fr7_x4).
head(r_fr7_127,fr7_y4).
body(r_fr7_127,fr17_d2).
body(r_fr7_127,fr14_e2).
body(r_fr7_127,fr7_e2).
body(r_fr7_127,fr21_u5).
body(r_fr7_127,fr7_r2).
body(r_fr7_127,fr7_s2).
body(r_fr7_127,fr7_u1).
body(r_fr7_127,fr7_v2).
body(r_fr7_127,fr24_s1).
body(r_fr7_127,fr7_z4).
head(r_fr7_128,fr7_y4).
body(r_fr7_128,fr17_d3).
body(r_fr7_128,fr7_b2).
body(r_fr7_128,fr7_b3).
body(r_fr7_128,fr20_c2).
head(r_fr7_129,fr7_y4).
body(r_fr7_129,fr7_b2).
body(r_fr7_129,fr7_b3).
body(r_fr7_129,fr24_v2).
body(r_fr7_129,fr7_s2).
body(r_fr7_129,fr7_v2).
body(r_fr7_129,fr7_x3).
head(r_fr7_130,fr7_y4).
body(r_fr7_130,fr21_d2).
body(r_fr7_130,fr7_e2).
body(r_fr7_130,fr7_r2).
body(r_fr7_130,fr7_t2).
body(r_fr7_130,fr21_u7).
body(r_fr7_130,fr24_t3).
head(r_fr7_131,fr7_y4).
head(r_fr7_132,fr7_y4).
body(r_fr7_132,fr9_c3).
body(r_fr7_132,fr7_a4).
body(r_fr7_132,fr7_b3).
body(r_fr7_132,fr12_d1).
body(r_fr7_132,fr2_b1).
body(r_fr7_132,fr14_e2).
body(r_fr7_132,fr7_d1).
head(r_fr7_133,fr7_u1).
body(r_fr7_133,fr12_d1).
body(r_fr7_133,fr24_v2).
body(r_fr7_133,fr7_s3).
head(r_fr7_134,fr7_u1).
body(r_fr7_134,fr8_a2).
body(r_fr7_134,fr7_d2).
body(r_fr7_134,fr20_c2).
body(r_fr7_134,fr7_v2).
head(r_fr7_135,fr7_u1).
body(r_fr7_135,fr6_s3).
head(r_fr7_136,fr7_u1).
body(r_fr7_136,fr7_b1).
body(r_fr7_136,fr20_c2).
body(r_fr7_136,fr7_f1).
body(r_fr7_136,fr7_f2).
body(r_fr7_136,fr7_t2).
body(r_fr7_136,fr25_q3).
body(r_fr7_136,fr7_v4).
body(r_fr7_136,fr7_x3).
body(r_fr7_136,fr7_z1).
body(r_fr7_136,fr6_s3).
head(r_fr7_137,fr7_u1).
body(r_fr7_137,fr9_c3).
body(r_fr7_137,fr7_b3).
body(r_fr7_137,fr2_a1).
body(r_fr7_137,fr6_d2).
body(r_fr7_137,fr21_u5).
body(r_fr7_137,fr7_s3).
body(r_fr7_137,fr7_x3).
body(r_fr7_137,fr7_z1).
body(r_fr7_137,fr7_z4).
head(r_fr7_138,fr9_q1).
body(r_fr7_138,fr17_d3).
body(r_fr7_138,fr7_a3).
body(r_fr7_138,fr18_b3).
body(r_fr7_138,fr17_d2).
body(r_fr7_138,fr7_d2).
body(r_fr7_138,fr7_d3).
body(r_fr7_138,fr21_d2).
body(r_fr7_138,fr12_d1).
body(r_fr7_138,fr7_f4).
head(r_fr7_139,fr9_q1).
body(r_fr7_139,fr7_a3).
body(r_fr7_139,fr8_a2).
body(r_fr7_139,fr7_z3).
head(r_fr7_140,fr9_q1).
body(r_fr7_140,fr11_r3).
body(r_fr7_140,fr24_s1).
head(r_fr7_141,fr9_q1).
body(r_fr7_141,fr7_d3).
body(r_fr7_141,fr7_s2).
body(r_fr7_141,fr25_q3).
body(r_fr7_141,fr24_s1).
body(r_fr7_141,fr6_s3).
head(r_fr7_142,fr9_q1).
body(r_fr7_142,fr2_b1).
body(r_fr7_142,fr7_d3).
body(r_fr7_142,fr11_r3).
body(r_fr7_142,fr13_q3).
body(r_fr7_142,fr7_r2).
body(r_fr7_142,fr24_v2).
body(r_fr7_142,fr7_v2).
body(r_fr7_142,fr7_v4).
body(r_fr7_142,fr7_z4).
head(r_fr7_143,fr24_t3).
body(r_fr7_143,fr17_d2).
body(r_fr7_143,fr24_v2).
body(r_fr7_143,fr7_s3).
body(r_fr7_143,fr25_q3).
head(r_fr7_144,fr24_t3).
body(r_fr7_144,fr21_u7).
body(r_fr7_144,fr7_v2).
body(r_fr7_144,fr24_s1).
head(r_fr7_145,fr24_t3).
body(r_fr7_145,fr6_d2).
body(r_fr7_145,fr21_u5).
body(r_fr7_145,fr13_q3).
body(r_fr7_145,fr7_r2).
body(r_fr7_145,fr25_q3).
body(r_fr7_145,fr24_s1).
body(r_fr7_145,fr7_x1).
body(r_fr7_145,fr7_x3).
body(r_fr7_145,fr7_z1).
body(r_fr7_145,fr7_z3).
head(r_fr7_146,fr24_t3).
body(r_fr7_146,fr7_f2).
head(r_fr7_147,fr24_t3).
body(r_fr7_147,fr7_b1).
body(r_fr7_147,fr24_s1).
head(r_fr7_148,fr24_t3).
body(r_fr7_148,fr20_c2).
head(r_fr7_149,fr21_u5).
body(r_fr7_149,fr9_c3).
body(r_fr7_149,fr7_a3).
body(r_fr7_149,fr7_a4).
body(r_fr7_149,fr8_a2).
body(r_fr7_149,fr2_b1).
body(r_fr7_149,fr7_e2).
body(r_fr7_149,fr20_c2).
body(r_fr7_149,fr7_f2).
body(r_fr7_149,fr7_f4).
body(r_fr7_149,fr7_v4).
head(r_fr7_150,fr21_u5).
head(r_fr7_151,fr21_u5).
body(r_fr7_151,fr7_f2).
head(r_fr7_152,fr13_q3).
body(r_fr7_152,fr11_r3).
body(r_fr7_152,fr24_v2).
body(r_fr7_152,fr21_u7).
body(r_fr7_152,fr7_v2).
body(r_fr7_152,fr7_v4).
body(r_fr7_152,fr7_x4).
body(r_fr7_152,fr7_z1).
body(r_fr7_152,fr7_z3).
body(r_fr7_152,fr7_z4).
head(r_fr7_153,fr13_q3).
body(r_fr7_153,fr11_e2).
body(r_fr7_153,fr14_e2).
body(r_fr7_153,fr7_f4).
body(r_fr7_153,fr7_s3).
body(r_fr7_153,fr7_v2).
head(r_fr7_154,fr13_q3).
body(r_fr7_154,fr2_b1).
body(r_fr7_154,fr20_c2).
body(r_fr7_154,fr11_r3).
body(r_fr7_154,fr25_q3).
body(r_fr7_154,fr7_x3).
body(r_fr7_154,fr7_z3).
head(r_fr7_155,fr13_q3).
body(r_fr7_155,fr8_a2).
body(r_fr7_155,fr14_e2).
body(r_fr7_155,fr7_v4).
body(r_fr7_155,fr7_x1).
body(r_fr7_155,fr7_x3).
body(r_fr7_155,fr6_s3).
head(r_fr7_156,fr13_q3).
body(r_fr7_156,fr7_d2).
body(r_fr7_156,fr7_d3).
body(r_fr7_156,fr7_r2).
body(r_fr7_156,fr7_v4).
head(r_fr7_157,fr7_r2).
body(r_fr7_157,fr17_d2).
body(r_fr7_157,fr7_s3).
body(r_fr7_157,fr7_t2).
body(r_fr7_157,fr21_u7).
body(r_fr7_157,fr7_v2).
body(r_fr7_157,fr7_v4).
body(r_fr7_157,fr7_x1).
body(r_fr7_157,fr7_x3).
body(r_fr7_157,fr7_z1).
head(r_fr7_158,fr7_r2).
body(r_fr7_158,fr7_b1).
body(r_fr7_158,fr18_b3).
body(r_fr7_158,fr12_d1).
body(r_fr7_158,fr20_c2).
body(r_fr7_158,fr6_d2).
body(r_fr7_158,fr7_f4).
body(r_fr7_158,fr24_v2).
body(r_fr7_158,fr7_s2).
head(r_fr7_159,fr7_r2).
body(r_fr7_159,fr24_s1).
head(r_fr7_160,fr7_r2).
body(r_fr7_160,fr14_e2).
head(r_fr7_161,fr7_r2).
head(r_fr7_162,fr7_r2).
body(r_fr7_162,fr9_c3).
body(r_fr7_162,fr7_a4).
body(r_fr7_162,fr8_a2).
body(r_fr7_162,fr7_b1).
body(r_fr7_162,fr17_d2).
body(r_fr7_162,fr7_d1).
body(r_fr7_162,fr6_d2).
head(r_fr7_163,fr7_r2).
body(r_fr7_163,fr7_a3).
body(r_fr7_163,fr8_a2).
body(r_fr7_163,fr7_b3).
body(r_fr7_163,fr11_e2).
body(r_fr7_163,fr2_a1).
body(r_fr7_163,fr7_d1).
body(r_fr7_163,fr20_c2).
body(r_fr7_163,fr21_u7).
head(r_fr7_164,fr7_z3).
body(r_fr7_164,fr8_a2).
body(r_fr7_164,fr14_e2).
body(r_fr7_164,fr7_s3).
body(r_fr7_164,fr25_q3).
body(r_fr7_164,fr7_x1).
body(r_fr7_164,fr6_s3).
head(r_fr7_165,fr7_z3).
body(r_fr7_165,fr7_a4).
body(r_fr7_165,fr7_b2).
body(r_fr7_165,fr17_d2).
body(r_fr7_165,fr12_d1).
body(r_fr7_165,fr2_b1).
body(r_fr7_165,fr11_e2).
body(r_fr7_165,fr7_d2).
body(r_fr7_165,fr7_e2).
body(r_fr7_165,fr20_c2).
head(r_fr7_166,fr7_z3).
body(r_fr7_166,fr17_d2).
body(r_fr7_166,fr7_d2).
body(r_fr7_166,fr12_d1).
body(r_fr7_166,fr7_f4).
body(r_fr7_166,fr7_s2).
body(r_fr7_166,fr25_q3).
body(r_fr7_166,fr21_u7).
head(r_fr7_167,fr7_z3).
body(r_fr7_167,fr24_v2).
body(r_fr7_167,fr7_v2).
body(r_fr7_167,fr24_s1).
body(r_fr7_167,fr7_x1).
body(r_fr7_167,fr7_x3).
body(r_fr7_167,fr6_s3).
head(r_fr7_168,fr7_z3).
body(r_fr7_168,fr12_d1).
body(r_fr7_168,fr7_d1).
body(r_fr7_168,fr7_d4).
body(r_fr7_168,fr7_f2).
body(r_fr7_168,fr7_s3).
body(r_fr7_168,fr25_q3).
body(r_fr7_168,fr7_z1).
head(r_fr7_169,fr7_v2).
body(r_fr7_169,fr11_e2).
body(r_fr7_169,fr7_d3).
body(r_fr7_169,fr11_r3).
body(r_fr7_169,fr7_t2).
body(r_fr7_169,fr24_s1).
body(r_fr7_169,fr7_v4).
body(r_fr7_169,fr7_x4).
body(r_fr7_169,fr7_z1).
body(r_fr7_169,fr6_s3).
body(r_fr7_169,fr7_z4).
head(r_fr7_170,fr7_v2).
body(r_fr7_170,fr6_d2).
body(r_fr7_170,fr7_f1).
body(r_fr7_170,fr7_s3).
body(r_fr7_170,fr6_s3).
body(r_fr7_170,fr7_z4).
head(r_fr7_171,fr7_v2).
body(r_fr7_171,fr9_c3).
body(r_fr7_171,fr17_d2).
body(r_fr7_171,fr7_f1).
body(r_fr7_171,fr11_r3).
body(r_fr7_171,fr7_s3).
body(r_fr7_171,fr21_u7).
body(r_fr7_171,fr7_v4).
body(r_fr7_171,fr7_x4).
body(r_fr7_171,fr7_z4).
head(r_fr7_172,fr7_v2).
head(r_fr7_173,fr7_v2).
body(r_fr7_173,fr7_s3).
body(r_fr7_173,fr24_s1).
body(r_fr7_173,fr7_x4).
body(r_fr7_173,fr7_z1).
head(r_fr7_174,fr7_v4).
body(r_fr7_174,fr7_d3).
head(r_fr7_175,fr7_v4).
body(r_fr7_175,fr6_d2).
head(r_fr7_176,fr7_v4).
body(r_fr7_176,fr18_b3).
head(r_fr7_177,fr7_x3).
body(r_fr7_177,fr8_a2).
body(r_fr7_177,fr11_r3).
body(r_fr7_177,fr21_u7).
body(r_fr7_177,fr7_z4).
head(r_fr7_178,fr7_x3).
body(r_fr7_178,fr7_a3).
body(r_fr7_178,fr8_a2).
body(r_fr7_178,fr7_b3).
body(r_fr7_178,fr2_b1).
body(r_fr7_178,fr7_e2).
body(r_fr7_178,fr7_f2).
body(r_fr7_178,fr11_r3).
body(r_fr7_178,fr7_s2).
body(r_fr7_178,fr25_q3).
head(r_fr7_179,fr7_x3).
body(r_fr7_179,fr7_f1).
body(r_fr7_179,fr7_x1).
head(r_fr7_180,fr7_x3).
body(r_fr7_180,fr17_d3).
body(r_fr7_180,fr7_d4).
body(r_fr7_180,fr7_f4).
body(r_fr7_180,fr7_s3).
body(r_fr7_180,fr7_t2).
body(r_fr7_180,fr25_q3).
body(r_fr7_180,fr21_u7).
body(r_fr7_180,fr7_x4).
body(r_fr7_180,fr6_s3).
head(r_fr7_181,fr6_s3).
body(r_fr7_181,fr7_z1).
head(r_fr7_182,fr6_s3).
body(r_fr7_182,fr7_a4).
body(r_fr7_182,fr7_b3).
body(r_fr7_182,fr6_d2).
body(r_fr7_182,fr7_f2).
body(r_fr7_182,fr7_f4).
head(r_fr7_183,fr7_s2).
body(r_fr7_183,fr7_a4).
body(r_fr7_183,fr8_a2).
body(r_fr7_183,fr7_b2).
body(r_fr7_183,fr12_d1).
body(r_fr7_183,fr7_d2).
body(r_fr7_183,fr7_d4).
body(r_fr7_183,fr21_d2).
body(r_fr7_183,fr6_d2).
body(r_fr7_183,fr7_f1).
head(r_fr7_184,fr7_s2).
body(r_fr7_184,fr18_b3).
body(r_fr7_184,fr14_e2).
body(r_fr7_184,fr7_d2).
body(r_fr7_184,fr7_s3).
body(r_fr7_184,fr25_q3).
body(r_fr7_184,fr7_x1).
body(r_fr7_184,fr7_z4).
head(r_fr7_185,fr7_s2).
body(r_fr7_185,fr11_e2).
body(r_fr7_185,fr14_e2).
body(r_fr7_185,fr7_f4).
head(r_fr7_186,fr7_s2).
body(r_fr7_186,fr24_v2).
body(r_fr7_186,fr7_t2).
body(r_fr7_186,fr7_z1).
body(r_fr7_186,fr7_z4).
head(r_fr7_187,fr7_s3).
body(r_fr7_187,fr8_a2).
body(r_fr7_187,fr7_b1).
body(r_fr7_187,fr7_b3).
body(r_fr7_187,fr7_d4).
body(r_fr7_187,fr21_d2).
body(r_fr7_187,fr20_c2).
body(r_fr7_187,fr12_d1).
head(r_fr7_188,fr7_s3).
body(r_fr7_188,fr17_d3).
body(r_fr7_188,fr7_a3).
body(r_fr7_188,fr7_b1).
body(r_fr7_188,fr12_d1).
body(r_fr7_188,fr2_b1).
body(r_fr7_188,fr7_d2).
body(r_fr7_188,fr7_d4).
body(r_fr7_188,fr24_s1).
body(r_fr7_188,fr7_x4).
head(r_fr7_189,fr7_s3).
body(r_fr7_189,fr7_t2).
body(r_fr7_189,fr24_s1).
body(r_fr7_189,fr7_z1).
head(r_fr7_190,fr7_s3).
head(r_fr7_191,fr7_s3).
body(r_fr7_191,fr11_r3).
body(r_fr7_191,fr24_s1).
body(r_fr7_191,fr7_x4).
body(r_fr7_191,fr7_z1).
body(r_fr7_191,fr7_z4).
head(r_fr7_192,fr7_s3).
body(r_fr7_192,fr7_f1).
body(r_fr7_192,fr7_t2).
body(r_fr7_192,fr25_q3).
body(r_fr7_192,fr7_z1).
head(r_fr7_193,fr7_z1).
body(r_fr7_193,fr14_e2).
body(r_fr7_193,fr7_d3).
head(r_fr7_194,fr7_z1).
body(r_fr7_194,fr21_u7).
body(r_fr7_194,fr7_z4).
head(r_fr7_195,fr7_z1).
body(r_fr7_195,fr24_v2).
body(r_fr7_195,fr24_s1).
head(r_fr7_196,fr7_z1).
body(r_fr7_196,fr7_a4).
body(r_fr7_196,fr7_b1).
body(r_fr7_196,fr7_b2).
body(r_fr7_196,fr24_v2).
body(r_fr7_196,fr21_u7).
body(r_fr7_196,fr24_s1).
body(r_fr7_196,fr7_z4).
head(r_fr7_197,fr7_z1).
head(r_fr7_198,fr7_z1).
body(r_fr7_198,fr12_d1).
body(r_fr7_198,fr12_d1).
body(r_fr7_198,fr11_r3).
body(r_fr7_198,fr24_v2).
body(r_fr7_198,fr7_t2).
body(r_fr7_198,fr25_q3).
body(r_fr7_198,fr21_u7).
body(r_fr7_198,fr7_x1).
body(r_fr7_198,fr7_z4).
head(r_fr7_199,fr7_z1).
body(r_fr7_199,fr21_d2).
body(r_fr7_199,fr6_d2).
body(r_fr7_199,fr24_v2).
body(r_fr7_199,fr25_q3).
body(r_fr7_199,fr21_u7).
body(r_fr7_199,fr24_s1).
body(r_fr7_199,fr7_x1).
head(r_fr7_200,fr7_z1).
body(r_fr7_200,fr8_a2).
body(r_fr7_200,fr2_a1).
head(r_fr7_201,fr7_z1).
body(r_fr7_201,fr17_d3).
body(r_fr7_201,fr11_e2).
body(r_fr7_201,fr7_d1).
body(r_fr7_201,fr7_d3).
body(r_fr7_201,fr21_d2).
body(r_fr7_201,fr12_d1).
body(r_fr7_201,fr7_f4).

assumption(fr12_d1).
assumption(fr8_b1).
assumption(fr11_e2).
assumption(fr12_d1).
assumption(fr9_b2).
assumption(fr8_f1).
assumption(fr8_a2).
assumption(fr17_d2).
assumption(fr12_d1).
assumption(fr17_d2).
assumption(fr8_e2).
assumption(fr12_d1).
assumption(fr14_e2).
assumption(fr1_f1).
assumption(fr17_d2).
contrary(fr12_d1,fr3_q2).
contrary(fr8_a2,fr5_s1).
contrary(fr14_e2,fr8_b1).
contrary(fr8_b1,fr12_d1).
contrary(fr17_d2,fr23_z1).
contrary(fr1_f1,fr2_y3).
contrary(fr11_e2,fr25_y2).
contrary(fr12_d1,fr1_f1).
contrary(fr17_d2,fr5_s1).
contrary(fr12_d1,fr6_t2).
contrary(fr17_d2,fr9_b2).
contrary(fr9_b2,fr23_z1).
contrary(fr8_e2,fr5_s1).
contrary(fr8_f1,fr5_s1).
contrary(fr12_d1,fr3_q2).
head(r_fr8_0,fr5_s1).
body(r_fr8_0,fr12_d1).
head(r_fr8_1,fr5_s1).
body(r_fr8_1,fr10_r1).
head(r_fr8_2,fr5_s1).
body(r_fr8_2,fr14_e2).
body(r_fr8_2,fr11_e2).
body(r_fr8_2,fr8_e2).
body(r_fr8_2,fr8_v1).
body(r_fr8_2,fr25_y2).
head(r_fr8_3,fr21_r2).
body(r_fr8_3,fr11_e2).
body(r_fr8_3,fr23_z1).
body(r_fr8_3,fr5_s1).
body(r_fr8_3,fr23_z1).
body(r_fr8_3,fr8_w2).
body(r_fr8_3,fr8_z2).
head(r_fr8_4,fr21_r2).
body(r_fr8_4,fr17_d2).
head(r_fr8_5,fr21_r2).
body(r_fr8_5,fr5_s1).
body(r_fr8_5,fr8_z1).
head(r_fr8_6,fr21_r2).
body(r_fr8_6,fr23_z1).
body(r_fr8_6,fr5_s1).
body(r_fr8_6,fr5_s1).
body(r_fr8_6,fr8_v1).
body(r_fr8_6,fr25_y2).
head(r_fr8_7,fr21_r2).
body(r_fr8_7,fr12_d1).
body(r_fr8_7,fr23_z1).
body(r_fr8_7,fr2_y3).
body(r_fr8_7,fr8_u2).
body(r_fr8_7,fr11_r3).
head(r_fr8_8,fr11_r3).
body(r_fr8_8,fr1_f1).
body(r_fr8_8,fr12_d1).
body(r_fr8_8,fr5_s1).
head(r_fr8_9,fr11_r3).
body(r_fr8_9,fr8_a2).
body(r_fr8_9,fr14_e2).
body(r_fr8_9,fr1_f1).
body(r_fr8_9,fr17_d2).
body(r_fr8_9,fr8_p3).
body(r_fr8_9,fr8_u2).
head(r_fr8_10,fr11_r3).
body(r_fr8_10,fr5_s1).
body(r_fr8_10,fr8_z1).
body(r_fr8_10,fr8_z2).
head(r_fr8_11,fr8_p3).
body(r_fr8_11,fr1_f1).
body(r_fr8_11,fr11_e2).
head(r_fr8_12,fr8_p3).
body(r_fr8_12,fr12_d1).
body(r_fr8_12,fr23_z1).
body(r_fr8_12,fr23_z1).
body(r_fr8_12,fr5_s1).
body(r_fr8_12,fr23_z1).
body(r_fr8_12,fr6_t2).
head(r_fr8_13,fr8_p3).
body(r_fr8_13,fr8_b1).
body(r_fr8_13,fr12_d1).
body(r_fr8_13,fr23_z1).
body(r_fr8_13,fr8_v2).
head(r_fr8_14,fr8_p3).
head(r_fr8_15,fr8_p3).
body(r_fr8_15,fr8_a2).
body(r_fr8_15,fr12_d1).
body(r_fr8_15,fr12_d1).
head(r_fr8_16,fr8_z1).
body(r_fr8_16,fr14_e2).
body(r_fr8_16,fr12_d1).
body(r_fr8_16,fr17_d2).
body(r_fr8_16,fr21_r2).
body(r_fr8_16,fr8_r1).
body(r_fr8_16,fr5_s1).
head(r_fr8_17,fr8_z1).
body(r_fr8_17,fr12_d1).
body(r_fr8_17,fr8_a2).
body(r_fr8_17,fr8_b1).
body(r_fr8_17,fr17_d2).
body(r_fr8_17,fr9_b2).
body(r_fr8_17,fr8_f1).
head(r_fr8_18,fr8_z1).
body(r_fr8_18,fr12_d1).
body(r_fr8_18,fr8_f1).
head(r_fr8_19,fr8_z1).
head(r_fr8_20,fr8_z1).
body(r_fr8_20,fr8_a2).
body(r_fr8_20,fr17_d2).
body(r_fr8_20,fr1_f1).
body(r_fr8_20,fr5_s1).
head(r_fr8_21,fr10_r1).
body(r_fr8_21,fr8_b1).
body(r_fr8_21,fr17_d2).
body(r_fr8_21,fr11_e2).
body(r_fr8_21,fr12_d1).
body(r_fr8_21,fr8_e2).
body(r_fr8_21,fr8_f1).
head(r_fr8_22,fr10_r1).
head(r_fr8_23,fr25_y2).
body(r_fr8_23,fr17_d2).
body(r_fr8_23,fr11_e2).
body(r_fr8_23,fr9_b2).
body(r_fr8_23,fr8_e2).
body(r_fr8_23,fr8_f1).
head(r_fr8_24,fr25_y2).
body(r_fr8_24,fr1_f1).
body(r_fr8_24,fr9_b2).
body(r_fr8_24,fr8_r1).
body(r_fr8_24,fr2_y3).
head(r_fr8_25,fr25_y2).
body(r_fr8_25,fr5_s1).
body(r_fr8_25,fr10_r1).
head(r_fr8_26,fr25_y2).
body(r_fr8_26,fr11_e2).
body(r_fr8_26,fr12_d1).
head(r_fr8_27,fr8_w2).
body(r_fr8_27,fr8_f1).
body(r_fr8_27,fr23_z1).
head(r_fr8_28,fr8_w2).
body(r_fr8_28,fr5_s1).
body(r_fr8_28,fr2_y3).
head(r_fr8_29,fr8_w2).
body(r_fr8_29,fr8_a2).
body(r_fr8_29,fr8_b1).
body(r_fr8_29,fr1_f1).
body(r_fr8_29,fr17_d2).
body(r_fr8_29,fr8_f1).
body(r_fr8_29,fr12_d1).
head(r_fr8_30,fr8_w2).
body(r_fr8_30,fr8_b1).
head(r_fr8_31,fr8_r1).
head(r_fr8_32,fr8_r1).
body(r_fr8_32,fr8_b1).
body(r_fr8_32,fr1_f1).
body(r_fr8_32,fr11_e2).
body(r_fr8_32,fr17_d2).
body(r_fr8_32,fr8_e2).
head(r_fr8_33,fr8_r1).
body(r_fr8_33,fr14_e2).
body(r_fr8_33,fr1_f1).
body(r_fr8_33,fr8_e2).
body(r_fr8_33,fr8_f1).
head(r_fr8_34,fr8_r1).
body(r_fr8_34,fr8_a2).
body(r_fr8_34,fr1_f1).
body(r_fr8_34,fr11_e2).
body(r_fr8_34,fr9_b2).
head(r_fr8_35,fr23_z1).
body(r_fr8_35,fr3_q2).
body(r_fr8_35,fr8_p3).
body(r_fr8_35,fr5_s1).
body(r_fr8_35,fr3_q2).
body(r_fr8_35,fr25_y2).
head(r_fr8_36,fr23_z1).
body(r_fr8_36,fr5_s1).
body(r_fr8_36,fr8_z2).
head(r_fr8_37,fr23_z1).
body(r_fr8_37,fr11_e2).
body(r_fr8_37,fr8_f1).
body(r_fr8_37,fr23_z1).
body(r_fr8_37,fr8_u2).
head(r_fr8_38,fr8_u2).
head(r_fr8_39,fr8_u2).
body(r_fr8_39,fr3_q2).
body(r_fr8_39,fr23_z1).
body(r_fr8_39,fr5_s1).
body(r_fr8_39,fr23_z1).
body(r_fr8_39,fr8_w2).
body(r_fr8_39,fr11_r3).
head(r_fr8_40,fr8_u2).
body(r_fr8_40,fr17_d2).
body(r_fr8_40,fr17_d2).
body(r_fr8_40,fr25_y2).
head(r_fr8_41,fr8_u2).
body(r_fr8_41,fr12_d1).
body(r_fr8_41,fr12_d1).
body(r_fr8_41,fr17_d2).
body(r_fr8_41,fr9_b2).
body(r_fr8_41,fr8_e2).
body(r_fr8_41,fr12_d1).
head(r_fr8_42,fr5_s1).
body(r_fr8_42,fr14_e2).
body(r_fr8_42,fr17_d2).
body(r_fr8_42,fr9_b2).
body(r_fr8_42,fr8_f1).
head(r_fr8_43,fr5_s1).
body(r_fr8_43,fr12_d1).
body(r_fr8_43,fr1_f1).
body(r_fr8_43,fr8_e2).
head(r_fr8_44,fr8_v1).
body(r_fr8_44,fr12_d1).
body(r_fr8_44,fr5_s1).
head(r_fr8_45,fr8_v1).
body(r_fr8_45,fr12_d1).
body(r_fr8_45,fr8_b1).
body(r_fr8_45,fr12_d1).
body(r_fr8_45,fr8_e2).
body(r_fr8_45,fr12_d1).
head(r_fr8_46,fr8_v1).
body(r_fr8_46,fr17_d2).
body(r_fr8_46,fr9_b2).
body(r_fr8_46,fr8_f1).
head(r_fr8_47,fr8_v1).
body(r_fr8_47,fr12_d1).
body(r_fr8_47,fr8_f1).
head(r_fr8_48,fr5_s1).
body(r_fr8_48,fr21_r2).
body(r_fr8_48,fr5_s1).
body(r_fr8_48,fr25_y2).
body(r_fr8_48,fr11_r3).
head(r_fr8_49,fr5_s1).
body(r_fr8_49,fr25_y2).
head(r_fr8_50,fr5_s1).
body(r_fr8_50,fr8_b1).
body(r_fr8_50,fr11_e2).
body(r_fr8_50,fr12_d1).
body(r_fr8_50,fr17_d2).
body(r_fr8_50,fr9_b2).
body(r_fr8_50,fr8_u2).
head(r_fr8_51,fr8_z2).
body(r_fr8_51,fr17_d2).
body(r_fr8_51,fr23_z1).
body(r_fr8_51,fr23_z1).
body(r_fr8_51,fr5_s1).
head(r_fr8_52,fr8_z2).
body(r_fr8_52,fr23_z1).
head(r_fr8_53,fr8_z2).
body(r_fr8_53,fr11_e2).
head(r_fr8_54,fr8_z2).
body(r_fr8_54,fr12_d1).
body(r_fr8_54,fr12_d1).
body(r_fr8_54,fr12_d1).
head(r_fr8_55,fr3_q2).
head(r_fr8_56,fr3_q2).
body(r_fr8_56,fr14_e2).
body(r_fr8_56,fr8_b1).
body(r_fr8_56,fr17_d2).
body(r_fr8_56,fr11_e2).
body(r_fr8_56,fr8_e2).
body(r_fr8_56,fr8_v2).
head(r_fr8_57,fr2_y3).
body(r_fr8_57,fr8_b1).
body(r_fr8_57,fr21_r2).
body(r_fr8_57,fr5_s1).
body(r_fr8_57,fr23_z1).
body(r_fr8_57,fr3_q2).
body(r_fr8_57,fr8_z2).
head(r_fr8_58,fr2_y3).
body(r_fr8_58,fr23_z1).
head(r_fr8_59,fr8_v2).
body(r_fr8_59,fr8_f1).
body(r_fr8_59,fr21_r2).
head(r_fr8_60,fr8_v2).
body(r_fr8_60,fr14_e2).
body(r_fr8_60,fr5_s1).
head(r_fr8_61,fr8_v2).
body(r_fr8_61,fr5_s1).
body(r_fr8_61,fr8_w2).
head(r_fr8_62,fr8_v2).
body(r_fr8_62,fr8_b1).
body(r_fr8_62,fr12_d1).
body(r_fr8_62,fr9_b2).
body(r_fr8_62,fr8_e2).
body(r_fr8_62,fr8_f1).
head(r_fr8_63,fr5_s1).
body(r_fr8_63,fr8_a2).
body(r_fr8_63,fr8_b1).
body(r_fr8_63,fr9_b2).
head(r_fr8_64,fr5_s1).
body(r_fr8_64,fr8_b1).
head(r_fr8_65,fr5_s1).
body(r_fr8_65,fr8_r1).
body(r_fr8_65,fr23_z1).
body(r_fr8_65,fr3_q2).
body(r_fr8_65,fr8_v1).
body(r_fr8_65,fr8_z2).
head(r_fr8_66,fr5_s1).
body(r_fr8_66,fr3_q2).
body(r_fr8_66,fr5_s1).
body(r_fr8_66,fr8_u2).
body(r_fr8_66,fr10_r1).
head(r_fr8_67,fr5_s1).
body(r_fr8_67,fr8_u2).
body(r_fr8_67,fr25_y2).
body(r_fr8_67,fr8_z1).
head(r_fr8_68,fr6_t2).
body(r_fr8_68,fr12_d1).
body(r_fr8_68,fr17_d2).
body(r_fr8_68,fr12_d1).
body(r_fr8_68,fr2_y3).
body(r_fr8_68,fr8_u2).
head(r_fr8_69,fr6_t2).
head(r_fr8_70,fr6_t2).
body(r_fr8_70,fr1_f1).
body(r_fr8_70,fr9_b2).
body(r_fr8_70,fr5_s1).
head(r_fr8_71,fr6_t2).
body(r_fr8_71,fr3_q2).
body(r_fr8_71,fr1_p1).
body(r_fr8_71,fr8_r1).
body(r_fr8_71,fr5_s1).
body(r_fr8_71,fr3_q2).
body(r_fr8_71,fr8_y1).
head(r_fr8_72,fr6_t2).
body(r_fr8_72,fr12_d1).
body(r_fr8_72,fr9_b2).

assumption(fr12_d1).
assumption(fr12_d1).
assumption(fr9_c1).
assumption(fr17_d2).
assumption(fr12_d1).
assumption(fr17_d2).
assumption(fr12_d1).
assumption(fr9_b2).
assumption(fr12_d1).
assumption(fr17_d2).
assumption(fr17_d2).
assumption(fr9_f2).
assumption(fr9_a3).
assumption(fr17_d2).
assumption(fr9_c3).
contrary(fr12_d1,fr12_d1).
contrary(fr12_d1,fr17_d2).
contrary(fr9_a3,fr9_c3).
contrary(fr12_d1,fr2_y3).
contrary(fr9_b2,fr12_d1).
contrary(fr17_d2,fr12_d1).
contrary(fr9_c1,fr17_d2).
contrary(fr12_d1,fr17_d2).
contrary(fr9_c3,fr17_d2).
contrary(fr17_d2,fr9_c3).
contrary(fr17_d2,fr17_d2).
contrary(fr12_d1,fr21_r2).
contrary(fr17_d2,fr9_c3).
contrary(fr17_d2,fr21_r2).
contrary(fr9_f2,fr12_d1).
head(r_fr9_0,fr3_q2).
body(r_fr9_0,fr12_d1).
head(r_fr9_1,fr3_q2).
body(r_fr9_1,fr12_d1).
body(r_fr9_1,fr17_d2).
body(r_fr9_1,fr17_d2).
body(r_fr9_1,fr2_y3).
body(r_fr9_1,fr9_q1).
head(r_fr9_2,fr3_q2).
body(r_fr9_2,fr9_f2).
body(r_fr9_2,fr2_y3).
body(r_fr9_2,fr9_q1).
body(r_fr9_2,fr25_y2).
body(r_fr9_2,fr21_r2).
head(r_fr9_3,fr2_y3).
head(r_fr9_4,fr2_y3).
body(r_fr9_4,fr9_q1).
body(r_fr9_4,fr3_q2).
body(r_fr9_4,fr21_r2).
head(r_fr9_5,fr21_r2).
body(r_fr9_5,fr9_q1).
head(r_fr9_6,fr21_r2).
head(r_fr9_7,fr21_r2).
body(r_fr9_7,fr12_d1).
body(r_fr9_7,fr2_y3).
body(r_fr9_7,fr25_y2).
head(r_fr9_8,fr21_r2).
body(r_fr9_8,fr9_c1).
body(r_fr9_8,fr2_y3).
body(r_fr9_8,fr9_q1).
body(r_fr9_8,fr3_q2).
body(r_fr9_8,fr25_y2).
head(r_fr9_9,fr25_y2).
body(r_fr9_9,fr9_b2).
body(r_fr9_9,fr9_c1).
head(r_fr9_10,fr25_y2).
body(r_fr9_10,fr9_a3).
body(r_fr9_10,fr12_d1).
body(r_fr9_10,fr12_d1).
body(r_fr9_10,fr2_y3).
body(r_fr9_10,fr9_q1).
body(r_fr9_10,fr21_r2).
head(r_fr9_11,fr25_y2).
head(r_fr9_12,fr9_q1).
body(r_fr9_12,fr12_d1).
body(r_fr9_12,fr9_c3).
body(r_fr9_12,fr12_d1).
body(r_fr9_12,fr9_f2).
body(r_fr9_12,fr25_y2).
body(r_fr9_12,fr21_r2).
head(r_fr9_13,fr9_q1).
body(r_fr9_13,fr12_d1).
body(r_fr9_13,fr9_a3).
body(r_fr9_13,fr9_b2).
body(r_fr9_13,fr12_d1).
body(r_fr9_13,fr17_d2).
body(r_fr9_13,fr25_y2).
head(r_fr9_14,fr9_q1).
body(r_fr9_14,fr12_d1).
body(r_fr9_14,fr17_d2).
body(r_fr9_14,fr17_d2).
body(r_fr9_14,fr21_r2).
head(r_fr9_15,fr9_q1).
body(r_fr9_15,fr12_d1).
body(r_fr9_15,fr9_a3).
body(r_fr9_15,fr9_c1).
body(r_fr9_15,fr9_c3).
head(r_fr9_16,fr9_q1).
body(r_fr9_16,fr17_d2).
body(r_fr9_16,fr17_d2).

assumption(fr21_c1).
assumption(fr20_b4).
assumption(fr10_c1).
assumption(fr10_d1).
assumption(fr10_e1).
assumption(fr9_c3).
assumption(fr17_d2).
assumption(fr12_d1).
assumption(fr9_b2).
assumption(fr17_d2).
assumption(fr17_d2).
assumption(fr12_d1).
assumption(fr11_e2).
assumption(fr17_d2).
assumption(fr9_c3).
contrary(fr21_c1,fr10_p4).
contrary(fr17_d2,fr3_q2).
contrary(fr11_e2,fr10_e1).
contrary(fr20_b4,fr23_z1).
contrary(fr12_d1,fr10_w3).
contrary(fr17_d2,fr10_x3).
contrary(fr10_c1,fr21_r2).
contrary(fr9_b2,fr10_q3).
contrary(fr9_c3,fr11_e2).
contrary(fr10_d1,fr17_d2).
contrary(fr17_d2,fr10_c1).
contrary(fr10_e1,fr10_w2).
contrary(fr17_d2,fr17_x1).
contrary(fr9_c3,fr5_s1).
contrary(fr12_d1,fr10_t3).
head(r_fr10_0,fr11_z1).
body(r_fr10_0,fr17_d2).
body(r_fr10_0,fr17_d2).
body(r_fr10_0,fr10_c1).
body(r_fr10_0,fr17_d2).
body(r_fr10_0,fr9_c3).
head(r_fr10_1,fr11_z1).
body(r_fr10_1,fr17_d2).
body(r_fr10_1,fr11_e2).
body(r_fr10_1,fr21_r2).
body(r_fr10_1,fr10_r3).
body(r_fr10_1,fr10_v1).
body(r_fr10_1,fr23_z1).
head(r_fr10_2,fr11_z1).
body(r_fr10_2,fr12_d1).
body(r_fr10_2,fr9_c3).
body(r_fr10_2,fr10_w1).
head(r_fr10_3,fr11_z1).
body(r_fr10_3,fr11_e2).
body(r_fr10_3,fr20_b4).
body(r_fr10_3,fr17_d2).
body(r_fr10_3,fr9_c3).
body(r_fr10_3,fr10_v1).
body(r_fr10_3,fr11_r3).
head(r_fr10_4,fr11_z1).
body(r_fr10_4,fr10_p1).
body(r_fr10_4,fr5_s1).
body(r_fr10_4,fr10_q3).
body(r_fr10_4,fr21_r2).
body(r_fr10_4,fr10_r3).
body(r_fr10_4,fr12_u2).
head(r_fr10_5,fr23_z1).
body(r_fr10_5,fr12_d1).
body(r_fr10_5,fr10_u2).
body(r_fr10_5,fr17_p3).
head(r_fr10_6,fr23_z1).
body(r_fr10_6,fr21_c1).
body(r_fr10_6,fr17_d2).
body(r_fr10_6,fr9_b2).
body(r_fr10_6,fr9_c3).
body(r_fr10_6,fr10_d1).
body(r_fr10_6,fr9_c3).
head(r_fr10_7,fr23_z1).
body(r_fr10_7,fr24_s1).
body(r_fr10_7,fr10_q2).
body(r_fr10_7,fr12_u2).
head(r_fr10_8,fr23_z1).
body(r_fr10_8,fr17_d2).
body(r_fr10_8,fr10_e1).
body(r_fr10_8,fr10_r3).
head(r_fr10_9,fr21_r2).
body(r_fr10_9,fr11_e2).
body(r_fr10_9,fr17_d2).
body(r_fr10_9,fr25_y2).
body(r_fr10_9,fr10_x2).
head(r_fr10_10,fr21_r2).
body(r_fr10_10,fr17_d2).
body(r_fr10_10,fr17_d2).
body(r_fr10_10,fr9_c3).
body(r_fr10_10,fr12_d1).
body(r_fr10_10,fr5_s1).
head(r_fr10_11,fr10_r1).
body(r_fr10_11,fr17_d2).
body(r_fr10_11,fr20_b4).
body(r_fr10_11,fr9_c3).
body(r_fr10_11,fr17_d2).
body(r_fr10_11,fr12_d1).
body(r_fr10_11,fr5_s1).
head(r_fr10_12,fr10_r1).
body(r_fr10_12,fr17_d2).
body(r_fr10_12,fr23_z1).
body(r_fr10_12,fr12_u2).
head(r_fr10_13,fr2_y3).
body(r_fr10_13,fr11_e2).
body(r_fr10_13,fr9_b2).
body(r_fr10_13,fr17_d2).
body(r_fr10_13,fr9_c3).
body(r_fr10_13,fr10_p1).
head(r_fr10_14,fr2_y3).
body(r_fr10_14,fr21_c1).
body(r_fr10_14,fr17_d2).
body(r_fr10_14,fr10_c1).
body(r_fr10_14,fr10_e1).
body(r_fr10_14,fr17_d2).
body(r_fr10_14,fr9_c3).
head(r_fr10_15,fr2_y3).
body(r_fr10_15,fr12_d1).
body(r_fr10_15,fr9_c3).
body(r_fr10_15,fr10_r3).
head(r_fr10_16,fr2_y3).
body(r_fr10_16,fr21_c1).
body(r_fr10_16,fr20_b4).
body(r_fr10_16,fr10_c1).
body(r_fr10_16,fr24_s1).
body(r_fr10_16,fr10_s2).
body(r_fr10_16,fr10_t3).
head(r_fr10_17,fr2_y3).
body(r_fr10_17,fr17_d2).
body(r_fr10_17,fr17_d2).
body(r_fr10_17,fr10_c1).
body(r_fr10_17,fr9_b2).
body(r_fr10_17,fr9_c3).
head(r_fr10_18,fr10_s2).
body(r_fr10_18,fr9_b2).
body(r_fr10_18,fr10_d1).
body(r_fr10_18,fr17_d2).
body(r_fr10_18,fr9_c3).
body(r_fr10_18,fr5_s1).
head(r_fr10_19,fr10_s2).
body(r_fr10_19,fr10_c1).
body(r_fr10_19,fr17_d2).
body(r_fr10_19,fr10_q2).
body(r_fr10_19,fr10_y3).
head(r_fr10_20,fr24_s1).
body(r_fr10_20,fr11_e2).
body(r_fr10_20,fr12_d1).
body(r_fr10_20,fr10_d1).
body(r_fr10_20,fr10_q2).
body(r_fr10_20,fr10_x2).
body(r_fr10_20,fr12_u2).
head(r_fr10_21,fr24_s1).
body(r_fr10_21,fr21_c1).
body(r_fr10_21,fr20_b4).
body(r_fr10_21,fr17_d2).
head(r_fr10_22,fr24_s1).
body(r_fr10_22,fr12_d1).
body(r_fr10_22,fr10_c1).
body(r_fr10_22,fr5_s1).
body(r_fr10_22,fr3_q2).
head(r_fr10_23,fr10_y3).
body(r_fr10_23,fr10_e1).
body(r_fr10_23,fr5_s1).
body(r_fr10_23,fr1_s3).
body(r_fr10_23,fr25_y2).
body(r_fr10_23,fr10_t1).
body(r_fr10_23,fr10_t3).
head(r_fr10_24,fr10_y3).
body(r_fr10_24,fr11_e2).
body(r_fr10_24,fr17_d2).
body(r_fr10_24,fr10_d1).
body(r_fr10_24,fr21_r2).
body(r_fr10_24,fr10_x3).
head(r_fr10_25,fr10_y3).
body(r_fr10_25,fr17_d2).
body(r_fr10_25,fr12_d1).
body(r_fr10_25,fr10_p4).
body(r_fr10_25,fr11_r3).
body(r_fr10_25,fr5_s1).
head(r_fr10_26,fr10_w3).
body(r_fr10_26,fr21_c1).
body(r_fr10_26,fr17_d2).
body(r_fr10_26,fr10_c1).
body(r_fr10_26,fr9_c3).
body(r_fr10_26,fr10_e1).
body(r_fr10_26,fr9_c3).
head(r_fr10_27,fr10_w3).
body(r_fr10_27,fr9_c3).
body(r_fr10_27,fr10_p4).
body(r_fr10_27,fr10_u2).
head(r_fr10_28,fr10_w3).
body(r_fr10_28,fr21_c1).
body(r_fr10_28,fr12_d1).
body(r_fr10_28,fr9_b2).
body(r_fr10_28,fr9_c3).
head(r_fr10_29,fr10_w3).
body(r_fr10_29,fr20_b4).
body(r_fr10_29,fr9_c3).
body(r_fr10_29,fr10_d1).
body(r_fr10_29,fr17_d2).
head(r_fr10_30,fr10_w3).
body(r_fr10_30,fr21_c1).
body(r_fr10_30,fr10_p1).
body(r_fr10_30,fr10_t1).
body(r_fr10_30,fr10_v1).
body(r_fr10_30,fr17_p3).
body(r_fr10_30,fr5_s1).
head(r_fr10_31,fr5_s1).
body(r_fr10_31,fr9_c3).
body(r_fr10_31,fr17_d2).
body(r_fr10_31,fr10_e1).
body(r_fr10_31,fr21_r2).
body(r_fr10_31,fr25_y2).
head(r_fr10_32,fr5_s1).
body(r_fr10_32,fr9_c3).
body(r_fr10_32,fr10_e1).
body(r_fr10_32,fr9_c3).
body(r_fr10_32,fr25_y2).
body(r_fr10_32,fr10_u2).
body(r_fr10_32,fr10_v1).
head(r_fr10_33,fr5_s1).
body(r_fr10_33,fr21_r2).
body(r_fr10_33,fr23_z1).
body(r_fr10_33,fr12_u2).
head(r_fr10_34,fr5_s1).
body(r_fr10_34,fr17_d2).
body(r_fr10_34,fr11_e2).
body(r_fr10_34,fr20_b4).
body(r_fr10_34,fr9_c3).
body(r_fr10_34,fr11_r3).
body(r_fr10_34,fr12_u2).
head(r_fr10_35,fr5_s1).
body(r_fr10_35,fr17_d2).
body(r_fr10_35,fr10_q3).
body(r_fr10_35,fr10_r3).
head(r_fr10_36,fr10_v1).
body(r_fr10_36,fr21_c1).
body(r_fr10_36,fr11_e2).
body(r_fr10_36,fr17_d2).
head(r_fr10_37,fr10_v1).
body(r_fr10_37,fr17_d2).
body(r_fr10_37,fr17_d2).
body(r_fr10_37,fr10_t1).
body(r_fr10_37,fr10_w1).
head(r_fr10_38,fr10_v1).
body(r_fr10_38,fr10_q3).
body(r_fr10_38,fr10_w1).
body(r_fr10_38,fr17_x1).
body(r_fr10_38,fr23_z1).
head(r_fr10_39,fr3_q2).
body(r_fr10_39,fr9_b2).
body(r_fr10_39,fr17_d2).
body(r_fr10_39,fr10_w1).
head(r_fr10_40,fr3_q2).
body(r_fr10_40,fr11_e2).
body(r_fr10_40,fr17_d2).
body(r_fr10_40,fr10_e1).
body(r_fr10_40,fr9_c3).
head(r_fr10_41,fr11_r3).
body(r_fr10_41,fr5_s1).
body(r_fr10_41,fr1_s3).
body(r_fr10_41,fr10_z2).
head(r_fr10_42,fr11_r3).
body(r_fr10_42,fr10_d1).
body(r_fr10_42,fr10_e1).
body(r_fr10_42,fr10_p4).
body(r_fr10_42,fr25_y2).
body(r_fr10_42,fr12_u2).
body(r_fr10_42,fr10_z2).
head(r_fr10_43,fr11_r3).
body(r_fr10_43,fr17_d2).
body(r_fr10_43,fr20_b4).
body(r_fr10_43,fr10_c1).
body(r_fr10_43,fr9_c3).
head(r_fr10_44,fr11_r3).
body(r_fr10_44,fr17_d2).
body(r_fr10_44,fr11_e2).
body(r_fr10_44,fr12_d1).
body(r_fr10_44,fr10_c1).
body(r_fr10_44,fr10_e1).
body(r_fr10_44,fr12_d1).
head(r_fr10_45,fr11_r3).
body(r_fr10_45,fr10_c1).
body(r_fr10_45,fr10_e1).
body(r_fr10_45,fr1_s3).
body(r_fr10_45,fr10_u2).
head(r_fr10_46,fr10_w1).
body(r_fr10_46,fr17_d2).
body(r_fr10_46,fr17_d2).
body(r_fr10_46,fr10_q3).
body(r_fr10_46,fr10_u2).
body(r_fr10_46,fr17_p3).
head(r_fr10_47,fr10_w1).
body(r_fr10_47,fr21_c1).
body(r_fr10_47,fr17_d2).
body(r_fr10_47,fr10_t3).
head(r_fr10_48,fr1_s3).
body(r_fr10_48,fr17_d2).
body(r_fr10_48,fr11_e2).
body(r_fr10_48,fr12_d1).
body(r_fr10_48,fr17_d2).
body(r_fr10_48,fr10_d1).
body(r_fr10_48,fr17_d2).
head(r_fr10_49,fr1_s3).
body(r_fr10_49,fr20_b4).
body(r_fr10_49,fr10_q2).
body(r_fr10_49,fr21_r2).
body(r_fr10_49,fr10_r3).
head(r_fr10_50,fr1_s3).
body(r_fr10_50,fr10_t1).
body(r_fr10_50,fr10_u2).
body(r_fr10_50,fr10_r3).
head(r_fr10_51,fr1_s3).
body(r_fr10_51,fr21_c1).
body(r_fr10_51,fr10_d1).
body(r_fr10_51,fr5_s1).
head(r_fr10_52,fr1_s3).
body(r_fr10_52,fr9_c3).
body(r_fr10_52,fr10_d1).
body(r_fr10_52,fr17_d2).
body(r_fr10_52,fr9_c3).
body(r_fr10_52,fr12_d1).
body(r_fr10_52,fr10_t1).
head(r_fr10_53,fr17_p3).
body(r_fr10_53,fr17_d2).
body(r_fr10_53,fr11_e2).
body(r_fr10_53,fr9_c3).
body(r_fr10_53,fr23_z1).
head(r_fr10_54,fr17_p3).
body(r_fr10_54,fr20_b4).
body(r_fr10_54,fr10_c1).
body(r_fr10_54,fr9_c3).
body(r_fr10_54,fr10_d1).
body(r_fr10_54,fr9_c3).
head(r_fr10_55,fr10_x2).
body(r_fr10_55,fr9_c3).
body(r_fr10_55,fr10_d1).
body(r_fr10_55,fr17_d2).
body(r_fr10_55,fr10_p4).
body(r_fr10_55,fr10_q3).
body(r_fr10_55,fr23_z1).
head(r_fr10_56,fr10_x2).
body(r_fr10_56,fr10_p4).
body(r_fr10_56,fr5_s1).
body(r_fr10_56,fr10_u2).
body(r_fr10_56,fr10_z2).
head(r_fr10_57,fr10_x2).
body(r_fr10_57,fr20_b4).
body(r_fr10_57,fr10_u2).
body(r_fr10_57,fr10_x3).
head(r_fr10_58,fr10_t1).
body(r_fr10_58,fr21_c1).
body(r_fr10_58,fr10_c1).
body(r_fr10_58,fr17_d2).
body(r_fr10_58,fr9_c3).
body(r_fr10_58,fr12_d1).
head(r_fr10_59,fr10_t1).
body(r_fr10_59,fr11_e2).
body(r_fr10_59,fr10_r3).
body(r_fr10_59,fr17_x1).
head(r_fr10_60,fr10_t1).
body(r_fr10_60,fr21_c1).
body(r_fr10_60,fr17_d2).
body(r_fr10_60,fr11_e2).
body(r_fr10_60,fr17_d2).
body(r_fr10_60,fr10_r3).
head(r_fr10_61,fr10_t1).
body(r_fr10_61,fr10_c1).
body(r_fr10_61,fr10_d1).
body(r_fr10_61,fr9_c3).
head(r_fr10_62,fr10_t1).
body(r_fr10_62,fr17_d2).
body(r_fr10_62,fr10_t3).
body(r_fr10_62,fr10_x3).
head(r_fr10_63,fr23_z1).
body(r_fr10_63,fr20_b4).
body(r_fr10_63,fr10_d1).
body(r_fr10_63,fr10_p1).
body(r_fr10_63,fr5_s1).
body(r_fr10_63,fr21_r2).
head(r_fr10_64,fr23_z1).
body(r_fr10_64,fr17_d2).
body(r_fr10_64,fr21_r2).
body(r_fr10_64,fr10_r3).
head(r_fr10_65,fr10_q3).
body(r_fr10_65,fr10_d1).
body(r_fr10_65,fr17_d2).
body(r_fr10_65,fr9_c3).
head(r_fr10_66,fr10_q3).
body(r_fr10_66,fr21_c1).
body(r_fr10_66,fr10_c1).
body(r_fr10_66,fr9_b2).
body(r_fr10_66,fr12_d1).
body(r_fr10_66,fr10_w2).
head(r_fr10_67,fr10_q3).
body(r_fr10_67,fr9_b2).
body(r_fr10_67,fr9_c3).
body(r_fr10_67,fr17_d2).
body(r_fr10_67,fr12_d1).
head(r_fr10_68,fr10_q3).
body(r_fr10_68,fr17_d2).
body(r_fr10_68,fr17_d2).
body(r_fr10_68,fr25_y2).
body(r_fr10_68,fr12_u2).

assumption(fr2_e1).
assumption(fr11_b1).
assumption(fr11_c1).
assumption(fr11_d1).
assumption(fr24_f2).
assumption(fr6_d3).
assumption(fr2_e1).
assumption(fr20_c2).
assumption(fr13_b3).
assumption(fr11_d2).
assumption(fr11_e2).
assumption(fr6_b2).
assumption(fr9_b2).
assumption(fr12_d1).
assumption(fr11_c3).
contrary(fr2_e1,fr13_q3).
contrary(fr2_e1,fr11_c3).
contrary(fr9_b2,fr11_v2).
contrary(fr11_b1,fr13_q3).
contrary(fr20_c2,fr11_p3).
contrary(fr12_d1,fr23_z1).
contrary(fr11_c1,fr24_z3).
contrary(fr13_b3,fr11_t2).
contrary(fr11_c3,fr6_d3).
contrary(fr11_d1,fr11_b1).
contrary(fr11_d2,fr13_b3).
contrary(fr24_f2,fr13_b3).
contrary(fr11_e2,fr11_y3).
contrary(fr6_d3,fr25_y2).
contrary(fr6_b2,fr23_z1).
head(r_fr11_0,fr11_p1).
body(r_fr11_0,fr12_d1).
body(r_fr11_0,fr11_d1).
body(r_fr11_0,fr11_r3).
body(r_fr11_0,fr13_q3).
head(r_fr11_1,fr11_p1).
body(r_fr11_1,fr2_e1).
body(r_fr11_1,fr13_b3).
head(r_fr11_2,fr11_p1).
body(r_fr11_2,fr20_c2).
body(r_fr11_2,fr11_t2).
body(r_fr11_2,fr11_u3).
body(r_fr11_2,fr24_s1).
body(r_fr11_2,fr11_z2).
head(r_fr11_3,fr11_p1).
head(r_fr11_4,fr11_p1).
body(r_fr11_4,fr20_c2).
body(r_fr11_4,fr11_d2).
body(r_fr11_4,fr11_p4).
body(r_fr11_4,fr11_q2).
body(r_fr11_4,fr11_y1).
head(r_fr11_5,fr24_s1).
body(r_fr11_5,fr2_e1).
body(r_fr11_5,fr11_b1).
body(r_fr11_5,fr11_c3).
body(r_fr11_5,fr11_e2).
body(r_fr11_5,fr11_p4).
body(r_fr11_5,fr11_z2).
head(r_fr11_6,fr24_s1).
body(r_fr11_6,fr2_e1).
body(r_fr11_6,fr11_c1).
body(r_fr11_6,fr13_b3).
body(r_fr11_6,fr11_d1).
body(r_fr11_6,fr11_e2).
body(r_fr11_6,fr11_s2).
head(r_fr11_7,fr11_r3).
body(r_fr11_7,fr11_c3).
head(r_fr11_8,fr11_r3).
body(r_fr11_8,fr6_d3).
body(r_fr11_8,fr11_t2).
body(r_fr11_8,fr13_q3).
body(r_fr11_8,fr17_p3).
body(r_fr11_8,fr11_z1).
head(r_fr11_9,fr11_r3).
body(r_fr11_9,fr11_d2).
body(r_fr11_9,fr24_f2).
head(r_fr11_10,fr25_y2).
body(r_fr11_10,fr13_b3).
body(r_fr11_10,fr11_d1).
head(r_fr11_11,fr25_y2).
body(r_fr11_11,fr13_b3).
body(r_fr11_11,fr24_f2).
body(r_fr11_11,fr11_s3).
body(r_fr11_11,fr24_s3).
body(r_fr11_11,fr11_y3).
head(r_fr11_12,fr25_y2).
body(r_fr11_12,fr11_v1).
head(r_fr11_13,fr25_y2).
body(r_fr11_13,fr11_p4).
body(r_fr11_13,fr5_s1).
body(r_fr11_13,fr11_u3).
body(r_fr11_13,fr24_z3).
body(r_fr11_13,fr11_z2).
head(r_fr11_14,fr25_y2).
body(r_fr11_14,fr2_e1).
body(r_fr11_14,fr13_b3).
body(r_fr11_14,fr11_c3).
head(r_fr11_15,fr11_v2).
body(r_fr11_15,fr11_v1).
head(r_fr11_16,fr11_v2).
body(r_fr11_16,fr11_e2).
head(r_fr11_17,fr11_v2).
body(r_fr11_17,fr25_y2).
body(r_fr11_17,fr11_y1).
head(r_fr11_18,fr24_z3).
body(r_fr11_18,fr9_b2).
body(r_fr11_18,fr20_c2).
body(r_fr11_18,fr12_d1).
body(r_fr11_18,fr13_b3).
body(r_fr11_18,fr11_c3).
body(r_fr11_18,fr11_e2).
head(r_fr11_19,fr24_z3).
body(r_fr11_19,fr11_c1).
head(r_fr11_20,fr24_z3).
body(r_fr11_20,fr6_d3).
body(r_fr11_20,fr7_y3).
body(r_fr11_20,fr25_y2).
body(r_fr11_20,fr24_s1).
body(r_fr11_20,fr23_z1).
body(r_fr11_20,fr11_z1).
head(r_fr11_21,fr11_t2).
body(r_fr11_21,fr9_b2).
body(r_fr11_21,fr20_c2).
body(r_fr11_21,fr11_d1).
body(r_fr11_21,fr24_f2).
body(r_fr11_21,fr11_e2).
body(r_fr11_21,fr6_b2).
head(r_fr11_22,fr11_t2).
body(r_fr11_22,fr2_e1).
body(r_fr11_22,fr2_e1).
body(r_fr11_22,fr24_s3).
body(r_fr11_22,fr11_y1).
head(r_fr11_23,fr11_t2).
body(r_fr11_23,fr6_d3).
body(r_fr11_23,fr11_p4).
body(r_fr11_23,fr25_y2).
body(r_fr11_23,fr24_s1).
head(r_fr11_24,fr11_s3).
body(r_fr11_24,fr9_b2).
body(r_fr11_24,fr25_y2).
body(r_fr11_24,fr17_p3).
body(r_fr11_24,fr23_z1).
body(r_fr11_24,fr11_z2).
head(r_fr11_25,fr11_s3).
body(r_fr11_25,fr11_b1).
body(r_fr11_25,fr5_s1).
body(r_fr11_25,fr11_s1).
body(r_fr11_25,fr11_v2).
head(r_fr11_26,fr11_s3).
body(r_fr11_26,fr20_c2).
body(r_fr11_26,fr13_b3).
body(r_fr11_26,fr11_p4).
body(r_fr11_26,fr11_y1).
head(r_fr11_27,fr11_s3).
body(r_fr11_27,fr2_e1).
body(r_fr11_27,fr20_c2).
body(r_fr11_27,fr24_f2).
body(r_fr11_27,fr6_b2).
head(r_fr11_28,fr11_s3).
body(r_fr11_28,fr11_s1).
body(r_fr11_28,fr17_p3).
body(r_fr11_28,fr23_z1).
head(r_fr11_29,fr11_w3).
body(r_fr11_29,fr11_c1).
body(r_fr11_29,fr11_c3).
head(r_fr11_30,fr11_w3).
head(r_fr11_31,fr11_w3).
body(r_fr11_31,fr25_y2).
body(r_fr11_31,fr13_q3).
body(r_fr11_31,fr17_p3).
head(r_fr11_32,fr11_w3).
body(r_fr11_32,fr25_y2).
body(r_fr11_32,fr11_p4).
body(r_fr11_32,fr24_s1).
head(r_fr11_33,fr23_z1).
body(r_fr11_33,fr11_c3).
body(r_fr11_33,fr7_y3).
head(r_fr11_34,fr23_z1).
head(r_fr11_35,fr23_z1).
body(r_fr11_35,fr2_e1).
body(r_fr11_35,fr11_b1).
body(r_fr11_35,fr11_e2).
head(r_fr11_36,fr23_z1).
body(r_fr11_36,fr12_d1).
body(r_fr11_36,fr11_p3).
body(r_fr11_36,fr11_q2).
body(r_fr11_36,fr11_r3).
body(r_fr11_36,fr13_q3).
body(r_fr11_36,fr13_q3).
head(r_fr11_37,fr7_y3).
body(r_fr11_37,fr20_c2).
body(r_fr11_37,fr12_d1).
body(r_fr11_37,fr13_b3).
body(r_fr11_37,fr6_b2).
body(r_fr11_37,fr11_p4).
head(r_fr11_38,fr7_y3).
body(r_fr11_38,fr2_e1).
body(r_fr11_38,fr2_e1).
body(r_fr11_38,fr6_d3).
head(r_fr11_39,fr24_y2).
head(r_fr11_40,fr24_y2).
body(r_fr11_40,fr2_e1).
body(r_fr11_40,fr11_c1).
body(r_fr11_40,fr13_b3).
body(r_fr11_40,fr11_d2).
body(r_fr11_40,fr11_p1).
body(r_fr11_40,fr5_s1).
head(r_fr11_41,fr11_q2).
body(r_fr11_41,fr2_e1).
body(r_fr11_41,fr11_s3).
body(r_fr11_41,fr11_v2).
body(r_fr11_41,fr13_q3).
body(r_fr11_41,fr11_z1).
head(r_fr11_42,fr11_q2).
body(r_fr11_42,fr11_e2).
body(r_fr11_42,fr6_b2).
body(r_fr11_42,fr11_p4).
body(r_fr11_42,fr5_s1).
head(r_fr11_43,fr11_q2).
body(r_fr11_43,fr24_f2).
body(r_fr11_43,fr11_r3).
body(r_fr11_43,fr11_t2).
body(r_fr11_43,fr24_s3).
body(r_fr11_43,fr23_z1).
body(r_fr11_43,fr11_z2).
head(r_fr11_44,fr11_q2).
body(r_fr11_44,fr11_r3).
body(r_fr11_44,fr17_p3).
body(r_fr11_44,fr11_y3).
head(r_fr11_45,fr11_q2).
body(r_fr11_45,fr6_d3).
body(r_fr11_45,fr24_z3).
head(r_fr11_46,fr17_p3).
body(r_fr11_46,fr24_f2).
body(r_fr11_46,fr11_v2).
head(r_fr11_47,fr17_p3).
body(r_fr11_47,fr2_e1).
body(r_fr11_47,fr9_b2).
body(r_fr11_47,fr12_d1).
body(r_fr11_47,fr13_b3).
body(r_fr11_47,fr24_f2).
head(r_fr11_48,fr11_u3).
body(r_fr11_48,fr24_y2).
head(r_fr11_49,fr11_u3).
head(r_fr11_50,fr11_u3).
body(r_fr11_50,fr24_s1).
body(r_fr11_50,fr11_s3).
body(r_fr11_50,fr24_s3).
body(r_fr11_50,fr11_v2).
head(r_fr11_51,fr11_u3).
body(r_fr11_51,fr9_b2).
body(r_fr11_51,fr11_c1).
body(r_fr11_51,fr11_d2).
body(r_fr11_51,fr24_f2).
body(r_fr11_51,fr24_s1).
body(r_fr11_51,fr11_y3).
head(r_fr11_52,fr11_v1).
body(r_fr11_52,fr12_d1).
body(r_fr11_52,fr13_b3).
head(r_fr11_53,fr11_v1).
body(r_fr11_53,fr12_d1).
body(r_fr11_53,fr13_q3).
head(r_fr11_54,fr25_y2).
body(r_fr11_54,fr25_y2).
body(r_fr11_54,fr11_s1).
body(r_fr11_54,fr24_y2).
head(r_fr11_55,fr25_y2).
body(r_fr11_55,fr11_q2).
body(r_fr11_55,fr13_q3).
body(r_fr11_55,fr11_y1).
head(r_fr11_56,fr25_y2).
head(r_fr11_57,fr25_y2).
body(r_fr11_57,fr20_c2).
body(r_fr11_57,fr11_d2).
body(r_fr11_57,fr11_e2).
head(r_fr11_58,fr25_y2).
body(r_fr11_58,fr2_e1).
body(r_fr11_58,fr11_c3).
head(r_fr11_59,fr11_s1).
body(r_fr11_59,fr11_b1).
body(r_fr11_59,fr11_c1).
body(r_fr11_59,fr6_d3).
body(r_fr11_59,fr21_r2).
head(r_fr11_60,fr11_s1).
body(r_fr11_60,fr9_b2).
body(r_fr11_60,fr20_c2).
body(r_fr11_60,fr11_d1).
body(r_fr11_60,fr11_z2).
head(r_fr11_61,fr11_s1).
body(r_fr11_61,fr11_u3).
head(r_fr11_62,fr11_s1).
body(r_fr11_62,fr17_p3).
head(r_fr11_63,fr25_y2).
body(r_fr11_63,fr13_b3).
body(r_fr11_63,fr11_p4).
body(r_fr11_63,fr23_z1).
body(r_fr11_63,fr11_z1).
head(r_fr11_64,fr25_y2).
body(r_fr11_64,fr2_e1).
body(r_fr11_64,fr11_b1).
body(r_fr11_64,fr24_f2).
body(r_fr11_64,fr23_z1).
body(r_fr11_64,fr13_q3).
head(r_fr11_65,fr24_p3).
head(r_fr11_66,fr24_p3).
body(r_fr11_66,fr13_q3).
head(r_fr11_67,fr24_p3).
body(r_fr11_67,fr11_c1).
body(r_fr11_67,fr24_s1).
body(r_fr11_67,fr11_r3).
body(r_fr11_67,fr21_r2).
body(r_fr11_67,fr24_s1).
head(r_fr11_68,fr24_p3).
body(r_fr11_68,fr20_c2).
body(r_fr11_68,fr11_s2).
body(r_fr11_68,fr11_t2).
body(r_fr11_68,fr13_q3).

assumption(fr21_c1).
assumption(fr12_d1).
assumption(fr9_c1).
assumption(fr12_d1).
assumption(fr12_d1).
assumption(fr12_f1).
assumption(fr12_d1).
assumption(fr12_d1).
assumption(fr12_c2).
assumption(fr12_d2).
assumption(fr12_e2).
assumption(fr12_d1).
assumption(fr12_a3).
assumption(fr12_d1).
assumption(fr12_d1).
contrary(fr21_c1,fr12_w2).
contrary(fr12_d1,fr12_r1).
contrary(fr12_a3,fr21_r2).
contrary(fr12_d1,fr12_a3).
contrary(fr12_d1,fr12_c2).
contrary(fr12_d1,fr12_d1).
contrary(fr9_c1,fr21_r2).
contrary(fr12_c2,fr12_d1).
contrary(fr12_d1,fr5_s1).
contrary(fr12_d1,fr12_a3).
contrary(fr12_d2,fr12_u2).
contrary(fr12_d1,fr12_d1).
contrary(fr12_e2,fr12_p1).
contrary(fr12_f1,fr12_c2).
contrary(fr12_d1,fr25_y2).
head(r_fr12_0,fr12_w1).
body(r_fr12_0,fr21_c1).
body(r_fr12_0,fr12_d1).
body(r_fr12_0,fr9_c1).
body(r_fr12_0,fr12_d1).
body(r_fr12_0,fr11_r3).
head(r_fr12_1,fr12_w1).
body(r_fr12_1,fr12_d1).
body(r_fr12_1,fr12_d1).
body(r_fr12_1,fr13_q3).
body(r_fr12_1,fr2_y3).
head(r_fr12_2,fr12_w1).
body(r_fr12_2,fr12_a3).
body(r_fr12_2,fr12_d1).
body(r_fr12_2,fr12_d1).
head(r_fr12_3,fr12_w1).
body(r_fr12_3,fr12_p1).
body(r_fr12_3,fr21_r2).
body(r_fr12_3,fr24_p3).
body(r_fr12_3,fr12_u1).
head(r_fr12_4,fr12_w1).
body(r_fr12_4,fr17_x1).
body(r_fr12_4,fr21_y3).
body(r_fr12_4,fr5_s1).
head(r_fr12_5,fr12_w1).
body(r_fr12_5,fr9_c1).
body(r_fr12_5,fr12_d1).
body(r_fr12_5,fr17_x1).
head(r_fr12_6,fr12_w1).
body(r_fr12_6,fr12_w2).
body(r_fr12_6,fr25_y2).
head(r_fr12_7,fr12_w1).
body(r_fr12_7,fr12_p1).
body(r_fr12_7,fr21_r2).
body(r_fr12_7,fr12_r2).
body(r_fr12_7,fr21_r2).
body(r_fr12_7,fr25_y2).
head(r_fr12_8,fr12_w1).
body(r_fr12_8,fr12_d1).
body(r_fr12_8,fr9_c1).
body(r_fr12_8,fr12_f1).
body(r_fr12_8,fr11_y1).
body(r_fr12_8,fr5_s1).
head(r_fr12_9,fr12_w1).
body(r_fr12_9,fr12_a3).
body(r_fr12_9,fr12_d1).
body(r_fr12_9,fr12_c2).
body(r_fr12_9,fr17_x1).
head(r_fr12_10,fr12_w1).
body(r_fr12_10,fr12_d2).
body(r_fr12_10,fr12_r1).
body(r_fr12_10,fr21_r2).
body(r_fr12_10,fr2_y3).
head(r_fr12_11,fr12_w1).
body(r_fr12_11,fr21_c1).
body(r_fr12_11,fr12_c2).
body(r_fr12_11,fr12_d1).
body(r_fr12_11,fr12_u1).
body(r_fr12_11,fr5_s1).
head(r_fr12_12,fr12_w1).
head(r_fr12_13,fr12_w1).
body(r_fr12_13,fr12_d1).
body(r_fr12_13,fr12_a3).
body(r_fr12_13,fr12_d1).
body(r_fr12_13,fr12_d1).
head(r_fr12_14,fr12_s2).
body(r_fr12_14,fr12_d1).
body(r_fr12_14,fr17_x1).
body(r_fr12_14,fr12_r2).
head(r_fr12_15,fr12_s2).
body(r_fr12_15,fr12_d2).
body(r_fr12_15,fr12_w2).
body(r_fr12_15,fr25_y2).
head(r_fr12_16,fr12_s2).
head(r_fr12_17,fr12_s2).
body(r_fr12_17,fr12_e2).
head(r_fr12_18,fr12_s2).
body(r_fr12_18,fr12_d1).
body(r_fr12_18,fr12_e2).
body(r_fr12_18,fr12_d1).
body(r_fr12_18,fr5_s1).
body(r_fr12_18,fr13_q3).
body(r_fr12_18,fr12_u1).
head(r_fr12_19,fr12_s2).
body(r_fr12_19,fr12_d1).
head(r_fr12_20,fr12_s2).
body(r_fr12_20,fr12_a3).
body(r_fr12_20,fr12_q2).
body(r_fr12_20,fr12_w2).
head(r_fr12_21,fr12_s2).
body(r_fr12_21,fr12_d1).
body(r_fr12_21,fr21_r2).
body(r_fr12_21,fr12_y1).
head(r_fr12_22,fr12_s2).
body(r_fr12_22,fr17_x1).
head(r_fr12_23,fr12_s2).
body(r_fr12_23,fr11_y1).
body(r_fr12_23,fr25_y2).
head(r_fr12_24,fr12_s2).
body(r_fr12_24,fr12_f1).
body(r_fr12_24,fr17_x1).
body(r_fr12_24,fr24_p3).
body(r_fr12_24,fr12_u1).
body(r_fr12_24,fr2_y3).
head(r_fr12_25,fr12_s2).
body(r_fr12_25,fr12_d1).
body(r_fr12_25,fr12_d1).
body(r_fr12_25,fr12_r2).
head(r_fr12_26,fr12_s2).
body(r_fr12_26,fr12_d1).
body(r_fr12_26,fr12_d1).
body(r_fr12_26,fr12_d1).
body(r_fr12_26,fr12_d1).
body(r_fr12_26,fr12_e2).
body(r_fr12_26,fr11_y1).
head(r_fr12_27,fr12_s2).
body(r_fr12_27,fr12_a3).
body(r_fr12_27,fr12_d1).
body(r_fr12_27,fr9_c1).
body(r_fr12_27,fr12_d1).
body(r_fr12_27,fr12_d2).
body(r_fr12_27,fr12_y1).
head(r_fr12_28,fr12_s2).
body(r_fr12_28,fr12_p1).
head(r_fr12_29,fr17_x1).
body(r_fr12_29,fr12_d1).
body(r_fr12_29,fr12_u1).
body(r_fr12_29,fr11_r3).
head(r_fr12_30,fr17_x1).
body(r_fr12_30,fr12_e2).
body(r_fr12_30,fr12_u2).
head(r_fr12_31,fr17_x1).
body(r_fr12_31,fr13_q3).
body(r_fr12_31,fr21_y3).
body(r_fr12_31,fr2_y3).
head(r_fr12_32,fr17_x1).
body(r_fr12_32,fr12_f1).
body(r_fr12_32,fr12_q2).
body(r_fr12_32,fr12_v2).
body(r_fr12_32,fr2_y3).
body(r_fr12_32,fr11_r3).
body(r_fr12_32,fr12_y2).
head(r_fr12_33,fr17_x1).
body(r_fr12_33,fr12_a3).
body(r_fr12_33,fr12_d1).
body(r_fr12_33,fr12_d2).
body(r_fr12_33,fr13_q3).
body(r_fr12_33,fr2_y3).
head(r_fr12_34,fr17_x1).
body(r_fr12_34,fr21_c1).
body(r_fr12_34,fr12_d1).
body(r_fr12_34,fr12_d1).
body(r_fr12_34,fr12_c2).
body(r_fr12_34,fr12_d2).
body(r_fr12_34,fr12_d1).
head(r_fr12_35,fr17_x1).
body(r_fr12_35,fr13_q3).
body(r_fr12_35,fr12_q2).
body(r_fr12_35,fr12_w2).
head(r_fr12_36,fr17_x1).
body(r_fr12_36,fr12_d1).
body(r_fr12_36,fr12_d1).
body(r_fr12_36,fr12_f1).
body(r_fr12_36,fr12_d1).
head(r_fr12_37,fr17_x1).
body(r_fr12_37,fr21_c1).
body(r_fr12_37,fr12_d1).
body(r_fr12_37,fr12_a3).
body(r_fr12_37,fr12_d2).
body(r_fr12_37,fr12_y1).
head(r_fr12_38,fr17_x1).
body(r_fr12_38,fr12_d1).
body(r_fr12_38,fr12_d1).
body(r_fr12_38,fr12_c2).
body(r_fr12_38,fr12_d1).
body(r_fr12_38,fr12_e2).
body(r_fr12_38,fr12_d1).
head(r_fr12_39,fr17_x1).
body(r_fr12_39,fr12_d1).
body(r_fr12_39,fr12_a3).
body(r_fr12_39,fr12_c2).
head(r_fr12_40,fr17_x1).
body(r_fr12_40,fr12_d1).
body(r_fr12_40,fr12_d1).
body(r_fr12_40,fr12_w2).
head(r_fr12_41,fr17_x1).
body(r_fr12_41,fr12_u1).
head(r_fr12_42,fr17_x1).
body(r_fr12_42,fr12_d1).
body(r_fr12_42,fr12_a3).
body(r_fr12_42,fr12_d1).
body(r_fr12_42,fr12_f1).
head(r_fr12_43,fr17_x1).
body(r_fr12_43,fr21_c1).
body(r_fr12_43,fr12_d1).
body(r_fr12_43,fr12_d1).
body(r_fr12_43,fr21_r2).
body(r_fr12_43,fr12_q2).
head(r_fr12_44,fr17_x1).
body(r_fr12_44,fr12_d1).
head(r_fr12_45,fr17_x1).
body(r_fr12_45,fr21_c1).
head(r_fr12_46,fr13_q3).
body(r_fr12_46,fr21_r2).
body(r_fr12_46,fr2_y3).
head(r_fr12_47,fr13_q3).
body(r_fr12_47,fr12_d1).
body(r_fr12_47,fr12_d1).
body(r_fr12_47,fr12_d1).
body(r_fr12_47,fr12_d2).
body(r_fr12_47,fr12_f1).
body(r_fr12_47,fr12_y1).
head(r_fr12_48,fr13_q3).
body(r_fr12_48,fr21_r2).
body(r_fr12_48,fr12_u1).
body(r_fr12_48,fr11_r3).
body(r_fr12_48,fr12_y2).
body(r_fr12_48,fr5_s1).
head(r_fr12_49,fr13_q3).
body(r_fr12_49,fr5_s1).
body(r_fr12_49,fr21_r2).
body(r_fr12_49,fr12_y2).
body(r_fr12_49,fr5_s1).
head(r_fr12_50,fr13_q3).
body(r_fr12_50,fr12_d1).
body(r_fr12_50,fr5_s1).
body(r_fr12_50,fr12_q2).
body(r_fr12_50,fr12_r2).
body(r_fr12_50,fr12_u2).
body(r_fr12_50,fr2_y3).
head(r_fr12_51,fr13_q3).
body(r_fr12_51,fr12_d1).
body(r_fr12_51,fr12_c2).
body(r_fr12_51,fr12_u1).
body(r_fr12_51,fr12_u2).
body(r_fr12_51,fr12_y2).
body(r_fr12_51,fr25_y2).
head(r_fr12_52,fr13_q3).
body(r_fr12_52,fr12_d1).
body(r_fr12_52,fr12_d1).
body(r_fr12_52,fr12_e2).
body(r_fr12_52,fr12_p1).
body(r_fr12_52,fr12_r1).
body(r_fr12_52,fr11_r3).
head(r_fr12_53,fr13_q3).
body(r_fr12_53,fr21_c1).
body(r_fr12_53,fr12_d1).
body(r_fr12_53,fr12_d1).
body(r_fr12_53,fr9_c1).
body(r_fr12_53,fr12_e2).
head(r_fr12_54,fr13_q3).
body(r_fr12_54,fr11_r3).
head(r_fr12_55,fr13_q3).
body(r_fr12_55,fr12_d1).
body(r_fr12_55,fr21_r2).
body(r_fr12_55,fr17_x1).
body(r_fr12_55,fr24_p3).
head(r_fr12_56,fr13_q3).
body(r_fr12_56,fr12_r1).
body(r_fr12_56,fr12_u1).
body(r_fr12_56,fr12_u2).
body(r_fr12_56,fr2_y3).
body(r_fr12_56,fr12_y2).
head(r_fr12_57,fr13_q3).
body(r_fr12_57,fr12_d2).
body(r_fr12_57,fr12_q2).
body(r_fr12_57,fr12_r2).
body(r_fr12_57,fr12_u2).
body(r_fr12_57,fr21_r2).
head(r_fr12_58,fr13_q3).
body(r_fr12_58,fr21_c1).
body(r_fr12_58,fr9_c1).
body(r_fr12_58,fr17_x1).
body(r_fr12_58,fr11_y1).
body(r_fr12_58,fr12_u2).
head(r_fr12_59,fr13_q3).
body(r_fr12_59,fr12_p1).
body(r_fr12_59,fr11_y1).
body(r_fr12_59,fr21_r2).
body(r_fr12_59,fr12_v2).
body(r_fr12_59,fr11_r3).
body(r_fr12_59,fr12_y1).
head(r_fr12_60,fr13_q3).
body(r_fr12_60,fr12_p1).
body(r_fr12_60,fr12_q2).
body(r_fr12_60,fr12_r1).
body(r_fr12_60,fr12_r2).
body(r_fr12_60,fr21_y3).
body(r_fr12_60,fr12_y2).
head(r_fr12_61,fr13_q3).
body(r_fr12_61,fr12_f1).
body(r_fr12_61,fr5_s1).
body(r_fr12_61,fr21_r2).
body(r_fr12_61,fr24_p3).
body(r_fr12_61,fr2_y3).
body(r_fr12_61,fr12_y1).
head(r_fr12_62,fr13_q3).
body(r_fr12_62,fr12_e2).
body(r_fr12_62,fr12_p1).
body(r_fr12_62,fr12_r2).
body(r_fr12_62,fr12_u2).
body(r_fr12_62,fr11_r3).
body(r_fr12_62,fr12_y1).
head(r_fr12_63,fr12_r2).
body(r_fr12_63,fr21_r2).
body(r_fr12_63,fr11_y1).
body(r_fr12_63,fr12_w2).
body(r_fr12_63,fr5_s1).
head(r_fr12_64,fr12_r2).
body(r_fr12_64,fr12_d1).
head(r_fr12_65,fr12_r2).
body(r_fr12_65,fr12_a3).
body(r_fr12_65,fr5_s1).
head(r_fr12_66,fr12_r2).
body(r_fr12_66,fr9_c1).
body(r_fr12_66,fr12_d2).
body(r_fr12_66,fr12_d1).
body(r_fr12_66,fr21_r2).
body(r_fr12_66,fr11_y1).
body(r_fr12_66,fr12_u2).
head(r_fr12_67,fr12_r2).
body(r_fr12_67,fr12_a3).
body(r_fr12_67,fr2_y3).
body(r_fr12_67,fr12_y1).
head(r_fr12_68,fr12_r2).
body(r_fr12_68,fr21_r2).
body(r_fr12_68,fr11_y1).
body(r_fr12_68,fr12_w2).
body(r_fr12_68,fr11_r3).
head(r_fr12_69,fr12_r2).
body(r_fr12_69,fr12_d1).
body(r_fr12_69,fr12_d2).
body(r_fr12_69,fr17_x1).
body(r_fr12_69,fr12_r1).
body(r_fr12_69,fr12_y1).
head(r_fr12_70,fr12_r2).
body(r_fr12_70,fr5_s1).
head(r_fr12_71,fr12_r2).
body(r_fr12_71,fr12_d1).
body(r_fr12_71,fr12_d1).
body(r_fr12_71,fr12_w2).
head(r_fr12_72,fr12_r2).
body(r_fr12_72,fr12_d1).
body(r_fr12_72,fr12_d1).
body(r_fr12_72,fr12_d1).
body(r_fr12_72,fr9_c1).
body(r_fr12_72,fr12_d1).
body(r_fr12_72,fr12_d2).
head(r_fr12_73,fr12_r2).
body(r_fr12_73,fr12_a3).
body(r_fr12_73,fr12_d1).
body(r_fr12_73,fr12_c2).
body(r_fr12_73,fr12_d1).
body(r_fr12_73,fr12_d1).
body(r_fr12_73,fr12_e2).
head(r_fr12_74,fr12_r2).
body(r_fr12_74,fr12_d1).
body(r_fr12_74,fr12_d1).
body(r_fr12_74,fr12_d2).
body(r_fr12_74,fr12_f1).
head(r_fr12_75,fr12_r2).
head(r_fr12_76,fr12_r2).
body(r_fr12_76,fr21_c1).
head(r_fr12_77,fr21_r2).
body(r_fr12_77,fr21_c1).
body(r_fr12_77,fr12_d1).
body(r_fr12_77,fr12_d1).
body(r_fr12_77,fr9_c1).
body(r_fr12_77,fr2_y3).
body(r_fr12_77,fr5_s1).
head(r_fr12_78,fr21_r2).
body(r_fr12_78,fr12_d1).
head(r_fr12_79,fr21_r2).
body(r_fr12_79,fr12_p1).
body(r_fr12_79,fr5_s1).
body(r_fr12_79,fr12_u1).
body(r_fr12_79,fr12_w2).
body(r_fr12_79,fr11_r3).
body(r_fr12_79,fr12_y2).
head(r_fr12_80,fr21_r2).
body(r_fr12_80,fr12_d1).
body(r_fr12_80,fr5_s1).
body(r_fr12_80,fr17_x1).
body(r_fr12_80,fr12_r1).
body(r_fr12_80,fr12_u1).
body(r_fr12_80,fr12_u2).
head(r_fr12_81,fr21_r2).
body(r_fr12_81,fr12_q2).
body(r_fr12_81,fr12_u1).
body(r_fr12_81,fr12_u2).
body(r_fr12_81,fr12_y1).
head(r_fr12_82,fr21_r2).
body(r_fr12_82,fr12_a3).
body(r_fr12_82,fr12_d1).
body(r_fr12_82,fr12_d1).
body(r_fr12_82,fr12_c2).
body(r_fr12_82,fr12_d1).
body(r_fr12_82,fr12_f1).
head(r_fr12_83,fr21_r2).
body(r_fr12_83,fr12_d1).
body(r_fr12_83,fr11_r3).
head(r_fr12_84,fr21_r2).
body(r_fr12_84,fr12_d1).
body(r_fr12_84,fr12_d1).
body(r_fr12_84,fr12_f1).
body(r_fr12_84,fr12_p1).
body(r_fr12_84,fr2_y3).
body(r_fr12_84,fr25_y2).
head(r_fr12_85,fr21_r2).
body(r_fr12_85,fr21_y3).
body(r_fr12_85,fr12_w2).
body(r_fr12_85,fr2_y3).
body(r_fr12_85,fr11_r3).
head(r_fr12_86,fr21_r2).
head(r_fr12_87,fr21_r2).
body(r_fr12_87,fr12_d1).
body(r_fr12_87,fr12_d1).
body(r_fr12_87,fr12_e2).
body(r_fr12_87,fr11_y1).
body(r_fr12_87,fr21_y3).
body(r_fr12_87,fr21_r2).
head(r_fr12_88,fr21_r2).
body(r_fr12_88,fr12_d1).
body(r_fr12_88,fr12_c2).
body(r_fr12_88,fr2_y3).
head(r_fr12_89,fr21_r2).
body(r_fr12_89,fr11_y1).
body(r_fr12_89,fr21_y3).
head(r_fr12_90,fr21_r2).
body(r_fr12_90,fr21_r2).
head(r_fr12_91,fr25_y2).
body(r_fr12_91,fr12_d1).
body(r_fr12_91,fr9_c1).
head(r_fr12_92,fr25_y2).
body(r_fr12_92,fr12_u1).
body(r_fr12_92,fr11_r3).
body(r_fr12_92,fr12_y2).
head(r_fr12_93,fr25_y2).
body(r_fr12_93,fr21_c1).
body(r_fr12_93,fr9_c1).
body(r_fr12_93,fr12_e2).
head(r_fr12_94,fr25_y2).
body(r_fr12_94,fr12_d1).
body(r_fr12_94,fr12_d1).
body(r_fr12_94,fr12_d1).
body(r_fr12_94,fr12_y1).
head(r_fr12_95,fr25_y2).
body(r_fr12_95,fr17_x1).
body(r_fr12_95,fr24_p3).
body(r_fr12_95,fr21_y3).
body(r_fr12_95,fr12_u1).
body(r_fr12_95,fr12_v2).
body(r_fr12_95,fr12_w2).
head(r_fr12_96,fr25_y2).
body(r_fr12_96,fr12_d1).
body(r_fr12_96,fr12_d1).
body(r_fr12_96,fr12_d1).
body(r_fr12_96,fr12_e2).
body(r_fr12_96,fr12_f1).
body(r_fr12_96,fr12_r1).
head(r_fr12_97,fr25_y2).
body(r_fr12_97,fr12_q2).
head(r_fr12_98,fr25_y2).
body(r_fr12_98,fr12_d1).
body(r_fr12_98,fr24_p3).
body(r_fr12_98,fr21_y3).
body(r_fr12_98,fr12_v2).
body(r_fr12_98,fr2_y3).
body(r_fr12_98,fr11_r3).
head(r_fr12_99,fr25_y2).
body(r_fr12_99,fr12_q2).
body(r_fr12_99,fr11_y1).
body(r_fr12_99,fr21_y3).
body(r_fr12_99,fr12_u1).
body(r_fr12_99,fr12_w2).
head(r_fr12_100,fr25_y2).
body(r_fr12_100,fr12_p1).
body(r_fr12_100,fr12_y1).
head(r_fr12_101,fr25_y2).
body(r_fr12_101,fr12_d1).
body(r_fr12_101,fr12_d2).
body(r_fr12_101,fr17_x1).
body(r_fr12_101,fr2_y3).
body(r_fr12_101,fr12_y2).
head(r_fr12_102,fr25_y2).
body(r_fr12_102,fr12_w2).
head(r_fr12_103,fr25_y2).
body(r_fr12_103,fr12_d1).
body(r_fr12_103,fr12_d2).
body(r_fr12_103,fr12_q2).
body(r_fr12_103,fr11_y1).
head(r_fr12_104,fr25_y2).
body(r_fr12_104,fr21_y3).
head(r_fr12_105,fr25_y2).
head(r_fr12_106,fr25_y2).
body(r_fr12_106,fr12_d1).
head(r_fr12_107,fr12_u1).
body(r_fr12_107,fr12_q2).
body(r_fr12_107,fr12_v2).
head(r_fr12_108,fr12_u1).
body(r_fr12_108,fr12_d1).
body(r_fr12_108,fr12_d2).
body(r_fr12_108,fr12_q2).
body(r_fr12_108,fr12_r1).
body(r_fr12_108,fr5_s1).
head(r_fr12_109,fr12_u1).
body(r_fr12_109,fr9_c1).
head(r_fr12_110,fr12_u1).
body(r_fr12_110,fr21_c1).
body(r_fr12_110,fr12_d1).
body(r_fr12_110,fr12_d1).
head(r_fr12_111,fr12_u1).
body(r_fr12_111,fr12_d2).
body(r_fr12_111,fr12_p1).
head(r_fr12_112,fr12_u1).
body(r_fr12_112,fr12_d1).
body(r_fr12_112,fr12_e2).
head(r_fr12_113,fr12_u1).
body(r_fr12_113,fr21_c1).
body(r_fr12_113,fr12_a3).
body(r_fr12_113,fr12_d1).
body(r_fr12_113,fr12_d1).
head(r_fr12_114,fr12_u1).
body(r_fr12_114,fr12_d1).
body(r_fr12_114,fr12_d1).
head(r_fr12_115,fr12_u1).
body(r_fr12_115,fr5_s1).
body(r_fr12_115,fr12_r1).
body(r_fr12_115,fr12_v2).
body(r_fr12_115,fr12_y1).
head(r_fr12_116,fr12_u1).
body(r_fr12_116,fr12_r1).
body(r_fr12_116,fr21_r2).
body(r_fr12_116,fr12_y2).
head(r_fr12_117,fr12_u1).
body(r_fr12_117,fr12_d1).
head(r_fr12_118,fr12_u1).
body(r_fr12_118,fr12_d1).
body(r_fr12_118,fr12_d1).
body(r_fr12_118,fr12_d1).
body(r_fr12_118,fr21_y3).
body(r_fr12_118,fr12_v2).
head(r_fr12_119,fr12_u1).
head(r_fr12_120,fr12_u1).
body(r_fr12_120,fr12_d1).
head(r_fr12_121,fr12_u1).
body(r_fr12_121,fr21_c1).
body(r_fr12_121,fr12_d1).
body(r_fr12_121,fr12_c2).
body(r_fr12_121,fr12_d1).
head(r_fr12_122,fr12_r1).
body(r_fr12_122,fr12_p1).
body(r_fr12_122,fr21_y3).
body(r_fr12_122,fr2_y3).
body(r_fr12_122,fr12_y1).
head(r_fr12_123,fr12_r1).
body(r_fr12_123,fr12_d1).
body(r_fr12_123,fr12_d1).
body(r_fr12_123,fr9_c1).
body(r_fr12_123,fr12_e2).
body(r_fr12_123,fr12_f1).
body(r_fr12_123,fr12_q2).
head(r_fr12_124,fr12_r1).
body(r_fr12_124,fr5_s1).
body(r_fr12_124,fr2_y3).
head(r_fr12_125,fr12_r1).
body(r_fr12_125,fr17_x1).
body(r_fr12_125,fr11_y1).
body(r_fr12_125,fr21_r2).
head(r_fr12_126,fr12_r1).
body(r_fr12_126,fr21_c1).
body(r_fr12_126,fr12_a3).
body(r_fr12_126,fr12_d1).
head(r_fr12_127,fr12_r1).
body(r_fr12_127,fr12_c2).
body(r_fr12_127,fr12_q2).
body(r_fr12_127,fr17_x1).
body(r_fr12_127,fr11_y1).
body(r_fr12_127,fr21_y3).
body(r_fr12_127,fr12_u2).
head(r_fr12_128,fr12_r1).
body(r_fr12_128,fr24_p3).
head(r_fr12_129,fr12_r1).
body(r_fr12_129,fr12_q2).
body(r_fr12_129,fr21_y3).
body(r_fr12_129,fr12_u2).
body(r_fr12_129,fr2_y3).
head(r_fr12_130,fr12_r1).
head(r_fr12_131,fr12_r1).
body(r_fr12_131,fr21_c1).
body(r_fr12_131,fr12_d1).
body(r_fr12_131,fr24_p3).
body(r_fr12_131,fr5_s1).
head(r_fr12_132,fr12_r1).
body(r_fr12_132,fr12_u2).
body(r_fr12_132,fr5_s1).
head(r_fr12_133,fr12_r1).
body(r_fr12_133,fr12_d1).
body(r_fr12_133,fr12_d2).
head(r_fr12_134,fr12_r1).
body(r_fr12_134,fr5_s1).
body(r_fr12_134,fr17_x1).
body(r_fr12_134,fr24_p3).
body(r_fr12_134,fr12_u2).
body(r_fr12_134,fr12_y1).
body(r_fr12_134,fr12_y2).
head(r_fr12_135,fr12_r1).
body(r_fr12_135,fr12_d1).
body(r_fr12_135,fr12_d1).
body(r_fr12_135,fr12_d1).
body(r_fr12_135,fr9_c1).
body(r_fr12_135,fr12_e2).
head(r_fr12_136,fr12_r1).
body(r_fr12_136,fr12_d1).
body(r_fr12_136,fr12_d2).
body(r_fr12_136,fr12_e2).
body(r_fr12_136,fr2_y3).
head(r_fr12_137,fr12_r1).
body(r_fr12_137,fr12_a3).
body(r_fr12_137,fr12_d1).
body(r_fr12_137,fr12_c2).
body(r_fr12_137,fr12_e2).
body(r_fr12_137,fr17_x1).
body(r_fr12_137,fr12_y1).
head(r_fr12_138,fr12_r1).
body(r_fr12_138,fr12_p1).
body(r_fr12_138,fr5_s1).
body(r_fr12_138,fr24_p3).
body(r_fr12_138,fr12_v2).
body(r_fr12_138,fr12_y2).
body(r_fr12_138,fr5_s1).
head(r_fr12_139,fr12_p1).
body(r_fr12_139,fr12_d1).
body(r_fr12_139,fr12_d2).
body(r_fr12_139,fr12_d1).
head(r_fr12_140,fr12_p1).
body(r_fr12_140,fr5_s1).
body(r_fr12_140,fr12_q2).
body(r_fr12_140,fr24_p3).
head(r_fr12_141,fr12_p1).
body(r_fr12_141,fr12_a3).
body(r_fr12_141,fr12_d1).
body(r_fr12_141,fr12_f1).
body(r_fr12_141,fr12_d1).
body(r_fr12_141,fr12_u2).
body(r_fr12_141,fr12_y1).
head(r_fr12_142,fr12_p1).
body(r_fr12_142,fr12_u2).
body(r_fr12_142,fr12_y2).
head(r_fr12_143,fr12_p1).
body(r_fr12_143,fr11_r3).
head(r_fr12_144,fr12_p1).
body(r_fr12_144,fr12_d1).
body(r_fr12_144,fr12_d1).
body(r_fr12_144,fr12_e2).
body(r_fr12_144,fr12_v2).
head(r_fr12_145,fr12_p1).
body(r_fr12_145,fr12_d1).
body(r_fr12_145,fr11_r3).
body(r_fr12_145,fr5_s1).
head(r_fr12_146,fr12_p1).
body(r_fr12_146,fr12_c2).
body(r_fr12_146,fr12_d1).
head(r_fr12_147,fr12_p1).
body(r_fr12_147,fr12_q2).
body(r_fr12_147,fr11_r3).
body(r_fr12_147,fr12_y1).
body(r_fr12_147,fr5_s1).
head(r_fr12_148,fr12_p1).
body(r_fr12_148,fr5_s1).
body(r_fr12_148,fr11_y1).
body(r_fr12_148,fr5_s1).
head(r_fr12_149,fr12_p1).
body(r_fr12_149,fr12_d2).
head(r_fr12_150,fr12_p1).
body(r_fr12_150,fr12_w2).
body(r_fr12_150,fr12_y2).
head(r_fr12_151,fr12_p1).
body(r_fr12_151,fr12_d1).
head(r_fr12_152,fr12_p1).
body(r_fr12_152,fr12_d1).
head(r_fr12_153,fr11_y1).
body(r_fr12_153,fr5_s1).
body(r_fr12_153,fr21_y3).
body(r_fr12_153,fr12_u2).
head(r_fr12_154,fr11_y1).
body(r_fr12_154,fr21_c1).
body(r_fr12_154,fr12_d1).
body(r_fr12_154,fr12_d1).
body(r_fr12_154,fr5_s1).
body(r_fr12_154,fr12_y1).
head(r_fr12_155,fr11_y1).
body(r_fr12_155,fr12_d1).
body(r_fr12_155,fr12_d1).
body(r_fr12_155,fr12_d1).
head(r_fr12_156,fr11_y1).
body(r_fr12_156,fr12_d1).
body(r_fr12_156,fr12_d1).
body(r_fr12_156,fr12_d1).
body(r_fr12_156,fr21_y3).
body(r_fr12_156,fr2_y3).
head(r_fr12_157,fr11_y1).
body(r_fr12_157,fr9_c1).
head(r_fr12_158,fr11_y1).
body(r_fr12_158,fr12_d1).
body(r_fr12_158,fr9_c1).
body(r_fr12_158,fr12_d1).
body(r_fr12_158,fr12_d1).
head(r_fr12_159,fr11_y1).
body(r_fr12_159,fr12_f1).
head(r_fr12_160,fr11_y1).
body(r_fr12_160,fr12_w2).
head(r_fr12_161,fr11_y1).
head(r_fr12_162,fr11_y1).
body(r_fr12_162,fr12_d1).
body(r_fr12_162,fr12_d1).
body(r_fr12_162,fr12_e2).
body(r_fr12_162,fr12_f1).
body(r_fr12_162,fr12_v2).
head(r_fr12_163,fr11_y1).
body(r_fr12_163,fr12_a3).
body(r_fr12_163,fr12_d1).
body(r_fr12_163,fr17_x1).
body(r_fr12_163,fr12_u2).
body(r_fr12_163,fr12_v2).
body(r_fr12_163,fr2_y3).
head(r_fr12_164,fr11_y1).
body(r_fr12_164,fr12_d1).
body(r_fr12_164,fr12_q2).
body(r_fr12_164,fr11_r3).
head(r_fr12_165,fr11_y1).
body(r_fr12_165,fr12_f1).
body(r_fr12_165,fr12_d1).
body(r_fr12_165,fr5_s1).
body(r_fr12_165,fr2_y3).
head(r_fr12_166,fr11_y1).
body(r_fr12_166,fr17_x1).
body(r_fr12_166,fr12_u2).
body(r_fr12_166,fr12_v2).
body(r_fr12_166,fr12_w2).
body(r_fr12_166,fr2_y3).
head(r_fr12_167,fr11_y1).
body(r_fr12_167,fr12_d1).
body(r_fr12_167,fr12_d1).
body(r_fr12_167,fr21_y3).
body(r_fr12_167,fr12_u2).
body(r_fr12_167,fr5_s1).
head(r_fr12_168,fr11_y1).
body(r_fr12_168,fr12_q2).
head(r_fr12_169,fr11_y1).
body(r_fr12_169,fr12_d1).
body(r_fr12_169,fr9_c1).
body(r_fr12_169,fr12_d1).
body(r_fr12_169,fr12_d2).
body(r_fr12_169,fr12_q2).
head(r_fr12_170,fr12_y2).
body(r_fr12_170,fr12_d1).
body(r_fr12_170,fr21_y3).
head(r_fr12_171,fr12_y2).
head(r_fr12_172,fr12_y2).
body(r_fr12_172,fr12_a3).
body(r_fr12_172,fr12_d1).
body(r_fr12_172,fr5_s1).
body(r_fr12_172,fr17_x1).
head(r_fr12_173,fr12_y2).
body(r_fr12_173,fr24_p3).
body(r_fr12_173,fr21_y3).
body(r_fr12_173,fr12_w2).
body(r_fr12_173,fr5_s1).
head(r_fr12_174,fr12_y2).
body(r_fr12_174,fr12_c2).
body(r_fr12_174,fr12_d1).
body(r_fr12_174,fr12_u2).
body(r_fr12_174,fr12_v2).
body(r_fr12_174,fr12_w2).
body(r_fr12_174,fr12_y1).
head(r_fr12_175,fr12_y2).
body(r_fr12_175,fr11_r3).
head(r_fr12_176,fr12_y2).
body(r_fr12_176,fr12_d1).
head(r_fr12_177,fr12_y2).
body(r_fr12_177,fr5_s1).
body(r_fr12_177,fr12_q2).
body(r_fr12_177,fr21_y3).
body(r_fr12_177,fr12_v2).
body(r_fr12_177,fr12_y1).
head(r_fr12_178,fr12_y2).
body(r_fr12_178,fr12_f1).
head(r_fr12_179,fr12_y2).
body(r_fr12_179,fr21_c1).
body(r_fr12_179,fr12_d1).
body(r_fr12_179,fr12_d1).
body(r_fr12_179,fr12_c2).
body(r_fr12_179,fr12_d1).
body(r_fr12_179,fr12_d1).
head(r_fr12_180,fr12_y2).
body(r_fr12_180,fr17_x1).
body(r_fr12_180,fr24_p3).
body(r_fr12_180,fr21_y3).
body(r_fr12_180,fr12_y1).
head(r_fr12_181,fr12_y2).
body(r_fr12_181,fr12_q2).
head(r_fr12_182,fr12_y2).
body(r_fr12_182,fr12_a3).
head(r_fr12_183,fr12_y2).
body(r_fr12_183,fr12_d1).
body(r_fr12_183,fr12_e2).
body(r_fr12_183,fr17_x1).
body(r_fr12_183,fr12_v2).
head(r_fr12_184,fr12_y2).
body(r_fr12_184,fr17_x1).
body(r_fr12_184,fr24_p3).
body(r_fr12_184,fr21_y3).
body(r_fr12_184,fr12_w2).
head(r_fr12_185,fr12_q2).
body(r_fr12_185,fr12_d1).
body(r_fr12_185,fr12_e2).
body(r_fr12_185,fr24_p3).
body(r_fr12_185,fr5_s1).
head(r_fr12_186,fr12_q2).
body(r_fr12_186,fr9_c1).
body(r_fr12_186,fr12_d1).
head(r_fr12_187,fr12_q2).
body(r_fr12_187,fr12_d1).
head(r_fr12_188,fr12_q2).
body(r_fr12_188,fr12_u2).
body(r_fr12_188,fr2_y3).
head(r_fr12_189,fr12_q2).
body(r_fr12_189,fr12_a3).
head(r_fr12_190,fr12_q2).
body(r_fr12_190,fr24_p3).
body(r_fr12_190,fr21_y3).
body(r_fr12_190,fr12_u2).
body(r_fr12_190,fr12_w2).
body(r_fr12_190,fr11_r3).
head(r_fr12_191,fr12_q2).
body(r_fr12_191,fr2_y3).
head(r_fr12_192,fr12_q2).
body(r_fr12_192,fr9_c1).
body(r_fr12_192,fr12_c2).
body(r_fr12_192,fr12_d1).
body(r_fr12_192,fr12_e2).
head(r_fr12_193,fr12_q2).
body(r_fr12_193,fr21_c1).
body(r_fr12_193,fr12_d2).
body(r_fr12_193,fr17_x1).
head(r_fr12_194,fr12_q2).
body(r_fr12_194,fr12_d1).
body(r_fr12_194,fr12_d1).
head(r_fr12_195,fr12_q2).
body(r_fr12_195,fr12_e2).
body(r_fr12_195,fr12_w2).
head(r_fr12_196,fr12_q2).
body(r_fr12_196,fr12_d1).
body(r_fr12_196,fr12_u2).
body(r_fr12_196,fr12_w2).
body(r_fr12_196,fr2_y3).
body(r_fr12_196,fr12_y1).
body(r_fr12_196,fr5_s1).
head(r_fr12_197,fr12_q2).
head(r_fr12_198,fr12_q2).
body(r_fr12_198,fr5_s1).
body(r_fr12_198,fr17_x1).
body(r_fr12_198,fr12_y1).
head(r_fr12_199,fr12_q2).
body(r_fr12_199,fr12_d1).
body(r_fr12_199,fr21_r2).
body(r_fr12_199,fr12_v2).
head(r_fr12_200,fr12_q2).
body(r_fr12_200,fr12_d1).
body(r_fr12_200,fr9_c1).
body(r_fr12_200,fr12_d1).
head(r_fr12_201,fr21_r2).
body(r_fr12_201,fr21_c1).
body(r_fr12_201,fr12_d1).
body(r_fr12_201,fr21_y3).
head(r_fr12_202,fr21_r2).
body(r_fr12_202,fr12_a3).
body(r_fr12_202,fr12_d1).
body(r_fr12_202,fr12_d1).
body(r_fr12_202,fr12_d1).
body(r_fr12_202,fr12_f1).
head(r_fr12_203,fr21_r2).
body(r_fr12_203,fr12_d1).
body(r_fr12_203,fr12_d1).
body(r_fr12_203,fr12_d1).
body(r_fr12_203,fr12_e2).
body(r_fr12_203,fr12_u2).
head(r_fr12_204,fr21_r2).
body(r_fr12_204,fr21_c1).
body(r_fr12_204,fr12_f1).
body(r_fr12_204,fr12_u2).
body(r_fr12_204,fr2_y3).
head(r_fr12_205,fr21_r2).
body(r_fr12_205,fr21_y3).
body(r_fr12_205,fr2_y3).
body(r_fr12_205,fr11_r3).
head(r_fr12_206,fr21_r2).
body(r_fr12_206,fr12_d1).
body(r_fr12_206,fr11_r3).
head(r_fr12_207,fr21_r2).
body(r_fr12_207,fr21_c1).
body(r_fr12_207,fr12_w2).
body(r_fr12_207,fr11_r3).
body(r_fr12_207,fr12_y1).
head(r_fr12_208,fr21_r2).
body(r_fr12_208,fr12_e2).
head(r_fr12_209,fr21_r2).
body(r_fr12_209,fr12_d2).
body(r_fr12_209,fr12_w2).
body(r_fr12_209,fr12_y1).
head(r_fr12_210,fr21_r2).
body(r_fr12_210,fr21_y3).
head(r_fr12_211,fr21_r2).
body(r_fr12_211,fr12_d1).
body(r_fr12_211,fr12_c2).
body(r_fr12_211,fr12_d1).
body(r_fr12_211,fr12_w2).
head(r_fr12_212,fr21_r2).
body(r_fr12_212,fr12_d1).
body(r_fr12_212,fr2_y3).
body(r_fr12_212,fr5_s1).
head(r_fr12_213,fr21_r2).
head(r_fr12_214,fr21_r2).
body(r_fr12_214,fr21_c1).
body(r_fr12_214,fr12_d1).
body(r_fr12_214,fr12_d1).
body(r_fr12_214,fr12_d2).
body(r_fr12_214,fr12_f1).
head(r_fr12_215,fr12_u2).
body(r_fr12_215,fr12_d1).
body(r_fr12_215,fr12_d1).
head(r_fr12_216,fr12_u2).
body(r_fr12_216,fr21_c1).
body(r_fr12_216,fr12_c2).
body(r_fr12_216,fr12_f1).
head(r_fr12_217,fr12_u2).
body(r_fr12_217,fr12_d1).
body(r_fr12_217,fr2_y3).
head(r_fr12_218,fr12_u2).
body(r_fr12_218,fr24_p3).
body(r_fr12_218,fr5_s1).
head(r_fr12_219,fr12_u2).
body(r_fr12_219,fr12_d1).
body(r_fr12_219,fr17_x1).
body(r_fr12_219,fr11_r3).
body(r_fr12_219,fr12_y1).
body(r_fr12_219,fr5_s1).
head(r_fr12_220,fr12_u2).
body(r_fr12_220,fr21_c1).
body(r_fr12_220,fr12_d1).
head(r_fr12_221,fr12_u2).
body(r_fr12_221,fr12_e2).
body(r_fr12_221,fr5_s1).
body(r_fr12_221,fr24_p3).
body(r_fr12_221,fr21_y3).
head(r_fr12_222,fr12_u2).
body(r_fr12_222,fr12_d2).
body(r_fr12_222,fr21_y3).
head(r_fr12_223,fr12_u2).
body(r_fr12_223,fr12_a3).
body(r_fr12_223,fr12_d2).
body(r_fr12_223,fr5_s1).
body(r_fr12_223,fr21_y3).
body(r_fr12_223,fr12_v2).
head(r_fr12_224,fr12_u2).
body(r_fr12_224,fr12_d1).
body(r_fr12_224,fr5_s1).
body(r_fr12_224,fr17_x1).
body(r_fr12_224,fr24_p3).
body(r_fr12_224,fr12_w2).
head(r_fr12_225,fr12_u2).
body(r_fr12_225,fr12_c2).
head(r_fr12_226,fr12_u2).
body(r_fr12_226,fr12_a3).
body(r_fr12_226,fr12_d1).
body(r_fr12_226,fr12_f1).
body(r_fr12_226,fr21_y3).
body(r_fr12_226,fr12_w2).
body(r_fr12_226,fr5_s1).
head(r_fr12_227,fr12_u2).
body(r_fr12_227,fr9_c1).
body(r_fr12_227,fr12_d1).
body(r_fr12_227,fr12_e2).
body(r_fr12_227,fr12_d1).
head(r_fr12_228,fr12_u2).
body(r_fr12_228,fr12_a3).
body(r_fr12_228,fr12_c2).
body(r_fr12_228,fr12_d1).
body(r_fr12_228,fr12_w2).
head(r_fr12_229,fr12_u2).
body(r_fr12_229,fr5_s1).
body(r_fr12_229,fr17_x1).
body(r_fr12_229,fr24_p3).
body(r_fr12_229,fr21_y3).
body(r_fr12_229,fr12_v2).
body(r_fr12_229,fr11_r3).
head(r_fr12_230,fr12_u2).
body(r_fr12_230,fr21_c1).
body(r_fr12_230,fr12_d1).
body(r_fr12_230,fr12_d1).
body(r_fr12_230,fr12_c2).
body(r_fr12_230,fr12_e2).
body(r_fr12_230,fr24_p3).
head(r_fr12_231,fr12_w2).
body(r_fr12_231,fr12_d1).
head(r_fr12_232,fr12_w2).
body(r_fr12_232,fr12_d1).
body(r_fr12_232,fr12_f1).
body(r_fr12_232,fr12_d1).
body(r_fr12_232,fr17_x1).
body(r_fr12_232,fr11_r3).
body(r_fr12_232,fr12_y1).
head(r_fr12_233,fr12_w2).
body(r_fr12_233,fr12_a3).
body(r_fr12_233,fr12_d1).
body(r_fr12_233,fr21_y3).
body(r_fr12_233,fr12_v2).
head(r_fr12_234,fr12_w2).
body(r_fr12_234,fr12_d1).
head(r_fr12_235,fr12_w2).
body(r_fr12_235,fr12_y1).
head(r_fr12_236,fr12_w2).
body(r_fr12_236,fr12_d1).
body(r_fr12_236,fr5_s1).
head(r_fr12_237,fr12_w2).
body(r_fr12_237,fr12_a3).
body(r_fr12_237,fr9_c1).
body(r_fr12_237,fr12_c2).
body(r_fr12_237,fr12_d1).
body(r_fr12_237,fr12_d1).
head(r_fr12_238,fr12_w2).
body(r_fr12_238,fr17_x1).
body(r_fr12_238,fr12_v2).
body(r_fr12_238,fr11_r3).
body(r_fr12_238,fr12_y1).
body(r_fr12_238,fr5_s1).
head(r_fr12_239,fr12_w2).
body(r_fr12_239,fr12_e2).
body(r_fr12_239,fr24_p3).
body(r_fr12_239,fr12_y1).
head(r_fr12_240,fr12_w2).
body(r_fr12_240,fr12_e2).
body(r_fr12_240,fr5_s1).
body(r_fr12_240,fr17_x1).
body(r_fr12_240,fr21_y3).
body(r_fr12_240,fr2_y3).
body(r_fr12_240,fr12_y1).
head(r_fr12_241,fr12_w2).
body(r_fr12_241,fr21_y3).
head(r_fr12_242,fr12_w2).
body(r_fr12_242,fr12_d1).
head(r_fr12_243,fr12_w2).
head(r_fr12_244,fr12_w2).
body(r_fr12_244,fr12_d1).
body(r_fr12_244,fr12_d1).
body(r_fr12_244,fr12_d1).
body(r_fr12_244,fr12_d1).
body(r_fr12_244,fr12_d2).
body(r_fr12_244,fr12_f1).
head(r_fr12_245,fr12_w2).
body(r_fr12_245,fr12_d1).
body(r_fr12_245,fr17_x1).
head(r_fr12_246,fr12_w2).
body(r_fr12_246,fr21_c1).
body(r_fr12_246,fr12_d1).
body(r_fr12_246,fr12_d1).
body(r_fr12_246,fr12_d1).
body(r_fr12_246,fr12_d1).
body(r_fr12_246,fr2_y3).
head(r_fr12_247,fr12_w2).
body(r_fr12_247,fr12_v2).
body(r_fr12_247,fr11_r3).
head(r_fr12_248,fr11_r3).
body(r_fr12_248,fr12_d1).
body(r_fr12_248,fr12_d1).
body(r_fr12_248,fr12_d1).
body(r_fr12_248,fr12_d2).
body(r_fr12_248,fr12_d1).
body(r_fr12_248,fr12_d1).
head(r_fr12_249,fr11_r3).
body(r_fr12_249,fr12_d1).
body(r_fr12_249,fr12_d1).
body(r_fr12_249,fr12_d1).
body(r_fr12_249,fr12_d1).
body(r_fr12_249,fr12_d2).
body(r_fr12_249,fr12_d1).
head(r_fr12_250,fr11_r3).
body(r_fr12_250,fr21_c1).
body(r_fr12_250,fr12_a3).
body(r_fr12_250,fr17_x1).
body(r_fr12_250,fr12_v2).
head(r_fr12_251,fr11_r3).
body(r_fr12_251,fr12_d1).
body(r_fr12_251,fr12_c2).
body(r_fr12_251,fr12_d1).
body(r_fr12_251,fr12_d1).
head(r_fr12_252,fr11_r3).
body(r_fr12_252,fr21_c1).
body(r_fr12_252,fr12_d1).
body(r_fr12_252,fr21_y3).
body(r_fr12_252,fr12_v2).
body(r_fr12_252,fr5_s1).
head(r_fr12_253,fr11_r3).
body(r_fr12_253,fr12_d1).
head(r_fr12_254,fr11_r3).
body(r_fr12_254,fr5_s1).
body(r_fr12_254,fr17_x1).
body(r_fr12_254,fr24_p3).
body(r_fr12_254,fr21_y3).
body(r_fr12_254,fr12_v2).
body(r_fr12_254,fr2_y3).
head(r_fr12_255,fr11_r3).
body(r_fr12_255,fr12_e2).
body(r_fr12_255,fr12_f1).
body(r_fr12_255,fr21_y3).
body(r_fr12_255,fr12_v2).
body(r_fr12_255,fr5_s1).
head(r_fr12_256,fr11_r3).
body(r_fr12_256,fr17_x1).
body(r_fr12_256,fr24_p3).
body(r_fr12_256,fr12_v2).
body(r_fr12_256,fr2_y3).
body(r_fr12_256,fr12_y1).
body(r_fr12_256,fr5_s1).
head(r_fr12_257,fr11_r3).
body(r_fr12_257,fr12_d1).
body(r_fr12_257,fr24_p3).
head(r_fr12_258,fr11_r3).
head(r_fr12_259,fr11_r3).
body(r_fr12_259,fr12_c2).
head(r_fr12_260,fr11_r3).
body(r_fr12_260,fr12_d1).
body(r_fr12_260,fr17_x1).
body(r_fr12_260,fr12_y1).
body(r_fr12_260,fr5_s1).
head(r_fr12_261,fr11_r3).
body(r_fr12_261,fr21_c1).
body(r_fr12_261,fr12_d1).
body(r_fr12_261,fr5_s1).
head(r_fr12_262,fr21_y3).
body(r_fr12_262,fr21_c1).
body(r_fr12_262,fr12_a3).
body(r_fr12_262,fr9_c1).
body(r_fr12_262,fr12_d1).
body(r_fr12_262,fr12_d2).
head(r_fr12_263,fr21_y3).
body(r_fr12_263,fr17_x1).
body(r_fr12_263,fr2_y3).
body(r_fr12_263,fr5_s1).
head(r_fr12_264,fr21_y3).
body(r_fr12_264,fr17_x1).
body(r_fr12_264,fr24_p3).
body(r_fr12_264,fr12_v2).
body(r_fr12_264,fr12_y1).
head(r_fr12_265,fr21_y3).
body(r_fr12_265,fr9_c1).
body(r_fr12_265,fr12_d1).
body(r_fr12_265,fr17_x1).
head(r_fr12_266,fr21_y3).
body(r_fr12_266,fr5_s1).
body(r_fr12_266,fr2_y3).
body(r_fr12_266,fr12_y1).
body(r_fr12_266,fr5_s1).
head(r_fr12_267,fr21_y3).
body(r_fr12_267,fr5_s1).
body(r_fr12_267,fr17_x1).
body(r_fr12_267,fr24_p3).
body(r_fr12_267,fr12_v2).
body(r_fr12_267,fr2_y3).
body(r_fr12_267,fr12_y1).
head(r_fr12_268,fr21_y3).
body(r_fr12_268,fr21_c1).
body(r_fr12_268,fr12_d1).
body(r_fr12_268,fr12_d1).
body(r_fr12_268,fr17_x1).
body(r_fr12_268,fr12_v2).
body(r_fr12_268,fr5_s1).
head(r_fr12_269,fr21_y3).
body(r_fr12_269,fr12_d1).
body(r_fr12_269,fr24_p3).
head(r_fr12_270,fr21_y3).
head(r_fr12_271,fr21_y3).
body(r_fr12_271,fr21_c1).
body(r_fr12_271,fr12_d1).
body(r_fr12_271,fr12_v2).
body(r_fr12_271,fr12_y1).
head(r_fr12_272,fr21_y3).
body(r_fr12_272,fr24_p3).
body(r_fr12_272,fr12_v2).
body(r_fr12_272,fr12_y1).
head(r_fr12_273,fr21_y3).
body(r_fr12_273,fr2_y3).
body(r_fr12_273,fr12_y1).
head(r_fr12_274,fr21_y3).
body(r_fr12_274,fr12_c2).
head(r_fr12_275,fr21_y3).
body(r_fr12_275,fr12_d1).
body(r_fr12_275,fr12_c2).
body(r_fr12_275,fr12_f1).
body(r_fr12_275,fr12_d1).
head(r_fr12_276,fr24_p3).
body(r_fr12_276,fr12_c2).
body(r_fr12_276,fr12_d2).
body(r_fr12_276,fr17_x1).
head(r_fr12_277,fr24_p3).
body(r_fr12_277,fr5_s1).
body(r_fr12_277,fr17_x1).
body(r_fr12_277,fr12_v2).
body(r_fr12_277,fr2_y3).
head(r_fr12_278,fr24_p3).
body(r_fr12_278,fr12_d1).
body(r_fr12_278,fr12_c2).
body(r_fr12_278,fr12_f1).
body(r_fr12_278,fr12_d1).
head(r_fr12_279,fr24_p3).
body(r_fr12_279,fr2_y3).
body(r_fr12_279,fr5_s1).
head(r_fr12_280,fr24_p3).
body(r_fr12_280,fr5_s1).
body(r_fr12_280,fr12_y1).
head(r_fr12_281,fr24_p3).
body(r_fr12_281,fr12_d1).
body(r_fr12_281,fr12_d1).
body(r_fr12_281,fr12_e2).
body(r_fr12_281,fr12_d1).
body(r_fr12_281,fr2_y3).
head(r_fr12_282,fr24_p3).
body(r_fr12_282,fr21_c1).
head(r_fr12_283,fr24_p3).
body(r_fr12_283,fr2_y3).
head(r_fr12_284,fr24_p3).
body(r_fr12_284,fr12_d1).
body(r_fr12_284,fr12_d1).
body(r_fr12_284,fr12_d2).
body(r_fr12_284,fr5_s1).
body(r_fr12_284,fr2_y3).
body(r_fr12_284,fr12_y1).
head(r_fr12_285,fr24_p3).
head(r_fr12_286,fr24_p3).
body(r_fr12_286,fr12_d1).
body(r_fr12_286,fr12_d2).
body(r_fr12_286,fr5_s1).
body(r_fr12_286,fr12_v2).
body(r_fr12_286,fr12_y1).
body(r_fr12_286,fr5_s1).
head(r_fr12_287,fr24_p3).
body(r_fr12_287,fr12_d1).
body(r_fr12_287,fr12_f1).
body(r_fr12_287,fr17_x1).
head(r_fr12_288,fr24_p3).
body(r_fr12_288,fr5_s1).
body(r_fr12_288,fr17_x1).
body(r_fr12_288,fr12_v2).
body(r_fr12_288,fr12_y1).
body(r_fr12_288,fr5_s1).
head(r_fr12_289,fr24_p3).
body(r_fr12_289,fr12_a3).
body(r_fr12_289,fr12_e2).
body(r_fr12_289,fr5_s1).
body(r_fr12_289,fr12_v2).
body(r_fr12_289,fr2_y3).
body(r_fr12_289,fr12_y1).
head(r_fr12_290,fr24_p3).
body(r_fr12_290,fr5_s1).
body(r_fr12_290,fr2_y3).
body(r_fr12_290,fr12_y1).
body(r_fr12_290,fr5_s1).
head(r_fr12_291,fr24_p3).
body(r_fr12_291,fr2_y3).
body(r_fr12_291,fr12_y1).
body(r_fr12_291,fr5_s1).
head(r_fr12_292,fr24_p3).
body(r_fr12_292,fr12_a3).
body(r_fr12_292,fr12_d2).
body(r_fr12_292,fr12_e2).
body(r_fr12_292,fr12_f1).
body(r_fr12_292,fr12_d1).
body(r_fr12_292,fr5_s1).
head(r_fr12_293,fr17_x1).
body(r_fr12_293,fr9_c1).
body(r_fr12_293,fr5_s1).
head(r_fr12_294,fr17_x1).
body(r_fr12_294,fr5_s1).
body(r_fr12_294,fr12_v2).
body(r_fr12_294,fr2_y3).
body(r_fr12_294,fr12_y1).
body(r_fr12_294,fr5_s1).
head(r_fr12_295,fr17_x1).
body(r_fr12_295,fr5_s1).
head(r_fr12_296,fr17_x1).
body(r_fr12_296,fr12_v2).
head(r_fr12_297,fr17_x1).
body(r_fr12_297,fr9_c1).
body(r_fr12_297,fr2_y3).
body(r_fr12_297,fr12_y1).
body(r_fr12_297,fr5_s1).
head(r_fr12_298,fr17_x1).
body(r_fr12_298,fr12_d1).
body(r_fr12_298,fr12_d1).
body(r_fr12_298,fr9_c1).
body(r_fr12_298,fr12_y1).
head(r_fr12_299,fr17_x1).
body(r_fr12_299,fr5_s1).
body(r_fr12_299,fr12_v2).
body(r_fr12_299,fr2_y3).
body(r_fr12_299,fr12_y1).
head(r_fr12_300,fr17_x1).
body(r_fr12_300,fr12_d1).
body(r_fr12_300,fr12_a3).
body(r_fr12_300,fr12_f1).
body(r_fr12_300,fr2_y3).
body(r_fr12_300,fr5_s1).
head(r_fr12_301,fr17_x1).
body(r_fr12_301,fr12_d1).
body(r_fr12_301,fr12_c2).
body(r_fr12_301,fr12_e2).
body(r_fr12_301,fr2_y3).
body(r_fr12_301,fr5_s1).
head(r_fr12_302,fr17_x1).
body(r_fr12_302,fr2_y3).
head(r_fr12_303,fr17_x1).
body(r_fr12_303,fr12_d1).
body(r_fr12_303,fr5_s1).
head(r_fr12_304,fr17_x1).
body(r_fr12_304,fr9_c1).
body(r_fr12_304,fr12_v2).
body(r_fr12_304,fr12_y1).
head(r_fr12_305,fr17_x1).
head(r_fr12_306,fr17_x1).
body(r_fr12_306,fr12_a3).
body(r_fr12_306,fr12_d1).
body(r_fr12_306,fr12_d1).
body(r_fr12_306,fr12_v2).
body(r_fr12_306,fr2_y3).

assumption(fr12_d1).
assumption(fr13_b1).
assumption(fr12_d1).
assumption(fr6_d3).
assumption(fr13_e1).
assumption(fr12_d1).
assumption(fr12_f1).
assumption(fr12_d1).
assumption(fr12_d1).
assumption(fr12_d1).
assumption(fr12_d1).
assumption(fr19_a2).
assumption(fr13_a3).
assumption(fr13_b3).
assumption(fr12_d1).
contrary(fr12_d1,fr12_d1).
contrary(fr12_f1,fr19_a2).
contrary(fr13_a3,fr21_p3).
contrary(fr13_b1,fr21_r2).
contrary(fr12_d1,fr13_v1).
contrary(fr13_b3,fr13_r1).
contrary(fr12_d1,fr13_u1).
contrary(fr12_d1,fr25_y2).
contrary(fr12_d1,fr25_y2).
contrary(fr6_d3,fr13_w2).
contrary(fr12_d1,fr11_r3).
contrary(fr13_e1,fr13_w2).
contrary(fr12_d1,fr12_d1).
contrary(fr12_d1,fr17_x1).
contrary(fr19_a2,fr13_s2).
head(r_fr13_0,fr6_t2).
body(r_fr13_0,fr12_f1).
body(r_fr13_0,fr13_a3).
body(r_fr13_0,fr6_d3).
body(r_fr13_0,fr13_e1).
body(r_fr13_0,fr13_r1).
body(r_fr13_0,fr25_y2).
head(r_fr13_1,fr6_t2).
body(r_fr13_1,fr13_v2).
body(r_fr13_1,fr25_y2).
head(r_fr13_2,fr6_t2).
body(r_fr13_2,fr17_x1).
body(r_fr13_2,fr13_s2).
head(r_fr13_3,fr6_t2).
body(r_fr13_3,fr21_r2).
body(r_fr13_3,fr13_u1).
body(r_fr13_3,fr13_w2).
head(r_fr13_4,fr6_t2).
body(r_fr13_4,fr6_d3).
body(r_fr13_4,fr12_d1).
body(r_fr13_4,fr21_r2).
head(r_fr13_5,fr6_t2).
head(r_fr13_6,fr6_t2).
body(r_fr13_6,fr12_d1).
body(r_fr13_6,fr13_q3).
head(r_fr13_7,fr6_t2).
body(r_fr13_7,fr13_a3).
body(r_fr13_7,fr12_d1).
body(r_fr13_7,fr12_d1).
body(r_fr13_7,fr13_e1).
body(r_fr13_7,fr12_d1).
head(r_fr13_8,fr6_t2).
body(r_fr13_8,fr12_d1).
body(r_fr13_8,fr12_d1).
body(r_fr13_8,fr11_r3).
head(r_fr13_9,fr6_t2).
body(r_fr13_9,fr21_p3).
head(r_fr13_10,fr6_t2).
body(r_fr13_10,fr12_d1).
head(r_fr13_11,fr6_t2).
body(r_fr13_11,fr12_f1).
body(r_fr13_11,fr13_b3).
body(r_fr13_11,fr12_d1).
body(r_fr13_11,fr12_d1).
body(r_fr13_11,fr13_p1).
body(r_fr13_11,fr13_q2).
head(r_fr13_12,fr6_t2).
body(r_fr13_12,fr17_x1).
body(r_fr13_12,fr2_y3).
body(r_fr13_12,fr13_s2).
head(r_fr13_13,fr6_t2).
body(r_fr13_13,fr13_q2).
body(r_fr13_13,fr21_r2).
head(r_fr13_14,fr6_t2).
body(r_fr13_14,fr12_f1).
body(r_fr13_14,fr13_b3).
body(r_fr13_14,fr12_d1).
body(r_fr13_14,fr12_d1).
body(r_fr13_14,fr12_d1).
head(r_fr13_15,fr13_v1).
body(r_fr13_15,fr13_b3).
body(r_fr13_15,fr12_d1).
body(r_fr13_15,fr19_a2).
body(r_fr13_15,fr2_y3).
body(r_fr13_15,fr23_z1).
head(r_fr13_16,fr13_v1).
body(r_fr13_16,fr12_d1).
body(r_fr13_16,fr6_d3).
head(r_fr13_17,fr13_v1).
body(r_fr13_17,fr12_d1).
body(r_fr13_17,fr13_e1).
body(r_fr13_17,fr17_x1).
body(r_fr13_17,fr13_u2).
body(r_fr13_17,fr13_w2).
body(r_fr13_17,fr21_p3).
head(r_fr13_18,fr13_v1).
head(r_fr13_19,fr13_v1).
body(r_fr13_19,fr12_f1).
body(r_fr13_19,fr12_d1).
body(r_fr13_19,fr19_a2).
head(r_fr13_20,fr13_v1).
body(r_fr13_20,fr2_y3).
body(r_fr13_20,fr13_s2).
body(r_fr13_20,fr13_u2).
body(r_fr13_20,fr13_v2).
body(r_fr13_20,fr13_w2).
body(r_fr13_20,fr21_r2).
head(r_fr13_21,fr13_v1).
body(r_fr13_21,fr12_d1).
body(r_fr13_21,fr19_a2).
body(r_fr13_21,fr2_y3).
head(r_fr13_22,fr13_v1).
body(r_fr13_22,fr12_f1).
body(r_fr13_22,fr12_d1).
body(r_fr13_22,fr6_d3).
body(r_fr13_22,fr12_d1).
body(r_fr13_22,fr13_r1).
body(r_fr13_22,fr13_s2).
head(r_fr13_23,fr13_v1).
body(r_fr13_23,fr12_f1).
body(r_fr13_23,fr12_d1).
body(r_fr13_23,fr12_d1).
body(r_fr13_23,fr12_d1).
body(r_fr13_23,fr13_p1).
body(r_fr13_23,fr13_t2).
head(r_fr13_24,fr13_v1).
body(r_fr13_24,fr12_d1).
body(r_fr13_24,fr12_f1).
body(r_fr13_24,fr12_d1).
body(r_fr13_24,fr19_a2).
head(r_fr13_25,fr13_v1).
body(r_fr13_25,fr13_r1).
body(r_fr13_25,fr17_p3).
head(r_fr13_26,fr13_v1).
body(r_fr13_26,fr12_f1).
body(r_fr13_26,fr13_b1).
body(r_fr13_26,fr12_d1).
body(r_fr13_26,fr12_d1).
body(r_fr13_26,fr12_d1).
body(r_fr13_26,fr13_e1).
head(r_fr13_27,fr13_v1).
body(r_fr13_27,fr12_d1).
body(r_fr13_27,fr24_p3).
body(r_fr13_27,fr21_r2).
body(r_fr13_27,fr1_u1).
body(r_fr13_27,fr23_z1).
head(r_fr13_28,fr13_v1).
body(r_fr13_28,fr13_w2).
head(r_fr13_29,fr13_v1).
body(r_fr13_29,fr12_d1).
body(r_fr13_29,fr12_d1).
body(r_fr13_29,fr13_e1).
body(r_fr13_29,fr12_d1).
head(r_fr13_30,fr13_v1).
body(r_fr13_30,fr12_d1).
body(r_fr13_30,fr13_e1).
body(r_fr13_30,fr13_p1).
body(r_fr13_30,fr1_u1).
body(r_fr13_30,fr13_s2).
body(r_fr13_30,fr13_u1).
head(r_fr13_31,fr13_q3).
body(r_fr13_31,fr12_d1).
body(r_fr13_31,fr13_a3).
body(r_fr13_31,fr13_b3).
body(r_fr13_31,fr11_r3).
head(r_fr13_32,fr13_q3).
body(r_fr13_32,fr13_a3).
body(r_fr13_32,fr12_d1).
body(r_fr13_32,fr12_d1).
body(r_fr13_32,fr13_e1).
body(r_fr13_32,fr12_d1).
body(r_fr13_32,fr12_d1).
head(r_fr13_33,fr13_q3).
body(r_fr13_33,fr12_d1).
body(r_fr13_33,fr13_b3).
body(r_fr13_33,fr12_d1).
body(r_fr13_33,fr12_d1).
head(r_fr13_34,fr13_q3).
body(r_fr13_34,fr13_a3).
body(r_fr13_34,fr12_d1).
body(r_fr13_34,fr12_d1).
body(r_fr13_34,fr19_a2).
head(r_fr13_35,fr13_q3).
body(r_fr13_35,fr13_b3).
body(r_fr13_35,fr12_d1).
body(r_fr13_35,fr13_u1).
body(r_fr13_35,fr23_z1).
head(r_fr13_36,fr13_q3).
body(r_fr13_36,fr12_d1).
body(r_fr13_36,fr13_b1).
body(r_fr13_36,fr12_d1).
body(r_fr13_36,fr1_u1).
body(r_fr13_36,fr13_u2).
body(r_fr13_36,fr25_y2).
head(r_fr13_37,fr13_q3).
body(r_fr13_37,fr13_q2).
body(r_fr13_37,fr13_v1).
head(r_fr13_38,fr13_q3).
body(r_fr13_38,fr12_d1).
body(r_fr13_38,fr13_e1).
body(r_fr13_38,fr24_p3).
body(r_fr13_38,fr13_s2).
head(r_fr13_39,fr13_q3).
body(r_fr13_39,fr12_d1).
body(r_fr13_39,fr13_b1).
body(r_fr13_39,fr13_b3).
body(r_fr13_39,fr23_z1).
head(r_fr13_40,fr13_q3).
body(r_fr13_40,fr13_p1).
body(r_fr13_40,fr17_x1).
body(r_fr13_40,fr17_p3).
body(r_fr13_40,fr13_v1).
body(r_fr13_40,fr13_v2).
body(r_fr13_40,fr11_r3).
head(r_fr13_41,fr13_q3).
body(r_fr13_41,fr12_d1).
body(r_fr13_41,fr2_y3).
body(r_fr13_41,fr13_s2).
head(r_fr13_42,fr13_q3).
body(r_fr13_42,fr13_b1).
body(r_fr13_42,fr6_d3).
body(r_fr13_42,fr12_d1).
body(r_fr13_42,fr13_q1).
body(r_fr13_42,fr13_v1).
head(r_fr13_43,fr13_q3).
body(r_fr13_43,fr13_p1).
body(r_fr13_43,fr13_s2).
body(r_fr13_43,fr13_v1).
body(r_fr13_43,fr25_y2).
head(r_fr13_44,fr13_q3).
body(r_fr13_44,fr13_q1).
body(r_fr13_44,fr13_r1).
body(r_fr13_44,fr13_v1).
body(r_fr13_44,fr21_p3).
head(r_fr13_45,fr13_q3).
body(r_fr13_45,fr12_f1).
body(r_fr13_45,fr13_a3).
body(r_fr13_45,fr13_b1).
body(r_fr13_45,fr12_d1).
body(r_fr13_45,fr12_d1).
body(r_fr13_45,fr23_z1).
head(r_fr13_46,fr13_q3).
body(r_fr13_46,fr13_a3).
body(r_fr13_46,fr13_e1).
head(r_fr13_47,fr13_q3).
body(r_fr13_47,fr12_d1).
body(r_fr13_47,fr12_d1).
head(r_fr13_48,fr17_x1).
body(r_fr13_48,fr13_q1).
body(r_fr13_48,fr13_s2).
body(r_fr13_48,fr13_u1).
body(r_fr13_48,fr13_v1).
body(r_fr13_48,fr11_r3).
head(r_fr13_49,fr17_x1).
body(r_fr13_49,fr13_v2).
head(r_fr13_50,fr17_x1).
body(r_fr13_50,fr12_d1).
body(r_fr13_50,fr13_e1).
head(r_fr13_51,fr17_x1).
body(r_fr13_51,fr12_d1).
body(r_fr13_51,fr24_p3).
body(r_fr13_51,fr13_s2).
body(r_fr13_51,fr23_z1).
head(r_fr13_52,fr17_x1).
body(r_fr13_52,fr12_d1).
body(r_fr13_52,fr13_q1).
body(r_fr13_52,fr1_u1).
body(r_fr13_52,fr13_u2).
head(r_fr13_53,fr17_x1).
body(r_fr13_53,fr13_b1).
body(r_fr13_53,fr1_u1).
body(r_fr13_53,fr13_s2).
body(r_fr13_53,fr13_v2).
body(r_fr13_53,fr13_w2).
body(r_fr13_53,fr21_p3).
head(r_fr13_54,fr17_x1).
body(r_fr13_54,fr13_b1).
body(r_fr13_54,fr12_d1).
body(r_fr13_54,fr13_q1).
head(r_fr13_55,fr17_x1).
body(r_fr13_55,fr12_f1).
body(r_fr13_55,fr13_a3).
body(r_fr13_55,fr24_p3).
head(r_fr13_56,fr17_x1).
body(r_fr13_56,fr13_b3).
body(r_fr13_56,fr12_d1).
body(r_fr13_56,fr12_d1).
body(r_fr13_56,fr11_r3).
body(r_fr13_56,fr6_t2).
body(r_fr13_56,fr21_r2).
head(r_fr13_57,fr17_x1).
body(r_fr13_57,fr13_q1).
body(r_fr13_57,fr17_p3).
body(r_fr13_57,fr13_v1).
body(r_fr13_57,fr13_v2).
body(r_fr13_57,fr13_w2).
body(r_fr13_57,fr23_z1).
head(r_fr13_58,fr17_x1).
body(r_fr13_58,fr12_f1).
body(r_fr13_58,fr13_b1).
body(r_fr13_58,fr13_b3).
body(r_fr13_58,fr6_d3).
body(r_fr13_58,fr12_d1).
body(r_fr13_58,fr19_a2).
head(r_fr13_59,fr17_x1).
body(r_fr13_59,fr13_p1).
body(r_fr13_59,fr13_s2).
body(r_fr13_59,fr21_p3).
body(r_fr13_59,fr6_t2).
head(r_fr13_60,fr17_x1).
body(r_fr13_60,fr12_d1).
body(r_fr13_60,fr12_d1).
body(r_fr13_60,fr12_d1).
body(r_fr13_60,fr12_d1).
body(r_fr13_60,fr13_w2).
body(r_fr13_60,fr21_r2).
head(r_fr13_61,fr17_x1).
body(r_fr13_61,fr12_d1).
body(r_fr13_61,fr6_d3).
body(r_fr13_61,fr13_e1).
body(r_fr13_61,fr13_q1).
body(r_fr13_61,fr13_u2).
head(r_fr13_62,fr17_x1).
body(r_fr13_62,fr21_r2).
body(r_fr13_62,fr23_z1).
head(r_fr13_63,fr17_x1).
head(r_fr13_64,fr17_x1).
body(r_fr13_64,fr13_u2).
body(r_fr13_64,fr13_v2).
body(r_fr13_64,fr6_t2).
head(r_fr13_65,fr13_v2).
body(r_fr13_65,fr21_r2).
body(r_fr13_65,fr25_y2).
head(r_fr13_66,fr13_v2).
body(r_fr13_66,fr13_b1).
body(r_fr13_66,fr12_d1).
body(r_fr13_66,fr13_e1).
body(r_fr13_66,fr12_d1).
body(r_fr13_66,fr17_x1).
head(r_fr13_67,fr13_v2).
body(r_fr13_67,fr13_r1).
body(r_fr13_67,fr17_p3).
body(r_fr13_67,fr25_y2).
head(r_fr13_68,fr13_v2).
body(r_fr13_68,fr13_b3).
head(r_fr13_69,fr13_v2).
body(r_fr13_69,fr13_a3).
body(r_fr13_69,fr12_d1).
body(r_fr13_69,fr13_q3).
head(r_fr13_70,fr13_v2).
body(r_fr13_70,fr12_f1).
body(r_fr13_70,fr13_a3).
body(r_fr13_70,fr12_d1).
body(r_fr13_70,fr6_d3).
head(r_fr13_71,fr13_v2).
body(r_fr13_71,fr12_d1).
body(r_fr13_71,fr13_p1).
head(r_fr13_72,fr13_v2).
body(r_fr13_72,fr12_d1).
body(r_fr13_72,fr19_a2).
body(r_fr13_72,fr13_q1).
head(r_fr13_73,fr13_v2).
body(r_fr13_73,fr13_q2).
body(r_fr13_73,fr17_p3).
body(r_fr13_73,fr21_p3).
head(r_fr13_74,fr13_v2).
body(r_fr13_74,fr13_r1).
body(r_fr13_74,fr25_y2).
body(r_fr13_74,fr23_z1).
head(r_fr13_75,fr13_v2).
body(r_fr13_75,fr13_b1).
body(r_fr13_75,fr6_d3).
body(r_fr13_75,fr12_d1).
body(r_fr13_75,fr13_s2).
body(r_fr13_75,fr6_t2).
head(r_fr13_76,fr13_v2).
body(r_fr13_76,fr12_d1).
body(r_fr13_76,fr12_d1).
body(r_fr13_76,fr13_q3).
body(r_fr13_76,fr13_s2).
body(r_fr13_76,fr17_p3).
body(r_fr13_76,fr21_r2).
head(r_fr13_77,fr13_v2).
body(r_fr13_77,fr12_d1).
body(r_fr13_77,fr13_b1).
body(r_fr13_77,fr12_d1).
body(r_fr13_77,fr13_e1).
body(r_fr13_77,fr19_a2).
head(r_fr13_78,fr13_v2).
head(r_fr13_79,fr21_p3).
body(r_fr13_79,fr12_d1).
body(r_fr13_79,fr13_q2).
body(r_fr13_79,fr13_r1).
body(r_fr13_79,fr6_t2).
body(r_fr13_79,fr25_y2).
head(r_fr13_80,fr21_p3).
body(r_fr13_80,fr12_d1).
body(r_fr13_80,fr13_v2).
head(r_fr13_81,fr21_p3).
body(r_fr13_81,fr13_b1).
body(r_fr13_81,fr12_d1).
body(r_fr13_81,fr12_d1).
body(r_fr13_81,fr6_d3).
head(r_fr13_82,fr21_p3).
body(r_fr13_82,fr13_b3).
body(r_fr13_82,fr12_d1).
body(r_fr13_82,fr13_e1).
body(r_fr13_82,fr17_x1).
body(r_fr13_82,fr13_r1).
head(r_fr13_83,fr21_p3).
body(r_fr13_83,fr13_e1).
head(r_fr13_84,fr21_p3).
body(r_fr13_84,fr13_b1).
body(r_fr13_84,fr13_b3).
body(r_fr13_84,fr12_d1).
body(r_fr13_84,fr12_d1).
body(r_fr13_84,fr19_a2).
head(r_fr13_85,fr21_p3).
body(r_fr13_85,fr12_d1).
body(r_fr13_85,fr12_d1).
body(r_fr13_85,fr24_p3).
body(r_fr13_85,fr13_q3).
body(r_fr13_85,fr1_u1).
body(r_fr13_85,fr13_w2).
head(r_fr13_86,fr21_p3).
body(r_fr13_86,fr13_b1).
body(r_fr13_86,fr12_d1).
body(r_fr13_86,fr12_d1).
head(r_fr13_87,fr21_p3).
body(r_fr13_87,fr21_r2).
body(r_fr13_87,fr17_p3).
head(r_fr13_88,fr21_p3).
body(r_fr13_88,fr13_b3).
body(r_fr13_88,fr12_d1).
body(r_fr13_88,fr13_t2).
body(r_fr13_88,fr13_u1).
body(r_fr13_88,fr13_v1).
body(r_fr13_88,fr13_v2).
head(r_fr13_89,fr21_p3).
body(r_fr13_89,fr12_d1).
head(r_fr13_90,fr21_p3).
body(r_fr13_90,fr12_d1).
body(r_fr13_90,fr13_e1).
head(r_fr13_91,fr21_p3).
body(r_fr13_91,fr13_b3).
body(r_fr13_91,fr12_d1).
body(r_fr13_91,fr19_a2).
body(r_fr13_91,fr13_u2).
body(r_fr13_91,fr11_r3).
body(r_fr13_91,fr25_y2).
head(r_fr13_92,fr21_p3).
body(r_fr13_92,fr12_f1).
body(r_fr13_92,fr12_d1).
body(r_fr13_92,fr13_b3).
body(r_fr13_92,fr12_d1).
body(r_fr13_92,fr13_e1).
body(r_fr13_92,fr12_d1).
head(r_fr13_93,fr21_p3).
body(r_fr13_93,fr13_q1).
body(r_fr13_93,fr13_q2).
body(r_fr13_93,fr1_u1).
body(r_fr13_93,fr13_s2).
body(r_fr13_93,fr13_v2).
body(r_fr13_93,fr6_t2).
head(r_fr13_94,fr21_p3).
body(r_fr13_94,fr13_b3).
head(r_fr13_95,fr21_p3).
head(r_fr13_96,fr2_y3).
body(r_fr13_96,fr13_b3).
head(r_fr13_97,fr2_y3).
body(r_fr13_97,fr12_f1).
body(r_fr13_97,fr12_d1).
body(r_fr13_97,fr13_b3).
body(r_fr13_97,fr6_d3).
body(r_fr13_97,fr19_a2).
head(r_fr13_98,fr2_y3).
body(r_fr13_98,fr12_f1).
body(r_fr13_98,fr13_e1).
body(r_fr13_98,fr12_d1).
body(r_fr13_98,fr12_d1).
body(r_fr13_98,fr13_t2).
body(r_fr13_98,fr23_z1).
head(r_fr13_99,fr2_y3).
body(r_fr13_99,fr12_f1).
body(r_fr13_99,fr6_d3).
body(r_fr13_99,fr12_d1).
body(r_fr13_99,fr12_d1).
body(r_fr13_99,fr13_q2).
body(r_fr13_99,fr21_p3).
head(r_fr13_100,fr2_y3).
body(r_fr13_100,fr13_u2).
body(r_fr13_100,fr13_v1).
head(r_fr13_101,fr2_y3).
body(r_fr13_101,fr12_d1).
body(r_fr13_101,fr12_d1).
body(r_fr13_101,fr19_a2).
body(r_fr13_101,fr21_p3).
body(r_fr13_101,fr6_t2).
head(r_fr13_102,fr2_y3).
body(r_fr13_102,fr13_q1).
body(r_fr13_102,fr13_t2).
body(r_fr13_102,fr13_w2).
body(r_fr13_102,fr25_y2).
head(r_fr13_103,fr2_y3).
head(r_fr13_104,fr2_y3).
body(r_fr13_104,fr12_d1).
body(r_fr13_104,fr6_d3).
body(r_fr13_104,fr13_r1).
body(r_fr13_104,fr13_t2).
body(r_fr13_104,fr21_p3).
body(r_fr13_104,fr25_y2).
head(r_fr13_105,fr2_y3).
body(r_fr13_105,fr12_d1).
head(r_fr13_106,fr2_y3).
body(r_fr13_106,fr13_a3).
body(r_fr13_106,fr12_d1).
body(r_fr13_106,fr12_d1).
body(r_fr13_106,fr17_p3).
body(r_fr13_106,fr25_y2).
head(r_fr13_107,fr2_y3).
body(r_fr13_107,fr12_d1).
body(r_fr13_107,fr17_x1).
body(r_fr13_107,fr13_q1).
head(r_fr13_108,fr2_y3).
body(r_fr13_108,fr13_b1).
body(r_fr13_108,fr12_d1).
body(r_fr13_108,fr12_d1).
body(r_fr13_108,fr13_q2).
body(r_fr13_108,fr17_p3).
body(r_fr13_108,fr21_r2).
head(r_fr13_109,fr2_y3).
body(r_fr13_109,fr13_a3).
body(r_fr13_109,fr13_t2).
body(r_fr13_109,fr13_u2).
body(r_fr13_109,fr25_y2).
head(r_fr13_110,fr2_y3).
body(r_fr13_110,fr6_t2).
head(r_fr13_111,fr25_y2).
body(r_fr13_111,fr19_a2).
body(r_fr13_111,fr24_p3).
body(r_fr13_111,fr17_x1).
body(r_fr13_111,fr21_r2).
body(r_fr13_111,fr17_p3).
body(r_fr13_111,fr13_t2).
head(r_fr13_112,fr25_y2).
body(r_fr13_112,fr13_r1).
head(r_fr13_113,fr25_y2).
body(r_fr13_113,fr24_p3).
head(r_fr13_114,fr25_y2).
body(r_fr13_114,fr13_p1).
body(r_fr13_114,fr2_y3).
body(r_fr13_114,fr13_u2).
body(r_fr13_114,fr25_y2).
head(r_fr13_115,fr25_y2).
body(r_fr13_115,fr12_d1).
body(r_fr13_115,fr12_d1).
body(r_fr13_115,fr12_d1).
body(r_fr13_115,fr12_d1).
body(r_fr13_115,fr12_d1).
body(r_fr13_115,fr13_e1).
head(r_fr13_116,fr25_y2).
body(r_fr13_116,fr13_p1).
body(r_fr13_116,fr21_r2).
body(r_fr13_116,fr1_u1).
body(r_fr13_116,fr13_u2).
body(r_fr13_116,fr13_v2).
body(r_fr13_116,fr21_p3).
head(r_fr13_117,fr25_y2).
body(r_fr13_117,fr13_s2).
body(r_fr13_117,fr13_u2).
body(r_fr13_117,fr13_v1).
body(r_fr13_117,fr6_t2).
head(r_fr13_118,fr25_y2).
body(r_fr13_118,fr13_b1).
body(r_fr13_118,fr6_d3).
body(r_fr13_118,fr24_p3).
body(r_fr13_118,fr13_s2).
body(r_fr13_118,fr13_v2).
body(r_fr13_118,fr23_z1).
head(r_fr13_119,fr25_y2).
body(r_fr13_119,fr12_d1).
body(r_fr13_119,fr13_a3).
body(r_fr13_119,fr13_b1).
body(r_fr13_119,fr12_d1).
head(r_fr13_120,fr25_y2).
body(r_fr13_120,fr17_x1).
body(r_fr13_120,fr13_q3).
body(r_fr13_120,fr13_s2).
head(r_fr13_121,fr25_y2).
body(r_fr13_121,fr13_a3).
body(r_fr13_121,fr13_e1).
body(r_fr13_121,fr12_d1).
body(r_fr13_121,fr13_u1).
body(r_fr13_121,fr13_w2).
head(r_fr13_122,fr25_y2).
body(r_fr13_122,fr24_p3).
body(r_fr13_122,fr13_v1).
body(r_fr13_122,fr21_p3).
head(r_fr13_123,fr25_y2).
body(r_fr13_123,fr13_a3).
body(r_fr13_123,fr12_d1).
body(r_fr13_123,fr12_d1).
body(r_fr13_123,fr12_d1).
head(r_fr13_124,fr25_y2).
head(r_fr13_125,fr17_p3).
body(r_fr13_125,fr13_b1).
body(r_fr13_125,fr13_b3).
body(r_fr13_125,fr12_d1).
body(r_fr13_125,fr13_q3).
body(r_fr13_125,fr13_s2).
body(r_fr13_125,fr13_w2).
head(r_fr13_126,fr17_p3).
body(r_fr13_126,fr11_r3).
body(r_fr13_126,fr6_t2).
head(r_fr13_127,fr17_p3).
body(r_fr13_127,fr12_d1).
body(r_fr13_127,fr13_q2).
head(r_fr13_128,fr17_p3).
body(r_fr13_128,fr2_y3).
body(r_fr13_128,fr13_s2).
body(r_fr13_128,fr13_t2).
body(r_fr13_128,fr13_v1).
body(r_fr13_128,fr6_t2).
body(r_fr13_128,fr23_z1).
head(r_fr13_129,fr17_p3).
body(r_fr13_129,fr12_f1).
body(r_fr13_129,fr12_d1).
body(r_fr13_129,fr13_b3).
body(r_fr13_129,fr12_d1).
body(r_fr13_129,fr19_a2).
body(r_fr13_129,fr24_p3).
head(r_fr13_130,fr17_p3).
body(r_fr13_130,fr13_q1).
body(r_fr13_130,fr13_u1).
body(r_fr13_130,fr11_r3).
body(r_fr13_130,fr25_y2).
head(r_fr13_131,fr17_p3).
body(r_fr13_131,fr17_x1).
body(r_fr13_131,fr13_r1).
body(r_fr13_131,fr1_u1).
head(r_fr13_132,fr17_p3).
body(r_fr13_132,fr12_d1).
body(r_fr13_132,fr12_d1).
body(r_fr13_132,fr13_u2).
head(r_fr13_133,fr17_p3).
body(r_fr13_133,fr12_f1).
body(r_fr13_133,fr13_p1).
body(r_fr13_133,fr21_r2).
body(r_fr13_133,fr13_u1).
head(r_fr13_134,fr17_p3).
body(r_fr13_134,fr13_q3).
body(r_fr13_134,fr21_r2).
body(r_fr13_134,fr13_v1).
head(r_fr13_135,fr17_p3).
body(r_fr13_135,fr13_b3).
body(r_fr13_135,fr12_d1).
head(r_fr13_136,fr17_p3).
body(r_fr13_136,fr12_d1).
body(r_fr13_136,fr12_d1).
body(r_fr13_136,fr19_a2).
body(r_fr13_136,fr21_r2).
body(r_fr13_136,fr13_w2).
body(r_fr13_136,fr21_r2).
head(r_fr13_137,fr17_p3).
body(r_fr13_137,fr12_d1).
body(r_fr13_137,fr12_d1).
body(r_fr13_137,fr13_e1).
body(r_fr13_137,fr12_d1).
body(r_fr13_137,fr13_q3).
head(r_fr13_138,fr17_p3).
body(r_fr13_138,fr13_a3).
body(r_fr13_138,fr13_b3).
body(r_fr13_138,fr12_d1).
head(r_fr13_139,fr17_p3).
body(r_fr13_139,fr12_f1).
body(r_fr13_139,fr13_a3).
head(r_fr13_140,fr17_p3).
head(r_fr13_141,fr17_p3).
body(r_fr13_141,fr12_d1).
body(r_fr13_141,fr13_p1).
body(r_fr13_141,fr13_q2).
body(r_fr13_141,fr6_t2).
head(r_fr13_142,fr13_u2).
body(r_fr13_142,fr19_a2).
body(r_fr13_142,fr17_p3).
body(r_fr13_142,fr13_v1).
body(r_fr13_142,fr25_y2).
head(r_fr13_143,fr13_u2).
body(r_fr13_143,fr12_f1).
body(r_fr13_143,fr13_b1).
body(r_fr13_143,fr12_d1).
body(r_fr13_143,fr12_d1).
body(r_fr13_143,fr12_d1).
body(r_fr13_143,fr19_a2).
head(r_fr13_144,fr13_u2).
body(r_fr13_144,fr13_q3).
body(r_fr13_144,fr2_y3).
body(r_fr13_144,fr13_s2).
body(r_fr13_144,fr21_p3).
body(r_fr13_144,fr21_r2).
head(r_fr13_145,fr13_u2).
body(r_fr13_145,fr13_b3).
body(r_fr13_145,fr12_d1).
body(r_fr13_145,fr12_d1).
body(r_fr13_145,fr13_e1).
body(r_fr13_145,fr12_d1).
body(r_fr13_145,fr13_q1).
head(r_fr13_146,fr13_u2).
body(r_fr13_146,fr13_b1).
body(r_fr13_146,fr12_d1).
body(r_fr13_146,fr13_q2).
body(r_fr13_146,fr21_r2).
body(r_fr13_146,fr25_y2).
head(r_fr13_147,fr13_u2).
body(r_fr13_147,fr12_f1).
body(r_fr13_147,fr12_d1).
body(r_fr13_147,fr13_q1).
body(r_fr13_147,fr13_q3).
body(r_fr13_147,fr21_r2).
head(r_fr13_148,fr13_u2).
body(r_fr13_148,fr12_d1).
body(r_fr13_148,fr12_d1).
body(r_fr13_148,fr12_d1).
head(r_fr13_149,fr13_u2).
body(r_fr13_149,fr13_a3).
body(r_fr13_149,fr21_p3).
head(r_fr13_150,fr13_u2).
body(r_fr13_150,fr12_d1).
body(r_fr13_150,fr13_p1).
body(r_fr13_150,fr17_x1).
body(r_fr13_150,fr13_r1).
body(r_fr13_150,fr21_r2).
head(r_fr13_151,fr13_u2).
body(r_fr13_151,fr12_d1).
body(r_fr13_151,fr12_d1).
body(r_fr13_151,fr13_e1).
body(r_fr13_151,fr12_d1).
body(r_fr13_151,fr12_d1).
head(r_fr13_152,fr13_u2).
body(r_fr13_152,fr12_d1).
body(r_fr13_152,fr13_a3).
body(r_fr13_152,fr13_b3).
body(r_fr13_152,fr12_d1).
head(r_fr13_153,fr13_u2).
head(r_fr13_154,fr13_u2).
body(r_fr13_154,fr12_d1).
body(r_fr13_154,fr12_d1).
body(r_fr13_154,fr12_d1).
body(r_fr13_154,fr13_s2).
body(r_fr13_154,fr17_p3).
body(r_fr13_154,fr11_r3).
head(r_fr13_155,fr13_u2).
body(r_fr13_155,fr13_b1).
body(r_fr13_155,fr13_q1).
body(r_fr13_155,fr21_r2).
body(r_fr13_155,fr11_r3).
body(r_fr13_155,fr13_w2).
head(r_fr13_156,fr13_u2).
body(r_fr13_156,fr17_x1).
body(r_fr13_156,fr13_q1).
body(r_fr13_156,fr23_z1).
head(r_fr13_157,fr13_u2).
body(r_fr13_157,fr12_d1).
body(r_fr13_157,fr13_w2).
head(r_fr13_158,fr13_q2).
body(r_fr13_158,fr12_d1).
body(r_fr13_158,fr2_y3).
head(r_fr13_159,fr13_q2).
body(r_fr13_159,fr13_p1).
body(r_fr13_159,fr24_p3).
body(r_fr13_159,fr21_r2).
body(r_fr13_159,fr13_u1).
body(r_fr13_159,fr13_u2).
head(r_fr13_160,fr13_q2).
body(r_fr13_160,fr12_d1).
body(r_fr13_160,fr19_a2).
body(r_fr13_160,fr13_t2).
head(r_fr13_161,fr13_q2).
body(r_fr13_161,fr13_s2).
body(r_fr13_161,fr17_p3).
body(r_fr13_161,fr13_t2).
head(r_fr13_162,fr13_q2).
body(r_fr13_162,fr12_d1).
body(r_fr13_162,fr13_q3).
body(r_fr13_162,fr25_y2).
head(r_fr13_163,fr13_q2).
body(r_fr13_163,fr13_a3).
body(r_fr13_163,fr12_d1).
body(r_fr13_163,fr12_d1).
body(r_fr13_163,fr12_d1).
body(r_fr13_163,fr12_d1).
head(r_fr13_164,fr13_q2).
body(r_fr13_164,fr13_a3).
body(r_fr13_164,fr13_e1).
body(r_fr13_164,fr17_x1).
body(r_fr13_164,fr21_r2).
body(r_fr13_164,fr13_w2).
body(r_fr13_164,fr23_z1).
head(r_fr13_165,fr13_q2).
body(r_fr13_165,fr12_d1).
body(r_fr13_165,fr19_a2).
head(r_fr13_166,fr13_q2).
body(r_fr13_166,fr13_b1).
body(r_fr13_166,fr13_q1).
body(r_fr13_166,fr21_r2).
body(r_fr13_166,fr13_u1).
head(r_fr13_167,fr13_q2).
body(r_fr13_167,fr12_d1).
body(r_fr13_167,fr21_r2).
body(r_fr13_167,fr1_u1).
head(r_fr13_168,fr13_q2).
body(r_fr13_168,fr23_z1).
head(r_fr13_169,fr13_q2).
body(r_fr13_169,fr12_d1).
body(r_fr13_169,fr13_q1).
body(r_fr13_169,fr2_y3).
body(r_fr13_169,fr13_s2).
body(r_fr13_169,fr13_u2).
head(r_fr13_170,fr13_q2).
body(r_fr13_170,fr17_x1).
head(r_fr13_171,fr13_q2).
body(r_fr13_171,fr19_a2).
body(r_fr13_171,fr13_p1).
body(r_fr13_171,fr24_p3).
head(r_fr13_172,fr13_q2).
head(r_fr13_173,fr13_q2).
body(r_fr13_173,fr24_p3).
body(r_fr13_173,fr21_r2).
body(r_fr13_173,fr13_u2).
body(r_fr13_173,fr11_r3).
body(r_fr13_173,fr21_p3).
head(r_fr13_174,fr13_q2).
body(r_fr13_174,fr12_f1).
body(r_fr13_174,fr13_a3).
body(r_fr13_174,fr13_v1).
body(r_fr13_174,fr25_y2).
head(r_fr13_175,fr13_s2).
body(r_fr13_175,fr1_u1).
head(r_fr13_176,fr13_s2).
body(r_fr13_176,fr13_q1).
body(r_fr13_176,fr13_q3).
body(r_fr13_176,fr17_p3).
body(r_fr13_176,fr13_v1).
head(r_fr13_177,fr13_s2).
body(r_fr13_177,fr12_d1).
body(r_fr13_177,fr21_r2).
head(r_fr13_178,fr13_s2).
body(r_fr13_178,fr12_d1).
body(r_fr13_178,fr12_d1).
body(r_fr13_178,fr12_d1).
body(r_fr13_178,fr19_a2).
body(r_fr13_178,fr11_r3).
body(r_fr13_178,fr25_y2).
head(r_fr13_179,fr13_s2).
body(r_fr13_179,fr13_b3).
body(r_fr13_179,fr1_u1).
body(r_fr13_179,fr13_w2).
head(r_fr13_180,fr13_s2).
body(r_fr13_180,fr12_d1).
body(r_fr13_180,fr13_e1).
body(r_fr13_180,fr13_w2).
head(r_fr13_181,fr13_s2).
body(r_fr13_181,fr12_d1).
body(r_fr13_181,fr17_x1).
body(r_fr13_181,fr25_y2).
head(r_fr13_182,fr13_s2).
body(r_fr13_182,fr13_p1).
body(r_fr13_182,fr13_q3).
body(r_fr13_182,fr13_u1).
body(r_fr13_182,fr13_u2).
body(r_fr13_182,fr13_v2).
body(r_fr13_182,fr21_r2).
head(r_fr13_183,fr13_s2).
body(r_fr13_183,fr12_d1).
body(r_fr13_183,fr19_a2).
body(r_fr13_183,fr13_p1).
body(r_fr13_183,fr21_r2).
head(r_fr13_184,fr13_s2).
body(r_fr13_184,fr6_d3).
body(r_fr13_184,fr21_r2).
head(r_fr13_185,fr13_s2).
body(r_fr13_185,fr13_a3).
head(r_fr13_186,fr13_s2).
body(r_fr13_186,fr12_d1).
body(r_fr13_186,fr12_d1).
body(r_fr13_186,fr12_d1).
body(r_fr13_186,fr13_w2).
head(r_fr13_187,fr13_s2).
body(r_fr13_187,fr12_d1).
body(r_fr13_187,fr12_d1).
head(r_fr13_188,fr13_s2).
body(r_fr13_188,fr13_a3).
body(r_fr13_188,fr13_b1).
body(r_fr13_188,fr12_d1).
body(r_fr13_188,fr6_d3).
body(r_fr13_188,fr13_e1).
head(r_fr13_189,fr13_s2).
body(r_fr13_189,fr12_f1).
body(r_fr13_189,fr13_a3).
body(r_fr13_189,fr13_b3).
body(r_fr13_189,fr19_a2).
head(r_fr13_190,fr13_s2).
body(r_fr13_190,fr13_b1).
body(r_fr13_190,fr12_d1).
body(r_fr13_190,fr6_d3).
body(r_fr13_190,fr12_d1).
body(r_fr13_190,fr12_d1).
body(r_fr13_190,fr19_a2).
head(r_fr13_191,fr13_s2).
head(r_fr13_192,fr1_u1).
body(r_fr13_192,fr12_d1).
body(r_fr13_192,fr13_b1).
body(r_fr13_192,fr12_d1).
body(r_fr13_192,fr13_e1).
head(r_fr13_193,fr1_u1).
body(r_fr13_193,fr12_d1).
head(r_fr13_194,fr1_u1).
body(r_fr13_194,fr24_p3).
body(r_fr13_194,fr21_r2).
head(r_fr13_195,fr1_u1).
body(r_fr13_195,fr12_d1).
body(r_fr13_195,fr21_r2).
body(r_fr13_195,fr25_y2).
head(r_fr13_196,fr1_u1).
body(r_fr13_196,fr12_f1).
body(r_fr13_196,fr12_d1).
body(r_fr13_196,fr6_d3).
head(r_fr13_197,fr1_u1).
body(r_fr13_197,fr13_b3).
body(r_fr13_197,fr12_d1).
head(r_fr13_198,fr1_u1).
body(r_fr13_198,fr12_d1).
body(r_fr13_198,fr12_d1).
body(r_fr13_198,fr13_v1).
head(r_fr13_199,fr1_u1).
body(r_fr13_199,fr13_e1).
body(r_fr13_199,fr12_d1).
body(r_fr13_199,fr13_t2).
head(r_fr13_200,fr1_u1).
body(r_fr13_200,fr13_a3).
body(r_fr13_200,fr13_b3).
body(r_fr13_200,fr12_d1).
body(r_fr13_200,fr6_d3).
body(r_fr13_200,fr12_d1).
body(r_fr13_200,fr21_p3).
head(r_fr13_201,fr1_u1).
body(r_fr13_201,fr13_b1).
body(r_fr13_201,fr6_d3).
body(r_fr13_201,fr12_d1).
body(r_fr13_201,fr13_e1).
body(r_fr13_201,fr12_d1).
head(r_fr13_202,fr1_u1).
body(r_fr13_202,fr12_d1).
body(r_fr13_202,fr13_b1).
body(r_fr13_202,fr12_d1).
body(r_fr13_202,fr12_d1).
body(r_fr13_202,fr13_v1).
body(r_fr13_202,fr21_r2).
head(r_fr13_203,fr1_u1).
head(r_fr13_204,fr1_u1).
body(r_fr13_204,fr12_f1).
body(r_fr13_204,fr13_b3).
body(r_fr13_204,fr12_d1).
body(r_fr13_204,fr6_d3).
body(r_fr13_204,fr13_u1).
body(r_fr13_204,fr13_v1).
head(r_fr13_205,fr1_u1).
body(r_fr13_205,fr13_s2).
body(r_fr13_205,fr17_p3).
head(r_fr13_206,fr1_u1).
body(r_fr13_206,fr13_b1).
body(r_fr13_206,fr12_d1).
body(r_fr13_206,fr12_d1).
body(r_fr13_206,fr6_d3).
body(r_fr13_206,fr12_d1).
body(r_fr13_206,fr13_u2).
head(r_fr13_207,fr21_r2).
body(r_fr13_207,fr12_d1).
body(r_fr13_207,fr13_p1).
body(r_fr13_207,fr13_t2).
head(r_fr13_208,fr21_r2).
body(r_fr13_208,fr13_b1).
body(r_fr13_208,fr12_d1).
body(r_fr13_208,fr13_b3).
body(r_fr13_208,fr6_d3).
body(r_fr13_208,fr12_d1).
body(r_fr13_208,fr13_r1).
head(r_fr13_209,fr21_r2).
body(r_fr13_209,fr12_d1).
body(r_fr13_209,fr13_p1).
body(r_fr13_209,fr1_u1).
body(r_fr13_209,fr13_s2).
head(r_fr13_210,fr21_r2).
body(r_fr13_210,fr12_d1).
body(r_fr13_210,fr12_d1).
body(r_fr13_210,fr13_e1).
body(r_fr13_210,fr12_d1).
body(r_fr13_210,fr19_a2).
body(r_fr13_210,fr13_u2).
head(r_fr13_211,fr21_r2).
body(r_fr13_211,fr12_d1).
body(r_fr13_211,fr12_d1).
head(r_fr13_212,fr21_r2).
body(r_fr13_212,fr17_p3).
body(r_fr13_212,fr13_u2).
head(r_fr13_213,fr21_r2).
body(r_fr13_213,fr12_d1).
body(r_fr13_213,fr12_d1).
body(r_fr13_213,fr2_y3).
body(r_fr13_213,fr21_p3).
head(r_fr13_214,fr21_r2).
body(r_fr13_214,fr2_y3).
body(r_fr13_214,fr13_u1).
body(r_fr13_214,fr13_u2).
head(r_fr13_215,fr21_r2).
body(r_fr13_215,fr12_f1).
head(r_fr13_216,fr21_r2).
body(r_fr13_216,fr19_a2).
body(r_fr13_216,fr17_x1).
body(r_fr13_216,fr13_r1).
body(r_fr13_216,fr11_r3).
body(r_fr13_216,fr13_w2).
body(r_fr13_216,fr25_y2).
head(r_fr13_217,fr21_r2).
head(r_fr13_218,fr21_r2).
body(r_fr13_218,fr12_d1).
body(r_fr13_218,fr12_d1).
body(r_fr13_218,fr25_y2).
head(r_fr13_219,fr21_r2).
body(r_fr13_219,fr12_d1).
head(r_fr13_220,fr21_r2).
body(r_fr13_220,fr12_d1).
body(r_fr13_220,fr12_d1).
body(r_fr13_220,fr12_d1).
head(r_fr13_221,fr21_r2).
body(r_fr13_221,fr12_d1).
body(r_fr13_221,fr12_d1).
head(r_fr13_222,fr21_r2).
body(r_fr13_222,fr13_p1).
head(r_fr13_223,fr21_r2).
body(r_fr13_223,fr2_y3).
head(r_fr13_224,fr23_z1).
body(r_fr13_224,fr13_a3).
body(r_fr13_224,fr13_b3).
body(r_fr13_224,fr12_d1).
body(r_fr13_224,fr13_s2).
head(r_fr13_225,fr23_z1).
body(r_fr13_225,fr2_y3).
body(r_fr13_225,fr13_s2).
head(r_fr13_226,fr23_z1).
body(r_fr13_226,fr12_d1).
body(r_fr13_226,fr12_d1).
body(r_fr13_226,fr13_e1).
body(r_fr13_226,fr12_d1).
body(r_fr13_226,fr17_p3).
head(r_fr13_227,fr23_z1).
body(r_fr13_227,fr12_d1).
body(r_fr13_227,fr12_f1).
body(r_fr13_227,fr12_d1).
body(r_fr13_227,fr19_a2).
head(r_fr13_228,fr23_z1).
body(r_fr13_228,fr12_d1).
body(r_fr13_228,fr12_d1).
body(r_fr13_228,fr12_d1).
body(r_fr13_228,fr12_d1).
head(r_fr13_229,fr23_z1).
body(r_fr13_229,fr13_b1).
body(r_fr13_229,fr12_d1).
body(r_fr13_229,fr12_d1).
body(r_fr13_229,fr12_d1).
body(r_fr13_229,fr19_a2).
head(r_fr13_230,fr23_z1).
body(r_fr13_230,fr13_b3).
body(r_fr13_230,fr12_d1).
body(r_fr13_230,fr1_u1).
head(r_fr13_231,fr23_z1).
body(r_fr13_231,fr13_a3).
body(r_fr13_231,fr13_e1).
body(r_fr13_231,fr19_a2).
body(r_fr13_231,fr13_t2).
body(r_fr13_231,fr6_t2).
head(r_fr13_232,fr23_z1).
body(r_fr13_232,fr13_b3).
body(r_fr13_232,fr12_d1).
head(r_fr13_233,fr23_z1).
body(r_fr13_233,fr12_d1).
head(r_fr13_234,fr23_z1).
body(r_fr13_234,fr12_d1).
body(r_fr13_234,fr12_d1).
body(r_fr13_234,fr13_p1).
body(r_fr13_234,fr13_t2).
body(r_fr13_234,fr13_v2).
head(r_fr13_235,fr23_z1).
head(r_fr13_236,fr23_z1).
body(r_fr13_236,fr13_b1).
body(r_fr13_236,fr13_b3).
body(r_fr13_236,fr13_e1).
body(r_fr13_236,fr17_p3).
body(r_fr13_236,fr21_r2).
body(r_fr13_236,fr25_y2).
head(r_fr13_237,fr23_z1).
body(r_fr13_237,fr13_q3).
body(r_fr13_237,fr13_u1).
body(r_fr13_237,fr13_v1).
body(r_fr13_237,fr11_r3).
body(r_fr13_237,fr21_p3).
head(r_fr13_238,fr23_z1).
body(r_fr13_238,fr12_d1).
body(r_fr13_238,fr13_b1).
body(r_fr13_238,fr13_b3).
body(r_fr13_238,fr24_p3).
body(r_fr13_238,fr21_r2).
body(r_fr13_238,fr6_t2).
head(r_fr13_239,fr13_r1).
body(r_fr13_239,fr12_f1).
body(r_fr13_239,fr12_d1).
body(r_fr13_239,fr13_u2).
body(r_fr13_239,fr11_r3).
head(r_fr13_240,fr13_r1).
body(r_fr13_240,fr13_b3).
body(r_fr13_240,fr6_d3).
body(r_fr13_240,fr13_u1).
head(r_fr13_241,fr13_r1).
head(r_fr13_242,fr13_r1).
body(r_fr13_242,fr13_a3).
body(r_fr13_242,fr12_d1).
body(r_fr13_242,fr12_d1).
body(r_fr13_242,fr6_d3).
body(r_fr13_242,fr12_d1).
body(r_fr13_242,fr12_d1).
head(r_fr13_243,fr13_r1).
body(r_fr13_243,fr13_a3).
body(r_fr13_243,fr13_b1).
body(r_fr13_243,fr12_d1).
body(r_fr13_243,fr19_a2).
body(r_fr13_243,fr6_t2).
body(r_fr13_243,fr21_r2).
head(r_fr13_244,fr13_r1).
body(r_fr13_244,fr2_y3).
body(r_fr13_244,fr1_u1).
body(r_fr13_244,fr13_s2).
body(r_fr13_244,fr13_u2).
body(r_fr13_244,fr23_z1).
body(r_fr13_244,fr25_y2).
head(r_fr13_245,fr13_r1).
body(r_fr13_245,fr12_f1).
body(r_fr13_245,fr13_b3).
body(r_fr13_245,fr13_p1).
head(r_fr13_246,fr13_r1).
body(r_fr13_246,fr13_p1).
body(r_fr13_246,fr24_p3).
body(r_fr13_246,fr13_t2).
body(r_fr13_246,fr13_u2).
head(r_fr13_247,fr13_r1).
body(r_fr13_247,fr13_a3).
body(r_fr13_247,fr12_d1).
body(r_fr13_247,fr12_d1).
body(r_fr13_247,fr12_d1).
body(r_fr13_247,fr19_a2).
body(r_fr13_247,fr6_t2).
head(r_fr13_248,fr13_r1).
body(r_fr13_248,fr12_f1).
body(r_fr13_248,fr12_d1).
body(r_fr13_248,fr6_d3).
body(r_fr13_248,fr12_d1).
body(r_fr13_248,fr12_d1).
body(r_fr13_248,fr12_d1).
head(r_fr13_249,fr13_r1).
body(r_fr13_249,fr12_f1).
body(r_fr13_249,fr13_a3).
body(r_fr13_249,fr13_b1).
body(r_fr13_249,fr12_d1).
body(r_fr13_249,fr12_d1).
body(r_fr13_249,fr12_d1).
head(r_fr13_250,fr13_r1).
body(r_fr13_250,fr12_d1).
body(r_fr13_250,fr13_p1).
body(r_fr13_250,fr13_s2).
head(r_fr13_251,fr13_r1).
body(r_fr13_251,fr12_d1).
body(r_fr13_251,fr13_q2).
body(r_fr13_251,fr1_u1).
body(r_fr13_251,fr13_t2).
body(r_fr13_251,fr13_u1).
body(r_fr13_251,fr21_r2).
head(r_fr13_252,fr13_r1).
body(r_fr13_252,fr12_d1).
body(r_fr13_252,fr12_d1).
body(r_fr13_252,fr13_b3).
body(r_fr13_252,fr12_d1).
body(r_fr13_252,fr12_d1).
body(r_fr13_252,fr19_a2).
head(r_fr13_253,fr13_r1).
body(r_fr13_253,fr2_y3).
body(r_fr13_253,fr21_r2).
body(r_fr13_253,fr21_p3).
head(r_fr13_254,fr21_r2).
body(r_fr13_254,fr13_e1).
body(r_fr13_254,fr2_y3).
body(r_fr13_254,fr21_r2).
body(r_fr13_254,fr11_r3).
head(r_fr13_255,fr21_r2).
body(r_fr13_255,fr13_a3).
body(r_fr13_255,fr12_d1).
body(r_fr13_255,fr13_b3).
head(r_fr13_256,fr21_r2).
body(r_fr13_256,fr12_f1).
body(r_fr13_256,fr12_d1).
body(r_fr13_256,fr12_d1).
body(r_fr13_256,fr6_d3).
body(r_fr13_256,fr13_s2).
body(r_fr13_256,fr11_r3).
head(r_fr13_257,fr21_r2).
body(r_fr13_257,fr12_d1).
body(r_fr13_257,fr13_u2).
head(r_fr13_258,fr21_r2).
body(r_fr13_258,fr6_d3).
head(r_fr13_259,fr21_r2).
body(r_fr13_259,fr13_a3).
body(r_fr13_259,fr12_d1).
body(r_fr13_259,fr19_a2).
body(r_fr13_259,fr21_p3).
head(r_fr13_260,fr21_r2).
body(r_fr13_260,fr12_f1).
body(r_fr13_260,fr13_a3).
body(r_fr13_260,fr12_d1).
body(r_fr13_260,fr12_d1).
body(r_fr13_260,fr19_a2).
head(r_fr13_261,fr21_r2).
body(r_fr13_261,fr13_a3).
body(r_fr13_261,fr1_u1).
body(r_fr13_261,fr17_p3).
body(r_fr13_261,fr13_t2).
head(r_fr13_262,fr21_r2).
body(r_fr13_262,fr13_q2).
head(r_fr13_263,fr21_r2).
body(r_fr13_263,fr13_q1).
body(r_fr13_263,fr13_q2).
body(r_fr13_263,fr21_r2).
body(r_fr13_263,fr1_u1).
body(r_fr13_263,fr13_v2).
head(r_fr13_264,fr21_r2).
body(r_fr13_264,fr12_d1).
body(r_fr13_264,fr12_f1).
body(r_fr13_264,fr13_b1).
body(r_fr13_264,fr12_d1).
body(r_fr13_264,fr6_d3).
body(r_fr13_264,fr12_d1).
head(r_fr13_265,fr21_r2).
body(r_fr13_265,fr12_d1).
body(r_fr13_265,fr12_d1).
body(r_fr13_265,fr19_a2).
body(r_fr13_265,fr13_q1).
body(r_fr13_265,fr13_u2).
head(r_fr13_266,fr21_r2).
body(r_fr13_266,fr12_d1).
body(r_fr13_266,fr13_q2).
body(r_fr13_266,fr1_u1).
body(r_fr13_266,fr13_v2).
head(r_fr13_267,fr21_r2).
body(r_fr13_267,fr17_x1).
body(r_fr13_267,fr13_u1).
body(r_fr13_267,fr13_v2).
body(r_fr13_267,fr6_t2).
head(r_fr13_268,fr21_r2).
head(r_fr13_269,fr21_r2).
body(r_fr13_269,fr12_d1).
body(r_fr13_269,fr13_q3).
body(r_fr13_269,fr1_u1).
body(r_fr13_269,fr6_t2).
head(r_fr13_270,fr24_p3).
body(r_fr13_270,fr12_d1).
body(r_fr13_270,fr13_e1).
body(r_fr13_270,fr13_q3).
body(r_fr13_270,fr23_z1).
head(r_fr13_271,fr24_p3).
body(r_fr13_271,fr12_f1).
body(r_fr13_271,fr13_b3).
body(r_fr13_271,fr13_e1).
body(r_fr13_271,fr12_d1).
body(r_fr13_271,fr19_a2).
head(r_fr13_272,fr24_p3).
body(r_fr13_272,fr21_r2).
body(r_fr13_272,fr13_s2).
body(r_fr13_272,fr13_v1).
body(r_fr13_272,fr13_v2).
body(r_fr13_272,fr11_r3).
body(r_fr13_272,fr6_t2).
head(r_fr13_273,fr24_p3).
body(r_fr13_273,fr12_d1).
body(r_fr13_273,fr13_p1).
body(r_fr13_273,fr17_x1).
body(r_fr13_273,fr1_u1).
body(r_fr13_273,fr13_v2).
head(r_fr13_274,fr24_p3).
body(r_fr13_274,fr17_p3).
head(r_fr13_275,fr24_p3).
body(r_fr13_275,fr12_d1).
body(r_fr13_275,fr13_q3).
body(r_fr13_275,fr13_r1).
body(r_fr13_275,fr17_p3).
body(r_fr13_275,fr13_u1).
body(r_fr13_275,fr13_v2).
head(r_fr13_276,fr24_p3).
body(r_fr13_276,fr12_d1).
body(r_fr13_276,fr12_f1).
body(r_fr13_276,fr21_r2).
head(r_fr13_277,fr24_p3).
body(r_fr13_277,fr12_d1).
body(r_fr13_277,fr13_a3).
body(r_fr13_277,fr2_y3).
body(r_fr13_277,fr13_u1).
body(r_fr13_277,fr25_y2).
head(r_fr13_278,fr24_p3).
body(r_fr13_278,fr13_e1).
body(r_fr13_278,fr13_r1).
head(r_fr13_279,fr24_p3).
body(r_fr13_279,fr13_a3).
body(r_fr13_279,fr12_d1).
body(r_fr13_279,fr13_e1).
head(r_fr13_280,fr24_p3).
body(r_fr13_280,fr6_d3).
head(r_fr13_281,fr24_p3).
body(r_fr13_281,fr13_b3).
body(r_fr13_281,fr13_u1).
body(r_fr13_281,fr13_w2).
head(r_fr13_282,fr24_p3).
body(r_fr13_282,fr13_b1).
body(r_fr13_282,fr13_q3).
body(r_fr13_282,fr2_y3).
body(r_fr13_282,fr21_r2).
body(r_fr13_282,fr13_t2).
body(r_fr13_282,fr13_v1).
head(r_fr13_283,fr24_p3).
body(r_fr13_283,fr13_b1).
head(r_fr13_284,fr24_p3).
body(r_fr13_284,fr12_d1).
body(r_fr13_284,fr13_e1).
body(r_fr13_284,fr12_d1).
body(r_fr13_284,fr11_r3).
body(r_fr13_284,fr13_w2).
head(r_fr13_285,fr24_p3).
body(r_fr13_285,fr12_d1).
body(r_fr13_285,fr12_d1).
body(r_fr13_285,fr12_d1).
body(r_fr13_285,fr19_a2).
body(r_fr13_285,fr1_u1).
head(r_fr13_286,fr24_p3).
body(r_fr13_286,fr6_d3).
body(r_fr13_286,fr13_e1).
body(r_fr13_286,fr19_a2).
body(r_fr13_286,fr13_q1).
head(r_fr13_287,fr13_t2).
body(r_fr13_287,fr13_b3).
body(r_fr13_287,fr12_d1).
body(r_fr13_287,fr12_d1).
body(r_fr13_287,fr12_d1).
body(r_fr13_287,fr19_a2).
head(r_fr13_288,fr13_t2).
body(r_fr13_288,fr13_q1).
body(r_fr13_288,fr21_r2).
head(r_fr13_289,fr13_t2).
body(r_fr13_289,fr13_b3).
body(r_fr13_289,fr13_s2).
body(r_fr13_289,fr13_u1).
body(r_fr13_289,fr13_w2).
head(r_fr13_290,fr13_t2).
body(r_fr13_290,fr13_s2).
head(r_fr13_291,fr13_t2).
head(r_fr13_292,fr13_t2).
body(r_fr13_292,fr13_p1).
body(r_fr13_292,fr13_q3).
body(r_fr13_292,fr13_r1).
head(r_fr13_293,fr13_t2).
body(r_fr13_293,fr13_a3).
body(r_fr13_293,fr17_x1).
body(r_fr13_293,fr2_y3).
body(r_fr13_293,fr21_r2).
body(r_fr13_293,fr25_y2).
head(r_fr13_294,fr13_t2).
body(r_fr13_294,fr12_d1).
body(r_fr13_294,fr12_d1).
body(r_fr13_294,fr12_d1).
body(r_fr13_294,fr12_d1).
body(r_fr13_294,fr17_p3).
body(r_fr13_294,fr6_t2).
head(r_fr13_295,fr13_t2).
body(r_fr13_295,fr13_r1).
body(r_fr13_295,fr21_r2).
body(r_fr13_295,fr13_v2).
head(r_fr13_296,fr13_t2).
body(r_fr13_296,fr6_t2).
head(r_fr13_297,fr13_t2).
body(r_fr13_297,fr19_a2).
body(r_fr13_297,fr17_p3).
body(r_fr13_297,fr13_u2).
head(r_fr13_298,fr13_t2).
body(r_fr13_298,fr12_d1).
body(r_fr13_298,fr13_s2).
body(r_fr13_298,fr13_u2).
head(r_fr13_299,fr13_t2).
body(r_fr13_299,fr24_p3).
body(r_fr13_299,fr13_q3).
body(r_fr13_299,fr13_r1).
body(r_fr13_299,fr1_u1).
body(r_fr13_299,fr13_u1).
body(r_fr13_299,fr23_z1).
head(r_fr13_300,fr13_t2).
body(r_fr13_300,fr12_d1).
body(r_fr13_300,fr17_x1).
body(r_fr13_300,fr1_u1).
head(r_fr13_301,fr13_t2).
body(r_fr13_301,fr6_d3).
body(r_fr13_301,fr12_d1).
head(r_fr13_302,fr13_w2).
body(r_fr13_302,fr12_f1).
body(r_fr13_302,fr13_e1).
body(r_fr13_302,fr12_d1).
body(r_fr13_302,fr1_u1).
body(r_fr13_302,fr21_r2).
head(r_fr13_303,fr13_w2).
body(r_fr13_303,fr13_b1).
body(r_fr13_303,fr12_d1).
body(r_fr13_303,fr13_e1).
body(r_fr13_303,fr13_q3).
head(r_fr13_304,fr13_w2).
body(r_fr13_304,fr13_q1).
body(r_fr13_304,fr13_s2).
body(r_fr13_304,fr17_p3).
body(r_fr13_304,fr13_u2).
body(r_fr13_304,fr13_v1).
body(r_fr13_304,fr6_t2).
head(r_fr13_305,fr13_w2).
body(r_fr13_305,fr12_d1).
body(r_fr13_305,fr12_d1).
body(r_fr13_305,fr12_d1).
body(r_fr13_305,fr12_d1).
body(r_fr13_305,fr13_q3).
head(r_fr13_306,fr13_w2).
body(r_fr13_306,fr13_a3).
body(r_fr13_306,fr13_b1).
body(r_fr13_306,fr12_d1).
body(r_fr13_306,fr12_d1).
body(r_fr13_306,fr12_d1).
head(r_fr13_307,fr13_w2).
body(r_fr13_307,fr13_a3).
head(r_fr13_308,fr13_w2).
body(r_fr13_308,fr13_b1).
body(r_fr13_308,fr12_d1).
body(r_fr13_308,fr12_d1).
body(r_fr13_308,fr21_p3).
head(r_fr13_309,fr13_w2).
body(r_fr13_309,fr12_d1).
body(r_fr13_309,fr12_d1).
body(r_fr13_309,fr6_d3).
body(r_fr13_309,fr12_d1).
body(r_fr13_309,fr19_a2).
head(r_fr13_310,fr13_w2).
body(r_fr13_310,fr6_d3).
body(r_fr13_310,fr13_p1).
body(r_fr13_310,fr17_x1).
head(r_fr13_311,fr13_w2).
body(r_fr13_311,fr11_r3).
head(r_fr13_312,fr13_w2).
body(r_fr13_312,fr12_d1).
head(r_fr13_313,fr13_w2).
head(r_fr13_314,fr13_w2).
body(r_fr13_314,fr12_d1).
body(r_fr13_314,fr24_p3).
head(r_fr13_315,fr13_w2).
body(r_fr13_315,fr13_b3).
body(r_fr13_315,fr12_d1).
body(r_fr13_315,fr12_d1).
body(r_fr13_315,fr19_a2).
head(r_fr13_316,fr13_w2).
body(r_fr13_316,fr12_d1).

assumption(fr1_d2).
assumption(fr17_d2).
assumption(fr14_c1).
assumption(fr22_a2).
assumption(fr12_d1).
assumption(fr12_d1).
assumption(fr12_d1).
assumption(fr12_d1).
assumption(fr12_d1).
assumption(fr11_e2).
assumption(fr14_e2).
assumption(fr17_d2).
assumption(fr14_a3).
assumption(fr12_d1).
assumption(fr12_d1).
contrary(fr1_d2,fr24_s1).
contrary(fr12_d1,fr5_s1).
contrary(fr14_a3,fr12_d1).
contrary(fr17_d2,fr24_s1).
contrary(fr12_d1,fr24_s1).
contrary(fr12_d1,fr14_e2).
contrary(fr14_c1,fr13_q3).
contrary(fr12_d1,fr13_q3).
contrary(fr12_d1,fr22_a2).
contrary(fr22_a2,fr12_d1).
contrary(fr11_e2,fr8_z2).
contrary(fr12_d1,fr14_p3).
contrary(fr14_e2,fr21_w4).
contrary(fr12_d1,fr5_s1).
contrary(fr17_d2,fr2_y3).
head(r_fr14_0,fr5_s1).
body(r_fr14_0,fr12_d1).
body(r_fr14_0,fr12_d1).
body(r_fr14_0,fr21_w4).
head(r_fr14_1,fr5_s1).
body(r_fr14_1,fr25_v1).
head(r_fr14_2,fr21_w4).
body(r_fr14_2,fr25_y2).
body(r_fr14_2,fr14_t1).
body(r_fr14_2,fr5_s1).
body(r_fr14_2,fr11_q2).
body(r_fr14_2,fr11_z1).
head(r_fr14_3,fr21_w4).
body(r_fr14_3,fr11_e2).
body(r_fr14_3,fr14_p3).
body(r_fr14_3,fr24_s1).
head(r_fr14_4,fr21_w4).
body(r_fr14_4,fr14_q3).
body(r_fr14_4,fr11_z1).
head(r_fr14_5,fr9_q1).
body(r_fr14_5,fr12_d1).
body(r_fr14_5,fr12_d1).
body(r_fr14_5,fr5_s1).
body(r_fr14_5,fr14_w2).
head(r_fr14_6,fr9_q1).
body(r_fr14_6,fr12_d1).
body(r_fr14_6,fr17_d2).
body(r_fr14_6,fr25_v1).
body(r_fr14_6,fr21_r2).
body(r_fr14_6,fr5_s1).
body(r_fr14_6,fr8_z2).
head(r_fr14_7,fr21_r2).
body(r_fr14_7,fr12_d1).
head(r_fr14_8,fr21_r2).
body(r_fr14_8,fr14_c1).
body(r_fr14_8,fr12_d1).
body(r_fr14_8,fr14_e2).
body(r_fr14_8,fr25_y2).
head(r_fr14_9,fr10_r3).
body(r_fr14_9,fr11_q2).
head(r_fr14_10,fr10_r3).
body(r_fr14_10,fr14_e2).
body(r_fr14_10,fr17_d2).
head(r_fr14_11,fr10_r3).
body(r_fr14_11,fr1_d2).
body(r_fr14_11,fr17_d2).
body(r_fr14_11,fr11_e2).
body(r_fr14_11,fr14_e2).
body(r_fr14_11,fr9_q1).
head(r_fr14_12,fr10_r3).
body(r_fr14_12,fr5_s1).
body(r_fr14_12,fr5_s1).
body(r_fr14_12,fr23_z1).
body(r_fr14_12,fr9_q1).
body(r_fr14_12,fr15_s2).
body(r_fr14_12,fr5_s1).
head(r_fr14_13,fr13_q3).
body(r_fr14_13,fr25_y2).
head(r_fr14_14,fr13_q3).
body(r_fr14_14,fr12_d1).
head(r_fr14_15,fr14_p3).
body(r_fr14_15,fr13_q3).
body(r_fr14_15,fr25_v1).
body(r_fr14_15,fr14_s2).
body(r_fr14_15,fr15_s2).
body(r_fr14_15,fr2_y3).
head(r_fr14_16,fr14_p3).
body(r_fr14_16,fr12_d1).
body(r_fr14_16,fr14_e2).
body(r_fr14_16,fr12_d1).
head(r_fr14_17,fr14_p3).
body(r_fr14_17,fr14_s2).
body(r_fr14_17,fr2_y3).
body(r_fr14_17,fr11_z1).
head(r_fr14_18,fr11_q2).
body(r_fr14_18,fr17_d2).
body(r_fr14_18,fr24_s1).
head(r_fr14_19,fr11_q2).
head(r_fr14_20,fr11_q2).
body(r_fr14_20,fr12_d1).
body(r_fr14_20,fr17_d2).
body(r_fr14_20,fr24_s1).
head(r_fr14_21,fr11_q2).
body(r_fr14_21,fr1_d2).
body(r_fr14_21,fr14_a3).
body(r_fr14_21,fr17_d2).
head(r_fr14_22,fr24_s1).
body(r_fr14_22,fr14_a3).
body(r_fr14_22,fr14_e2).
body(r_fr14_22,fr5_s1).
head(r_fr14_23,fr24_s1).
body(r_fr14_23,fr1_d2).
body(r_fr14_23,fr12_d1).
body(r_fr14_23,fr14_c1).
body(r_fr14_23,fr14_t1).
body(r_fr14_23,fr23_z1).
body(r_fr14_23,fr14_w2).
head(r_fr14_24,fr5_s1).
body(r_fr14_24,fr22_a2).
body(r_fr14_24,fr17_d2).
body(r_fr14_24,fr24_s1).
body(r_fr14_24,fr14_w2).
body(r_fr14_24,fr8_z2).
body(r_fr14_24,fr2_y3).
head(r_fr14_25,fr5_s1).
body(r_fr14_25,fr12_d1).
body(r_fr14_25,fr10_r3).
body(r_fr14_25,fr9_q1).
body(r_fr14_25,fr24_s1).
head(r_fr14_26,fr5_s1).
body(r_fr14_26,fr23_z1).
head(r_fr14_27,fr5_s1).
body(r_fr14_27,fr12_d1).
head(r_fr14_28,fr5_s1).
body(r_fr14_28,fr14_c1).
body(r_fr14_28,fr12_d1).
body(r_fr14_28,fr14_e2).
body(r_fr14_28,fr5_s1).
body(r_fr14_28,fr23_z1).
head(r_fr14_29,fr5_s1).
body(r_fr14_29,fr14_a3).
head(r_fr14_30,fr5_s1).
body(r_fr14_30,fr12_d1).
body(r_fr14_30,fr12_d1).
body(r_fr14_30,fr12_d1).
body(r_fr14_30,fr12_d1).
head(r_fr14_31,fr5_s1).
body(r_fr14_31,fr1_d2).
body(r_fr14_31,fr22_a2).
body(r_fr14_31,fr11_e2).
head(r_fr14_32,fr5_s1).
body(r_fr14_32,fr12_d1).
head(r_fr14_33,fr5_s1).
body(r_fr14_33,fr8_z2).
head(r_fr14_34,fr14_w2).
body(r_fr14_34,fr1_d2).
body(r_fr14_34,fr5_s1).
body(r_fr14_34,fr23_z1).
body(r_fr14_34,fr15_s2).
body(r_fr14_34,fr24_s1).
head(r_fr14_35,fr14_w2).
body(r_fr14_35,fr14_a3).
body(r_fr14_35,fr17_d2).
head(r_fr14_36,fr14_w2).
body(r_fr14_36,fr11_e2).
body(r_fr14_36,fr14_q3).
body(r_fr14_36,fr25_y2).
body(r_fr14_36,fr15_s2).
head(r_fr14_37,fr11_z1).
body(r_fr14_37,fr10_r3).
body(r_fr14_37,fr13_q3).
body(r_fr14_37,fr5_s1).
body(r_fr14_37,fr25_y2).
body(r_fr14_37,fr23_z1).
head(r_fr14_38,fr11_z1).
body(r_fr14_38,fr12_d1).
body(r_fr14_38,fr14_c1).
body(r_fr14_38,fr12_d1).
body(r_fr14_38,fr14_w2).
head(r_fr14_39,fr11_z1).
body(r_fr14_39,fr1_d2).
body(r_fr14_39,fr12_d1).
body(r_fr14_39,fr22_a2).
body(r_fr14_39,fr14_e2).
body(r_fr14_39,fr12_d1).
head(r_fr14_40,fr11_z1).
body(r_fr14_40,fr10_r3).
body(r_fr14_40,fr9_q1).
body(r_fr14_40,fr24_s1).
body(r_fr14_40,fr14_s2).
body(r_fr14_40,fr8_u2).
head(r_fr14_41,fr9_q1).
body(r_fr14_41,fr5_s1).
head(r_fr14_42,fr9_q1).
body(r_fr14_42,fr12_d1).
body(r_fr14_42,fr5_s1).
body(r_fr14_42,fr21_r2).
body(r_fr14_42,fr5_s1).
head(r_fr14_43,fr9_q1).
body(r_fr14_43,fr12_d1).
body(r_fr14_43,fr25_y2).
body(r_fr14_43,fr14_t1).
body(r_fr14_43,fr24_s1).
head(r_fr14_44,fr9_q1).
head(r_fr14_45,fr14_q3).
body(r_fr14_45,fr9_q1).
body(r_fr14_45,fr24_s1).
body(r_fr14_45,fr23_z1).
body(r_fr14_45,fr21_r2).
body(r_fr14_45,fr21_w4).
body(r_fr14_45,fr11_q2).
head(r_fr14_46,fr14_q3).
body(r_fr14_46,fr15_s2).
head(r_fr14_47,fr14_q3).
body(r_fr14_47,fr12_d1).
head(r_fr14_48,fr14_q3).
body(r_fr14_48,fr13_q3).
head(r_fr14_49,fr24_s1).
body(r_fr14_49,fr14_c1).
body(r_fr14_49,fr12_d1).
head(r_fr14_50,fr24_s1).
body(r_fr14_50,fr12_d1).
body(r_fr14_50,fr14_c1).
body(r_fr14_50,fr11_e2).
body(r_fr14_50,fr14_s2).
body(r_fr14_50,fr21_r2).
head(r_fr14_51,fr24_s1).
body(r_fr14_51,fr14_e2).
body(r_fr14_51,fr13_q3).
body(r_fr14_51,fr15_s2).
head(r_fr14_52,fr24_s1).
body(r_fr14_52,fr22_a2).
head(r_fr14_53,fr25_y2).
body(r_fr14_53,fr17_d2).
body(r_fr14_53,fr25_v1).
body(r_fr14_53,fr14_t1).
body(r_fr14_53,fr9_q1).
body(r_fr14_53,fr5_s1).
body(r_fr14_53,fr24_s1).
head(r_fr14_54,fr25_y2).
head(r_fr14_55,fr25_y2).
body(r_fr14_55,fr22_a2).
body(r_fr14_55,fr9_q1).
body(r_fr14_55,fr14_t1).
head(r_fr14_56,fr25_y2).
body(r_fr14_56,fr12_d1).
head(r_fr14_57,fr25_y2).
body(r_fr14_57,fr12_d1).
body(r_fr14_57,fr12_d1).
body(r_fr14_57,fr21_r2).
head(r_fr14_58,fr8_u2).
body(r_fr14_58,fr17_d2).
head(r_fr14_59,fr8_u2).
body(r_fr14_59,fr17_d2).
body(r_fr14_59,fr25_v1).
body(r_fr14_59,fr24_s1).
body(r_fr14_59,fr8_z2).
head(r_fr14_60,fr8_u2).
body(r_fr14_60,fr13_q3).
body(r_fr14_60,fr5_s1).
head(r_fr14_61,fr15_s2).
body(r_fr14_61,fr14_a3).
body(r_fr14_61,fr17_d2).
body(r_fr14_61,fr14_e2).
body(r_fr14_61,fr12_d1).
body(r_fr14_61,fr25_y2).
body(r_fr14_61,fr25_v1).
head(r_fr14_62,fr15_s2).
head(r_fr14_63,fr15_s2).
body(r_fr14_63,fr17_d2).
body(r_fr14_63,fr12_d1).
body(r_fr14_63,fr24_s1).
head(r_fr14_64,fr2_y3).
body(r_fr14_64,fr12_d1).
body(r_fr14_64,fr12_d1).
body(r_fr14_64,fr12_d1).
body(r_fr14_64,fr9_q1).
head(r_fr14_65,fr2_y3).
body(r_fr14_65,fr14_a3).
body(r_fr14_65,fr12_d1).
body(r_fr14_65,fr11_e2).
body(r_fr14_65,fr12_d1).
body(r_fr14_65,fr14_e2).
head(r_fr14_66,fr2_y3).
body(r_fr14_66,fr12_d1).
body(r_fr14_66,fr11_q2).
head(r_fr14_67,fr2_y3).
body(r_fr14_67,fr12_d1).
body(r_fr14_67,fr12_d1).
body(r_fr14_67,fr22_a2).
body(r_fr14_67,fr12_d1).
body(r_fr14_67,fr8_z2).
head(r_fr14_68,fr2_y3).
body(r_fr14_68,fr12_d1).
body(r_fr14_68,fr21_r2).
body(r_fr14_68,fr11_q2).

assumption(fr17_d2).
assumption(fr6_d3).
assumption(fr17_d2).
assumption(fr3_d2).
assumption(fr17_d2).
assumption(fr12_d1).
assumption(fr19_c3).
assumption(fr15_b2).
assumption(fr2_e1).
assumption(fr17_d2).
assumption(fr16_f1).
assumption(fr12_d1).
contrary(fr17_d2,fr11_r3).
contrary(fr19_c3,fr15_p1).
contrary(fr6_d3,fr11_z1).
contrary(fr15_b2,fr17_d2).
contrary(fr17_d2,fr15_s2).
contrary(fr2_e1,fr16_f1).
contrary(fr3_d2,fr15_x1).
contrary(fr17_d2,fr11_r3).
contrary(fr17_d2,fr3_d2).
contrary(fr16_f1,fr15_r1).
contrary(fr12_d1,fr11_p3).
contrary(fr12_d1,fr21_r2).
head(r_fr15_0,fr15_r1).
body(r_fr15_0,fr17_d2).
body(r_fr15_0,fr2_e1).
body(r_fr15_0,fr3_d2).
body(r_fr15_0,fr12_d1).
body(r_fr15_0,fr7_z4).
head(r_fr15_1,fr15_r1).
body(r_fr15_1,fr15_b2).
head(r_fr15_2,fr15_r1).
body(r_fr15_2,fr6_d3).
body(r_fr15_2,fr12_d1).
head(r_fr15_3,fr15_r1).
body(r_fr15_3,fr16_f1).
body(r_fr15_3,fr15_s1).
head(r_fr15_4,fr15_u2).
body(r_fr15_4,fr15_r1).
body(r_fr15_4,fr10_r1).
body(r_fr15_4,fr15_s2).
body(r_fr15_4,fr23_z1).
body(r_fr15_4,fr15_x1).
head(r_fr15_5,fr15_u2).
body(r_fr15_5,fr11_p3).
head(r_fr15_6,fr21_r2).
head(r_fr15_7,fr21_r2).
body(r_fr15_7,fr17_d2).
head(r_fr15_8,fr21_r2).
body(r_fr15_8,fr17_d2).
body(r_fr15_8,fr17_d2).
body(r_fr15_8,fr15_p1).
body(r_fr15_8,fr5_s1).
head(r_fr15_9,fr21_r2).
body(r_fr15_9,fr17_d2).
body(r_fr15_9,fr2_e1).
body(r_fr15_9,fr12_d1).
body(r_fr15_9,fr12_d1).
head(r_fr15_10,fr21_w4).
body(r_fr15_10,fr19_c3).
body(r_fr15_10,fr17_d2).
body(r_fr15_10,fr17_d2).
body(r_fr15_10,fr5_s1).
head(r_fr15_11,fr21_w4).
body(r_fr15_11,fr17_d2).
body(r_fr15_11,fr15_b2).
body(r_fr15_11,fr15_s2).
head(r_fr15_12,fr21_w4).
head(r_fr15_13,fr21_w4).
body(r_fr15_13,fr15_u2).
head(r_fr15_14,fr23_z1).
body(r_fr15_14,fr15_u2).
body(r_fr15_14,fr7_z4).
head(r_fr15_15,fr23_z1).
body(r_fr15_15,fr17_d2).
body(r_fr15_15,fr15_q1).
body(r_fr15_15,fr15_r1).
body(r_fr15_15,fr10_r1).
body(r_fr15_15,fr21_w4).
head(r_fr15_16,fr23_z1).
body(r_fr15_16,fr3_d2).
body(r_fr15_16,fr21_r2).
body(r_fr15_16,fr15_s1).
body(r_fr15_16,fr21_w4).
body(r_fr15_16,fr2_y3).
head(r_fr15_17,fr23_z1).
body(r_fr15_17,fr17_d2).
body(r_fr15_17,fr19_c3).
body(r_fr15_17,fr17_d2).
body(r_fr15_17,fr16_f1).
head(r_fr15_18,fr15_x1).
body(r_fr15_18,fr17_d2).
body(r_fr15_18,fr2_e1).
body(r_fr15_18,fr3_d2).
body(r_fr15_18,fr12_d1).
head(r_fr15_19,fr15_x1).
body(r_fr15_19,fr17_d2).
body(r_fr15_19,fr15_b2).
body(r_fr15_19,fr16_f1).
head(r_fr15_20,fr15_x1).
body(r_fr15_20,fr19_c3).
body(r_fr15_20,fr5_s1).
head(r_fr15_21,fr15_x1).
body(r_fr15_21,fr23_z1).
body(r_fr15_21,fr15_u2).
body(r_fr15_21,fr21_w4).
body(r_fr15_21,fr2_y3).
head(r_fr15_22,fr2_y3).
head(r_fr15_23,fr2_y3).
body(r_fr15_23,fr17_d2).
body(r_fr15_23,fr15_q1).
body(r_fr15_23,fr5_s1).
head(r_fr15_24,fr2_y3).
body(r_fr15_24,fr19_c3).
body(r_fr15_24,fr23_z1).
head(r_fr15_25,fr2_y3).
body(r_fr15_25,fr17_d2).
body(r_fr15_25,fr6_d3).
body(r_fr15_25,fr2_e1).
body(r_fr15_25,fr16_f1).
body(r_fr15_25,fr12_d1).
head(r_fr15_26,fr23_z1).
body(r_fr15_26,fr5_s1).
head(r_fr15_27,fr23_z1).
body(r_fr15_27,fr19_c3).
head(r_fr15_28,fr15_q1).
body(r_fr15_28,fr21_r2).
body(r_fr15_28,fr5_s1).
head(r_fr15_29,fr15_q1).
body(r_fr15_29,fr19_c3).
body(r_fr15_29,fr6_d3).
body(r_fr15_29,fr17_d2).
body(r_fr15_29,fr15_u2).
body(r_fr15_29,fr21_w4).
head(r_fr15_30,fr15_q1).
head(r_fr15_31,fr15_q1).
body(r_fr15_31,fr19_c3).
body(r_fr15_31,fr16_f1).
body(r_fr15_31,fr12_d1).
body(r_fr15_31,fr15_s1).
body(r_fr15_31,fr5_s1).
head(r_fr15_32,fr11_p3).
body(r_fr15_32,fr17_d2).
body(r_fr15_32,fr3_d2).
body(r_fr15_32,fr12_d1).
body(r_fr15_32,fr15_p1).
head(r_fr15_33,fr11_p3).
head(r_fr15_34,fr11_p3).
body(r_fr15_34,fr11_r3).
body(r_fr15_34,fr15_r1).
body(r_fr15_34,fr5_s1).
head(r_fr15_35,fr15_s1).
body(r_fr15_35,fr15_p1).
body(r_fr15_35,fr7_z4).
body(r_fr15_35,fr5_s1).
head(r_fr15_36,fr15_s1).
body(r_fr15_36,fr15_p1).
body(r_fr15_36,fr7_z4).
body(r_fr15_36,fr15_w1).
body(r_fr15_36,fr2_y3).
head(r_fr15_37,fr15_s1).
body(r_fr15_37,fr12_d1).
head(r_fr15_38,fr15_p1).
head(r_fr15_39,fr15_p1).
body(r_fr15_39,fr15_r1).
body(r_fr15_39,fr11_p3).
head(r_fr15_40,fr15_p1).
body(r_fr15_40,fr5_s1).
head(r_fr15_41,fr10_r1).
head(r_fr15_42,fr10_r1).
body(r_fr15_42,fr15_b2).
body(r_fr15_42,fr23_z1).
head(r_fr15_43,fr7_z4).
body(r_fr15_43,fr17_d2).
body(r_fr15_43,fr17_d2).
body(r_fr15_43,fr12_d1).
body(r_fr15_43,fr15_w1).
body(r_fr15_43,fr2_y3).
head(r_fr15_44,fr7_z4).
body(r_fr15_44,fr5_s1).
body(r_fr15_44,fr15_w1).
body(r_fr15_44,fr21_w4).
body(r_fr15_44,fr2_y3).
head(r_fr15_45,fr7_z4).
body(r_fr15_45,fr17_d2).
body(r_fr15_45,fr19_c3).
body(r_fr15_45,fr3_d2).
body(r_fr15_45,fr15_s1).
body(r_fr15_45,fr15_u2).
head(r_fr15_46,fr7_z4).
body(r_fr15_46,fr12_d1).
head(r_fr15_47,fr11_z1).
body(r_fr15_47,fr12_d1).
body(r_fr15_47,fr15_x1).
head(r_fr15_48,fr11_z1).
body(r_fr15_48,fr15_p1).
body(r_fr15_48,fr21_r2).
body(r_fr15_48,fr11_p3).
body(r_fr15_48,fr23_z1).
body(r_fr15_48,fr5_s1).
head(r_fr15_49,fr5_s1).
body(r_fr15_49,fr15_s2).
body(r_fr15_49,fr15_w1).
body(r_fr15_49,fr5_s1).
head(r_fr15_50,fr5_s1).

assumption(fr12_d1).
assumption(fr16_b1).
assumption(fr9_c3).
assumption(fr16_d1).
assumption(fr12_d1).
assumption(fr16_f1).
assumption(fr12_d1).
assumption(fr16_b2).
assumption(fr12_d1).
assumption(fr16_d2).
assumption(fr6_c5).
assumption(fr16_f2).
assumption(fr17_d2).
assumption(fr12_d1).
assumption(fr16_c3).
contrary(fr12_d1,fr2_y3).
contrary(fr12_d1,fr16_f1).
contrary(fr17_d2,fr9_c3).
contrary(fr16_b1,fr3_q2).
contrary(fr16_b2,fr24_r3).
contrary(fr12_d1,fr16_b2).
contrary(fr9_c3,fr2_y3).
contrary(fr12_d1,fr2_y3).
contrary(fr16_c3,fr17_d2).
contrary(fr16_d1,fr12_d1).
contrary(fr16_d2,fr21_r2).
contrary(fr12_d1,fr2_y3).
contrary(fr6_c5,fr2_y3).
contrary(fr16_f1,fr17_p3).
contrary(fr16_f2,fr2_y3).
head(r_fr16_0,fr12_y1).
body(r_fr16_0,fr12_d1).
body(r_fr16_0,fr16_t2).
body(r_fr16_0,fr10_p4).
body(r_fr16_0,fr25_y2).
head(r_fr16_1,fr12_y1).
body(r_fr16_1,fr16_b1).
body(r_fr16_1,fr16_b2).
body(r_fr16_1,fr12_d1).
body(r_fr16_1,fr16_f1).
head(r_fr16_2,fr12_y1).
body(r_fr16_2,fr17_d2).
body(r_fr16_2,fr16_d1).
body(r_fr16_2,fr16_f1).
body(r_fr16_2,fr16_t2).
head(r_fr16_3,fr12_y1).
body(r_fr16_3,fr16_b2).
body(r_fr16_3,fr9_c3).
body(r_fr16_3,fr12_d1).
body(r_fr16_3,fr16_f2).
head(r_fr16_4,fr21_r2).
body(r_fr16_4,fr16_b1).
body(r_fr16_4,fr16_b2).
body(r_fr16_4,fr21_r2).
body(r_fr16_4,fr25_y2).
body(r_fr16_4,fr2_y3).
head(r_fr16_5,fr21_r2).
body(r_fr16_5,fr6_c5).
head(r_fr16_6,fr21_r2).
body(r_fr16_6,fr12_d1).
body(r_fr16_6,fr12_d1).
body(r_fr16_6,fr16_q1).
head(r_fr16_7,fr25_y2).
body(r_fr16_7,fr16_f2).
body(r_fr16_7,fr21_r2).
body(r_fr16_7,fr3_q2).
body(r_fr16_7,fr21_r4).
body(r_fr16_7,fr24_r3).
body(r_fr16_7,fr2_y3).
head(r_fr16_8,fr25_y2).
body(r_fr16_8,fr5_s1).
body(r_fr16_8,fr3_q2).
head(r_fr16_9,fr25_y2).
body(r_fr16_9,fr12_d1).
body(r_fr16_9,fr17_d2).
body(r_fr16_9,fr12_d1).
body(r_fr16_9,fr12_d1).
body(r_fr16_9,fr16_f1).
body(r_fr16_9,fr21_r2).
head(r_fr16_10,fr25_y2).
body(r_fr16_10,fr21_r2).
body(r_fr16_10,fr2_y3).
body(r_fr16_10,fr16_x1).
body(r_fr16_10,fr2_y3).
head(r_fr16_11,fr25_y2).
body(r_fr16_11,fr12_d1).
body(r_fr16_11,fr16_d1).
body(r_fr16_11,fr16_f1).
body(r_fr16_11,fr21_r2).
body(r_fr16_11,fr5_s1).
body(r_fr16_11,fr2_y3).
head(r_fr16_12,fr21_r2).
body(r_fr16_12,fr16_b1).
body(r_fr16_12,fr12_d1).
body(r_fr16_12,fr16_c3).
body(r_fr16_12,fr3_q2).
body(r_fr16_12,fr16_q3).
head(r_fr16_13,fr21_r2).
body(r_fr16_13,fr12_d1).
body(r_fr16_13,fr9_c3).
head(r_fr16_14,fr21_r2).
body(r_fr16_14,fr12_d1).
head(r_fr16_15,fr5_s1).
body(r_fr16_15,fr21_r2).
head(r_fr16_16,fr5_s1).
body(r_fr16_16,fr16_b1).
body(r_fr16_16,fr12_d1).
body(r_fr16_16,fr10_p4).
head(r_fr16_17,fr5_s1).
body(r_fr16_17,fr3_q2).
body(r_fr16_17,fr10_p4).
head(r_fr16_18,fr5_s1).
body(r_fr16_18,fr16_b2).
body(r_fr16_18,fr16_q3).
body(r_fr16_18,fr21_r2).
head(r_fr16_19,fr21_r2).
body(r_fr16_19,fr12_d1).
body(r_fr16_19,fr17_d2).
body(r_fr16_19,fr16_b1).
body(r_fr16_19,fr16_q1).
head(r_fr16_20,fr21_r2).
body(r_fr16_20,fr9_c3).
body(r_fr16_20,fr21_r2).
head(r_fr16_21,fr16_q1).
body(r_fr16_21,fr16_f2).
head(r_fr16_22,fr16_q1).
body(r_fr16_22,fr12_d1).
head(r_fr16_23,fr16_r3).
body(r_fr16_23,fr17_d2).
body(r_fr16_23,fr12_d1).
body(r_fr16_23,fr6_c5).
body(r_fr16_23,fr16_t1).
body(r_fr16_23,fr12_y1).
body(r_fr16_23,fr2_y3).
head(r_fr16_24,fr16_r3).
body(r_fr16_24,fr16_d1).
body(r_fr16_24,fr16_d2).
body(r_fr16_24,fr12_d1).
body(r_fr16_24,fr25_y2).
body(r_fr16_24,fr16_t1).
body(r_fr16_24,fr24_r3).
head(r_fr16_25,fr17_x1).
body(r_fr16_25,fr12_d1).
body(r_fr16_25,fr16_d1).
body(r_fr16_25,fr12_d1).
body(r_fr16_25,fr16_f1).
head(r_fr16_26,fr17_x1).
body(r_fr16_26,fr21_r2).
body(r_fr16_26,fr16_r3).
head(r_fr16_27,fr24_r3).
body(r_fr16_27,fr16_b1).
body(r_fr16_27,fr12_d1).
body(r_fr16_27,fr16_c3).
body(r_fr16_27,fr3_q2).
body(r_fr16_27,fr12_y1).
body(r_fr16_27,fr2_y3).
head(r_fr16_28,fr24_r3).
body(r_fr16_28,fr16_b1).
body(r_fr16_28,fr16_b2).
body(r_fr16_28,fr16_d1).
body(r_fr16_28,fr6_c5).
body(r_fr16_28,fr21_r4).
body(r_fr16_28,fr21_r2).
head(r_fr16_29,fr24_r3).
body(r_fr16_29,fr12_d1).
body(r_fr16_29,fr16_c3).
body(r_fr16_29,fr12_d1).
body(r_fr16_29,fr16_f1).
body(r_fr16_29,fr16_f2).
body(r_fr16_29,fr16_x1).
head(r_fr16_30,fr2_y3).
body(r_fr16_30,fr16_d1).
body(r_fr16_30,fr5_s1).
body(r_fr16_30,fr16_q3).
body(r_fr16_30,fr16_t1).
head(r_fr16_31,fr2_y3).
head(r_fr16_32,fr2_y3).
body(r_fr16_32,fr12_d1).
body(r_fr16_32,fr6_c5).
body(r_fr16_32,fr3_q2).
body(r_fr16_32,fr16_r3).
head(r_fr16_33,fr2_y3).
body(r_fr16_33,fr9_c3).
body(r_fr16_33,fr3_q2).
body(r_fr16_33,fr16_t1).
head(r_fr16_34,fr16_q3).
head(r_fr16_35,fr16_q3).
body(r_fr16_35,fr16_c3).
body(r_fr16_35,fr5_s1).
body(r_fr16_35,fr17_p3).
body(r_fr16_35,fr21_r2).
body(r_fr16_35,fr2_y3).
body(r_fr16_35,fr2_y3).
head(r_fr16_36,fr16_q3).
body(r_fr16_36,fr3_q2).
body(r_fr16_36,fr16_r3).
head(r_fr16_37,fr16_x1).
body(r_fr16_37,fr12_d1).
body(r_fr16_37,fr12_d1).
body(r_fr16_37,fr12_d1).
body(r_fr16_37,fr16_f2).
body(r_fr16_37,fr25_y2).
body(r_fr16_37,fr12_y1).
head(r_fr16_38,fr16_x1).
body(r_fr16_38,fr12_d1).
body(r_fr16_38,fr17_d2).
body(r_fr16_38,fr16_f2).
head(r_fr16_39,fr16_x1).
head(r_fr16_40,fr10_p4).
body(r_fr16_40,fr12_d1).
body(r_fr16_40,fr12_d1).
body(r_fr16_40,fr16_b1).
body(r_fr16_40,fr12_d1).
body(r_fr16_40,fr16_f1).
body(r_fr16_40,fr16_f2).
head(r_fr16_41,fr10_p4).
body(r_fr16_41,fr12_d1).
body(r_fr16_41,fr6_c5).
head(r_fr16_42,fr10_p4).
head(r_fr16_43,fr10_p4).
body(r_fr16_43,fr5_s1).
body(r_fr16_43,fr16_t1).
head(r_fr16_44,fr10_p4).
body(r_fr16_44,fr16_b1).
body(r_fr16_44,fr16_b2).
body(r_fr16_44,fr12_d1).
body(r_fr16_44,fr16_t1).
body(r_fr16_44,fr24_r3).
body(r_fr16_44,fr2_y3).
head(r_fr16_45,fr16_t1).
body(r_fr16_45,fr16_q1).
body(r_fr16_45,fr16_r3).
body(r_fr16_45,fr12_y1).
body(r_fr16_45,fr21_r2).
body(r_fr16_45,fr16_x1).
head(r_fr16_46,fr16_t1).
body(r_fr16_46,fr10_p4).
head(r_fr16_47,fr16_t1).
body(r_fr16_47,fr12_d1).
body(r_fr16_47,fr12_d1).
body(r_fr16_47,fr12_d1).
body(r_fr16_47,fr16_c3).
body(r_fr16_47,fr16_d2).
body(r_fr16_47,fr16_t2).
head(r_fr16_48,fr16_t1).
body(r_fr16_48,fr5_s1).
body(r_fr16_48,fr25_y2).
body(r_fr16_48,fr16_q3).
body(r_fr16_48,fr16_r3).
body(r_fr16_48,fr25_y2).
head(r_fr16_49,fr5_s1).
body(r_fr16_49,fr9_c3).
body(r_fr16_49,fr16_c3).
body(r_fr16_49,fr21_r2).
body(r_fr16_49,fr25_y2).
body(r_fr16_49,fr16_q3).
head(r_fr16_50,fr5_s1).
body(r_fr16_50,fr12_d1).
body(r_fr16_50,fr12_d1).
body(r_fr16_50,fr12_d1).
head(r_fr16_51,fr5_s1).
body(r_fr16_51,fr16_b1).
body(r_fr16_51,fr6_c5).
body(r_fr16_51,fr16_f2).
body(r_fr16_51,fr16_r3).
body(r_fr16_51,fr25_y2).
head(r_fr16_52,fr5_s1).
body(r_fr16_52,fr12_d1).
head(r_fr16_53,fr3_q2).
body(r_fr16_53,fr12_d1).
body(r_fr16_53,fr16_d2).
body(r_fr16_53,fr5_s1).
body(r_fr16_53,fr25_y2).
body(r_fr16_53,fr2_y3).
head(r_fr16_54,fr3_q2).
body(r_fr16_54,fr21_r4).
body(r_fr16_54,fr5_s1).
body(r_fr16_54,fr2_y3).
head(r_fr16_55,fr3_q2).
body(r_fr16_55,fr17_d2).
body(r_fr16_55,fr12_d1).
body(r_fr16_55,fr16_f1).
head(r_fr16_56,fr2_y3).
head(r_fr16_57,fr2_y3).
body(r_fr16_57,fr12_d1).
body(r_fr16_57,fr6_c5).
body(r_fr16_57,fr10_p4).
body(r_fr16_57,fr16_x1).
head(r_fr16_58,fr2_y3).
body(r_fr16_58,fr16_d1).
body(r_fr16_58,fr12_d1).
head(r_fr16_59,fr21_r4).
body(r_fr16_59,fr17_d2).
body(r_fr16_59,fr16_b2).
body(r_fr16_59,fr12_d1).
body(r_fr16_59,fr16_r3).
body(r_fr16_59,fr12_y1).
body(r_fr16_59,fr21_r2).
head(r_fr16_60,fr21_r4).
body(r_fr16_60,fr16_d2).
body(r_fr16_60,fr16_r3).
body(r_fr16_60,fr16_t1).
body(r_fr16_60,fr10_p4).
body(r_fr16_60,fr5_s1).
head(r_fr16_61,fr21_r4).
body(r_fr16_61,fr12_d1).
body(r_fr16_61,fr16_c3).
body(r_fr16_61,fr16_d1).
body(r_fr16_61,fr6_c5).
head(r_fr16_62,fr21_r4).
body(r_fr16_62,fr16_b2).
body(r_fr16_62,fr12_d1).
body(r_fr16_62,fr16_d1).
head(r_fr16_63,fr21_r4).
body(r_fr16_63,fr12_d1).
body(r_fr16_63,fr16_c3).
head(r_fr16_64,fr17_p3).
body(r_fr16_64,fr16_t1).
body(r_fr16_64,fr12_y1).
body(r_fr16_64,fr21_r2).
body(r_fr16_64,fr2_y3).
head(r_fr16_65,fr17_p3).
body(r_fr16_65,fr6_c5).
head(r_fr16_66,fr17_p3).
body(r_fr16_66,fr16_b2).
body(r_fr16_66,fr21_r2).
body(r_fr16_66,fr16_q1).
body(r_fr16_66,fr16_r3).
body(r_fr16_66,fr16_t2).
body(r_fr16_66,fr16_x2).
head(r_fr16_67,fr17_p3).
body(r_fr16_67,fr16_f1).
body(r_fr16_67,fr16_q1).
body(r_fr16_67,fr16_q3).
body(r_fr16_67,fr17_x1).
body(r_fr16_67,fr12_y1).

assumption(fr17_a1).
assumption(fr17_b1).
assumption(fr12_d1).
assumption(fr12_d1).
assumption(fr12_d1).
assumption(fr17_f1).
assumption(fr12_d1).
assumption(fr17_b2).
assumption(fr12_d1).
assumption(fr17_d2).
assumption(fr17_e2).
assumption(fr12_d1).
assumption(fr17_d2).
assumption(fr17_b3).
assumption(fr17_c3).
assumption(fr17_d3).
assumption(fr17_e3).
assumption(fr17_d2).
assumption(fr17_a4).
assumption(fr17_b4).
assumption(fr6_d3).
contrary(fr17_a1,fr17_b1).
contrary(fr12_d1,fr17_x1).
contrary(fr17_d2,fr17_y3).
contrary(fr17_a4,fr17_r3).
contrary(fr17_b1,fr17_b3).
contrary(fr17_b2,fr17_c3).
contrary(fr17_b3,fr17_s3).
contrary(fr17_b4,fr21_r2).
contrary(fr12_d1,fr10_r3).
contrary(fr12_d1,fr17_d2).
contrary(fr17_c3,fr17_r2).
contrary(fr6_d3,fr17_p4).
contrary(fr12_d1,fr17_v3).
contrary(fr17_d2,fr17_d2).
contrary(fr17_d3,fr23_z1).
contrary(fr12_d1,fr17_d2).
contrary(fr17_e2,fr12_d1).
contrary(fr17_e3,fr12_d1).
contrary(fr17_f1,fr17_r2).
contrary(fr12_d1,fr17_v2).
contrary(fr17_d2,fr17_u3).
head(r_fr17_0,fr6_z1).
body(r_fr17_0,fr17_b4).
body(r_fr17_0,fr17_y3).
head(r_fr17_1,fr6_z1).
body(r_fr17_1,fr17_p4).
body(r_fr17_1,fr17_q1).
body(r_fr17_1,fr17_t2).
body(r_fr17_1,fr17_u3).
body(r_fr17_1,fr17_x1).
body(r_fr17_1,fr17_y2).
body(r_fr17_1,fr17_y3).
head(r_fr17_2,fr17_p3).
body(r_fr17_2,fr17_d2).
body(r_fr17_2,fr12_d1).
body(r_fr17_2,fr17_c3).
body(r_fr17_2,fr17_d3).
body(r_fr17_2,fr17_q1).
body(r_fr17_2,fr5_s1).
body(r_fr17_2,fr17_y2).
head(r_fr17_3,fr17_p3).
body(r_fr17_3,fr12_d1).
body(r_fr17_3,fr17_d2).
body(r_fr17_3,fr12_d1).
body(r_fr17_3,fr17_d3).
body(r_fr17_3,fr17_e2).
body(r_fr17_3,fr12_d1).
body(r_fr17_3,fr17_d2).
body(r_fr17_3,fr17_y3).
head(r_fr17_4,fr17_p3).
body(r_fr17_4,fr17_q1).
body(r_fr17_4,fr5_s1).
body(r_fr17_4,fr17_u3).
body(r_fr17_4,fr11_p3).
body(r_fr17_4,fr17_w3).
body(r_fr17_4,fr21_r2).
body(r_fr17_4,fr3_q2).
body(r_fr17_4,fr17_z3).
head(r_fr17_5,fr17_p3).
body(r_fr17_5,fr17_a1).
body(r_fr17_5,fr17_c3).
head(r_fr17_6,fr17_p3).
body(r_fr17_6,fr17_b2).
body(r_fr17_6,fr12_d1).
body(r_fr17_6,fr8_u2).
head(r_fr17_7,fr17_p3).
body(r_fr17_7,fr17_w2).
head(r_fr17_8,fr17_p3).
body(r_fr17_8,fr13_q3).
head(r_fr17_9,fr17_p2).
body(r_fr17_9,fr12_d1).
body(r_fr17_9,fr21_p3).
body(r_fr17_9,fr17_t1).
body(r_fr17_9,fr13_q3).
body(r_fr17_9,fr10_r3).
head(r_fr17_10,fr17_p2).
head(r_fr17_11,fr17_p2).
body(r_fr17_11,fr6_v4).
head(r_fr17_12,fr17_p2).
body(r_fr17_12,fr21_p3).
body(r_fr17_12,fr21_r2).
body(r_fr17_12,fr17_t3).
body(r_fr17_12,fr17_y3).
head(r_fr17_13,fr17_p2).
body(r_fr17_13,fr13_q3).
head(r_fr17_14,fr8_u2).
body(r_fr17_14,fr17_y2).
body(r_fr17_14,fr17_z3).
head(r_fr17_15,fr8_u2).
body(r_fr17_15,fr17_b2).
body(r_fr17_15,fr17_c3).
head(r_fr17_16,fr17_q1).
head(r_fr17_17,fr17_q1).
body(r_fr17_17,fr17_b3).
body(r_fr17_17,fr12_d1).
body(r_fr17_17,fr21_p3).
body(r_fr17_17,fr17_t3).
body(r_fr17_17,fr10_r3).
head(r_fr17_18,fr17_q1).
body(r_fr17_18,fr21_p3).
body(r_fr17_18,fr17_w3).
body(r_fr17_18,fr17_y1).
head(r_fr17_19,fr17_q1).
body(r_fr17_19,fr12_d1).
body(r_fr17_19,fr17_b2).
body(r_fr17_19,fr12_d1).
body(r_fr17_19,fr6_d3).
body(r_fr17_19,fr12_d1).
body(r_fr17_19,fr17_q2).
body(r_fr17_19,fr23_z1).
body(r_fr17_19,fr17_y2).
head(r_fr17_20,fr17_q1).
body(r_fr17_20,fr17_a1).
body(r_fr17_20,fr12_d1).
body(r_fr17_20,fr17_d2).
body(r_fr17_20,fr17_b3).
body(r_fr17_20,fr17_c3).
body(r_fr17_20,fr17_d3).
body(r_fr17_20,fr17_e3).
body(r_fr17_20,fr5_s1).
head(r_fr17_21,fr17_w3).
body(r_fr17_21,fr17_d2).
body(r_fr17_21,fr17_a4).
body(r_fr17_21,fr17_b3).
body(r_fr17_21,fr17_d2).
body(r_fr17_21,fr17_d3).
body(r_fr17_21,fr17_d2).
body(r_fr17_21,fr17_y3).
head(r_fr17_22,fr17_w3).
body(r_fr17_22,fr17_c3).
body(r_fr17_22,fr17_p1).
body(r_fr17_22,fr17_u3).
body(r_fr17_22,fr3_q2).
head(r_fr17_23,fr17_p1).
body(r_fr17_23,fr17_b3).
body(r_fr17_23,fr17_d3).
body(r_fr17_23,fr12_d1).
body(r_fr17_23,fr21_r2).
head(r_fr17_24,fr17_p1).
body(r_fr17_24,fr17_d2).
body(r_fr17_24,fr17_b1).
body(r_fr17_24,fr17_b3).
body(r_fr17_24,fr12_d1).
body(r_fr17_24,fr17_e2).
body(r_fr17_24,fr17_e3).
body(r_fr17_24,fr17_f1).
head(r_fr17_25,fr17_p1).
body(r_fr17_25,fr11_p3).
body(r_fr17_25,fr6_v4).
head(r_fr17_26,fr17_p1).
body(r_fr17_26,fr17_p4).
body(r_fr17_26,fr17_r2).
body(r_fr17_26,fr21_r2).
body(r_fr17_26,fr17_v2).
body(r_fr17_26,fr17_v3).
body(r_fr17_26,fr17_x1).
body(r_fr17_26,fr17_y2).
body(r_fr17_26,fr3_q2).
head(r_fr17_27,fr17_p1).
head(r_fr17_28,fr17_p1).
body(r_fr17_28,fr17_b4).
body(r_fr17_28,fr17_f1).
head(r_fr17_29,fr17_p1).
body(r_fr17_29,fr17_a4).
body(r_fr17_29,fr12_d1).
body(r_fr17_29,fr17_e3).
body(r_fr17_29,fr17_d2).
body(r_fr17_29,fr23_z1).
body(r_fr17_29,fr11_p3).
body(r_fr17_29,fr21_r2).
head(r_fr17_30,fr10_r3).
body(r_fr17_30,fr17_p4).
body(r_fr17_30,fr5_s1).
body(r_fr17_30,fr17_t2).
body(r_fr17_30,fr17_v2).
body(r_fr17_30,fr17_w2).
body(r_fr17_30,fr17_y1).
body(r_fr17_30,fr17_y3).
head(r_fr17_31,fr10_r3).
body(r_fr17_31,fr17_a1).
body(r_fr17_31,fr17_b2).
body(r_fr17_31,fr17_p4).
body(r_fr17_31,fr17_r2).
body(r_fr17_31,fr23_z1).
body(r_fr17_31,fr6_v4).
body(r_fr17_31,fr17_z3).
head(r_fr17_32,fr10_r3).
body(r_fr17_32,fr17_b3).
body(r_fr17_32,fr12_d1).
body(r_fr17_32,fr17_d3).
body(r_fr17_32,fr21_r2).
body(r_fr17_32,fr17_x1).
head(r_fr17_33,fr10_r3).
body(r_fr17_33,fr17_a4).
body(r_fr17_33,fr17_b3).
body(r_fr17_33,fr12_d1).
body(r_fr17_33,fr6_d3).
body(r_fr17_33,fr17_f1).
body(r_fr17_33,fr12_d1).
head(r_fr17_34,fr10_r3).
body(r_fr17_34,fr17_b1).
body(r_fr17_34,fr12_d1).
body(r_fr17_34,fr5_s1).
body(r_fr17_34,fr17_y3).
head(r_fr17_35,fr10_r3).
body(r_fr17_35,fr17_a4).
body(r_fr17_35,fr17_b1).
body(r_fr17_35,fr17_d3).
body(r_fr17_35,fr17_q2).
head(r_fr17_36,fr21_p3).
body(r_fr17_36,fr17_a1).
body(r_fr17_36,fr17_e2).
body(r_fr17_36,fr17_r2).
head(r_fr17_37,fr21_p3).
body(r_fr17_37,fr17_a1).
body(r_fr17_37,fr17_d2).
body(r_fr17_37,fr17_a4).
body(r_fr17_37,fr17_b2).
body(r_fr17_37,fr17_b4).
body(r_fr17_37,fr12_d1).
body(r_fr17_37,fr17_e3).
body(r_fr17_37,fr17_d2).
head(r_fr17_38,fr21_p3).
body(r_fr17_38,fr12_d1).
body(r_fr17_38,fr17_r3).
body(r_fr17_38,fr13_q3).
body(r_fr17_38,fr17_v3).
body(r_fr17_38,fr21_r2).
body(r_fr17_38,fr17_y2).
head(r_fr17_39,fr21_p3).
body(r_fr17_39,fr17_c3).
body(r_fr17_39,fr17_f1).
body(r_fr17_39,fr17_s3).
body(r_fr17_39,fr17_u3).
body(r_fr17_39,fr17_v2).
body(r_fr17_39,fr17_y1).
body(r_fr17_39,fr17_z3).
head(r_fr17_40,fr21_p3).
body(r_fr17_40,fr5_s1).
body(r_fr17_40,fr17_v2).
body(r_fr17_40,fr17_y2).
head(r_fr17_41,fr17_y2).
body(r_fr17_41,fr17_q2).
body(r_fr17_41,fr17_s3).
head(r_fr17_42,fr17_y2).
body(r_fr17_42,fr17_d2).
body(r_fr17_42,fr17_b1).
body(r_fr17_42,fr17_b4).
body(r_fr17_42,fr12_d1).
body(r_fr17_42,fr17_e3).
body(r_fr17_42,fr17_p4).
head(r_fr17_43,fr17_y2).
body(r_fr17_43,fr17_b3).
head(r_fr17_44,fr17_y2).
body(r_fr17_44,fr17_q2).
body(r_fr17_44,fr21_r2).
body(r_fr17_44,fr17_s3).
body(r_fr17_44,fr17_t2).
body(r_fr17_44,fr17_u3).
body(r_fr17_44,fr17_y3).
head(r_fr17_45,fr17_q2).
body(r_fr17_45,fr17_b2).
body(r_fr17_45,fr17_d2).
body(r_fr17_45,fr17_t3).
body(r_fr17_45,fr17_u3).
body(r_fr17_45,fr17_y1).
head(r_fr17_46,fr17_q2).
body(r_fr17_46,fr17_b4).
body(r_fr17_46,fr17_p4).
head(r_fr17_47,fr17_q2).
body(r_fr17_47,fr17_a1).
body(r_fr17_47,fr12_d1).
body(r_fr17_47,fr12_d1).
body(r_fr17_47,fr17_e2).
body(r_fr17_47,fr12_d1).
body(r_fr17_47,fr5_s1).
body(r_fr17_47,fr17_u3).
head(r_fr17_48,fr17_q2).
body(r_fr17_48,fr17_b2).
body(r_fr17_48,fr17_b4).
body(r_fr17_48,fr12_d1).
body(r_fr17_48,fr17_r3).
body(r_fr17_48,fr17_t2).
body(r_fr17_48,fr17_t3).
body(r_fr17_48,fr13_q3).
body(r_fr17_48,fr17_z3).
head(r_fr17_49,fr17_q2).
body(r_fr17_49,fr12_d1).
body(r_fr17_49,fr17_b1).
body(r_fr17_49,fr17_c3).
body(r_fr17_49,fr5_s1).
body(r_fr17_49,fr5_s1).
body(r_fr17_49,fr17_t2).
body(r_fr17_49,fr13_q3).
body(r_fr17_49,fr17_u3).
head(r_fr17_50,fr17_q2).
body(r_fr17_50,fr17_d2).
body(r_fr17_50,fr17_b2).
body(r_fr17_50,fr17_b4).
body(r_fr17_50,fr12_d1).
body(r_fr17_50,fr17_d2).
body(r_fr17_50,fr17_d3).
head(r_fr17_51,fr17_y1).
body(r_fr17_51,fr12_d1).
body(r_fr17_51,fr17_d3).
body(r_fr17_51,fr17_p4).
body(r_fr17_51,fr21_r2).
head(r_fr17_52,fr17_y1).
body(r_fr17_52,fr21_r2).
body(r_fr17_52,fr17_t1).
body(r_fr17_52,fr17_t3).
body(r_fr17_52,fr17_v2).
body(r_fr17_52,fr17_x1).
body(r_fr17_52,fr17_z3).
head(r_fr17_53,fr17_y1).
body(r_fr17_53,fr5_s1).
body(r_fr17_53,fr5_s1).
body(r_fr17_53,fr17_r2).
body(r_fr17_53,fr21_r2).
body(r_fr17_53,fr17_s3).
body(r_fr17_53,fr11_p3).
body(r_fr17_53,fr17_y3).
head(r_fr17_54,fr17_y1).
body(r_fr17_54,fr17_a4).
body(r_fr17_54,fr5_s1).
body(r_fr17_54,fr21_r2).
head(r_fr17_55,fr17_v3).
body(r_fr17_55,fr12_d1).
body(r_fr17_55,fr17_d2).
head(r_fr17_56,fr17_v3).
body(r_fr17_56,fr17_b2).
body(r_fr17_56,fr21_r2).
body(r_fr17_56,fr17_s3).
body(r_fr17_56,fr17_t1).
body(r_fr17_56,fr17_t2).
body(r_fr17_56,fr23_z1).
body(r_fr17_56,fr11_p3).
body(r_fr17_56,fr21_r2).
head(r_fr17_57,fr17_v3).
body(r_fr17_57,fr5_s1).
body(r_fr17_57,fr17_t1).
body(r_fr17_57,fr17_w2).
head(r_fr17_58,fr17_v3).
body(r_fr17_58,fr17_x1).
head(r_fr17_59,fr17_v3).
body(r_fr17_59,fr12_d1).
body(r_fr17_59,fr17_c3).
body(r_fr17_59,fr17_d2).
body(r_fr17_59,fr17_r3).
body(r_fr17_59,fr6_v4).
head(r_fr17_60,fr17_w2).
body(r_fr17_60,fr12_d1).
body(r_fr17_60,fr17_a4).
body(r_fr17_60,fr17_b2).
body(r_fr17_60,fr17_b4).
body(r_fr17_60,fr17_c3).
body(r_fr17_60,fr6_d3).
body(r_fr17_60,fr17_d3).
body(r_fr17_60,fr17_f1).
head(r_fr17_61,fr17_w2).
body(r_fr17_61,fr17_b2).
body(r_fr17_61,fr12_d1).
body(r_fr17_61,fr6_d3).
body(r_fr17_61,fr17_f1).
body(r_fr17_61,fr17_d2).
head(r_fr17_62,fr17_w2).
body(r_fr17_62,fr12_d1).
body(r_fr17_62,fr17_r2).
body(r_fr17_62,fr21_r2).
body(r_fr17_62,fr17_t2).
body(r_fr17_62,fr17_u3).
body(r_fr17_62,fr17_y3).
head(r_fr17_63,fr17_w2).
body(r_fr17_63,fr12_d1).
body(r_fr17_63,fr5_s1).
body(r_fr17_63,fr11_p3).
head(r_fr17_64,fr5_s1).
body(r_fr17_64,fr17_d2).
body(r_fr17_64,fr17_b2).
body(r_fr17_64,fr12_d1).
body(r_fr17_64,fr17_r3).
body(r_fr17_64,fr23_z1).
body(r_fr17_64,fr17_v2).
body(r_fr17_64,fr17_y3).
body(r_fr17_64,fr3_q2).
head(r_fr17_65,fr5_s1).
body(r_fr17_65,fr17_a1).
body(r_fr17_65,fr17_e2).
body(r_fr17_65,fr17_f1).
body(r_fr17_65,fr12_d1).
body(r_fr17_65,fr17_p4).
head(r_fr17_66,fr5_s1).
body(r_fr17_66,fr17_b4).
body(r_fr17_66,fr12_d1).
body(r_fr17_66,fr21_r2).
body(r_fr17_66,fr17_s3).
body(r_fr17_66,fr17_t1).
body(r_fr17_66,fr13_q3).
body(r_fr17_66,fr11_p3).
body(r_fr17_66,fr17_x1).
head(r_fr17_67,fr5_s1).
body(r_fr17_67,fr17_x1).
head(r_fr17_68,fr5_s1).
body(r_fr17_68,fr17_t3).
body(r_fr17_68,fr17_v2).
head(r_fr17_69,fr5_s1).
body(r_fr17_69,fr17_p4).
head(r_fr17_70,fr5_s1).
head(r_fr17_71,fr17_u3).
body(r_fr17_71,fr17_b1).
body(r_fr17_71,fr17_b2).
body(r_fr17_71,fr12_d1).
body(r_fr17_71,fr17_e3).
head(r_fr17_72,fr17_u3).
body(r_fr17_72,fr17_r2).
body(r_fr17_72,fr23_z1).
head(r_fr17_73,fr17_u3).
body(r_fr17_73,fr12_d1).
body(r_fr17_73,fr17_f1).
body(r_fr17_73,fr17_p4).
body(r_fr17_73,fr17_x1).
head(r_fr17_74,fr17_u3).
body(r_fr17_74,fr17_d2).
body(r_fr17_74,fr21_r2).
body(r_fr17_74,fr17_t3).
body(r_fr17_74,fr17_v2).
head(r_fr17_75,fr21_r2).
head(r_fr17_76,fr21_r2).
body(r_fr17_76,fr17_b4).
body(r_fr17_76,fr12_d1).
body(r_fr17_76,fr17_f1).
head(r_fr17_77,fr21_r2).
body(r_fr17_77,fr3_q2).
head(r_fr17_78,fr21_r2).
body(r_fr17_78,fr17_s3).
body(r_fr17_78,fr17_t1).
body(r_fr17_78,fr17_v2).
head(r_fr17_79,fr17_v2).
body(r_fr17_79,fr6_d3).
body(r_fr17_79,fr12_d1).
body(r_fr17_79,fr3_q2).
head(r_fr17_80,fr17_v2).
head(r_fr17_81,fr17_v2).
body(r_fr17_81,fr17_b1).
body(r_fr17_81,fr17_c3).
body(r_fr17_81,fr17_e2).
body(r_fr17_81,fr17_r2).
body(r_fr17_81,fr17_t2).
body(r_fr17_81,fr6_v4).
body(r_fr17_81,fr21_r2).
head(r_fr17_82,fr17_v2).
body(r_fr17_82,fr17_a1).
body(r_fr17_82,fr17_c3).
body(r_fr17_82,fr6_d3).
body(r_fr17_82,fr17_e3).
body(r_fr17_82,fr17_y3).
head(r_fr17_83,fr17_v2).
body(r_fr17_83,fr17_p4).
body(r_fr17_83,fr23_z1).
body(r_fr17_83,fr21_r2).
body(r_fr17_83,fr17_y3).
body(r_fr17_83,fr3_q2).
body(r_fr17_83,fr17_z3).
head(r_fr17_84,fr17_z3).
body(r_fr17_84,fr17_b1).
body(r_fr17_84,fr6_d3).
body(r_fr17_84,fr17_r3).
body(r_fr17_84,fr17_t2).
body(r_fr17_84,fr13_q3).
body(r_fr17_84,fr17_x1).
body(r_fr17_84,fr21_r2).
body(r_fr17_84,fr3_q2).
head(r_fr17_85,fr17_z3).
body(r_fr17_85,fr12_d1).
body(r_fr17_85,fr17_b2).
body(r_fr17_85,fr17_f1).
body(r_fr17_85,fr5_s1).
body(r_fr17_85,fr17_s3).
body(r_fr17_85,fr17_t1).
head(r_fr17_86,fr17_z3).
body(r_fr17_86,fr6_d3).
body(r_fr17_86,fr5_s1).
body(r_fr17_86,fr17_r3).
body(r_fr17_86,fr17_t3).
head(r_fr17_87,fr17_z3).
body(r_fr17_87,fr17_p4).
body(r_fr17_87,fr5_s1).
body(r_fr17_87,fr17_t2).
body(r_fr17_87,fr17_t3).
body(r_fr17_87,fr13_q3).
body(r_fr17_87,fr11_p3).
body(r_fr17_87,fr3_q2).
head(r_fr17_88,fr17_z3).
body(r_fr17_88,fr17_t1).
body(r_fr17_88,fr17_t2).
body(r_fr17_88,fr17_t3).
body(r_fr17_88,fr17_y3).
body(r_fr17_88,fr3_q2).
head(r_fr17_89,fr17_z3).
body(r_fr17_89,fr17_d2).
body(r_fr17_89,fr5_s1).
body(r_fr17_89,fr17_s3).
body(r_fr17_89,fr17_x1).
body(r_fr17_89,fr17_y3).
head(r_fr17_90,fr17_s3).
body(r_fr17_90,fr17_d3).
body(r_fr17_90,fr5_s1).
body(r_fr17_90,fr17_t1).
head(r_fr17_91,fr17_s3).
body(r_fr17_91,fr17_b1).
body(r_fr17_91,fr17_b3).
body(r_fr17_91,fr17_d2).
body(r_fr17_91,fr17_r2).
head(r_fr17_92,fr17_s3).
body(r_fr17_92,fr17_x1).
body(r_fr17_92,fr3_q2).
head(r_fr17_93,fr17_y3).
body(r_fr17_93,fr21_r2).
head(r_fr17_94,fr17_y3).
body(r_fr17_94,fr17_r3).
head(r_fr17_95,fr17_y3).
body(r_fr17_95,fr17_a1).
body(r_fr17_95,fr17_d2).
body(r_fr17_95,fr17_a4).
body(r_fr17_95,fr17_b3).
body(r_fr17_95,fr12_d1).
body(r_fr17_95,fr17_f1).
body(r_fr17_95,fr12_d1).
body(r_fr17_95,fr13_q3).
head(r_fr17_96,fr17_y3).
body(r_fr17_96,fr17_b1).
body(r_fr17_96,fr17_b2).
body(r_fr17_96,fr17_b3).
body(r_fr17_96,fr17_t2).
head(r_fr17_97,fr17_y3).
body(r_fr17_97,fr17_d2).
body(r_fr17_97,fr17_e3).
body(r_fr17_97,fr17_d2).
body(r_fr17_97,fr17_r2).
body(r_fr17_97,fr17_t1).
body(r_fr17_97,fr11_p3).
body(r_fr17_97,fr6_v4).
body(r_fr17_97,fr3_q2).
head(r_fr17_98,fr17_y3).
head(r_fr17_99,fr17_y3).
body(r_fr17_99,fr5_s1).
body(r_fr17_99,fr17_t3).
head(r_fr17_100,fr17_t2).
body(r_fr17_100,fr17_d2).
body(r_fr17_100,fr17_r2).
body(r_fr17_100,fr17_t3).
body(r_fr17_100,fr17_x1).
body(r_fr17_100,fr6_v4).
body(r_fr17_100,fr21_r2).
head(r_fr17_101,fr17_t2).
head(r_fr17_102,fr17_t2).
body(r_fr17_102,fr12_d1).
body(r_fr17_102,fr17_b3).
body(r_fr17_102,fr17_b4).
body(r_fr17_102,fr17_e2).
body(r_fr17_102,fr17_f1).
body(r_fr17_102,fr17_p4).
body(r_fr17_102,fr21_r2).
body(r_fr17_102,fr3_q2).
head(r_fr17_103,fr17_t2).
body(r_fr17_103,fr17_b2).
body(r_fr17_103,fr5_s1).
head(r_fr17_104,fr17_t2).
body(r_fr17_104,fr12_d1).
body(r_fr17_104,fr17_b1).
body(r_fr17_104,fr17_b3).
body(r_fr17_104,fr17_c3).
body(r_fr17_104,fr12_d1).
body(r_fr17_104,fr17_t1).
body(r_fr17_104,fr17_x1).
body(r_fr17_104,fr6_v4).
head(r_fr17_105,fr23_z1).
body(r_fr17_105,fr12_d1).
body(r_fr17_105,fr17_d3).
body(r_fr17_105,fr17_t1).
head(r_fr17_106,fr23_z1).
body(r_fr17_106,fr12_d1).
body(r_fr17_106,fr17_a4).
body(r_fr17_106,fr12_d1).
body(r_fr17_106,fr12_d1).
body(r_fr17_106,fr17_f1).
body(r_fr17_106,fr17_x1).
head(r_fr17_107,fr23_z1).
body(r_fr17_107,fr17_f1).
head(r_fr17_108,fr23_z1).
body(r_fr17_108,fr17_c3).
body(r_fr17_108,fr17_e3).
body(r_fr17_108,fr17_t3).
body(r_fr17_108,fr13_q3).
body(r_fr17_108,fr6_v4).
body(r_fr17_108,fr21_r2).
head(r_fr17_109,fr23_z1).
head(r_fr17_110,fr3_q2).
body(r_fr17_110,fr12_d1).
body(r_fr17_110,fr17_p4).
body(r_fr17_110,fr5_s1).
body(r_fr17_110,fr17_t3).
body(r_fr17_110,fr13_q3).
body(r_fr17_110,fr17_x1).
body(r_fr17_110,fr6_v4).
body(r_fr17_110,fr21_r2).
head(r_fr17_111,fr3_q2).
body(r_fr17_111,fr6_d3).
body(r_fr17_111,fr17_d3).
body(r_fr17_111,fr17_p4).
body(r_fr17_111,fr5_s1).
body(r_fr17_111,fr17_r2).
body(r_fr17_111,fr13_q3).
body(r_fr17_111,fr17_x1).
head(r_fr17_112,fr17_r3).
body(r_fr17_112,fr17_a1).
body(r_fr17_112,fr17_b2).
body(r_fr17_112,fr12_d1).
body(r_fr17_112,fr12_d1).
body(r_fr17_112,fr17_d3).
body(r_fr17_112,fr12_d1).
body(r_fr17_112,fr17_e3).
body(r_fr17_112,fr17_r2).
head(r_fr17_113,fr17_r3).
body(r_fr17_113,fr12_d1).
body(r_fr17_113,fr17_c3).
body(r_fr17_113,fr17_t1).
head(r_fr17_114,fr17_r3).
body(r_fr17_114,fr12_d1).
body(r_fr17_114,fr17_d2).
body(r_fr17_114,fr17_c3).
body(r_fr17_114,fr6_d3).
body(r_fr17_114,fr17_e2).
head(r_fr17_115,fr17_r3).
body(r_fr17_115,fr17_b3).
body(r_fr17_115,fr12_d1).
body(r_fr17_115,fr11_p3).
head(r_fr17_116,fr17_r3).
body(r_fr17_116,fr17_b2).
body(r_fr17_116,fr12_d1).
body(r_fr17_116,fr17_r2).
body(r_fr17_116,fr11_p3).
head(r_fr17_117,fr17_r3).
body(r_fr17_117,fr17_e2).
body(r_fr17_117,fr17_p4).
body(r_fr17_117,fr17_t1).
body(r_fr17_117,fr13_q3).
body(r_fr17_117,fr17_x1).
body(r_fr17_117,fr6_v4).
head(r_fr17_118,fr17_r3).
body(r_fr17_118,fr6_d3).
body(r_fr17_118,fr12_d1).
head(r_fr17_119,fr6_v4).
body(r_fr17_119,fr17_b3).
body(r_fr17_119,fr17_b4).
body(r_fr17_119,fr17_d2).
body(r_fr17_119,fr17_d2).
head(r_fr17_120,fr6_v4).
body(r_fr17_120,fr17_a1).
body(r_fr17_120,fr17_b4).
body(r_fr17_120,fr12_d1).
body(r_fr17_120,fr12_d1).
body(r_fr17_120,fr17_e3).
body(r_fr17_120,fr17_f1).
body(r_fr17_120,fr17_x1).
head(r_fr17_121,fr6_v4).
body(r_fr17_121,fr17_e3).
body(r_fr17_121,fr21_r2).
head(r_fr17_122,fr6_v4).
body(r_fr17_122,fr17_a4).
body(r_fr17_122,fr17_c3).
body(r_fr17_122,fr17_e3).
body(r_fr17_122,fr17_d2).
head(r_fr17_123,fr6_v4).
body(r_fr17_123,fr17_a4).
body(r_fr17_123,fr17_p4).
body(r_fr17_123,fr5_s1).
body(r_fr17_123,fr17_r2).
body(r_fr17_123,fr17_t3).
body(r_fr17_123,fr13_q3).
body(r_fr17_123,fr17_x1).
body(r_fr17_123,fr21_r2).
head(r_fr17_124,fr6_v4).
body(r_fr17_124,fr17_p4).
body(r_fr17_124,fr11_p3).
body(r_fr17_124,fr21_r2).
head(r_fr17_125,fr6_v4).
body(r_fr17_125,fr17_a1).
body(r_fr17_125,fr17_c3).
body(r_fr17_125,fr6_d3).
body(r_fr17_125,fr17_d2).
body(r_fr17_125,fr17_d3).
body(r_fr17_125,fr17_e3).
body(r_fr17_125,fr17_d2).
head(r_fr17_126,fr5_s1).
body(r_fr17_126,fr17_b3).
body(r_fr17_126,fr17_b4).
body(r_fr17_126,fr12_d1).
body(r_fr17_126,fr17_c3).
body(r_fr17_126,fr17_d2).
body(r_fr17_126,fr12_d1).
body(r_fr17_126,fr17_p4).
body(r_fr17_126,fr11_p3).
head(r_fr17_127,fr5_s1).
body(r_fr17_127,fr6_d3).
body(r_fr17_127,fr12_d1).
body(r_fr17_127,fr17_f1).
body(r_fr17_127,fr17_r2).
body(r_fr17_127,fr13_q3).
body(r_fr17_127,fr11_p3).
body(r_fr17_127,fr21_r2).
head(r_fr17_128,fr17_p4).
body(r_fr17_128,fr17_a4).
body(r_fr17_128,fr17_e2).
body(r_fr17_128,fr17_e3).
head(r_fr17_129,fr17_p4).
body(r_fr17_129,fr17_r2).
body(r_fr17_129,fr17_t1).
body(r_fr17_129,fr21_r2).
head(r_fr17_130,fr17_p4).
body(r_fr17_130,fr6_d3).
body(r_fr17_130,fr17_f1).
body(r_fr17_130,fr17_r2).
head(r_fr17_131,fr17_p4).
body(r_fr17_131,fr17_r2).

assumption(fr18_a1).
assumption(fr12_d1).
assumption(fr2_a1).
assumption(fr12_d1).
assumption(fr9_b2).
assumption(fr16_f2).
assumption(fr12_d1).
assumption(fr12_d1).
assumption(fr16_d2).
assumption(fr18_d2).
assumption(fr12_d1).
assumption(fr18_f2).
assumption(fr17_d2).
assumption(fr18_b3).
assumption(fr6_d3).
contrary(fr18_a1,fr21_r2).
contrary(fr12_d1,fr11_r3).
contrary(fr17_d2,fr18_u1).
contrary(fr12_d1,fr18_w2).
contrary(fr12_d1,fr6_t2).
contrary(fr18_b3,fr21_r2).
contrary(fr2_a1,fr8_z2).
contrary(fr16_d2,fr8_z2).
contrary(fr6_d3,fr12_d1).
contrary(fr12_d1,fr17_d2).
contrary(fr18_d2,fr18_z2).
contrary(fr9_b2,fr18_q2).
contrary(fr12_d1,fr25_y2).
contrary(fr16_f2,fr12_d1).
contrary(fr18_f2,fr6_y1).
head(r_fr18_0,fr11_r3).
body(r_fr18_0,fr12_d1).
body(r_fr18_0,fr12_d1).
body(r_fr18_0,fr12_d1).
head(r_fr18_1,fr11_r3).
body(r_fr18_1,fr17_d2).
body(r_fr18_1,fr2_a1).
body(r_fr18_1,fr12_d1).
body(r_fr18_1,fr9_b2).
body(r_fr18_1,fr12_d1).
head(r_fr18_2,fr11_r3).
body(r_fr18_2,fr12_d1).
body(r_fr18_2,fr16_d2).
body(r_fr18_2,fr6_d3).
body(r_fr18_2,fr5_s1).
head(r_fr18_3,fr11_r3).
body(r_fr18_3,fr17_d2).
body(r_fr18_3,fr16_d2).
body(r_fr18_3,fr12_d1).
body(r_fr18_3,fr9_b2).
body(r_fr18_3,fr6_y1).
head(r_fr18_4,fr11_r3).
body(r_fr18_4,fr12_d1).
body(r_fr18_4,fr12_d1).
body(r_fr18_4,fr12_d1).
body(r_fr18_4,fr18_d2).
head(r_fr18_5,fr11_r3).
body(r_fr18_5,fr12_d1).
body(r_fr18_5,fr2_a1).
body(r_fr18_5,fr16_d2).
body(r_fr18_5,fr12_d1).
body(r_fr18_5,fr12_d1).
body(r_fr18_5,fr16_f2).
head(r_fr18_6,fr11_r3).
body(r_fr18_6,fr9_b2).
body(r_fr18_6,fr13_q3).
body(r_fr18_6,fr5_s1).
body(r_fr18_6,fr21_r2).
body(r_fr18_6,fr21_r2).
head(r_fr18_7,fr11_r3).
body(r_fr18_7,fr6_y1).
head(r_fr18_8,fr11_r3).
body(r_fr18_8,fr5_s1).
head(r_fr18_9,fr11_r3).
body(r_fr18_9,fr5_s1).
body(r_fr18_9,fr17_x1).
head(r_fr18_10,fr11_r3).
body(r_fr18_10,fr17_d2).
body(r_fr18_10,fr18_b3).
body(r_fr18_10,fr2_a1).
body(r_fr18_10,fr6_d3).
head(r_fr18_11,fr11_r3).
body(r_fr18_11,fr12_d1).
body(r_fr18_11,fr8_z2).
body(r_fr18_11,fr18_r2).
body(r_fr18_11,fr25_y2).
body(r_fr18_11,fr18_u1).
body(r_fr18_11,fr21_p3).
head(r_fr18_12,fr11_r3).
body(r_fr18_12,fr12_d1).
body(r_fr18_12,fr12_d1).
body(r_fr18_12,fr16_d2).
body(r_fr18_12,fr18_f2).
body(r_fr18_12,fr18_v2).
body(r_fr18_12,fr18_z2).
head(r_fr18_13,fr11_r3).
body(r_fr18_13,fr12_d1).
body(r_fr18_13,fr12_d1).
body(r_fr18_13,fr18_b3).
body(r_fr18_13,fr18_d2).
body(r_fr18_13,fr9_b2).
head(r_fr18_14,fr11_r3).
body(r_fr18_14,fr12_d1).
body(r_fr18_14,fr16_f2).
body(r_fr18_14,fr6_t2).
body(r_fr18_14,fr18_z1).
head(r_fr18_15,fr11_r3).
body(r_fr18_15,fr18_a1).
body(r_fr18_15,fr6_d3).
body(r_fr18_15,fr21_r2).
body(r_fr18_15,fr21_p3).
body(r_fr18_15,fr18_z1).
head(r_fr18_16,fr11_r3).
body(r_fr18_16,fr6_d3).
body(r_fr18_16,fr18_v2).
body(r_fr18_16,fr21_p3).
head(r_fr18_17,fr25_q3).
body(r_fr18_17,fr18_q2).
head(r_fr18_18,fr25_q3).
body(r_fr18_18,fr18_a1).
body(r_fr18_18,fr18_b3).
body(r_fr18_18,fr6_d3).
body(r_fr18_18,fr13_q3).
head(r_fr18_19,fr25_q3).
body(r_fr18_19,fr18_a1).
body(r_fr18_19,fr12_d1).
body(r_fr18_19,fr12_d1).
body(r_fr18_19,fr18_b3).
body(r_fr18_19,fr6_d3).
body(r_fr18_19,fr17_x1).
head(r_fr18_20,fr25_q3).
body(r_fr18_20,fr16_d2).
body(r_fr18_20,fr18_d2).
body(r_fr18_20,fr9_b2).
body(r_fr18_20,fr18_y1).
head(r_fr18_21,fr25_q3).
body(r_fr18_21,fr18_a1).
body(r_fr18_21,fr18_d2).
head(r_fr18_22,fr25_q3).
body(r_fr18_22,fr13_q3).
head(r_fr18_23,fr25_q3).
body(r_fr18_23,fr8_z2).
head(r_fr18_24,fr25_q3).
body(r_fr18_24,fr9_b2).
body(r_fr18_24,fr13_q3).
body(r_fr18_24,fr21_r2).
head(r_fr18_25,fr25_q3).
body(r_fr18_25,fr18_d2).
body(r_fr18_25,fr16_f2).
body(r_fr18_25,fr5_s1).
head(r_fr18_26,fr25_q3).
body(r_fr18_26,fr12_d1).
body(r_fr18_26,fr18_b3).
body(r_fr18_26,fr9_b2).
body(r_fr18_26,fr12_d1).
body(r_fr18_26,fr5_s1).
head(r_fr18_27,fr25_q3).
body(r_fr18_27,fr12_d1).
body(r_fr18_27,fr9_b2).
body(r_fr18_27,fr21_r2).
body(r_fr18_27,fr6_y1).
head(r_fr18_28,fr25_q3).
body(r_fr18_28,fr18_b3).
body(r_fr18_28,fr12_d1).
body(r_fr18_28,fr8_z2).
body(r_fr18_28,fr18_y1).
head(r_fr18_29,fr25_q3).
body(r_fr18_29,fr17_d2).
body(r_fr18_29,fr18_f2).
head(r_fr18_30,fr25_q3).
body(r_fr18_30,fr6_t2).
body(r_fr18_30,fr18_y1).
head(r_fr18_31,fr25_q3).
body(r_fr18_31,fr12_d1).
body(r_fr18_31,fr12_d1).
head(r_fr18_32,fr25_q3).
body(r_fr18_32,fr16_d2).
body(r_fr18_32,fr12_d1).
body(r_fr18_32,fr18_f2).
body(r_fr18_32,fr6_t2).
head(r_fr18_33,fr25_q3).
body(r_fr18_33,fr23_z1).
body(r_fr18_33,fr21_r2).
head(r_fr18_34,fr25_q3).
head(r_fr18_35,fr25_q3).
body(r_fr18_35,fr25_y2).
body(r_fr18_35,fr18_z1).
head(r_fr18_36,fr18_v1).
body(r_fr18_36,fr6_t2).
body(r_fr18_36,fr18_y1).
head(r_fr18_37,fr18_v1).
body(r_fr18_37,fr17_d2).
body(r_fr18_37,fr18_b3).
body(r_fr18_37,fr12_d1).
body(r_fr18_37,fr21_r2).
head(r_fr18_38,fr18_v1).
body(r_fr18_38,fr18_f2).
body(r_fr18_38,fr19_v1).
body(r_fr18_38,fr18_z2).
head(r_fr18_39,fr18_v1).
body(r_fr18_39,fr16_d2).
body(r_fr18_39,fr19_v1).
body(r_fr18_39,fr25_y2).
body(r_fr18_39,fr6_y1).
body(r_fr18_39,fr18_z1).
head(r_fr18_40,fr18_v1).
body(r_fr18_40,fr17_d2).
head(r_fr18_41,fr18_v1).
body(r_fr18_41,fr12_d1).
body(r_fr18_41,fr18_d2).
body(r_fr18_41,fr11_r3).
body(r_fr18_41,fr17_x1).
body(r_fr18_41,fr18_z1).
head(r_fr18_42,fr18_v1).
body(r_fr18_42,fr18_q2).
head(r_fr18_43,fr18_v1).
body(r_fr18_43,fr12_d1).
body(r_fr18_43,fr6_y1).
head(r_fr18_44,fr18_v1).
body(r_fr18_44,fr18_d2).
head(r_fr18_45,fr18_v1).
body(r_fr18_45,fr18_d2).
body(r_fr18_45,fr19_v1).
body(r_fr18_45,fr25_q3).
body(r_fr18_45,fr18_w2).
body(r_fr18_45,fr6_y1).
head(r_fr18_46,fr18_v1).
body(r_fr18_46,fr12_d1).
body(r_fr18_46,fr9_b2).
body(r_fr18_46,fr18_r2).
head(r_fr18_47,fr18_v1).
body(r_fr18_47,fr25_q3).
body(r_fr18_47,fr18_r2).
body(r_fr18_47,fr6_y1).
body(r_fr18_47,fr18_z1).
head(r_fr18_48,fr18_v1).
body(r_fr18_48,fr2_a1).
body(r_fr18_48,fr18_d2).
body(r_fr18_48,fr16_f2).
body(r_fr18_48,fr18_f2).
body(r_fr18_48,fr25_y2).
body(r_fr18_48,fr18_u1).
head(r_fr18_49,fr18_v1).
body(r_fr18_49,fr6_y1).
head(r_fr18_50,fr18_v1).
body(r_fr18_50,fr12_d1).
body(r_fr18_50,fr12_d1).
body(r_fr18_50,fr2_a1).
body(r_fr18_50,fr12_d1).
body(r_fr18_50,fr19_v1).
body(r_fr18_50,fr17_x1).
head(r_fr18_51,fr18_v1).
body(r_fr18_51,fr23_z1).
body(r_fr18_51,fr8_z2).
body(r_fr18_51,fr13_q3).
body(r_fr18_51,fr18_u1).
body(r_fr18_51,fr21_r2).
body(r_fr18_51,fr18_z1).
head(r_fr18_52,fr18_v1).
head(r_fr18_53,fr18_v1).
body(r_fr18_53,fr12_d1).
body(r_fr18_53,fr12_d1).
body(r_fr18_53,fr18_b3).
body(r_fr18_53,fr18_r2).
body(r_fr18_53,fr6_y1).
head(r_fr18_54,fr18_v1).
body(r_fr18_54,fr17_d2).
body(r_fr18_54,fr12_d1).
body(r_fr18_54,fr2_a1).
body(r_fr18_54,fr12_d1).
body(r_fr18_54,fr16_f2).
body(r_fr18_54,fr18_f2).
head(r_fr18_55,fr18_v1).
body(r_fr18_55,fr2_a1).
body(r_fr18_55,fr18_d2).
body(r_fr18_55,fr12_d1).
body(r_fr18_55,fr6_t2).
body(r_fr18_55,fr18_u1).
body(r_fr18_55,fr21_r2).
head(r_fr18_56,fr6_y1).
body(r_fr18_56,fr8_z2).
body(r_fr18_56,fr11_r3).
body(r_fr18_56,fr13_q3).
body(r_fr18_56,fr5_s1).
body(r_fr18_56,fr18_v2).
body(r_fr18_56,fr21_r2).
head(r_fr18_57,fr6_y1).
body(r_fr18_57,fr25_y2).
body(r_fr18_57,fr21_r2).
head(r_fr18_58,fr6_y1).
body(r_fr18_58,fr12_d1).
body(r_fr18_58,fr17_d2).
body(r_fr18_58,fr18_b3).
body(r_fr18_58,fr2_a1).
body(r_fr18_58,fr16_d2).
head(r_fr18_59,fr6_y1).
body(r_fr18_59,fr16_d2).
body(r_fr18_59,fr18_d2).
head(r_fr18_60,fr6_y1).
body(r_fr18_60,fr17_d2).
body(r_fr18_60,fr12_d1).
body(r_fr18_60,fr25_y2).
body(r_fr18_60,fr18_y1).
head(r_fr18_61,fr6_y1).
body(r_fr18_61,fr6_t2).
head(r_fr18_62,fr6_y1).
body(r_fr18_62,fr23_z1).
body(r_fr18_62,fr25_q3).
body(r_fr18_62,fr5_s1).
body(r_fr18_62,fr18_v2).
head(r_fr18_63,fr6_y1).
body(r_fr18_63,fr12_d1).
body(r_fr18_63,fr16_d2).
head(r_fr18_64,fr6_y1).
body(r_fr18_64,fr18_a1).
body(r_fr18_64,fr12_d1).
body(r_fr18_64,fr16_d2).
body(r_fr18_64,fr18_f2).
body(r_fr18_64,fr11_r3).
head(r_fr18_65,fr6_y1).
body(r_fr18_65,fr18_a1).
body(r_fr18_65,fr12_d1).
body(r_fr18_65,fr12_d1).
body(r_fr18_65,fr2_a1).
body(r_fr18_65,fr6_d3).
body(r_fr18_65,fr18_f2).
head(r_fr18_66,fr6_y1).
body(r_fr18_66,fr2_a1).
body(r_fr18_66,fr9_b2).
body(r_fr18_66,fr16_f2).
body(r_fr18_66,fr21_p3).
head(r_fr18_67,fr6_y1).
body(r_fr18_67,fr12_d1).
body(r_fr18_67,fr18_f2).
head(r_fr18_68,fr6_y1).
head(r_fr18_69,fr6_y1).
body(r_fr18_69,fr17_d2).
body(r_fr18_69,fr16_f2).
body(r_fr18_69,fr25_y2).
head(r_fr18_70,fr6_y1).
body(r_fr18_70,fr12_d1).
head(r_fr18_71,fr6_y1).
body(r_fr18_71,fr8_z2).
body(r_fr18_71,fr21_p3).
body(r_fr18_71,fr18_y1).
head(r_fr18_72,fr6_y1).
body(r_fr18_72,fr6_t2).
body(r_fr18_72,fr21_p3).
head(r_fr18_73,fr21_r2).
body(r_fr18_73,fr12_d1).
body(r_fr18_73,fr12_d1).
body(r_fr18_73,fr16_d2).
body(r_fr18_73,fr12_d1).
head(r_fr18_74,fr21_r2).
body(r_fr18_74,fr16_d2).
body(r_fr18_74,fr6_d3).
body(r_fr18_74,fr18_r2).
head(r_fr18_75,fr21_r2).
body(r_fr18_75,fr12_d1).
body(r_fr18_75,fr18_f2).
head(r_fr18_76,fr21_r2).
body(r_fr18_76,fr5_s1).
head(r_fr18_77,fr21_r2).
body(r_fr18_77,fr12_d1).
body(r_fr18_77,fr2_a1).
body(r_fr18_77,fr9_b2).
body(r_fr18_77,fr21_r2).
body(r_fr18_77,fr18_u1).
body(r_fr18_77,fr18_z1).
head(r_fr18_78,fr21_r2).
body(r_fr18_78,fr17_d2).
body(r_fr18_78,fr18_b3).
body(r_fr18_78,fr2_a1).
head(r_fr18_79,fr21_r2).
body(r_fr18_79,fr12_d1).
body(r_fr18_79,fr6_d3).
body(r_fr18_79,fr18_f2).
head(r_fr18_80,fr21_r2).
body(r_fr18_80,fr18_d2).
body(r_fr18_80,fr9_b2).
body(r_fr18_80,fr18_q2).
body(r_fr18_80,fr21_r2).
body(r_fr18_80,fr18_v1).
head(r_fr18_81,fr21_r2).
body(r_fr18_81,fr2_a1).
body(r_fr18_81,fr18_q2).
body(r_fr18_81,fr21_r2).
head(r_fr18_82,fr21_r2).
body(r_fr18_82,fr12_d1).
body(r_fr18_82,fr6_d3).
body(r_fr18_82,fr18_f2).
head(r_fr18_83,fr21_r2).
body(r_fr18_83,fr12_d1).
body(r_fr18_83,fr12_d1).
body(r_fr18_83,fr18_f2).
body(r_fr18_83,fr25_q3).
body(r_fr18_83,fr25_y2).
body(r_fr18_83,fr18_w2).
head(r_fr18_84,fr21_r2).
body(r_fr18_84,fr12_d1).
body(r_fr18_84,fr9_b2).
head(r_fr18_85,fr21_r2).
body(r_fr18_85,fr18_b3).
body(r_fr18_85,fr16_f2).
head(r_fr18_86,fr21_r2).
head(r_fr18_87,fr21_r2).
body(r_fr18_87,fr2_a1).
body(r_fr18_87,fr16_d2).
body(r_fr18_87,fr6_d3).
body(r_fr18_87,fr9_b2).
body(r_fr18_87,fr16_f2).
body(r_fr18_87,fr5_s1).
head(r_fr18_88,fr21_r2).
body(r_fr18_88,fr12_d1).
head(r_fr18_89,fr21_r2).
body(r_fr18_89,fr9_b2).
body(r_fr18_89,fr16_f2).
body(r_fr18_89,fr19_v1).
body(r_fr18_89,fr6_y1).
body(r_fr18_89,fr18_y1).
head(r_fr18_90,fr21_r2).
body(r_fr18_90,fr9_b2).
body(r_fr18_90,fr6_t2).
body(r_fr18_90,fr18_r2).
body(r_fr18_90,fr18_v1).
body(r_fr18_90,fr18_v2).
body(r_fr18_90,fr18_w2).
head(r_fr18_91,fr6_r3).
body(r_fr18_91,fr12_d1).
body(r_fr18_91,fr2_a1).
body(r_fr18_91,fr9_b2).
body(r_fr18_91,fr17_x1).
head(r_fr18_92,fr6_r3).
body(r_fr18_92,fr12_d1).
body(r_fr18_92,fr12_d1).
body(r_fr18_92,fr12_d1).
body(r_fr18_92,fr17_x1).
body(r_fr18_92,fr18_z2).
head(r_fr18_93,fr6_r3).
body(r_fr18_93,fr12_d1).
body(r_fr18_93,fr2_a1).
body(r_fr18_93,fr6_d3).
body(r_fr18_93,fr18_f2).
body(r_fr18_93,fr18_w2).
head(r_fr18_94,fr6_r3).
body(r_fr18_94,fr18_q2).
body(r_fr18_94,fr21_r2).
head(r_fr18_95,fr6_r3).
body(r_fr18_95,fr12_d1).
body(r_fr18_95,fr18_u1).
head(r_fr18_96,fr6_r3).
body(r_fr18_96,fr16_d2).
body(r_fr18_96,fr18_v1).
head(r_fr18_97,fr6_r3).
body(r_fr18_97,fr12_d1).
body(r_fr18_97,fr12_d1).
body(r_fr18_97,fr18_f2).
body(r_fr18_97,fr25_q3).
body(r_fr18_97,fr5_s1).
body(r_fr18_97,fr18_v1).
head(r_fr18_98,fr6_r3).
body(r_fr18_98,fr6_d3).
body(r_fr18_98,fr8_z2).
body(r_fr18_98,fr6_t2).
body(r_fr18_98,fr18_v1).
body(r_fr18_98,fr18_v2).
body(r_fr18_98,fr18_w2).
head(r_fr18_99,fr6_r3).
body(r_fr18_99,fr12_d1).
body(r_fr18_99,fr18_b3).
body(r_fr18_99,fr12_d1).
body(r_fr18_99,fr16_f2).
body(r_fr18_99,fr18_f2).
head(r_fr18_100,fr6_r3).
body(r_fr18_100,fr8_z2).
body(r_fr18_100,fr5_s1).
head(r_fr18_101,fr6_r3).
body(r_fr18_101,fr9_b2).
head(r_fr18_102,fr6_r3).
body(r_fr18_102,fr18_f2).
body(r_fr18_102,fr17_x1).
head(r_fr18_103,fr6_r3).
body(r_fr18_103,fr8_z2).
body(r_fr18_103,fr6_y1).
head(r_fr18_104,fr6_r3).
body(r_fr18_104,fr25_y2).
body(r_fr18_104,fr21_r2).
body(r_fr18_104,fr18_z2).
head(r_fr18_105,fr6_r3).
head(r_fr18_106,fr6_r3).
body(r_fr18_106,fr16_d2).
head(r_fr18_107,fr6_r3).
body(r_fr18_107,fr6_t2).
body(r_fr18_107,fr18_r2).
body(r_fr18_107,fr25_y2).
body(r_fr18_107,fr5_s1).
body(r_fr18_107,fr18_u1).
body(r_fr18_107,fr18_v1).
head(r_fr18_108,fr18_y1).
body(r_fr18_108,fr12_d1).
body(r_fr18_108,fr18_d2).
body(r_fr18_108,fr12_d1).
body(r_fr18_108,fr18_f2).
head(r_fr18_109,fr18_y1).
body(r_fr18_109,fr19_v1).
body(r_fr18_109,fr5_s1).
body(r_fr18_109,fr18_v1).
head(r_fr18_110,fr18_y1).
body(r_fr18_110,fr16_d2).
head(r_fr18_111,fr18_y1).
body(r_fr18_111,fr17_d2).
body(r_fr18_111,fr16_f2).
head(r_fr18_112,fr18_y1).
body(r_fr18_112,fr18_d2).
body(r_fr18_112,fr6_r3).
body(r_fr18_112,fr18_z2).
head(r_fr18_113,fr18_y1).
body(r_fr18_113,fr17_d2).
body(r_fr18_113,fr12_d1).
body(r_fr18_113,fr2_a1).
body(r_fr18_113,fr6_d3).
body(r_fr18_113,fr6_y1).
body(r_fr18_113,fr18_z1).
head(r_fr18_114,fr18_y1).
body(r_fr18_114,fr12_d1).
body(r_fr18_114,fr12_d1).
body(r_fr18_114,fr16_d2).
head(r_fr18_115,fr18_y1).
body(r_fr18_115,fr18_a1).
body(r_fr18_115,fr11_r3).
body(r_fr18_115,fr17_x1).
head(r_fr18_116,fr18_y1).
body(r_fr18_116,fr18_b3).
body(r_fr18_116,fr2_a1).
body(r_fr18_116,fr6_d3).
body(r_fr18_116,fr9_b2).
head(r_fr18_117,fr18_y1).
body(r_fr18_117,fr12_d1).
body(r_fr18_117,fr5_s1).
body(r_fr18_117,fr21_p3).
head(r_fr18_118,fr18_y1).
body(r_fr18_118,fr18_a1).
body(r_fr18_118,fr18_d2).
body(r_fr18_118,fr9_b2).
head(r_fr18_119,fr18_y1).
body(r_fr18_119,fr12_d1).
body(r_fr18_119,fr9_b2).
head(r_fr18_120,fr18_y1).
body(r_fr18_120,fr12_d1).
body(r_fr18_120,fr12_d1).
body(r_fr18_120,fr12_d1).
body(r_fr18_120,fr17_x1).
head(r_fr18_121,fr18_y1).
body(r_fr18_121,fr12_d1).
body(r_fr18_121,fr18_b3).
body(r_fr18_121,fr16_d2).
head(r_fr18_122,fr18_y1).
body(r_fr18_122,fr8_z2).
head(r_fr18_123,fr18_y1).
body(r_fr18_123,fr18_b3).
body(r_fr18_123,fr6_t2).
body(r_fr18_123,fr18_q2).
head(r_fr18_124,fr18_y1).
head(r_fr18_125,fr6_t2).
body(r_fr18_125,fr25_q3).
body(r_fr18_125,fr21_r2).
body(r_fr18_125,fr21_p3).
head(r_fr18_126,fr6_t2).
body(r_fr18_126,fr25_q3).
body(r_fr18_126,fr21_r2).
head(r_fr18_127,fr6_t2).
head(r_fr18_128,fr6_t2).
body(r_fr18_128,fr18_a1).
body(r_fr18_128,fr12_d1).
body(r_fr18_128,fr12_d1).
body(r_fr18_128,fr6_d3).
body(r_fr18_128,fr12_d1).
body(r_fr18_128,fr18_y1).
head(r_fr18_129,fr6_t2).
body(r_fr18_129,fr12_d1).
head(r_fr18_130,fr6_t2).
body(r_fr18_130,fr18_a1).
body(r_fr18_130,fr17_d2).
body(r_fr18_130,fr9_b2).
body(r_fr18_130,fr16_f2).
body(r_fr18_130,fr17_x1).
body(r_fr18_130,fr18_w2).
head(r_fr18_131,fr6_t2).
body(r_fr18_131,fr18_q2).
body(r_fr18_131,fr5_s1).
body(r_fr18_131,fr21_r2).
body(r_fr18_131,fr18_z2).
head(r_fr18_132,fr6_t2).
body(r_fr18_132,fr18_b3).
head(r_fr18_133,fr6_t2).
body(r_fr18_133,fr12_d1).
body(r_fr18_133,fr18_d2).
body(r_fr18_133,fr18_f2).
body(r_fr18_133,fr11_r3).
body(r_fr18_133,fr18_z2).
head(r_fr18_134,fr6_t2).
body(r_fr18_134,fr18_y1).
head(r_fr18_135,fr6_t2).
body(r_fr18_135,fr12_d1).
body(r_fr18_135,fr6_d3).
body(r_fr18_135,fr17_x1).
head(r_fr18_136,fr6_t2).
body(r_fr18_136,fr12_d1).
body(r_fr18_136,fr12_d1).
body(r_fr18_136,fr18_d2).
body(r_fr18_136,fr12_d1).
body(r_fr18_136,fr18_z2).
head(r_fr18_137,fr6_t2).
body(r_fr18_137,fr17_d2).
body(r_fr18_137,fr19_v1).
body(r_fr18_137,fr25_q3).
body(r_fr18_137,fr18_v1).
head(r_fr18_138,fr6_t2).
body(r_fr18_138,fr23_z1).
body(r_fr18_138,fr13_q3).
body(r_fr18_138,fr5_s1).
body(r_fr18_138,fr5_s1).
body(r_fr18_138,fr18_y1).
head(r_fr18_139,fr6_t2).
body(r_fr18_139,fr25_q3).
body(r_fr18_139,fr17_x1).
head(r_fr18_140,fr6_t2).
body(r_fr18_140,fr12_d1).
body(r_fr18_140,fr18_b3).
body(r_fr18_140,fr12_d1).
body(r_fr18_140,fr12_d1).
body(r_fr18_140,fr18_f2).
head(r_fr18_141,fr6_t2).
body(r_fr18_141,fr18_b3).
body(r_fr18_141,fr16_d2).
body(r_fr18_141,fr16_f2).
head(r_fr18_142,fr18_v2).
body(r_fr18_142,fr12_d1).
body(r_fr18_142,fr18_r2).
body(r_fr18_142,fr6_r3).
body(r_fr18_142,fr18_w2).
body(r_fr18_142,fr18_z1).
head(r_fr18_143,fr18_v2).
body(r_fr18_143,fr12_d1).
body(r_fr18_143,fr18_d2).
body(r_fr18_143,fr9_b2).
body(r_fr18_143,fr23_z1).
body(r_fr18_143,fr5_s1).
body(r_fr18_143,fr21_p3).
head(r_fr18_144,fr18_v2).
body(r_fr18_144,fr6_t2).
body(r_fr18_144,fr25_y2).
body(r_fr18_144,fr18_v1).
head(r_fr18_145,fr18_v2).
body(r_fr18_145,fr12_d1).
body(r_fr18_145,fr16_d2).
body(r_fr18_145,fr6_r3).
body(r_fr18_145,fr21_r2).
body(r_fr18_145,fr18_w2).
body(r_fr18_145,fr18_y1).
head(r_fr18_146,fr18_v2).
body(r_fr18_146,fr17_d2).
body(r_fr18_146,fr6_d3).
body(r_fr18_146,fr18_d2).
body(r_fr18_146,fr9_b2).
head(r_fr18_147,fr18_v2).
body(r_fr18_147,fr12_d1).
body(r_fr18_147,fr12_d1).
body(r_fr18_147,fr18_f2).
body(r_fr18_147,fr5_s1).
head(r_fr18_148,fr18_v2).
body(r_fr18_148,fr19_v1).
body(r_fr18_148,fr6_t2).
body(r_fr18_148,fr25_q3).
body(r_fr18_148,fr21_r2).
body(r_fr18_148,fr18_z1).
body(r_fr18_148,fr18_z2).
head(r_fr18_149,fr18_v2).
body(r_fr18_149,fr12_d1).
body(r_fr18_149,fr12_d1).
body(r_fr18_149,fr9_b2).
body(r_fr18_149,fr19_v1).
body(r_fr18_149,fr23_z1).
body(r_fr18_149,fr5_s1).
head(r_fr18_150,fr18_v2).
body(r_fr18_150,fr12_d1).
head(r_fr18_151,fr18_v2).
body(r_fr18_151,fr19_v1).
body(r_fr18_151,fr23_z1).
body(r_fr18_151,fr17_x1).
head(r_fr18_152,fr18_v2).
body(r_fr18_152,fr18_a1).
body(r_fr18_152,fr23_z1).
body(r_fr18_152,fr25_q3).
body(r_fr18_152,fr25_y2).
body(r_fr18_152,fr18_w2).
body(r_fr18_152,fr21_r2).
head(r_fr18_153,fr18_v2).
head(r_fr18_154,fr18_v2).
body(r_fr18_154,fr19_v1).
body(r_fr18_154,fr23_z1).
body(r_fr18_154,fr11_r3).
head(r_fr18_155,fr18_v2).
body(r_fr18_155,fr12_d1).
body(r_fr18_155,fr18_b3).
body(r_fr18_155,fr12_d1).
body(r_fr18_155,fr16_f2).
body(r_fr18_155,fr18_f2).
body(r_fr18_155,fr6_r3).
head(r_fr18_156,fr18_v2).
body(r_fr18_156,fr12_d1).
body(r_fr18_156,fr12_d1).
body(r_fr18_156,fr16_f2).
body(r_fr18_156,fr25_y2).
body(r_fr18_156,fr6_r3).
head(r_fr18_157,fr18_v2).
body(r_fr18_157,fr9_b2).
body(r_fr18_157,fr5_s1).
body(r_fr18_157,fr21_r2).
body(r_fr18_157,fr18_u1).
body(r_fr18_157,fr18_y1).
body(r_fr18_157,fr18_z1).
head(r_fr18_158,fr18_v2).
body(r_fr18_158,fr12_d1).
body(r_fr18_158,fr8_z2).
body(r_fr18_158,fr6_t2).
body(r_fr18_158,fr18_w2).
head(r_fr18_159,fr18_z1).
body(r_fr18_159,fr6_t2).
body(r_fr18_159,fr25_y2).
body(r_fr18_159,fr6_r3).
body(r_fr18_159,fr18_u1).
body(r_fr18_159,fr17_x1).
head(r_fr18_160,fr18_z1).
body(r_fr18_160,fr2_a1).
body(r_fr18_160,fr16_d2).
body(r_fr18_160,fr12_d1).
body(r_fr18_160,fr23_z1).
head(r_fr18_161,fr18_z1).
body(r_fr18_161,fr18_b3).
head(r_fr18_162,fr18_z1).
body(r_fr18_162,fr16_d2).
body(r_fr18_162,fr6_d3).
body(r_fr18_162,fr9_b2).
body(r_fr18_162,fr5_s1).
head(r_fr18_163,fr18_z1).
body(r_fr18_163,fr12_d1).
body(r_fr18_163,fr12_d1).
body(r_fr18_163,fr18_q2).
body(r_fr18_163,fr25_q3).
head(r_fr18_164,fr18_z1).
body(r_fr18_164,fr17_d2).
body(r_fr18_164,fr12_d1).
body(r_fr18_164,fr2_a1).
body(r_fr18_164,fr8_z2).
body(r_fr18_164,fr18_r2).
body(r_fr18_164,fr18_v2).
head(r_fr18_165,fr18_z1).
body(r_fr18_165,fr18_a1).
body(r_fr18_165,fr2_a1).
body(r_fr18_165,fr12_d1).
body(r_fr18_165,fr18_r2).
head(r_fr18_166,fr18_z1).
body(r_fr18_166,fr6_t2).
body(r_fr18_166,fr18_r2).
body(r_fr18_166,fr21_r2).
body(r_fr18_166,fr18_u1).
body(r_fr18_166,fr18_v2).
body(r_fr18_166,fr21_r2).
head(r_fr18_167,fr18_z1).
body(r_fr18_167,fr18_q2).
body(r_fr18_167,fr18_r2).
body(r_fr18_167,fr13_q3).
body(r_fr18_167,fr21_r2).
body(r_fr18_167,fr6_y1).
head(r_fr18_168,fr18_z1).
body(r_fr18_168,fr12_d1).
body(r_fr18_168,fr5_s1).
head(r_fr18_169,fr18_z1).
body(r_fr18_169,fr18_a1).
body(r_fr18_169,fr9_b2).
body(r_fr18_169,fr18_r2).
head(r_fr18_170,fr18_z1).
body(r_fr18_170,fr16_d2).
body(r_fr18_170,fr6_d3).
body(r_fr18_170,fr18_d2).
body(r_fr18_170,fr16_f2).
body(r_fr18_170,fr18_q2).
head(r_fr18_171,fr18_z1).
body(r_fr18_171,fr12_d1).
body(r_fr18_171,fr16_d2).
body(r_fr18_171,fr12_d1).
body(r_fr18_171,fr11_r3).
body(r_fr18_171,fr25_y2).
body(r_fr18_171,fr5_s1).
head(r_fr18_172,fr18_z1).
body(r_fr18_172,fr11_r3).
body(r_fr18_172,fr17_x1).
body(r_fr18_172,fr6_y1).
body(r_fr18_172,fr18_z2).
head(r_fr18_173,fr18_z1).
body(r_fr18_173,fr18_a1).
body(r_fr18_173,fr18_q2).
body(r_fr18_173,fr25_q3).
body(r_fr18_173,fr21_r2).
body(r_fr18_173,fr5_s1).
body(r_fr18_173,fr18_z2).
head(r_fr18_174,fr18_z1).
body(r_fr18_174,fr18_u1).
head(r_fr18_175,fr18_z1).
head(r_fr18_176,fr18_z1).
body(r_fr18_176,fr18_a1).
body(r_fr18_176,fr12_d1).
body(r_fr18_176,fr2_a1).
body(r_fr18_176,fr9_b2).
head(r_fr18_177,fr18_z1).
body(r_fr18_177,fr25_q3).
head(r_fr18_178,fr18_r2).
body(r_fr18_178,fr12_d1).
body(r_fr18_178,fr17_d2).
head(r_fr18_179,fr18_r2).
body(r_fr18_179,fr18_a1).
body(r_fr18_179,fr17_d2).
body(r_fr18_179,fr12_d1).
body(r_fr18_179,fr6_d3).
body(r_fr18_179,fr18_v2).
body(r_fr18_179,fr18_z2).
head(r_fr18_180,fr18_r2).
body(r_fr18_180,fr16_d2).
body(r_fr18_180,fr13_q3).
head(r_fr18_181,fr18_r2).
body(r_fr18_181,fr12_d1).
head(r_fr18_182,fr18_r2).
body(r_fr18_182,fr12_d1).
body(r_fr18_182,fr12_d1).
body(r_fr18_182,fr16_d2).
body(r_fr18_182,fr18_d2).
body(r_fr18_182,fr16_f2).
body(r_fr18_182,fr18_f2).
head(r_fr18_183,fr18_r2).
body(r_fr18_183,fr12_d1).
body(r_fr18_183,fr5_s1).
head(r_fr18_184,fr18_r2).
body(r_fr18_184,fr13_q3).
body(r_fr18_184,fr18_u1).
body(r_fr18_184,fr17_x1).
body(r_fr18_184,fr18_y1).
body(r_fr18_184,fr18_z2).
head(r_fr18_185,fr18_r2).
body(r_fr18_185,fr18_q2).
body(r_fr18_185,fr6_y1).
head(r_fr18_186,fr18_r2).
body(r_fr18_186,fr16_f2).
body(r_fr18_186,fr8_z2).
body(r_fr18_186,fr18_v1).
body(r_fr18_186,fr21_r2).
head(r_fr18_187,fr18_r2).
body(r_fr18_187,fr23_z1).
body(r_fr18_187,fr8_z2).
body(r_fr18_187,fr6_r3).
body(r_fr18_187,fr18_w2).
head(r_fr18_188,fr18_r2).
body(r_fr18_188,fr12_d1).
body(r_fr18_188,fr19_v1).
body(r_fr18_188,fr25_q3).
body(r_fr18_188,fr21_p3).
head(r_fr18_189,fr18_r2).
body(r_fr18_189,fr12_d1).
body(r_fr18_189,fr12_d1).
body(r_fr18_189,fr18_q2).
body(r_fr18_189,fr6_r3).
body(r_fr18_189,fr21_r2).
body(r_fr18_189,fr18_u1).
head(r_fr18_190,fr18_r2).
body(r_fr18_190,fr16_f2).
head(r_fr18_191,fr18_r2).
body(r_fr18_191,fr12_d1).
body(r_fr18_191,fr12_d1).
body(r_fr18_191,fr12_d1).
body(r_fr18_191,fr18_d2).
head(r_fr18_192,fr18_r2).
body(r_fr18_192,fr12_d1).
body(r_fr18_192,fr2_a1).
body(r_fr18_192,fr6_d3).
body(r_fr18_192,fr16_f2).
body(r_fr18_192,fr25_y2).
head(r_fr18_193,fr18_r2).
body(r_fr18_193,fr6_d3).
body(r_fr18_193,fr23_z1).
body(r_fr18_193,fr5_s1).
body(r_fr18_193,fr18_v1).
body(r_fr18_193,fr6_y1).
head(r_fr18_194,fr18_r2).
body(r_fr18_194,fr12_d1).
body(r_fr18_194,fr18_b3).
body(r_fr18_194,fr16_d2).
body(r_fr18_194,fr6_d3).
body(r_fr18_194,fr9_b2).
body(r_fr18_194,fr16_f2).
head(r_fr18_195,fr18_r2).
head(r_fr18_196,fr18_q2).
body(r_fr18_196,fr12_d1).
body(r_fr18_196,fr19_v1).
body(r_fr18_196,fr21_p3).
body(r_fr18_196,fr21_r2).
head(r_fr18_197,fr18_q2).
body(r_fr18_197,fr12_d1).
body(r_fr18_197,fr6_d3).
head(r_fr18_198,fr18_q2).
body(r_fr18_198,fr2_a1).
body(r_fr18_198,fr18_d2).
body(r_fr18_198,fr9_b2).
head(r_fr18_199,fr18_q2).
body(r_fr18_199,fr12_d1).
body(r_fr18_199,fr16_d2).
body(r_fr18_199,fr18_f2).
head(r_fr18_200,fr18_q2).
body(r_fr18_200,fr12_d1).
body(r_fr18_200,fr12_d1).
body(r_fr18_200,fr18_d2).
body(r_fr18_200,fr16_f2).
body(r_fr18_200,fr18_y1).
head(r_fr18_201,fr18_q2).
body(r_fr18_201,fr17_d2).
body(r_fr18_201,fr12_d1).
body(r_fr18_201,fr16_d2).
body(r_fr18_201,fr6_d3).
body(r_fr18_201,fr9_b2).
head(r_fr18_202,fr18_q2).
body(r_fr18_202,fr25_q3).
body(r_fr18_202,fr18_v1).
body(r_fr18_202,fr18_v2).
body(r_fr18_202,fr18_y1).
body(r_fr18_202,fr18_z2).
head(r_fr18_203,fr18_q2).
body(r_fr18_203,fr12_d1).
body(r_fr18_203,fr2_a1).
body(r_fr18_203,fr16_d2).
body(r_fr18_203,fr6_r3).
body(r_fr18_203,fr18_v2).
body(r_fr18_203,fr17_x1).
head(r_fr18_204,fr18_q2).
body(r_fr18_204,fr17_x1).
body(r_fr18_204,fr21_r2).
body(r_fr18_204,fr18_z2).
head(r_fr18_205,fr18_q2).
body(r_fr18_205,fr18_a1).
body(r_fr18_205,fr19_v1).
body(r_fr18_205,fr18_w2).
head(r_fr18_206,fr18_q2).
body(r_fr18_206,fr12_d1).
body(r_fr18_206,fr23_z1).
body(r_fr18_206,fr5_s1).
body(r_fr18_206,fr18_w2).
head(r_fr18_207,fr18_q2).
body(r_fr18_207,fr18_a1).
body(r_fr18_207,fr6_d3).
body(r_fr18_207,fr12_d1).
body(r_fr18_207,fr13_q3).
head(r_fr18_208,fr18_q2).
body(r_fr18_208,fr18_b3).
body(r_fr18_208,fr2_a1).
body(r_fr18_208,fr12_d1).
head(r_fr18_209,fr18_q2).
body(r_fr18_209,fr18_a1).
body(r_fr18_209,fr12_d1).
body(r_fr18_209,fr6_r3).
head(r_fr18_210,fr18_q2).
body(r_fr18_210,fr12_d1).
body(r_fr18_210,fr12_d1).
body(r_fr18_210,fr12_d1).
body(r_fr18_210,fr6_d3).
body(r_fr18_210,fr18_d2).
body(r_fr18_210,fr16_f2).
head(r_fr18_211,fr18_q2).
head(r_fr18_212,fr18_q2).
body(r_fr18_212,fr12_d1).
body(r_fr18_212,fr18_d2).
body(r_fr18_212,fr17_x1).
head(r_fr18_213,fr18_q2).
body(r_fr18_213,fr12_d1).
body(r_fr18_213,fr16_d2).
body(r_fr18_213,fr18_d2).
body(r_fr18_213,fr18_y1).
head(r_fr18_214,fr18_q2).
body(r_fr18_214,fr12_d1).
body(r_fr18_214,fr16_d2).
body(r_fr18_214,fr5_s1).
head(r_fr18_215,fr8_z2).
body(r_fr18_215,fr25_q3).
body(r_fr18_215,fr18_z2).
head(r_fr18_216,fr8_z2).
body(r_fr18_216,fr2_a1).
body(r_fr18_216,fr18_u1).
body(r_fr18_216,fr17_x1).
body(r_fr18_216,fr21_r2).
head(r_fr18_217,fr8_z2).
body(r_fr18_217,fr12_d1).
body(r_fr18_217,fr12_d1).
body(r_fr18_217,fr16_f2).
body(r_fr18_217,fr18_f2).
body(r_fr18_217,fr6_y1).
body(r_fr18_217,fr18_z2).
head(r_fr18_218,fr8_z2).
body(r_fr18_218,fr18_a1).
body(r_fr18_218,fr21_r2).
body(r_fr18_218,fr17_x1).
body(r_fr18_218,fr18_y1).
head(r_fr18_219,fr8_z2).
body(r_fr18_219,fr12_d1).
head(r_fr18_220,fr8_z2).
body(r_fr18_220,fr18_a1).
body(r_fr18_220,fr12_d1).
body(r_fr18_220,fr16_d2).
body(r_fr18_220,fr18_d2).
body(r_fr18_220,fr16_f2).
body(r_fr18_220,fr18_f2).
head(r_fr18_221,fr8_z2).
body(r_fr18_221,fr17_d2).
body(r_fr18_221,fr12_d1).
body(r_fr18_221,fr18_d2).
body(r_fr18_221,fr18_r2).
head(r_fr18_222,fr8_z2).
body(r_fr18_222,fr18_u1).
head(r_fr18_223,fr8_z2).
body(r_fr18_223,fr12_d1).
body(r_fr18_223,fr2_a1).
body(r_fr18_223,fr6_r3).
head(r_fr18_224,fr8_z2).
body(r_fr18_224,fr18_u1).
body(r_fr18_224,fr17_x1).
head(r_fr18_225,fr8_z2).
body(r_fr18_225,fr18_q2).
body(r_fr18_225,fr18_r2).
body(r_fr18_225,fr13_q3).
body(r_fr18_225,fr5_s1).
body(r_fr18_225,fr18_u1).
head(r_fr18_226,fr8_z2).
body(r_fr18_226,fr18_f2).
body(r_fr18_226,fr17_x1).
head(r_fr18_227,fr8_z2).
body(r_fr18_227,fr17_d2).
head(r_fr18_228,fr8_z2).
body(r_fr18_228,fr17_d2).
body(r_fr18_228,fr2_a1).
body(r_fr18_228,fr16_f2).
body(r_fr18_228,fr25_q3).
body(r_fr18_228,fr17_x1).
head(r_fr18_229,fr8_z2).
body(r_fr18_229,fr18_a1).
body(r_fr18_229,fr2_a1).
head(r_fr18_230,fr8_z2).
body(r_fr18_230,fr6_y1).
head(r_fr18_231,fr8_z2).
body(r_fr18_231,fr18_a1).
body(r_fr18_231,fr17_d2).
body(r_fr18_231,fr16_d2).
body(r_fr18_231,fr12_d1).
body(r_fr18_231,fr6_r3).
head(r_fr18_232,fr8_z2).
head(r_fr18_233,fr8_z2).
body(r_fr18_233,fr18_b3).
head(r_fr18_234,fr25_y2).
body(r_fr18_234,fr18_q2).
body(r_fr18_234,fr25_q3).
body(r_fr18_234,fr18_u1).
head(r_fr18_235,fr25_y2).
body(r_fr18_235,fr5_s1).
head(r_fr18_236,fr25_y2).
body(r_fr18_236,fr2_a1).
body(r_fr18_236,fr21_r2).
head(r_fr18_237,fr25_y2).
body(r_fr18_237,fr11_r3).
body(r_fr18_237,fr18_v2).
head(r_fr18_238,fr25_y2).
body(r_fr18_238,fr18_b3).
body(r_fr18_238,fr6_r3).
body(r_fr18_238,fr21_p3).
body(r_fr18_238,fr21_r2).
head(r_fr18_239,fr25_y2).
body(r_fr18_239,fr12_d1).
body(r_fr18_239,fr12_d1).
body(r_fr18_239,fr18_d2).
body(r_fr18_239,fr16_f2).
body(r_fr18_239,fr18_f2).
head(r_fr18_240,fr25_y2).
body(r_fr18_240,fr12_d1).
body(r_fr18_240,fr12_d1).
body(r_fr18_240,fr12_d1).
body(r_fr18_240,fr8_z2).
body(r_fr18_240,fr21_r2).
body(r_fr18_240,fr18_z2).
head(r_fr18_241,fr25_y2).
body(r_fr18_241,fr12_d1).
body(r_fr18_241,fr12_d1).
body(r_fr18_241,fr21_p3).
head(r_fr18_242,fr25_y2).
body(r_fr18_242,fr8_z2).
body(r_fr18_242,fr21_r2).
body(r_fr18_242,fr17_x1).
body(r_fr18_242,fr18_y1).
head(r_fr18_243,fr25_y2).
body(r_fr18_243,fr12_d1).
body(r_fr18_243,fr18_b3).
body(r_fr18_243,fr12_d1).
body(r_fr18_243,fr9_b2).
body(r_fr18_243,fr18_f2).
body(r_fr18_243,fr21_p3).
head(r_fr18_244,fr25_y2).
body(r_fr18_244,fr18_a1).
body(r_fr18_244,fr12_d1).
body(r_fr18_244,fr12_d1).
body(r_fr18_244,fr18_b3).
body(r_fr18_244,fr16_f2).
body(r_fr18_244,fr5_s1).
head(r_fr18_245,fr25_y2).
body(r_fr18_245,fr16_d2).
body(r_fr18_245,fr12_d1).
body(r_fr18_245,fr18_d2).
body(r_fr18_245,fr9_b2).
head(r_fr18_246,fr25_y2).
body(r_fr18_246,fr18_z1).
head(r_fr18_247,fr25_y2).
body(r_fr18_247,fr12_d1).
body(r_fr18_247,fr19_v1).
body(r_fr18_247,fr8_z2).
body(r_fr18_247,fr18_q2).
body(r_fr18_247,fr6_r3).
body(r_fr18_247,fr18_z1).
head(r_fr18_248,fr25_y2).
body(r_fr18_248,fr12_d1).
head(r_fr18_249,fr25_y2).
body(r_fr18_249,fr17_d2).
body(r_fr18_249,fr12_d1).
body(r_fr18_249,fr18_b3).
body(r_fr18_249,fr2_a1).
head(r_fr18_250,fr25_y2).
body(r_fr18_250,fr19_v1).
body(r_fr18_250,fr25_q3).
body(r_fr18_250,fr18_r2).
body(r_fr18_250,fr18_w2).
body(r_fr18_250,fr6_y1).
body(r_fr18_250,fr18_z2).
head(r_fr18_251,fr25_y2).
body(r_fr18_251,fr12_d1).
body(r_fr18_251,fr18_d2).
body(r_fr18_251,fr12_d1).
head(r_fr18_252,fr25_y2).
head(r_fr18_253,fr25_y2).
body(r_fr18_253,fr18_b3).
body(r_fr18_253,fr12_d1).
body(r_fr18_253,fr19_v1).
body(r_fr18_253,fr8_z2).
body(r_fr18_253,fr13_q3).
body(r_fr18_253,fr21_r2).
head(r_fr18_254,fr17_x1).
body(r_fr18_254,fr18_a1).
body(r_fr18_254,fr6_t2).
body(r_fr18_254,fr18_v2).
body(r_fr18_254,fr6_y1).
body(r_fr18_254,fr21_p3).
body(r_fr18_254,fr18_z1).
head(r_fr18_255,fr17_x1).
body(r_fr18_255,fr18_b3).
body(r_fr18_255,fr18_f2).
body(r_fr18_255,fr21_p3).
head(r_fr18_256,fr17_x1).
body(r_fr18_256,fr11_r3).
body(r_fr18_256,fr18_r2).
body(r_fr18_256,fr25_y2).
body(r_fr18_256,fr21_r2).
head(r_fr18_257,fr17_x1).
body(r_fr18_257,fr12_d1).
body(r_fr18_257,fr6_r3).
body(r_fr18_257,fr5_s1).
body(r_fr18_257,fr18_z1).
head(r_fr18_258,fr17_x1).
body(r_fr18_258,fr17_d2).
body(r_fr18_258,fr12_d1).
body(r_fr18_258,fr12_d1).
body(r_fr18_258,fr21_p3).
head(r_fr18_259,fr17_x1).
body(r_fr18_259,fr12_d1).
head(r_fr18_260,fr17_x1).
body(r_fr18_260,fr16_d2).
body(r_fr18_260,fr6_d3).
head(r_fr18_261,fr17_x1).
body(r_fr18_261,fr8_z2).
body(r_fr18_261,fr18_w2).
head(r_fr18_262,fr17_x1).
body(r_fr18_262,fr2_a1).
body(r_fr18_262,fr6_r3).
body(r_fr18_262,fr18_u1).
body(r_fr18_262,fr18_v1).
body(r_fr18_262,fr18_w2).
head(r_fr18_263,fr17_x1).
body(r_fr18_263,fr18_a1).
body(r_fr18_263,fr18_d2).
body(r_fr18_263,fr9_b2).
body(r_fr18_263,fr18_v1).
head(r_fr18_264,fr17_x1).
head(r_fr18_265,fr17_x1).
body(r_fr18_265,fr18_f2).
head(r_fr18_266,fr17_x1).
body(r_fr18_266,fr6_y1).
body(r_fr18_266,fr21_r2).
body(r_fr18_266,fr18_z2).
head(r_fr18_267,fr17_x1).
body(r_fr18_267,fr18_a1).
body(r_fr18_267,fr12_d1).
body(r_fr18_267,fr17_d2).
body(r_fr18_267,fr18_b3).
body(r_fr18_267,fr2_a1).
body(r_fr18_267,fr12_d1).
head(r_fr18_268,fr17_x1).
body(r_fr18_268,fr12_d1).
body(r_fr18_268,fr12_d1).
body(r_fr18_268,fr12_d1).
body(r_fr18_268,fr18_d2).
body(r_fr18_268,fr9_b2).
head(r_fr18_269,fr17_x1).
body(r_fr18_269,fr18_a1).
body(r_fr18_269,fr12_d1).
head(r_fr18_270,fr17_x1).
body(r_fr18_270,fr5_s1).
head(r_fr18_271,fr17_x1).
body(r_fr18_271,fr12_d1).
body(r_fr18_271,fr2_a1).
body(r_fr18_271,fr16_f2).
body(r_fr18_271,fr18_u1).
head(r_fr18_272,fr13_q3).
body(r_fr18_272,fr12_d1).
body(r_fr18_272,fr12_d1).
body(r_fr18_272,fr16_f2).
body(r_fr18_272,fr18_f2).
head(r_fr18_273,fr13_q3).
body(r_fr18_273,fr25_y2).
body(r_fr18_273,fr21_r2).
body(r_fr18_273,fr5_s1).
body(r_fr18_273,fr18_w2).
head(r_fr18_274,fr13_q3).
body(r_fr18_274,fr12_d1).
body(r_fr18_274,fr18_b3).
body(r_fr18_274,fr2_a1).
body(r_fr18_274,fr6_d3).
body(r_fr18_274,fr9_b2).
body(r_fr18_274,fr18_u1).
head(r_fr18_275,fr13_q3).
body(r_fr18_275,fr12_d1).
body(r_fr18_275,fr18_b3).
body(r_fr18_275,fr16_d2).
body(r_fr18_275,fr12_d1).
body(r_fr18_275,fr18_v1).
head(r_fr18_276,fr13_q3).
body(r_fr18_276,fr18_f2).
body(r_fr18_276,fr18_q2).
head(r_fr18_277,fr13_q3).
body(r_fr18_277,fr16_d2).
body(r_fr18_277,fr5_s1).
body(r_fr18_277,fr21_p3).
head(r_fr18_278,fr13_q3).
body(r_fr18_278,fr6_d3).
head(r_fr18_279,fr13_q3).
body(r_fr18_279,fr17_d2).
body(r_fr18_279,fr18_f2).
head(r_fr18_280,fr13_q3).
body(r_fr18_280,fr12_d1).
body(r_fr18_280,fr18_b3).
body(r_fr18_280,fr18_d2).
body(r_fr18_280,fr5_s1).
body(r_fr18_280,fr18_z1).
head(r_fr18_281,fr13_q3).
body(r_fr18_281,fr12_d1).
body(r_fr18_281,fr18_b3).
body(r_fr18_281,fr12_d1).
body(r_fr18_281,fr18_f2).
body(r_fr18_281,fr18_v2).
head(r_fr18_282,fr13_q3).
body(r_fr18_282,fr6_d3).
body(r_fr18_282,fr19_v1).
body(r_fr18_282,fr6_r3).
body(r_fr18_282,fr18_w2).
head(r_fr18_283,fr13_q3).
body(r_fr18_283,fr18_b3).
body(r_fr18_283,fr21_p3).
body(r_fr18_283,fr21_r2).
head(r_fr18_284,fr13_q3).
body(r_fr18_284,fr25_y2).
body(r_fr18_284,fr21_r2).
body(r_fr18_284,fr18_u1).
body(r_fr18_284,fr6_y1).
body(r_fr18_284,fr18_y1).
head(r_fr18_285,fr13_q3).
body(r_fr18_285,fr12_d1).
body(r_fr18_285,fr2_a1).
body(r_fr18_285,fr8_z2).
body(r_fr18_285,fr6_t2).
body(r_fr18_285,fr25_q3).
head(r_fr18_286,fr13_q3).
body(r_fr18_286,fr18_a1).
body(r_fr18_286,fr16_f2).
body(r_fr18_286,fr6_t2).
body(r_fr18_286,fr18_r2).
body(r_fr18_286,fr21_r2).
body(r_fr18_286,fr18_y1).
head(r_fr18_287,fr13_q3).
body(r_fr18_287,fr17_d2).
body(r_fr18_287,fr2_a1).
body(r_fr18_287,fr12_d1).
head(r_fr18_288,fr13_q3).
body(r_fr18_288,fr25_y2).
body(r_fr18_288,fr5_s1).
body(r_fr18_288,fr21_p3).
body(r_fr18_288,fr18_y1).
head(r_fr18_289,fr13_q3).
head(r_fr18_290,fr13_q3).
body(r_fr18_290,fr12_d1).
body(r_fr18_290,fr12_d1).
body(r_fr18_290,fr6_d3).
body(r_fr18_290,fr16_f2).
body(r_fr18_290,fr18_f2).
head(r_fr18_291,fr13_q3).
body(r_fr18_291,fr12_d1).
body(r_fr18_291,fr6_t2).
body(r_fr18_291,fr25_q3).
body(r_fr18_291,fr5_s1).
body(r_fr18_291,fr21_r2).
head(r_fr18_292,fr21_r2).
body(r_fr18_292,fr12_d1).
body(r_fr18_292,fr21_r2).
head(r_fr18_293,fr21_r2).
body(r_fr18_293,fr18_a1).
body(r_fr18_293,fr18_v1).
body(r_fr18_293,fr6_y1).
head(r_fr18_294,fr21_r2).
body(r_fr18_294,fr12_d1).
body(r_fr18_294,fr6_d3).
body(r_fr18_294,fr12_d1).
body(r_fr18_294,fr12_d1).
head(r_fr18_295,fr21_r2).
body(r_fr18_295,fr18_f2).
head(r_fr18_296,fr21_r2).
body(r_fr18_296,fr9_b2).
body(r_fr18_296,fr11_r3).
head(r_fr18_297,fr21_r2).
body(r_fr18_297,fr18_d2).
body(r_fr18_297,fr8_z2).
body(r_fr18_297,fr18_r2).
body(r_fr18_297,fr25_y2).
body(r_fr18_297,fr6_r3).
body(r_fr18_297,fr6_y1).
head(r_fr18_298,fr21_r2).
body(r_fr18_298,fr12_d1).
body(r_fr18_298,fr19_v1).
body(r_fr18_298,fr13_q3).
body(r_fr18_298,fr5_s1).
body(r_fr18_298,fr17_x1).
head(r_fr18_299,fr21_r2).
body(r_fr18_299,fr16_d2).
body(r_fr18_299,fr12_d1).
head(r_fr18_300,fr21_r2).
body(r_fr18_300,fr17_d2).
body(r_fr18_300,fr23_z1).
head(r_fr18_301,fr21_r2).
body(r_fr18_301,fr17_d2).
body(r_fr18_301,fr12_d1).
body(r_fr18_301,fr16_d2).
body(r_fr18_301,fr18_d2).
body(r_fr18_301,fr16_f2).
head(r_fr18_302,fr21_r2).
body(r_fr18_302,fr18_y1).
head(r_fr18_303,fr21_r2).
body(r_fr18_303,fr16_f2).
body(r_fr18_303,fr17_x1).
body(r_fr18_303,fr18_y1).
head(r_fr18_304,fr21_r2).
body(r_fr18_304,fr18_z2).
head(r_fr18_305,fr21_r2).
body(r_fr18_305,fr12_d1).
body(r_fr18_305,fr9_b2).
head(r_fr18_306,fr21_r2).
body(r_fr18_306,fr12_d1).
body(r_fr18_306,fr18_r2).
body(r_fr18_306,fr18_z2).
head(r_fr18_307,fr21_r2).
head(r_fr18_308,fr21_r2).
body(r_fr18_308,fr19_v1).
body(r_fr18_308,fr18_v1).
body(r_fr18_308,fr18_w2).
body(r_fr18_308,fr21_p3).
body(r_fr18_308,fr18_z2).
head(r_fr18_309,fr21_r2).
body(r_fr18_309,fr12_d1).
body(r_fr18_309,fr12_d1).
body(r_fr18_309,fr12_d1).
body(r_fr18_309,fr17_x1).
body(r_fr18_309,fr18_w2).
head(r_fr18_310,fr21_r2).
body(r_fr18_310,fr17_d2).
body(r_fr18_310,fr18_b3).
body(r_fr18_310,fr16_d2).
body(r_fr18_310,fr12_d1).
body(r_fr18_310,fr9_b2).
body(r_fr18_310,fr18_y1).
head(r_fr18_311,fr21_r2).
body(r_fr18_311,fr16_d2).
body(r_fr18_311,fr9_b2).
body(r_fr18_311,fr12_d1).
body(r_fr18_311,fr18_f2).
body(r_fr18_311,fr6_y1).
head(r_fr18_312,fr21_p3).
head(r_fr18_313,fr21_p3).
body(r_fr18_313,fr18_a1).
body(r_fr18_313,fr12_d1).
body(r_fr18_313,fr18_d2).
body(r_fr18_313,fr23_z1).
body(r_fr18_313,fr18_r2).
head(r_fr18_314,fr21_p3).
body(r_fr18_314,fr18_d2).
body(r_fr18_314,fr6_r3).
head(r_fr18_315,fr21_p3).
body(r_fr18_315,fr12_d1).
head(r_fr18_316,fr21_p3).
body(r_fr18_316,fr12_d1).
body(r_fr18_316,fr12_d1).
body(r_fr18_316,fr6_d3).
head(r_fr18_317,fr21_p3).
body(r_fr18_317,fr18_b3).
body(r_fr18_317,fr19_v1).
body(r_fr18_317,fr23_z1).
body(r_fr18_317,fr6_r3).
body(r_fr18_317,fr18_v2).
body(r_fr18_317,fr18_w2).
head(r_fr18_318,fr21_p3).
body(r_fr18_318,fr12_d1).
body(r_fr18_318,fr8_z2).
body(r_fr18_318,fr25_y2).
body(r_fr18_318,fr18_u1).
head(r_fr18_319,fr21_p3).
body(r_fr18_319,fr12_d1).
body(r_fr18_319,fr6_d3).
body(r_fr18_319,fr18_q2).
body(r_fr18_319,fr5_s1).
body(r_fr18_319,fr18_v1).
head(r_fr18_320,fr21_p3).
body(r_fr18_320,fr19_v1).
body(r_fr18_320,fr23_z1).
body(r_fr18_320,fr18_r2).
body(r_fr18_320,fr6_r3).
body(r_fr18_320,fr18_v2).
head(r_fr18_321,fr21_p3).
body(r_fr18_321,fr16_d2).
body(r_fr18_321,fr9_b2).
body(r_fr18_321,fr16_f2).
body(r_fr18_321,fr25_q3).
body(r_fr18_321,fr21_r2).
head(r_fr18_322,fr21_p3).
body(r_fr18_322,fr18_y1).
head(r_fr18_323,fr21_p3).
body(r_fr18_323,fr6_d3).
body(r_fr18_323,fr12_d1).
body(r_fr18_323,fr16_f2).
head(r_fr18_324,fr21_p3).
body(r_fr18_324,fr2_a1).
body(r_fr18_324,fr12_d1).
body(r_fr18_324,fr19_v1).
body(r_fr18_324,fr6_r3).
body(r_fr18_324,fr18_v1).
body(r_fr18_324,fr18_y1).
head(r_fr18_325,fr21_p3).
body(r_fr18_325,fr6_y1).
head(r_fr18_326,fr21_p3).
body(r_fr18_326,fr19_v1).
head(r_fr18_327,fr21_p3).
body(r_fr18_327,fr12_d1).
body(r_fr18_327,fr18_b3).
body(r_fr18_327,fr16_d2).
body(r_fr18_327,fr12_d1).
body(r_fr18_327,fr21_r2).
body(r_fr18_327,fr5_s1).
head(r_fr18_328,fr21_p3).
body(r_fr18_328,fr17_d2).
body(r_fr18_328,fr2_a1).
body(r_fr18_328,fr6_d3).
body(r_fr18_328,fr16_f2).
head(r_fr18_329,fr21_p3).
body(r_fr18_329,fr18_b3).
body(r_fr18_329,fr6_t2).
body(r_fr18_329,fr18_u1).
body(r_fr18_329,fr5_s1).
body(r_fr18_329,fr18_v2).
body(r_fr18_329,fr18_z2).
head(r_fr18_330,fr21_p3).
body(r_fr18_330,fr17_d2).
body(r_fr18_330,fr19_v1).
body(r_fr18_330,fr18_r2).
body(r_fr18_330,fr5_s1).
body(r_fr18_330,fr18_v1).
body(r_fr18_330,fr18_v2).
head(r_fr18_331,fr21_p3).
body(r_fr18_331,fr18_a1).
body(r_fr18_331,fr12_d1).
body(r_fr18_331,fr18_d2).
body(r_fr18_331,fr16_f2).
body(r_fr18_331,fr25_y2).
body(r_fr18_331,fr21_r2).
head(r_fr18_332,fr5_s1).
body(r_fr18_332,fr6_t2).
body(r_fr18_332,fr18_q2).
body(r_fr18_332,fr11_r3).
body(r_fr18_332,fr18_r2).
head(r_fr18_333,fr5_s1).
body(r_fr18_333,fr25_q3).
head(r_fr18_334,fr5_s1).
body(r_fr18_334,fr17_d2).
body(r_fr18_334,fr12_d1).
body(r_fr18_334,fr12_d1).
head(r_fr18_335,fr5_s1).
body(r_fr18_335,fr25_q3).
body(r_fr18_335,fr25_y2).
body(r_fr18_335,fr18_v1).
head(r_fr18_336,fr5_s1).
body(r_fr18_336,fr18_v1).
head(r_fr18_337,fr5_s1).
body(r_fr18_337,fr11_r3).
body(r_fr18_337,fr21_p3).
head(r_fr18_338,fr5_s1).
body(r_fr18_338,fr19_v1).
body(r_fr18_338,fr6_t2).
body(r_fr18_338,fr21_r2).
body(r_fr18_338,fr17_x1).
body(r_fr18_338,fr18_y1).
head(r_fr18_339,fr5_s1).
head(r_fr18_340,fr5_s1).
body(r_fr18_340,fr17_d2).
head(r_fr18_341,fr5_s1).
body(r_fr18_341,fr2_a1).
body(r_fr18_341,fr6_d3).
body(r_fr18_341,fr18_d2).
body(r_fr18_341,fr12_d1).
body(r_fr18_341,fr18_f2).
head(r_fr18_342,fr5_s1).
body(r_fr18_342,fr12_d1).
body(r_fr18_342,fr18_b3).
body(r_fr18_342,fr12_d1).
body(r_fr18_342,fr11_r3).
head(r_fr18_343,fr5_s1).
body(r_fr18_343,fr12_d1).
body(r_fr18_343,fr12_d1).
body(r_fr18_343,fr23_z1).
body(r_fr18_343,fr6_t2).
body(r_fr18_343,fr13_q3).
body(r_fr18_343,fr18_z1).
head(r_fr18_344,fr5_s1).
body(r_fr18_344,fr12_d1).
body(r_fr18_344,fr17_d2).
body(r_fr18_344,fr12_d1).
body(r_fr18_344,fr18_b3).
body(r_fr18_344,fr6_d3).
head(r_fr18_345,fr5_s1).
body(r_fr18_345,fr18_a1).
body(r_fr18_345,fr12_d1).
body(r_fr18_345,fr17_d2).
body(r_fr18_345,fr12_d1).
body(r_fr18_345,fr18_f2).
head(r_fr18_346,fr5_s1).
body(r_fr18_346,fr18_b3).
body(r_fr18_346,fr9_b2).
body(r_fr18_346,fr16_f2).
body(r_fr18_346,fr18_w2).
body(r_fr18_346,fr21_p3).
body(r_fr18_346,fr18_z1).
head(r_fr18_347,fr5_s1).
body(r_fr18_347,fr19_v1).
body(r_fr18_347,fr11_r3).
body(r_fr18_347,fr18_r2).
body(r_fr18_347,fr21_r2).
body(r_fr18_347,fr18_y1).
head(r_fr18_348,fr5_s1).
body(r_fr18_348,fr8_z2).
body(r_fr18_348,fr6_t2).
body(r_fr18_348,fr18_r2).
body(r_fr18_348,fr18_v1).
body(r_fr18_348,fr18_z2).
head(r_fr18_349,fr5_s1).
body(r_fr18_349,fr25_y2).
head(r_fr18_350,fr5_s1).
body(r_fr18_350,fr18_a1).
body(r_fr18_350,fr18_q2).
body(r_fr18_350,fr18_r2).
body(r_fr18_350,fr21_p3).
head(r_fr18_351,fr5_s1).
body(r_fr18_351,fr18_q2).
head(r_fr18_352,fr18_w2).
body(r_fr18_352,fr18_a1).
body(r_fr18_352,fr2_a1).
body(r_fr18_352,fr5_s1).
head(r_fr18_353,fr18_w2).
body(r_fr18_353,fr6_d3).
body(r_fr18_353,fr12_d1).
body(r_fr18_353,fr21_r2).
head(r_fr18_354,fr18_w2).
body(r_fr18_354,fr6_r3).
body(r_fr18_354,fr5_s1).
body(r_fr18_354,fr18_z1).
head(r_fr18_355,fr18_w2).
body(r_fr18_355,fr12_d1).
body(r_fr18_355,fr12_d1).
body(r_fr18_355,fr16_d2).
body(r_fr18_355,fr12_d1).
body(r_fr18_355,fr9_b2).
body(r_fr18_355,fr16_f2).
head(r_fr18_356,fr18_w2).
body(r_fr18_356,fr18_q2).
body(r_fr18_356,fr11_r3).
body(r_fr18_356,fr21_r2).
body(r_fr18_356,fr18_u1).
body(r_fr18_356,fr5_s1).
body(r_fr18_356,fr21_p3).
head(r_fr18_357,fr18_w2).
body(r_fr18_357,fr18_a1).
body(r_fr18_357,fr12_d1).
body(r_fr18_357,fr12_d1).
body(r_fr18_357,fr12_d1).
body(r_fr18_357,fr18_d2).
body(r_fr18_357,fr16_f2).
head(r_fr18_358,fr18_w2).
body(r_fr18_358,fr17_d2).
body(r_fr18_358,fr11_r3).
body(r_fr18_358,fr25_y2).
body(r_fr18_358,fr6_y1).
head(r_fr18_359,fr18_w2).
body(r_fr18_359,fr6_d3).
head(r_fr18_360,fr18_w2).
head(r_fr18_361,fr18_w2).
body(r_fr18_361,fr18_a1).
body(r_fr18_361,fr17_d2).
body(r_fr18_361,fr2_a1).
body(r_fr18_361,fr12_d1).
body(r_fr18_361,fr18_u1).
body(r_fr18_361,fr18_z2).
head(r_fr18_362,fr18_w2).
body(r_fr18_362,fr6_y1).
head(r_fr18_363,fr18_w2).
body(r_fr18_363,fr18_a1).
body(r_fr18_363,fr12_d1).
body(r_fr18_363,fr18_b3).
body(r_fr18_363,fr6_d3).
body(r_fr18_363,fr12_d1).
body(r_fr18_363,fr18_f2).
head(r_fr18_364,fr18_w2).
body(r_fr18_364,fr16_f2).
head(r_fr18_365,fr18_w2).
body(r_fr18_365,fr23_z1).
body(r_fr18_365,fr25_y2).
head(r_fr18_366,fr18_w2).
body(r_fr18_366,fr12_d1).
body(r_fr18_366,fr18_b3).
body(r_fr18_366,fr12_d1).
body(r_fr18_366,fr16_f2).
body(r_fr18_366,fr18_f2).
body(r_fr18_366,fr25_y2).
head(r_fr18_367,fr18_w2).
body(r_fr18_367,fr6_t2).
body(r_fr18_367,fr13_q3).
body(r_fr18_367,fr17_x1).
head(r_fr18_368,fr18_w2).
body(r_fr18_368,fr9_b2).
body(r_fr18_368,fr25_q3).
head(r_fr18_369,fr18_w2).
body(r_fr18_369,fr17_x1).
head(r_fr18_370,fr18_w2).
body(r_fr18_370,fr18_a1).
body(r_fr18_370,fr18_b3).
body(r_fr18_370,fr16_d2).
body(r_fr18_370,fr16_f2).

assumption(fr12_d1).
assumption(fr10_c1).
assumption(fr19_a2).
assumption(fr19_d1).
assumption(fr12_d1).
assumption(fr19_f1).
assumption(fr19_a2).
assumption(fr11_e2).
assumption(fr20_c2).
assumption(fr19_d2).
assumption(fr19_e2).
assumption(fr19_f2).
assumption(fr17_b1).
assumption(fr19_b3).
assumption(fr19_c3).
contrary(fr12_d1,fr22_p1).
contrary(fr19_a2,fr8_u2).
contrary(fr17_b1,fr12_d1).
contrary(fr10_c1,fr19_d1).
contrary(fr11_e2,fr6_q4).
contrary(fr19_b3,fr5_s1).
contrary(fr19_a2,fr19_q4).
contrary(fr20_c2,fr19_q1).
contrary(fr19_c3,fr21_r2).
contrary(fr19_d1,fr13_q3).
contrary(fr19_d2,fr19_u3).
contrary(fr12_d1,fr19_s3).
contrary(fr19_e2,fr19_q1).
contrary(fr19_f1,fr13_q3).
contrary(fr19_f2,fr12_d1).
head(r_fr19_0,fr19_s3).
body(r_fr19_0,fr17_b1).
body(r_fr19_0,fr12_d1).
body(r_fr19_0,fr9_q1).
body(r_fr19_0,fr19_q1).
body(r_fr19_0,fr25_z1).
body(r_fr19_0,fr24_p3).
body(r_fr19_0,fr19_y1).
body(r_fr19_0,fr10_t3).
body(r_fr19_0,fr13_q3).
head(r_fr19_1,fr19_s3).
body(r_fr19_1,fr12_d1).
body(r_fr19_1,fr10_c1).
body(r_fr19_1,fr11_e2).
body(r_fr19_1,fr19_c3).
body(r_fr19_1,fr12_d1).
body(r_fr19_1,fr19_e2).
body(r_fr19_1,fr21_r2).
body(r_fr19_1,fr19_s1).
body(r_fr19_1,fr19_v3).
body(r_fr19_1,fr21_r2).
body(r_fr19_1,fr5_s1).
body(r_fr19_1,fr19_z3).
head(r_fr19_2,fr19_s3).
body(r_fr19_2,fr19_b3).
body(r_fr19_2,fr19_a2).
body(r_fr19_2,fr12_d1).
body(r_fr19_2,fr19_f1).
body(r_fr19_2,fr22_p1).
body(r_fr19_2,fr11_y1).
body(r_fr19_2,fr25_y2).
body(r_fr19_2,fr24_p3).
body(r_fr19_2,fr19_y1).
head(r_fr19_3,fr19_s3).
body(r_fr19_3,fr20_c2).
body(r_fr19_3,fr12_d1).
body(r_fr19_3,fr19_f2).
body(r_fr19_3,fr9_q1).
body(r_fr19_3,fr19_q4).
body(r_fr19_3,fr25_y2).
body(r_fr19_3,fr19_u3).
body(r_fr19_3,fr5_s1).
body(r_fr19_3,fr13_q3).
head(r_fr19_4,fr5_s1).
body(r_fr19_4,fr19_d2).
body(r_fr19_4,fr9_q1).
body(r_fr19_4,fr19_q1).
body(r_fr19_4,fr25_y2).
body(r_fr19_4,fr6_q4).
body(r_fr19_4,fr19_s1).
body(r_fr19_4,fr19_u2).
body(r_fr19_4,fr24_p3).
body(r_fr19_4,fr19_y3).
body(r_fr19_4,fr19_z2).
head(r_fr19_5,fr5_s1).
body(r_fr19_5,fr22_p1).
body(r_fr19_5,fr25_y2).
body(r_fr19_5,fr19_r2).
body(r_fr19_5,fr19_s2).
body(r_fr19_5,fr25_v1).
body(r_fr19_5,fr19_u1).
body(r_fr19_5,fr19_v1).
body(r_fr19_5,fr10_w3).
body(r_fr19_5,fr21_r2).
body(r_fr19_5,fr19_y1).
head(r_fr19_6,fr5_s1).
body(r_fr19_6,fr19_a2).
body(r_fr19_6,fr10_c1).
body(r_fr19_6,fr11_e2).
body(r_fr19_6,fr19_b3).
body(r_fr19_6,fr22_p1).
body(r_fr19_6,fr25_y2).
body(r_fr19_6,fr19_s2).
body(r_fr19_6,fr5_s1).
body(r_fr19_6,fr19_y3).
head(r_fr19_7,fr5_s1).
body(r_fr19_7,fr19_a2).
body(r_fr19_7,fr20_c2).
body(r_fr19_7,fr19_c3).
body(r_fr19_7,fr19_f1).
body(r_fr19_7,fr8_u2).
body(r_fr19_7,fr11_y1).
body(r_fr19_7,fr25_y2).
body(r_fr19_7,fr19_u1).
body(r_fr19_7,fr10_t3).
body(r_fr19_7,fr19_z2).
head(r_fr19_8,fr5_s1).
body(r_fr19_8,fr19_a2).
body(r_fr19_8,fr20_c2).
body(r_fr19_8,fr19_c3).
body(r_fr19_8,fr19_d2).
body(r_fr19_8,fr19_f1).
body(r_fr19_8,fr19_q1).
body(r_fr19_8,fr22_p1).
body(r_fr19_8,fr11_y1).
body(r_fr19_8,fr19_r2).
body(r_fr19_8,fr19_s1).
body(r_fr19_8,fr10_w3).
body(r_fr19_8,fr19_z2).
head(r_fr19_9,fr19_r2).
body(r_fr19_9,fr12_d1).
body(r_fr19_9,fr19_e2).
body(r_fr19_9,fr19_f1).
body(r_fr19_9,fr9_q1).
body(r_fr19_9,fr8_u2).
body(r_fr19_9,fr11_y1).
body(r_fr19_9,fr19_s3).
body(r_fr19_9,fr25_y2).
body(r_fr19_9,fr19_z3).
head(r_fr19_10,fr19_r2).
body(r_fr19_10,fr10_c1).
body(r_fr19_10,fr12_d1).
body(r_fr19_10,fr19_f1).
body(r_fr19_10,fr19_s1).
body(r_fr19_10,fr25_z1).
body(r_fr19_10,fr19_u2).
body(r_fr19_10,fr19_u3).
body(r_fr19_10,fr10_w3).
body(r_fr19_10,fr21_r2).
body(r_fr19_10,fr19_y1).
head(r_fr19_11,fr19_r2).
body(r_fr19_11,fr19_d1).
body(r_fr19_11,fr8_u2).
body(r_fr19_11,fr25_y2).
body(r_fr19_11,fr19_s1).
body(r_fr19_11,fr25_v1).
body(r_fr19_11,fr19_u2).
body(r_fr19_11,fr19_v1).
body(r_fr19_11,fr19_v3).
body(r_fr19_11,fr21_p3).
body(r_fr19_11,fr19_z3).
head(r_fr19_12,fr19_u3).
body(r_fr19_12,fr19_c3).
body(r_fr19_12,fr19_p3).
body(r_fr19_12,fr11_y1).
body(r_fr19_12,fr6_q4).
body(r_fr19_12,fr19_s1).
body(r_fr19_12,fr19_s2).
body(r_fr19_12,fr25_z1).
body(r_fr19_12,fr19_u1).
body(r_fr19_12,fr5_s1).
body(r_fr19_12,fr21_r2).
body(r_fr19_12,fr21_p3).
body(r_fr19_12,fr10_t3).
head(r_fr19_13,fr19_u3).
body(r_fr19_13,fr17_b1).
body(r_fr19_13,fr19_d1).
body(r_fr19_13,fr19_e2).
body(r_fr19_13,fr8_u2).
body(r_fr19_13,fr22_p1).
body(r_fr19_13,fr11_y1).
body(r_fr19_13,fr19_q4).
body(r_fr19_13,fr25_v1).
body(r_fr19_13,fr21_p3).
body(r_fr19_13,fr19_y1).
body(r_fr19_13,fr19_y3).
head(r_fr19_14,fr19_u3).
body(r_fr19_14,fr19_p3).
body(r_fr19_14,fr19_q1).
body(r_fr19_14,fr11_y1).
body(r_fr19_14,fr25_y2).
body(r_fr19_14,fr19_s3).
body(r_fr19_14,fr25_z1).
body(r_fr19_14,fr25_v1).
body(r_fr19_14,fr19_v3).
body(r_fr19_14,fr19_w1).
body(r_fr19_14,fr19_y1).
body(r_fr19_14,fr19_y3).
body(r_fr19_14,fr19_z2).
head(r_fr19_15,fr19_u3).
body(r_fr19_15,fr19_q1).
body(r_fr19_15,fr11_y1).
body(r_fr19_15,fr6_q4).
body(r_fr19_15,fr19_s2).
body(r_fr19_15,fr19_s3).
body(r_fr19_15,fr25_y2).
body(r_fr19_15,fr25_v1).
body(r_fr19_15,fr19_u1).
body(r_fr19_15,fr19_u2).
body(r_fr19_15,fr19_v1).
body(r_fr19_15,fr5_s1).
body(r_fr19_15,fr13_q3).
head(r_fr19_16,fr19_u3).
body(r_fr19_16,fr12_d1).
body(r_fr19_16,fr19_f1).
body(r_fr19_16,fr9_q1).
body(r_fr19_16,fr11_y1).
body(r_fr19_16,fr19_q4).
body(r_fr19_16,fr19_s1).
body(r_fr19_16,fr19_s3).
body(r_fr19_16,fr19_u1).
body(r_fr19_16,fr21_p3).
body(r_fr19_16,fr13_q3).
head(r_fr19_17,fr10_w3).
body(r_fr19_17,fr17_b1).
body(r_fr19_17,fr19_b3).
body(r_fr19_17,fr20_c2).
body(r_fr19_17,fr19_e2).
body(r_fr19_17,fr9_q1).
body(r_fr19_17,fr8_u2).
body(r_fr19_17,fr22_p1).
body(r_fr19_17,fr19_u3).
body(r_fr19_17,fr19_w1).
head(r_fr19_18,fr10_w3).
body(r_fr19_18,fr19_d1).
body(r_fr19_18,fr8_u2).
body(r_fr19_18,fr21_r2).
body(r_fr19_18,fr22_p1).
body(r_fr19_18,fr19_s1).
body(r_fr19_18,fr19_s2).
body(r_fr19_18,fr19_s3).
body(r_fr19_18,fr19_u1).
body(r_fr19_18,fr19_u2).
body(r_fr19_18,fr19_y1).
body(r_fr19_18,fr19_y3).
body(r_fr19_18,fr19_z2).
head(r_fr19_19,fr10_w3).
body(r_fr19_19,fr12_d1).
body(r_fr19_19,fr8_u2).
body(r_fr19_19,fr19_s3).
body(r_fr19_19,fr25_z1).
body(r_fr19_19,fr25_v1).
body(r_fr19_19,fr19_u1).
body(r_fr19_19,fr19_v1).
body(r_fr19_19,fr21_r2).
body(r_fr19_19,fr10_t3).
body(r_fr19_19,fr13_q3).
head(r_fr19_20,fr10_t3).
body(r_fr19_20,fr19_a2).
body(r_fr19_20,fr11_y1).
body(r_fr19_20,fr19_s1).
body(r_fr19_20,fr25_z1).
body(r_fr19_20,fr19_u3).
body(r_fr19_20,fr19_v1).
body(r_fr19_20,fr19_w1).
body(r_fr19_20,fr24_p3).
body(r_fr19_20,fr21_r2).
body(r_fr19_20,fr19_y3).
head(r_fr19_21,fr10_t3).
body(r_fr19_21,fr12_d1).
body(r_fr19_21,fr17_b1).
body(r_fr19_21,fr19_c3).
body(r_fr19_21,fr19_d1).
body(r_fr19_21,fr19_r2).
body(r_fr19_21,fr25_y2).
body(r_fr19_21,fr19_u2).
body(r_fr19_21,fr19_v1).
body(r_fr19_21,fr10_w3).
body(r_fr19_21,fr24_p3).
body(r_fr19_21,fr21_r2).
head(r_fr19_22,fr10_t3).
body(r_fr19_22,fr20_c2).
body(r_fr19_22,fr12_d1).
body(r_fr19_22,fr19_e2).
body(r_fr19_22,fr19_f2).
body(r_fr19_22,fr21_r2).
body(r_fr19_22,fr25_y2).
body(r_fr19_22,fr19_s1).
body(r_fr19_22,fr19_u1).
body(r_fr19_22,fr19_v1).
body(r_fr19_22,fr24_p3).
body(r_fr19_22,fr13_q3).
head(r_fr19_23,fr10_t3).
body(r_fr19_23,fr19_b3).
body(r_fr19_23,fr19_d2).
body(r_fr19_23,fr8_u2).
body(r_fr19_23,fr19_p3).
body(r_fr19_23,fr19_q4).
body(r_fr19_23,fr19_r2).
body(r_fr19_23,fr6_q4).
body(r_fr19_23,fr19_s2).
body(r_fr19_23,fr19_s3).
body(r_fr19_23,fr19_u1).
body(r_fr19_23,fr19_u3).
head(r_fr19_24,fr25_z1).
body(r_fr19_24,fr10_c1).
body(r_fr19_24,fr19_e2).
body(r_fr19_24,fr8_u2).
body(r_fr19_24,fr21_r2).
body(r_fr19_24,fr11_y1).
body(r_fr19_24,fr19_s1).
body(r_fr19_24,fr19_s2).
body(r_fr19_24,fr10_w3).
body(r_fr19_24,fr5_s1).
body(r_fr19_24,fr19_y1).
body(r_fr19_24,fr19_y3).
body(r_fr19_24,fr19_z3).
head(r_fr19_25,fr25_z1).
body(r_fr19_25,fr12_d1).
body(r_fr19_25,fr12_d1).
body(r_fr19_25,fr21_r2).
body(r_fr19_25,fr22_p1).
body(r_fr19_25,fr19_q4).
body(r_fr19_25,fr25_y2).
body(r_fr19_25,fr24_p3).
body(r_fr19_25,fr19_y1).
body(r_fr19_25,fr10_t3).
body(r_fr19_25,fr13_q3).
head(r_fr19_26,fr25_z1).
body(r_fr19_26,fr20_c2).
body(r_fr19_26,fr8_u2).
body(r_fr19_26,fr19_p3).
body(r_fr19_26,fr22_p1).
body(r_fr19_26,fr25_y2).
body(r_fr19_26,fr6_q4).
body(r_fr19_26,fr19_v3).
body(r_fr19_26,fr19_y1).
body(r_fr19_26,fr13_q3).
head(r_fr19_27,fr25_z1).
body(r_fr19_27,fr8_u2).
body(r_fr19_27,fr25_y2).
body(r_fr19_27,fr19_u1).
body(r_fr19_27,fr19_u2).
body(r_fr19_27,fr5_s1).
body(r_fr19_27,fr19_v3).
body(r_fr19_27,fr24_p3).
body(r_fr19_27,fr5_s1).
body(r_fr19_27,fr19_z3).
head(r_fr19_28,fr25_z1).
body(r_fr19_28,fr20_c2).
body(r_fr19_28,fr12_d1).
body(r_fr19_28,fr19_f2).
body(r_fr19_28,fr9_q1).
body(r_fr19_28,fr21_r2).
body(r_fr19_28,fr19_q1).
body(r_fr19_28,fr6_q4).
body(r_fr19_28,fr19_s1).
body(r_fr19_28,fr5_s1).
body(r_fr19_28,fr19_y1).
body(r_fr19_28,fr10_t3).
body(r_fr19_28,fr19_z2).
head(r_fr19_29,fr19_y1).
body(r_fr19_29,fr9_q1).
body(r_fr19_29,fr21_r2).
body(r_fr19_29,fr11_y1).
body(r_fr19_29,fr25_y2).
body(r_fr19_29,fr25_v1).
body(r_fr19_29,fr19_u3).
body(r_fr19_29,fr5_s1).
body(r_fr19_29,fr13_q3).
body(r_fr19_29,fr19_z3).
head(r_fr19_30,fr19_y1).
body(r_fr19_30,fr20_c2).
body(r_fr19_30,fr19_d2).
body(r_fr19_30,fr19_f2).
body(r_fr19_30,fr8_u2).
body(r_fr19_30,fr19_q1).
body(r_fr19_30,fr11_y1).
body(r_fr19_30,fr19_s2).
body(r_fr19_30,fr19_s3).
body(r_fr19_30,fr19_v3).
body(r_fr19_30,fr19_z2).
body(r_fr19_30,fr19_z3).
head(r_fr19_31,fr19_y1).
body(r_fr19_31,fr10_c1).
body(r_fr19_31,fr19_p3).
body(r_fr19_31,fr19_q1).
body(r_fr19_31,fr19_q4).
body(r_fr19_31,fr19_s2).
body(r_fr19_31,fr19_s3).
body(r_fr19_31,fr19_u1).
body(r_fr19_31,fr19_u2).
body(r_fr19_31,fr19_w1).
body(r_fr19_31,fr19_z2).
body(r_fr19_31,fr19_z3).
head(r_fr19_32,fr19_y1).
body(r_fr19_32,fr10_c1).
body(r_fr19_32,fr19_b3).
body(r_fr19_32,fr19_a2).
body(r_fr19_32,fr19_d1).
body(r_fr19_32,fr19_f1).
body(r_fr19_32,fr19_f2).
body(r_fr19_32,fr19_p3).
body(r_fr19_32,fr21_r2).
body(r_fr19_32,fr25_y2).
body(r_fr19_32,fr19_u1).
body(r_fr19_32,fr5_s1).
body(r_fr19_32,fr21_p3).
head(r_fr19_33,fr19_y1).
body(r_fr19_33,fr9_q1).
body(r_fr19_33,fr8_u2).
body(r_fr19_33,fr19_p3).
body(r_fr19_33,fr21_r2).
body(r_fr19_33,fr19_q1).
body(r_fr19_33,fr11_y1).
body(r_fr19_33,fr19_s2).
body(r_fr19_33,fr19_s3).
body(r_fr19_33,fr19_v1).
body(r_fr19_33,fr19_w1).
body(r_fr19_33,fr10_t3).
head(r_fr19_34,fr22_p1).
body(r_fr19_34,fr11_e2).
body(r_fr19_34,fr19_a2).
body(r_fr19_34,fr12_d1).
body(r_fr19_34,fr19_e2).
body(r_fr19_34,fr8_u2).
body(r_fr19_34,fr21_r2).
body(r_fr19_34,fr25_y2).
body(r_fr19_34,fr19_v3).
body(r_fr19_34,fr5_s1).
head(r_fr19_35,fr22_p1).
body(r_fr19_35,fr10_c1).
body(r_fr19_35,fr19_c3).
body(r_fr19_35,fr19_d2).
body(r_fr19_35,fr12_d1).
body(r_fr19_35,fr19_e2).
body(r_fr19_35,fr25_y2).
body(r_fr19_35,fr6_q4).
body(r_fr19_35,fr25_v1).
body(r_fr19_35,fr21_p3).
head(r_fr19_36,fr22_p1).
body(r_fr19_36,fr11_e2).
body(r_fr19_36,fr19_a2).
body(r_fr19_36,fr9_q1).
body(r_fr19_36,fr19_q1).
body(r_fr19_36,fr25_y2).
body(r_fr19_36,fr19_s1).
body(r_fr19_36,fr19_s2).
body(r_fr19_36,fr25_v1).
body(r_fr19_36,fr24_p3).
body(r_fr19_36,fr19_y1).
body(r_fr19_36,fr19_z2).
head(r_fr19_37,fr25_y2).
body(r_fr19_37,fr12_d1).
body(r_fr19_37,fr19_a2).
body(r_fr19_37,fr19_d2).
body(r_fr19_37,fr19_r2).
body(r_fr19_37,fr19_u2).
body(r_fr19_37,fr19_v1).
body(r_fr19_37,fr19_v3).
body(r_fr19_37,fr24_p3).
body(r_fr19_37,fr13_q3).
body(r_fr19_37,fr19_z2).
head(r_fr19_38,fr25_y2).
body(r_fr19_38,fr19_a2).
body(r_fr19_38,fr17_b1).
body(r_fr19_38,fr19_a2).
body(r_fr19_38,fr19_c3).
body(r_fr19_38,fr19_d2).
body(r_fr19_38,fr12_d1).
body(r_fr19_38,fr8_u2).
body(r_fr19_38,fr19_u2).
body(r_fr19_38,fr21_p3).
head(r_fr19_39,fr25_y2).
body(r_fr19_39,fr12_d1).
body(r_fr19_39,fr17_b1).
body(r_fr19_39,fr19_a2).
body(r_fr19_39,fr19_f2).
body(r_fr19_39,fr8_u2).
body(r_fr19_39,fr22_p1).
body(r_fr19_39,fr6_q4).
body(r_fr19_39,fr25_v1).
body(r_fr19_39,fr19_v3).
body(r_fr19_39,fr10_t3).
head(r_fr19_40,fr25_y2).
body(r_fr19_40,fr17_b1).
body(r_fr19_40,fr10_c1).
body(r_fr19_40,fr20_c2).
body(r_fr19_40,fr19_c3).
body(r_fr19_40,fr19_d1).
body(r_fr19_40,fr12_d1).
body(r_fr19_40,fr6_q4).
body(r_fr19_40,fr19_u1).
body(r_fr19_40,fr19_v3).
body(r_fr19_40,fr19_w1).
body(r_fr19_40,fr5_s1).
body(r_fr19_40,fr21_p3).
head(r_fr19_41,fr21_r2).
body(r_fr19_41,fr19_p3).
body(r_fr19_41,fr11_y1).
body(r_fr19_41,fr19_q4).
body(r_fr19_41,fr6_q4).
body(r_fr19_41,fr19_s3).
body(r_fr19_41,fr19_v1).
body(r_fr19_41,fr19_y3).
body(r_fr19_41,fr13_q3).
body(r_fr19_41,fr19_z2).
head(r_fr19_42,fr21_r2).
body(r_fr19_42,fr25_y2).
body(r_fr19_42,fr19_s2).
body(r_fr19_42,fr19_u1).
body(r_fr19_42,fr19_v1).
body(r_fr19_42,fr24_p3).
body(r_fr19_42,fr21_r2).
body(r_fr19_42,fr19_y3).
body(r_fr19_42,fr13_q3).
body(r_fr19_42,fr19_z2).
head(r_fr19_43,fr21_r2).
body(r_fr19_43,fr19_b3).
body(r_fr19_43,fr19_d1).
body(r_fr19_43,fr19_f2).
body(r_fr19_43,fr9_q1).
body(r_fr19_43,fr19_p3).
body(r_fr19_43,fr22_p1).
body(r_fr19_43,fr25_y2).
body(r_fr19_43,fr19_r2).
body(r_fr19_43,fr25_v1).
body(r_fr19_43,fr19_u2).
head(r_fr19_44,fr19_z2).
body(r_fr19_44,fr9_q1).
body(r_fr19_44,fr25_y2).
body(r_fr19_44,fr6_q4).
body(r_fr19_44,fr19_s3).
body(r_fr19_44,fr25_z1).
body(r_fr19_44,fr25_v1).
body(r_fr19_44,fr21_p3).
body(r_fr19_44,fr19_y1).
body(r_fr19_44,fr10_t3).
body(r_fr19_44,fr19_y3).
head(r_fr19_45,fr19_z2).
body(r_fr19_45,fr19_a2).
body(r_fr19_45,fr10_c1).
body(r_fr19_45,fr19_a2).
body(r_fr19_45,fr20_c2).
body(r_fr19_45,fr19_c3).
body(r_fr19_45,fr12_d1).
body(r_fr19_45,fr21_r2).
body(r_fr19_45,fr22_p1).
body(r_fr19_45,fr11_y1).
body(r_fr19_45,fr6_q4).
body(r_fr19_45,fr19_v1).
body(r_fr19_45,fr24_p3).
head(r_fr19_46,fr19_z2).
body(r_fr19_46,fr9_q1).
body(r_fr19_46,fr22_p1).
body(r_fr19_46,fr19_r2).
body(r_fr19_46,fr6_q4).
body(r_fr19_46,fr19_s3).
body(r_fr19_46,fr25_y2).
body(r_fr19_46,fr19_u1).
body(r_fr19_46,fr10_w3).
body(r_fr19_46,fr5_s1).
body(r_fr19_46,fr13_q3).
head(r_fr19_47,fr21_r2).
body(r_fr19_47,fr12_d1).
body(r_fr19_47,fr19_a2).
body(r_fr19_47,fr19_c3).
body(r_fr19_47,fr8_u2).
body(r_fr19_47,fr19_r2).
body(r_fr19_47,fr25_y2).
body(r_fr19_47,fr5_s1).
body(r_fr19_47,fr19_w1).
body(r_fr19_47,fr21_p3).
body(r_fr19_47,fr19_y1).
body(r_fr19_47,fr19_y3).
body(r_fr19_47,fr19_z3).
head(r_fr19_48,fr21_r2).
body(r_fr19_48,fr10_c1).
body(r_fr19_48,fr8_u2).
body(r_fr19_48,fr19_p3).
body(r_fr19_48,fr22_p1).
body(r_fr19_48,fr19_s2).
body(r_fr19_48,fr25_y2).
body(r_fr19_48,fr25_v1).
body(r_fr19_48,fr19_w1).
body(r_fr19_48,fr5_s1).
body(r_fr19_48,fr21_p3).
head(r_fr19_49,fr21_r2).
body(r_fr19_49,fr12_d1).
body(r_fr19_49,fr19_d2).
body(r_fr19_49,fr19_f1).
body(r_fr19_49,fr6_q4).
body(r_fr19_49,fr25_y2).
body(r_fr19_49,fr19_u1).
body(r_fr19_49,fr19_u2).
body(r_fr19_49,fr5_s1).
body(r_fr19_49,fr21_p3).
body(r_fr19_49,fr19_y1).
body(r_fr19_49,fr19_z2).
body(r_fr19_49,fr19_z3).
head(r_fr19_50,fr19_u2).
body(r_fr19_50,fr10_c1).
body(r_fr19_50,fr19_a2).
body(r_fr19_50,fr19_e2).
body(r_fr19_50,fr25_y2).
body(r_fr19_50,fr6_q4).
body(r_fr19_50,fr19_u3).
body(r_fr19_50,fr5_s1).
body(r_fr19_50,fr24_p3).
body(r_fr19_50,fr5_s1).
head(r_fr19_51,fr19_u2).
body(r_fr19_51,fr10_c1).
body(r_fr19_51,fr19_d1).
body(r_fr19_51,fr19_d2).
body(r_fr19_51,fr12_d1).
body(r_fr19_51,fr19_f1).
body(r_fr19_51,fr9_q1).
body(r_fr19_51,fr11_y1).
body(r_fr19_51,fr19_s1).
body(r_fr19_51,fr19_s3).
body(r_fr19_51,fr25_y2).
body(r_fr19_51,fr19_w1).
body(r_fr19_51,fr21_r2).
head(r_fr19_52,fr19_u2).
body(r_fr19_52,fr12_d1).
body(r_fr19_52,fr10_c1).
body(r_fr19_52,fr20_c2).
body(r_fr19_52,fr21_r2).
body(r_fr19_52,fr19_q4).
body(r_fr19_52,fr19_s2).
body(r_fr19_52,fr25_y2).
body(r_fr19_52,fr19_v3).
body(r_fr19_52,fr5_s1).
body(r_fr19_52,fr19_y1).
body(r_fr19_52,fr13_q3).
head(r_fr19_53,fr19_u2).
body(r_fr19_53,fr12_d1).
body(r_fr19_53,fr19_a2).
body(r_fr19_53,fr17_b1).
body(r_fr19_53,fr19_b3).
body(r_fr19_53,fr22_p1).
body(r_fr19_53,fr19_r2).
body(r_fr19_53,fr19_s1).
body(r_fr19_53,fr25_z1).
body(r_fr19_53,fr19_w1).
body(r_fr19_53,fr10_w3).
body(r_fr19_53,fr19_z3).
head(r_fr19_54,fr19_u2).
body(r_fr19_54,fr20_c2).
body(r_fr19_54,fr19_d2).
body(r_fr19_54,fr19_f1).
body(r_fr19_54,fr21_r2).
body(r_fr19_54,fr6_q4).
body(r_fr19_54,fr25_v1).
body(r_fr19_54,fr19_u1).
body(r_fr19_54,fr19_v1).
body(r_fr19_54,fr19_w1).
body(r_fr19_54,fr10_w3).
head(r_fr19_55,fr19_q4).
body(r_fr19_55,fr12_d1).
body(r_fr19_55,fr17_b1).
body(r_fr19_55,fr19_c3).
body(r_fr19_55,fr19_e2).
body(r_fr19_55,fr21_r2).
body(r_fr19_55,fr25_v1).
body(r_fr19_55,fr19_v3).
body(r_fr19_55,fr10_w3).
body(r_fr19_55,fr24_p3).
body(r_fr19_55,fr13_q3).
head(r_fr19_56,fr19_q4).
body(r_fr19_56,fr22_p1).
body(r_fr19_56,fr25_y2).
body(r_fr19_56,fr19_s3).
body(r_fr19_56,fr25_z1).
body(r_fr19_56,fr19_v1).
body(r_fr19_56,fr5_s1).
body(r_fr19_56,fr19_v3).
body(r_fr19_56,fr19_w1).
body(r_fr19_56,fr10_w3).
body(r_fr19_56,fr24_p3).
body(r_fr19_56,fr21_p3).
body(r_fr19_56,fr19_z3).
head(r_fr19_57,fr19_q4).
body(r_fr19_57,fr17_b1).
body(r_fr19_57,fr19_d2).
body(r_fr19_57,fr19_q1).
body(r_fr19_57,fr19_r2).
body(r_fr19_57,fr19_s2).
body(r_fr19_57,fr19_u2).
body(r_fr19_57,fr19_v1).
body(r_fr19_57,fr5_s1).
body(r_fr19_57,fr21_p3).
head(r_fr19_58,fr21_p3).
body(r_fr19_58,fr12_d1).
body(r_fr19_58,fr19_d1).
body(r_fr19_58,fr19_q4).
body(r_fr19_58,fr25_y2).
body(r_fr19_58,fr6_q4).
body(r_fr19_58,fr19_s1).
body(r_fr19_58,fr19_s3).
body(r_fr19_58,fr19_u1).
body(r_fr19_58,fr5_s1).
head(r_fr19_59,fr21_p3).
body(r_fr19_59,fr19_p3).
body(r_fr19_59,fr11_y1).
body(r_fr19_59,fr6_q4).
body(r_fr19_59,fr19_s2).
body(r_fr19_59,fr19_s3).
body(r_fr19_59,fr19_v1).
body(r_fr19_59,fr19_w1).
body(r_fr19_59,fr10_w3).
body(r_fr19_59,fr19_y1).
body(r_fr19_59,fr13_q3).
body(r_fr19_59,fr19_z2).
head(r_fr19_60,fr21_p3).
body(r_fr19_60,fr12_d1).
body(r_fr19_60,fr19_a2).
body(r_fr19_60,fr19_e2).
body(r_fr19_60,fr8_u2).
body(r_fr19_60,fr19_q1).
body(r_fr19_60,fr19_q4).
body(r_fr19_60,fr6_q4).
body(r_fr19_60,fr19_s1).
body(r_fr19_60,fr25_z1).
body(r_fr19_60,fr19_v1).
body(r_fr19_60,fr13_q3).
head(r_fr19_61,fr21_p3).
body(r_fr19_61,fr11_e2).
body(r_fr19_61,fr19_b3).
body(r_fr19_61,fr8_u2).
body(r_fr19_61,fr25_y2).
body(r_fr19_61,fr19_r2).
body(r_fr19_61,fr19_s2).
body(r_fr19_61,fr25_v1).
body(r_fr19_61,fr19_u2).
body(r_fr19_61,fr10_w3).
body(r_fr19_61,fr19_y1).
body(r_fr19_61,fr19_z2).
body(r_fr19_61,fr19_z3).
head(r_fr19_62,fr9_q1).
body(r_fr19_62,fr11_e2).
body(r_fr19_62,fr19_a2).
body(r_fr19_62,fr19_d1).
body(r_fr19_62,fr22_p1).
body(r_fr19_62,fr25_y2).
body(r_fr19_62,fr25_y2).
body(r_fr19_62,fr25_z1).
body(r_fr19_62,fr19_v1).
body(r_fr19_62,fr19_w1).
body(r_fr19_62,fr21_r2).
body(r_fr19_62,fr19_z3).
head(r_fr19_63,fr9_q1).
body(r_fr19_63,fr19_f1).
body(r_fr19_63,fr19_p3).
body(r_fr19_63,fr21_r2).
body(r_fr19_63,fr19_s1).
body(r_fr19_63,fr19_s2).
body(r_fr19_63,fr25_v1).
body(r_fr19_63,fr19_u1).
body(r_fr19_63,fr19_u2).
body(r_fr19_63,fr10_w3).
body(r_fr19_63,fr19_z3).
head(r_fr19_64,fr9_q1).
body(r_fr19_64,fr12_d1).
body(r_fr19_64,fr19_b3).
body(r_fr19_64,fr19_d2).
body(r_fr19_64,fr19_f2).
body(r_fr19_64,fr6_q4).
body(r_fr19_64,fr19_s1).
body(r_fr19_64,fr19_s2).
body(r_fr19_64,fr25_z1).
body(r_fr19_64,fr19_u1).
body(r_fr19_64,fr19_u3).
head(r_fr19_65,fr6_q4).
body(r_fr19_65,fr17_b1).
body(r_fr19_65,fr19_a2).
body(r_fr19_65,fr19_d1).
body(r_fr19_65,fr19_d2).
body(r_fr19_65,fr12_d1).
body(r_fr19_65,fr19_r2).
body(r_fr19_65,fr19_s1).
body(r_fr19_65,fr25_y2).
body(r_fr19_65,fr10_w3).
head(r_fr19_66,fr6_q4).
body(r_fr19_66,fr12_d1).
body(r_fr19_66,fr19_f2).
body(r_fr19_66,fr19_q4).
body(r_fr19_66,fr19_r2).
body(r_fr19_66,fr19_u1).
body(r_fr19_66,fr19_u2).
body(r_fr19_66,fr5_s1).
body(r_fr19_66,fr5_s1).
body(r_fr19_66,fr10_t3).
head(r_fr19_67,fr6_q4).
body(r_fr19_67,fr12_d1).
body(r_fr19_67,fr19_a2).
body(r_fr19_67,fr11_e2).
body(r_fr19_67,fr19_d1).
body(r_fr19_67,fr19_q4).
body(r_fr19_67,fr25_y2).
body(r_fr19_67,fr19_s2).
body(r_fr19_67,fr25_v1).
body(r_fr19_67,fr19_u1).
body(r_fr19_67,fr19_u3).
body(r_fr19_67,fr19_v3).
body(r_fr19_67,fr19_z2).
head(r_fr19_68,fr6_q4).
body(r_fr19_68,fr17_b1).
body(r_fr19_68,fr19_b3).
body(r_fr19_68,fr19_a2).
body(r_fr19_68,fr19_c3).
body(r_fr19_68,fr19_d2).
body(r_fr19_68,fr19_e2).
body(r_fr19_68,fr19_s1).
body(r_fr19_68,fr19_s3).
body(r_fr19_68,fr19_y1).
body(r_fr19_68,fr19_z2).
head(r_fr19_69,fr19_w1).
body(r_fr19_69,fr9_q1).
body(r_fr19_69,fr19_p3).
body(r_fr19_69,fr19_q1).
body(r_fr19_69,fr11_y1).
body(r_fr19_69,fr19_r2).
body(r_fr19_69,fr19_s3).
body(r_fr19_69,fr25_v1).
body(r_fr19_69,fr10_w3).
body(r_fr19_69,fr24_p3).
body(r_fr19_69,fr21_r2).
body(r_fr19_69,fr19_y3).
body(r_fr19_69,fr19_z2).
head(r_fr19_70,fr19_w1).
body(r_fr19_70,fr12_d1).
body(r_fr19_70,fr19_a2).
body(r_fr19_70,fr10_c1).
body(r_fr19_70,fr19_b3).
body(r_fr19_70,fr19_c3).
body(r_fr19_70,fr19_d2).
body(r_fr19_70,fr19_s1).
body(r_fr19_70,fr19_u3).
body(r_fr19_70,fr21_p3).
body(r_fr19_70,fr10_t3).
head(r_fr19_71,fr19_w1).
body(r_fr19_71,fr19_p3).
body(r_fr19_71,fr25_y2).
body(r_fr19_71,fr19_s1).
body(r_fr19_71,fr19_s3).
body(r_fr19_71,fr25_y2).
body(r_fr19_71,fr25_v1).
body(r_fr19_71,fr19_u2).
body(r_fr19_71,fr19_u3).
body(r_fr19_71,fr5_s1).
body(r_fr19_71,fr19_v3).
body(r_fr19_71,fr5_s1).
body(r_fr19_71,fr19_y1).
head(r_fr19_72,fr19_w1).
body(r_fr19_72,fr21_r2).
body(r_fr19_72,fr22_p1).
body(r_fr19_72,fr25_y2).
body(r_fr19_72,fr19_s2).
body(r_fr19_72,fr19_s3).
body(r_fr19_72,fr25_y2).
body(r_fr19_72,fr19_v1).
body(r_fr19_72,fr10_w3).
body(r_fr19_72,fr21_r2).
body(r_fr19_72,fr19_y1).
head(r_fr19_73,fr19_w1).
body(r_fr19_73,fr8_u2).
body(r_fr19_73,fr19_p3).
body(r_fr19_73,fr19_q1).
body(r_fr19_73,fr22_p1).
body(r_fr19_73,fr25_y2).
body(r_fr19_73,fr19_s3).
body(r_fr19_73,fr19_v1).
body(r_fr19_73,fr5_s1).
body(r_fr19_73,fr21_r2).
body(r_fr19_73,fr5_s1).
body(r_fr19_73,fr19_z2).
body(r_fr19_73,fr19_z3).
head(r_fr19_74,fr19_z3).
body(r_fr19_74,fr19_a2).
body(r_fr19_74,fr19_a2).
body(r_fr19_74,fr19_d1).
body(r_fr19_74,fr19_p3).
body(r_fr19_74,fr21_r2).
body(r_fr19_74,fr25_y2).
body(r_fr19_74,fr19_s2).
body(r_fr19_74,fr19_s3).
body(r_fr19_74,fr25_z1).
body(r_fr19_74,fr19_u3).
body(r_fr19_74,fr5_s1).
body(r_fr19_74,fr19_y3).
head(r_fr19_75,fr19_z3).
body(r_fr19_75,fr19_d1).
body(r_fr19_75,fr9_q1).
body(r_fr19_75,fr19_p3).
body(r_fr19_75,fr21_r2).
body(r_fr19_75,fr19_r2).
body(r_fr19_75,fr19_u2).
body(r_fr19_75,fr19_v1).
body(r_fr19_75,fr5_s1).
body(r_fr19_75,fr19_v3).
body(r_fr19_75,fr5_s1).
body(r_fr19_75,fr13_q3).
head(r_fr19_76,fr19_z3).
body(r_fr19_76,fr19_d1).
body(r_fr19_76,fr12_d1).
body(r_fr19_76,fr19_f1).
body(r_fr19_76,fr8_u2).
body(r_fr19_76,fr22_p1).
body(r_fr19_76,fr19_s3).
body(r_fr19_76,fr25_z1).
body(r_fr19_76,fr19_w1).
body(r_fr19_76,fr10_w3).
body(r_fr19_76,fr21_p3).

assumption(fr20_a1).
assumption(fr20_b1).
assumption(fr22_e1).
assumption(fr13_b1).
assumption(fr20_e1).
assumption(fr17_d2).
assumption(fr20_a2).
assumption(fr20_b2).
assumption(fr20_c2).
assumption(fr20_d2).
assumption(fr12_d1).
assumption(fr10_c1).
assumption(fr10_e1).
assumption(fr9_c3).
assumption(fr17_d2).
assumption(fr11_e2).
assumption(fr20_e3).
assumption(fr20_f3).
assumption(fr12_d1).
assumption(fr20_b4).
assumption(fr12_d1).
assumption(fr17_d2).
assumption(fr12_d1).
assumption(fr12_d1).
contrary(fr20_a1,fr20_s4).
contrary(fr20_a2,fr2_y3).
contrary(fr10_e1,fr20_q4).
contrary(fr12_d1,fr20_r1).
contrary(fr20_b1,fr20_p1).
contrary(fr20_b2,fr20_v4).
contrary(fr9_c3,fr23_z1).
contrary(fr20_b4,fr20_u1).
contrary(fr22_e1,fr20_u1).
contrary(fr20_c2,fr20_b2).
contrary(fr17_d2,fr20_v1).
contrary(fr12_d1,fr20_e3).
contrary(fr13_b1,fr12_d1).
contrary(fr20_d2,fr20_c2).
contrary(fr11_e2,fr20_b4).
contrary(fr17_d2,fr20_z3).
contrary(fr20_e1,fr20_y2).
contrary(fr12_d1,fr17_d2).
contrary(fr20_e3,fr24_y2).
contrary(fr12_d1,fr11_e2).
contrary(fr17_d2,fr20_v1).
contrary(fr10_c1,fr13_b1).
contrary(fr20_f3,fr12_d1).
contrary(fr12_d1,fr16_q3).
head(r_fr20_0,fr20_p2).
body(r_fr20_0,fr23_z1).
body(r_fr20_0,fr20_t2).
body(r_fr20_0,fr24_y2).
body(r_fr20_0,fr20_w1).
head(r_fr20_1,fr20_p2).
body(r_fr20_1,fr20_a2).
body(r_fr20_1,fr12_d1).
body(r_fr20_1,fr20_d2).
body(r_fr20_1,fr12_d1).
body(r_fr20_1,fr20_e3).
body(r_fr20_1,fr12_d1).
body(r_fr20_1,fr10_c1).
head(r_fr20_2,fr20_p2).
body(r_fr20_2,fr2_y3).
body(r_fr20_2,fr20_v1).
head(r_fr20_3,fr20_p2).
body(r_fr20_3,fr20_r1).
head(r_fr20_4,fr20_p2).
head(r_fr20_5,fr20_w2).
body(r_fr20_5,fr20_a1).
body(r_fr20_5,fr20_a2).
body(r_fr20_5,fr9_c3).
body(r_fr20_5,fr20_b4).
body(r_fr20_5,fr20_c2).
body(r_fr20_5,fr17_d2).
body(r_fr20_5,fr20_d2).
body(r_fr20_5,fr17_d2).
body(r_fr20_5,fr20_e1).
head(r_fr20_6,fr20_w2).
body(r_fr20_6,fr13_w2).
head(r_fr20_7,fr20_w2).
body(r_fr20_7,fr12_d1).
body(r_fr20_7,fr20_b2).
body(r_fr20_7,fr20_d2).
body(r_fr20_7,fr2_y3).
head(r_fr20_8,fr20_w2).
body(r_fr20_8,fr20_r2).
head(r_fr20_9,fr20_w2).
body(r_fr20_9,fr20_t1).
body(r_fr20_9,fr20_v4).
body(r_fr20_9,fr20_y2).
head(r_fr20_10,fr20_y2).
body(r_fr20_10,fr5_s1).
body(r_fr20_10,fr24_z3).
body(r_fr20_10,fr20_v4).
body(r_fr20_10,fr17_y2).
body(r_fr20_10,fr2_y3).
head(r_fr20_11,fr20_y2).
body(r_fr20_11,fr20_a1).
body(r_fr20_11,fr9_c3).
body(r_fr20_11,fr20_c2).
body(r_fr20_11,fr13_b1).
body(r_fr20_11,fr20_e1).
body(r_fr20_11,fr10_c1).
head(r_fr20_12,fr20_y2).
body(r_fr20_12,fr17_d2).
body(r_fr20_12,fr20_v1).
head(r_fr20_13,fr20_y2).
body(r_fr20_13,fr20_x2).
head(r_fr20_14,fr20_y2).
body(r_fr20_14,fr13_b1).
body(r_fr20_14,fr20_p1).
body(r_fr20_14,fr16_q3).
body(r_fr20_14,fr20_u1).
body(r_fr20_14,fr20_w1).
body(r_fr20_14,fr20_x1).
body(r_fr20_14,fr20_z2).
head(r_fr20_15,fr20_y2).
body(r_fr20_15,fr16_q3).
head(r_fr20_16,fr20_y2).
body(r_fr20_16,fr24_z3).
body(r_fr20_16,fr23_z1).
head(r_fr20_17,fr20_y2).
body(r_fr20_17,fr20_d2).
body(r_fr20_17,fr23_z1).
head(r_fr20_18,fr20_y1).
body(r_fr20_18,fr20_b1).
body(r_fr20_18,fr17_d2).
body(r_fr20_18,fr20_d2).
body(r_fr20_18,fr12_d1).
body(r_fr20_18,fr20_e3).
body(r_fr20_18,fr12_d1).
body(r_fr20_18,fr10_c1).
body(r_fr20_18,fr20_f3).
body(r_fr20_18,fr16_q3).
head(r_fr20_19,fr20_y1).
body(r_fr20_19,fr20_a2).
body(r_fr20_19,fr10_e1).
body(r_fr20_19,fr20_e3).
body(r_fr20_19,fr17_p4).
body(r_fr20_19,fr2_y3).
head(r_fr20_20,fr20_y1).
body(r_fr20_20,fr9_c3).
body(r_fr20_20,fr12_d1).
body(r_fr20_20,fr20_f3).
body(r_fr20_20,fr23_z1).
head(r_fr20_21,fr2_y3).
body(r_fr20_21,fr10_e1).
body(r_fr20_21,fr13_b1).
body(r_fr20_21,fr11_e2).
body(r_fr20_21,fr17_d2).
body(r_fr20_21,fr17_d2).
head(r_fr20_22,fr2_y3).
body(r_fr20_22,fr12_d1).
body(r_fr20_22,fr13_b1).
body(r_fr20_22,fr20_d2).
body(r_fr20_22,fr17_d2).
body(r_fr20_22,fr10_c1).
body(r_fr20_22,fr20_t1).
head(r_fr20_23,fr2_y3).
body(r_fr20_23,fr9_c3).
body(r_fr20_23,fr20_c2).
body(r_fr20_23,fr17_d2).
body(r_fr20_23,fr13_b1).
body(r_fr20_23,fr23_z1).
body(r_fr20_23,fr11_t2).
body(r_fr20_23,fr20_s4).
body(r_fr20_23,fr20_t1).
head(r_fr20_24,fr13_w2).
body(r_fr20_24,fr20_a1).
body(r_fr20_24,fr20_a2).
body(r_fr20_24,fr12_d1).
body(r_fr20_24,fr9_c3).
body(r_fr20_24,fr12_d1).
body(r_fr20_24,fr11_e2).
body(r_fr20_24,fr12_d1).
body(r_fr20_24,fr12_d1).
body(r_fr20_24,fr20_r1).
head(r_fr20_25,fr13_w2).
body(r_fr20_25,fr20_q4).
body(r_fr20_25,fr23_z1).
body(r_fr20_25,fr20_t1).
body(r_fr20_25,fr24_z3).
body(r_fr20_25,fr20_x1).
body(r_fr20_25,fr20_y2).
head(r_fr20_26,fr13_w2).
body(r_fr20_26,fr17_d2).
body(r_fr20_26,fr10_c1).
head(r_fr20_27,fr13_w2).
body(r_fr20_27,fr20_a2).
body(r_fr20_27,fr20_b2).
body(r_fr20_27,fr22_e1).
body(r_fr20_27,fr12_d1).
body(r_fr20_27,fr10_c1).
body(r_fr20_27,fr20_p1).
body(r_fr20_27,fr20_t2).
body(r_fr20_27,fr20_y2).
head(r_fr20_28,fr13_w2).
body(r_fr20_28,fr20_a2).
body(r_fr20_28,fr22_e1).
head(r_fr20_29,fr13_w2).
head(r_fr20_30,fr13_w2).
body(r_fr20_30,fr2_y3).
body(r_fr20_30,fr20_p4).
body(r_fr20_30,fr20_q4).
body(r_fr20_30,fr21_r2).
body(r_fr20_30,fr20_x2).
head(r_fr20_31,fr20_v2).
body(r_fr20_31,fr10_e1).
head(r_fr20_32,fr20_v2).
head(r_fr20_33,fr20_v2).
body(r_fr20_33,fr20_b4).
body(r_fr20_33,fr17_d2).
body(r_fr20_33,fr20_e1).
body(r_fr20_33,fr12_d1).
body(r_fr20_33,fr20_p2).
head(r_fr20_34,fr20_v2).
body(r_fr20_34,fr20_p2).
body(r_fr20_34,fr20_r2).
body(r_fr20_34,fr23_z1).
body(r_fr20_34,fr5_s1).
body(r_fr20_34,fr20_t1).
body(r_fr20_34,fr21_r2).
body(r_fr20_34,fr20_x2).
body(r_fr20_34,fr20_z3).
head(r_fr20_35,fr5_s1).
body(r_fr20_35,fr12_d1).
body(r_fr20_35,fr9_c3).
body(r_fr20_35,fr17_d2).
head(r_fr20_36,fr5_s1).
body(r_fr20_36,fr13_b1).
body(r_fr20_36,fr11_t2).
body(r_fr20_36,fr20_t1).
body(r_fr20_36,fr21_r2).
body(r_fr20_36,fr20_v3).
head(r_fr20_37,fr5_s1).
body(r_fr20_37,fr20_a1).
body(r_fr20_37,fr22_e1).
body(r_fr20_37,fr20_d2).
body(r_fr20_37,fr20_p1).
body(r_fr20_37,fr17_p4).
body(r_fr20_37,fr20_t3).
body(r_fr20_37,fr21_r2).
head(r_fr20_38,fr5_s1).
body(r_fr20_38,fr20_b2).
body(r_fr20_38,fr11_e2).
body(r_fr20_38,fr20_q4).
head(r_fr20_39,fr5_s1).
body(r_fr20_39,fr20_c2).
body(r_fr20_39,fr17_d2).
body(r_fr20_39,fr17_d2).
body(r_fr20_39,fr20_p4).
body(r_fr20_39,fr20_r1).
body(r_fr20_39,fr20_t2).
body(r_fr20_39,fr20_v2).
body(r_fr20_39,fr20_y2).
body(r_fr20_39,fr20_z2).
head(r_fr20_40,fr5_s1).
head(r_fr20_41,fr16_q3).
body(r_fr20_41,fr17_d2).
body(r_fr20_41,fr23_z1).
body(r_fr20_41,fr24_z3).
body(r_fr20_41,fr2_y3).
head(r_fr20_42,fr16_q3).
head(r_fr20_43,fr16_q3).
body(r_fr20_43,fr11_e2).
body(r_fr20_43,fr23_z1).
body(r_fr20_43,fr20_t1).
body(r_fr20_43,fr20_x1).
head(r_fr20_44,fr16_q3).
body(r_fr20_44,fr12_d1).
body(r_fr20_44,fr11_r3).
body(r_fr20_44,fr20_v1).
body(r_fr20_44,fr20_w2).
body(r_fr20_44,fr20_y2).
head(r_fr20_45,fr16_q3).
body(r_fr20_45,fr20_e3).
body(r_fr20_45,fr20_x1).
body(r_fr20_45,fr13_w2).
head(r_fr20_46,fr16_q3).
body(r_fr20_46,fr20_b1).
body(r_fr20_46,fr20_c2).
body(r_fr20_46,fr12_d1).
body(r_fr20_46,fr17_d2).
body(r_fr20_46,fr20_p2).
body(r_fr20_46,fr20_u3).
body(r_fr20_46,fr20_w1).
head(r_fr20_47,fr16_q3).
body(r_fr20_47,fr12_d1).
body(r_fr20_47,fr20_c2).
body(r_fr20_47,fr20_p2).
body(r_fr20_47,fr20_p4).
body(r_fr20_47,fr20_w2).
body(r_fr20_47,fr23_z1).
body(r_fr20_47,fr2_y3).
body(r_fr20_47,fr20_z3).
head(r_fr20_48,fr20_t3).
body(r_fr20_48,fr9_c3).
body(r_fr20_48,fr24_y2).
body(r_fr20_48,fr20_y2).
head(r_fr20_49,fr20_t3).
body(r_fr20_49,fr12_d1).
body(r_fr20_49,fr20_d2).
body(r_fr20_49,fr20_r2).
body(r_fr20_49,fr5_s1).
head(r_fr20_50,fr20_t3).
body(r_fr20_50,fr17_d2).
body(r_fr20_50,fr20_p4).
body(r_fr20_50,fr23_z1).
body(r_fr20_50,fr23_z1).
body(r_fr20_50,fr24_y2).
head(r_fr20_51,fr20_t3).
body(r_fr20_51,fr20_a2).
body(r_fr20_51,fr12_d1).
body(r_fr20_51,fr20_b2).
body(r_fr20_51,fr11_e2).
body(r_fr20_51,fr20_q4).
body(r_fr20_51,fr21_r2).
head(r_fr20_52,fr20_t3).
head(r_fr20_53,fr20_t3).
body(r_fr20_53,fr9_c3).
head(r_fr20_54,fr20_t3).
body(r_fr20_54,fr20_p4).
body(r_fr20_54,fr11_r3).
body(r_fr20_54,fr20_y2).
body(r_fr20_54,fr2_y3).
head(r_fr20_55,fr20_t3).
body(r_fr20_55,fr20_c2).
body(r_fr20_55,fr20_e3).
body(r_fr20_55,fr20_t1).
body(r_fr20_55,fr13_w2).
head(r_fr20_56,fr20_p1).
body(r_fr20_56,fr12_d1).
body(r_fr20_56,fr20_b2).
body(r_fr20_56,fr17_d2).
body(r_fr20_56,fr2_y3).
body(r_fr20_56,fr20_v2).
head(r_fr20_57,fr20_p1).
body(r_fr20_57,fr17_d2).
body(r_fr20_57,fr20_e1).
body(r_fr20_57,fr20_p4).
body(r_fr20_57,fr23_z1).
body(r_fr20_57,fr20_t3).
body(r_fr20_57,fr20_x1).
body(r_fr20_57,fr17_y2).
head(r_fr20_58,fr20_w1).
body(r_fr20_58,fr10_e1).
body(r_fr20_58,fr17_d2).
body(r_fr20_58,fr20_d2).
body(r_fr20_58,fr10_c1).
head(r_fr20_59,fr20_w1).
body(r_fr20_59,fr9_c3).
body(r_fr20_59,fr17_d2).
body(r_fr20_59,fr17_p4).
body(r_fr20_59,fr24_z3).
body(r_fr20_59,fr17_y2).
body(r_fr20_59,fr20_y2).
head(r_fr20_60,fr20_p4).
body(r_fr20_60,fr20_a2).
body(r_fr20_60,fr20_b4).
body(r_fr20_60,fr20_f3).
body(r_fr20_60,fr20_u3).
head(r_fr20_61,fr20_p4).
body(r_fr20_61,fr20_a1).
body(r_fr20_61,fr20_b4).
body(r_fr20_61,fr22_e1).
body(r_fr20_61,fr20_d2).
body(r_fr20_61,fr17_d2).
body(r_fr20_61,fr20_e3).
body(r_fr20_61,fr12_d1).
body(r_fr20_61,fr17_d2).
body(r_fr20_61,fr12_d1).
head(r_fr20_62,fr20_p4).
head(r_fr20_63,fr20_r2).
body(r_fr20_63,fr9_c3).
body(r_fr20_63,fr17_d2).
body(r_fr20_63,fr12_d1).
body(r_fr20_63,fr23_z1).
body(r_fr20_63,fr11_t2).
body(r_fr20_63,fr20_s4).
body(r_fr20_63,fr24_y2).
head(r_fr20_64,fr20_r2).
body(r_fr20_64,fr5_s1).
body(r_fr20_64,fr20_t1).
body(r_fr20_64,fr20_u3).
body(r_fr20_64,fr24_y2).
head(r_fr20_65,fr20_r2).
head(r_fr20_66,fr20_r2).
body(r_fr20_66,fr20_a2).
body(r_fr20_66,fr20_b1).
body(r_fr20_66,fr17_d2).
body(r_fr20_66,fr20_e1).
body(r_fr20_66,fr20_e3).
body(r_fr20_66,fr17_d2).
body(r_fr20_66,fr10_c1).
body(r_fr20_66,fr2_y3).
head(r_fr20_67,fr20_r2).
body(r_fr20_67,fr20_c2).
body(r_fr20_67,fr12_d1).
body(r_fr20_67,fr12_d1).
head(r_fr20_68,fr20_r1).
body(r_fr20_68,fr20_e3).
head(r_fr20_69,fr20_r1).
head(r_fr20_70,fr20_r1).
body(r_fr20_70,fr20_p1).
body(r_fr20_70,fr16_q3).
body(r_fr20_70,fr23_z1).
body(r_fr20_70,fr11_t2).
body(r_fr20_70,fr20_u1).
body(r_fr20_70,fr20_x2).
body(r_fr20_70,fr17_y2).
body(r_fr20_70,fr20_y1).
body(r_fr20_70,fr13_w2).
head(r_fr20_71,fr20_r1).
body(r_fr20_71,fr10_e1).
body(r_fr20_71,fr20_b1).
body(r_fr20_71,fr20_b2).
body(r_fr20_71,fr13_b1).
body(r_fr20_71,fr12_d1).
body(r_fr20_71,fr20_p1).
body(r_fr20_71,fr20_v1).
body(r_fr20_71,fr13_w2).
body(r_fr20_71,fr2_y3).
head(r_fr20_72,fr20_r1).
body(r_fr20_72,fr22_e1).
body(r_fr20_72,fr12_d1).
body(r_fr20_72,fr20_t2).
head(r_fr20_73,fr20_q4).
head(r_fr20_74,fr20_q4).
body(r_fr20_74,fr20_b1).
body(r_fr20_74,fr22_e1).
body(r_fr20_74,fr20_e3).
body(r_fr20_74,fr11_t2).
body(r_fr20_74,fr20_t2).
body(r_fr20_74,fr24_z3).
body(r_fr20_74,fr20_u3).
body(r_fr20_74,fr24_y2).
body(r_fr20_74,fr20_z2).
head(r_fr20_75,fr20_q4).
body(r_fr20_75,fr20_r1).
body(r_fr20_75,fr20_t3).
body(r_fr20_75,fr21_r2).
body(r_fr20_75,fr20_u1).
body(r_fr20_75,fr24_y2).
body(r_fr20_75,fr20_v4).
body(r_fr20_75,fr20_x2).
body(r_fr20_75,fr20_y2).
head(r_fr20_76,fr20_q4).
body(r_fr20_76,fr10_e1).
body(r_fr20_76,fr11_e2).
body(r_fr20_76,fr17_d2).
body(r_fr20_76,fr17_d2).
head(r_fr20_77,fr20_q4).
body(r_fr20_77,fr20_p2).
body(r_fr20_77,fr23_z1).
body(r_fr20_77,fr20_v2).
body(r_fr20_77,fr20_y1).
body(r_fr20_77,fr13_w2).
head(r_fr20_78,fr20_q4).
body(r_fr20_78,fr10_e1).
body(r_fr20_78,fr9_c3).
body(r_fr20_78,fr20_b4).
body(r_fr20_78,fr12_d1).
body(r_fr20_78,fr20_e3).
body(r_fr20_78,fr20_f3).
body(r_fr20_78,fr20_t2).
body(r_fr20_78,fr17_y2).
head(r_fr20_79,fr20_q4).
body(r_fr20_79,fr20_p2).
body(r_fr20_79,fr11_t2).
body(r_fr20_79,fr24_z3).
body(r_fr20_79,fr20_v2).
body(r_fr20_79,fr20_x1).
body(r_fr20_79,fr13_w2).
head(r_fr20_80,fr20_t1).
body(r_fr20_80,fr12_d1).
body(r_fr20_80,fr20_d2).
body(r_fr20_80,fr17_d2).
body(r_fr20_80,fr12_d1).
body(r_fr20_80,fr17_p4).
body(r_fr20_80,fr24_z3).
body(r_fr20_80,fr13_w2).
head(r_fr20_81,fr20_t1).
body(r_fr20_81,fr20_p1).
body(r_fr20_81,fr20_p4).
body(r_fr20_81,fr20_r1).
body(r_fr20_81,fr20_r2).
body(r_fr20_81,fr20_t3).
body(r_fr20_81,fr24_y2).
body(r_fr20_81,fr23_z1).
body(r_fr20_81,fr20_z2).
head(r_fr20_82,fr20_z3).
body(r_fr20_82,fr12_d1).
body(r_fr20_82,fr20_b4).
body(r_fr20_82,fr17_d2).
body(r_fr20_82,fr10_c1).
body(r_fr20_82,fr12_d1).
body(r_fr20_82,fr16_q3).
body(r_fr20_82,fr20_t1).
body(r_fr20_82,fr2_y3).
head(r_fr20_83,fr20_z3).
body(r_fr20_83,fr13_b1).
body(r_fr20_83,fr20_t3).
body(r_fr20_83,fr17_y2).
head(r_fr20_84,fr20_z3).
body(r_fr20_84,fr20_e3).
body(r_fr20_84,fr20_p1).
body(r_fr20_84,fr23_z1).
body(r_fr20_84,fr5_s1).
body(r_fr20_84,fr20_t2).
body(r_fr20_84,fr20_u1).
body(r_fr20_84,fr24_z3).
body(r_fr20_84,fr20_w2).
body(r_fr20_84,fr20_x1).
head(r_fr20_85,fr20_z3).
body(r_fr20_85,fr20_a1).
body(r_fr20_85,fr10_e1).
body(r_fr20_85,fr20_c2).
body(r_fr20_85,fr10_c1).
body(r_fr20_85,fr12_d1).
body(r_fr20_85,fr20_s4).
body(r_fr20_85,fr21_r2).
body(r_fr20_85,fr13_w2).
head(r_fr20_86,fr17_y2).
body(r_fr20_86,fr9_c3).
body(r_fr20_86,fr20_c2).
body(r_fr20_86,fr17_d2).
body(r_fr20_86,fr20_d2).
body(r_fr20_86,fr12_d1).
body(r_fr20_86,fr20_r1).
body(r_fr20_86,fr20_t1).
body(r_fr20_86,fr20_x1).
head(r_fr20_87,fr17_y2).
body(r_fr20_87,fr20_b2).
body(r_fr20_87,fr13_b1).
body(r_fr20_87,fr20_d2).
body(r_fr20_87,fr20_e1).
body(r_fr20_87,fr20_e3).
body(r_fr20_87,fr20_y2).
head(r_fr20_88,fr17_y2).
body(r_fr20_88,fr13_b1).
body(r_fr20_88,fr12_d1).
body(r_fr20_88,fr20_p4).
body(r_fr20_88,fr20_t1).
body(r_fr20_88,fr24_y2).
body(r_fr20_88,fr13_w2).
body(r_fr20_88,fr20_z3).
head(r_fr20_89,fr17_y2).
body(r_fr20_89,fr22_e1).
body(r_fr20_89,fr17_d2).
body(r_fr20_89,fr20_p1).
body(r_fr20_89,fr23_z1).
body(r_fr20_89,fr21_r2).
body(r_fr20_89,fr23_z1).
body(r_fr20_89,fr20_y1).
body(r_fr20_89,fr20_y2).
head(r_fr20_90,fr17_y2).
body(r_fr20_90,fr12_d1).
body(r_fr20_90,fr20_p2).
head(r_fr20_91,fr17_y2).
head(r_fr20_92,fr20_x2).
body(r_fr20_92,fr10_e1).
body(r_fr20_92,fr9_c3).
body(r_fr20_92,fr20_c2).
body(r_fr20_92,fr12_d1).
body(r_fr20_92,fr20_e3).
head(r_fr20_93,fr20_x2).
body(r_fr20_93,fr12_d1).
body(r_fr20_93,fr9_c3).
body(r_fr20_93,fr11_e2).
body(r_fr20_93,fr10_c1).
head(r_fr20_94,fr20_x2).
body(r_fr20_94,fr20_c2).
head(r_fr20_95,fr20_x2).
body(r_fr20_95,fr17_d2).
body(r_fr20_95,fr20_e1).
body(r_fr20_95,fr10_c1).
body(r_fr20_95,fr23_z1).
body(r_fr20_95,fr17_y2).
head(r_fr20_96,fr20_x2).
body(r_fr20_96,fr20_b1).
body(r_fr20_96,fr13_b1).
body(r_fr20_96,fr20_d2).
body(r_fr20_96,fr12_d1).
body(r_fr20_96,fr17_d2).
body(r_fr20_96,fr12_d1).
body(r_fr20_96,fr20_s4).
head(r_fr20_97,fr20_x2).
body(r_fr20_97,fr20_a2).
body(r_fr20_97,fr16_q3).
body(r_fr20_97,fr11_r3).
head(r_fr20_98,fr20_v1).
body(r_fr20_98,fr20_q4).
body(r_fr20_98,fr20_t3).
head(r_fr20_99,fr20_v1).
body(r_fr20_99,fr20_p4).
body(r_fr20_99,fr20_w1).
body(r_fr20_99,fr20_x2).
head(r_fr20_100,fr20_v1).
body(r_fr20_100,fr20_e1).
body(r_fr20_100,fr20_q4).
body(r_fr20_100,fr11_t2).
body(r_fr20_100,fr20_t1).
body(r_fr20_100,fr21_r2).
body(r_fr20_100,fr20_y2).
body(r_fr20_100,fr13_w2).
body(r_fr20_100,fr20_z2).
head(r_fr20_101,fr20_v1).
body(r_fr20_101,fr20_e1).
body(r_fr20_101,fr20_t2).
body(r_fr20_101,fr24_z3).
body(r_fr20_101,fr24_y2).
head(r_fr20_102,fr20_v1).
body(r_fr20_102,fr12_d1).
body(r_fr20_102,fr20_t1).
body(r_fr20_102,fr20_v3).
body(r_fr20_102,fr20_z3).
head(r_fr20_103,fr2_y3).
body(r_fr20_103,fr20_a1).
body(r_fr20_103,fr12_d1).
body(r_fr20_103,fr11_t2).
body(r_fr20_103,fr20_s4).
body(r_fr20_103,fr20_t3).
body(r_fr20_103,fr20_v4).
body(r_fr20_103,fr20_w1).
body(r_fr20_103,fr20_x2).
head(r_fr20_104,fr2_y3).
body(r_fr20_104,fr20_a1).
body(r_fr20_104,fr10_e1).
body(r_fr20_104,fr20_b4).
body(r_fr20_104,fr12_d1).
body(r_fr20_104,fr2_y3).
body(r_fr20_104,fr20_y2).
body(r_fr20_104,fr20_z3).
head(r_fr20_105,fr2_y3).
body(r_fr20_105,fr20_a2).
body(r_fr20_105,fr20_b1).
body(r_fr20_105,fr20_b4).
body(r_fr20_105,fr12_d1).
body(r_fr20_105,fr13_b1).
body(r_fr20_105,fr20_d2).
body(r_fr20_105,fr17_d2).
body(r_fr20_105,fr20_y1).
head(r_fr20_106,fr2_y3).
body(r_fr20_106,fr12_d1).
body(r_fr20_106,fr17_p4).
head(r_fr20_107,fr2_y3).
body(r_fr20_107,fr20_r1).
body(r_fr20_107,fr20_v1).
body(r_fr20_107,fr17_y2).
head(r_fr20_108,fr2_y3).
body(r_fr20_108,fr17_d2).
head(r_fr20_109,fr20_z2).
body(r_fr20_109,fr20_c2).
body(r_fr20_109,fr17_d2).
body(r_fr20_109,fr20_e1).
body(r_fr20_109,fr20_q4).
head(r_fr20_110,fr20_z2).
body(r_fr20_110,fr20_r2).
body(r_fr20_110,fr20_v1).
body(r_fr20_110,fr20_x1).
body(r_fr20_110,fr2_y3).
head(r_fr20_111,fr20_z2).
body(r_fr20_111,fr13_b1).
body(r_fr20_111,fr20_e1).
body(r_fr20_111,fr11_t2).
body(r_fr20_111,fr13_w2).
body(r_fr20_111,fr2_y3).
head(r_fr20_112,fr20_z2).
body(r_fr20_112,fr20_a1).
body(r_fr20_112,fr12_d1).
body(r_fr20_112,fr9_c3).
body(r_fr20_112,fr24_z3).
head(r_fr20_113,fr20_x1).
body(r_fr20_113,fr20_b1).
body(r_fr20_113,fr23_z1).
body(r_fr20_113,fr11_r3).
body(r_fr20_113,fr21_r2).
body(r_fr20_113,fr24_z3).
body(r_fr20_113,fr24_y2).
head(r_fr20_114,fr20_x1).
body(r_fr20_114,fr20_b4).
body(r_fr20_114,fr20_d2).
body(r_fr20_114,fr11_e2).
head(r_fr20_115,fr20_v4).
body(r_fr20_115,fr12_d1).
body(r_fr20_115,fr20_p2).
body(r_fr20_115,fr20_p4).
body(r_fr20_115,fr20_r1).
body(r_fr20_115,fr17_y2).
body(r_fr20_115,fr20_y1).
body(r_fr20_115,fr2_y3).
body(r_fr20_115,fr20_z3).
head(r_fr20_116,fr20_v4).
body(r_fr20_116,fr20_a1).
body(r_fr20_116,fr17_d2).
body(r_fr20_116,fr13_b1).
body(r_fr20_116,fr20_p1).
body(r_fr20_116,fr20_u3).
body(r_fr20_116,fr20_z2).
head(r_fr20_117,fr20_v4).
body(r_fr20_117,fr20_a1).
body(r_fr20_117,fr22_e1).
head(r_fr20_118,fr20_v4).
body(r_fr20_118,fr12_d1).
head(r_fr20_119,fr20_v4).
body(r_fr20_119,fr20_b4).
body(r_fr20_119,fr22_e1).
body(r_fr20_119,fr20_p1).
body(r_fr20_119,fr23_z1).
body(r_fr20_119,fr5_s1).
body(r_fr20_119,fr24_y2).
head(r_fr20_120,fr20_v4).
body(r_fr20_120,fr20_a1).
body(r_fr20_120,fr20_b1).
body(r_fr20_120,fr20_b2).
body(r_fr20_120,fr11_e2).
body(r_fr20_120,fr20_e1).
head(r_fr20_121,fr20_v4).
body(r_fr20_121,fr9_c3).
body(r_fr20_121,fr22_e1).
body(r_fr20_121,fr20_c2).
body(r_fr20_121,fr12_d1).
body(r_fr20_121,fr20_p4).
body(r_fr20_121,fr20_s4).
body(r_fr20_121,fr20_t3).
body(r_fr20_121,fr20_v3).
head(r_fr20_122,fr20_v4).
body(r_fr20_122,fr10_c1).
body(r_fr20_122,fr20_x2).
head(r_fr20_123,fr11_t2).
body(r_fr20_123,fr20_a1).
head(r_fr20_124,fr11_t2).
body(r_fr20_124,fr12_d1).
body(r_fr20_124,fr20_b4).
head(r_fr20_125,fr11_t2).
body(r_fr20_125,fr20_e1).
body(r_fr20_125,fr17_d2).
body(r_fr20_125,fr20_r1).
body(r_fr20_125,fr23_z1).
body(r_fr20_125,fr20_v1).
body(r_fr20_125,fr20_v2).
body(r_fr20_125,fr20_w2).
body(r_fr20_125,fr20_x2).
body(r_fr20_125,fr20_y1).
head(r_fr20_126,fr11_t2).
head(r_fr20_127,fr11_t2).
body(r_fr20_127,fr20_e1).
body(r_fr20_127,fr17_p4).
body(r_fr20_127,fr20_u1).
head(r_fr20_128,fr20_s4).
body(r_fr20_128,fr20_z3).
head(r_fr20_129,fr20_s4).
head(r_fr20_130,fr20_s4).
body(r_fr20_130,fr20_a2).
body(r_fr20_130,fr17_d2).
body(r_fr20_130,fr12_d1).
body(r_fr20_130,fr20_f3).
body(r_fr20_130,fr16_q3).
head(r_fr20_131,fr20_s4).
body(r_fr20_131,fr11_r3).
body(r_fr20_131,fr20_v2).
body(r_fr20_131,fr20_w1).
body(r_fr20_131,fr20_x2).
body(r_fr20_131,fr17_y2).
body(r_fr20_131,fr20_z3).
head(r_fr20_132,fr20_s4).
body(r_fr20_132,fr20_b1).
body(r_fr20_132,fr17_d2).
body(r_fr20_132,fr17_d2).
body(r_fr20_132,fr20_p1).
body(r_fr20_132,fr20_r1).
body(r_fr20_132,fr11_r3).
body(r_fr20_132,fr20_t3).
head(r_fr20_133,fr20_s4).
body(r_fr20_133,fr17_d2).
body(r_fr20_133,fr20_f3).
head(r_fr20_134,fr23_z1).
body(r_fr20_134,fr22_e1).
body(r_fr20_134,fr20_r1).
body(r_fr20_134,fr17_p4).
body(r_fr20_134,fr5_s1).
body(r_fr20_134,fr20_v4).
body(r_fr20_134,fr2_y3).
head(r_fr20_135,fr23_z1).
body(r_fr20_135,fr12_d1).
body(r_fr20_135,fr20_e1).
body(r_fr20_135,fr12_d1).
body(r_fr20_135,fr20_r2).
head(r_fr20_136,fr23_z1).
head(r_fr20_137,fr23_z1).
body(r_fr20_137,fr12_d1).
body(r_fr20_137,fr20_c2).
body(r_fr20_137,fr17_d2).
body(r_fr20_137,fr20_f3).
body(r_fr20_137,fr20_v2).
head(r_fr20_138,fr23_z1).
body(r_fr20_138,fr12_d1).
head(r_fr20_139,fr23_z1).
body(r_fr20_139,fr20_b4).
body(r_fr20_139,fr16_q3).
head(r_fr20_140,fr20_u3).
body(r_fr20_140,fr20_a1).
body(r_fr20_140,fr10_e1).
body(r_fr20_140,fr12_d1).
body(r_fr20_140,fr22_e1).
body(r_fr20_140,fr20_c2).
body(r_fr20_140,fr11_e2).
head(r_fr20_141,fr20_u3).
body(r_fr20_141,fr20_a1).
body(r_fr20_141,fr20_c2).
body(r_fr20_141,fr20_d2).
head(r_fr20_142,fr20_u3).
body(r_fr20_142,fr13_b1).
body(r_fr20_142,fr17_d2).
body(r_fr20_142,fr20_f3).
body(r_fr20_142,fr12_d1).
body(r_fr20_142,fr20_p4).
body(r_fr20_142,fr20_z3).
head(r_fr20_143,fr20_u3).
body(r_fr20_143,fr20_b4).
body(r_fr20_143,fr17_d2).
body(r_fr20_143,fr12_d1).
body(r_fr20_143,fr2_y3).
head(r_fr20_144,fr20_u3).
body(r_fr20_144,fr16_q3).
body(r_fr20_144,fr11_r3).
body(r_fr20_144,fr20_t1).
body(r_fr20_144,fr24_y2).
body(r_fr20_144,fr20_v3).
body(r_fr20_144,fr2_y3).
head(r_fr20_145,fr20_u3).
body(r_fr20_145,fr10_e1).
body(r_fr20_145,fr20_c2).
body(r_fr20_145,fr17_d2).
body(r_fr20_145,fr20_e1).
body(r_fr20_145,fr12_d1).
head(r_fr20_146,fr21_r2).
body(r_fr20_146,fr20_a1).
body(r_fr20_146,fr10_e1).
body(r_fr20_146,fr22_e1).
body(r_fr20_146,fr20_e1).
body(r_fr20_146,fr17_d2).
body(r_fr20_146,fr20_p1).
body(r_fr20_146,fr16_q3).
head(r_fr20_147,fr21_r2).
body(r_fr20_147,fr20_y1).
head(r_fr20_148,fr21_r2).
body(r_fr20_148,fr10_e1).
body(r_fr20_148,fr22_e1).
body(r_fr20_148,fr17_d2).
body(r_fr20_148,fr17_d2).
body(r_fr20_148,fr10_c1).
body(r_fr20_148,fr12_d1).
body(r_fr20_148,fr23_z1).
body(r_fr20_148,fr20_s4).
head(r_fr20_149,fr21_r2).
body(r_fr20_149,fr20_a1).
body(r_fr20_149,fr11_e2).
body(r_fr20_149,fr20_v3).
head(r_fr20_150,fr21_r2).
body(r_fr20_150,fr20_p2).
body(r_fr20_150,fr11_t2).
body(r_fr20_150,fr20_u1).
body(r_fr20_150,fr24_y2).
body(r_fr20_150,fr20_v2).
body(r_fr20_150,fr20_w2).
body(r_fr20_150,fr20_y1).
head(r_fr20_151,fr21_r2).
body(r_fr20_151,fr20_b4).
body(r_fr20_151,fr22_e1).
body(r_fr20_151,fr23_z1).
body(r_fr20_151,fr20_q4).
body(r_fr20_151,fr20_t3).
body(r_fr20_151,fr20_v1).
body(r_fr20_151,fr13_w2).
head(r_fr20_152,fr21_r2).
body(r_fr20_152,fr9_c3).
body(r_fr20_152,fr20_e1).
body(r_fr20_152,fr20_v4).
head(r_fr20_153,fr21_r2).
body(r_fr20_153,fr20_e1).
body(r_fr20_153,fr20_f3).
body(r_fr20_153,fr20_v1).
head(r_fr20_154,fr23_z1).
body(r_fr20_154,fr20_b1).
body(r_fr20_154,fr20_b2).
body(r_fr20_154,fr12_d1).
body(r_fr20_154,fr23_z1).
head(r_fr20_155,fr23_z1).
head(r_fr20_156,fr23_z1).
body(r_fr20_156,fr20_p2).
body(r_fr20_156,fr23_z1).
body(r_fr20_156,fr20_r2).
body(r_fr20_156,fr11_t2).
body(r_fr20_156,fr20_t1).
body(r_fr20_156,fr24_z3).
body(r_fr20_156,fr20_y2).
body(r_fr20_156,fr13_w2).
head(r_fr20_157,fr23_z1).
body(r_fr20_157,fr20_a1).
body(r_fr20_157,fr20_b1).
body(r_fr20_157,fr22_e1).
body(r_fr20_157,fr20_c2).
body(r_fr20_157,fr24_y2).
body(r_fr20_157,fr20_z3).
head(r_fr20_158,fr23_z1).
body(r_fr20_158,fr22_e1).
body(r_fr20_158,fr13_b1).
body(r_fr20_158,fr12_d1).
head(r_fr20_159,fr23_z1).
body(r_fr20_159,fr12_d1).
body(r_fr20_159,fr17_d2).
body(r_fr20_159,fr10_c1).
body(r_fr20_159,fr11_t2).
body(r_fr20_159,fr21_r2).
body(r_fr20_159,fr20_v4).
body(r_fr20_159,fr20_x2).
body(r_fr20_159,fr20_z3).
head(r_fr20_160,fr23_z1).
body(r_fr20_160,fr20_p1).
body(r_fr20_160,fr20_p4).
body(r_fr20_160,fr23_z1).
body(r_fr20_160,fr20_s4).
body(r_fr20_160,fr20_t2).
body(r_fr20_160,fr20_v2).
body(r_fr20_160,fr20_v4).
body(r_fr20_160,fr20_w2).
body(r_fr20_160,fr20_z2).
head(r_fr20_161,fr20_t2).
body(r_fr20_161,fr17_d2).
body(r_fr20_161,fr20_p1).
body(r_fr20_161,fr17_p4).
body(r_fr20_161,fr20_t1).
body(r_fr20_161,fr20_u3).
body(r_fr20_161,fr20_v3).
head(r_fr20_162,fr20_t2).
body(r_fr20_162,fr20_b2).
body(r_fr20_162,fr9_c3).
body(r_fr20_162,fr17_d2).
body(r_fr20_162,fr13_b1).
body(r_fr20_162,fr20_e3).
body(r_fr20_162,fr12_d1).
body(r_fr20_162,fr20_p2).
body(r_fr20_162,fr20_v4).
body(r_fr20_162,fr20_z3).
head(r_fr20_163,fr20_t2).
body(r_fr20_163,fr12_d1).
body(r_fr20_163,fr16_q3).
body(r_fr20_163,fr5_s1).
head(r_fr20_164,fr20_t2).
body(r_fr20_164,fr20_b2).
body(r_fr20_164,fr13_b1).
body(r_fr20_164,fr12_d1).
body(r_fr20_164,fr10_c1).
body(r_fr20_164,fr20_s4).
body(r_fr20_164,fr20_t1).
body(r_fr20_164,fr20_v1).
body(r_fr20_164,fr20_v3).
body(r_fr20_164,fr23_z1).
head(r_fr20_165,fr20_t2).
body(r_fr20_165,fr20_b2).
body(r_fr20_165,fr5_s1).

assumption(fr24_f2).
assumption(fr9_a3).
assumption(fr21_c1).
assumption(fr21_d1).
assumption(fr2_b1).
assumption(fr25_a2).
assumption(fr3_d2).
assumption(fr15_b2).
assumption(fr17_d2).
assumption(fr21_d2).
assumption(fr21_e2).
assumption(fr12_d1).
assumption(fr6_b2).
assumption(fr17_d2).
assumption(fr21_c3).
contrary(fr24_f2,fr21_y2).
contrary(fr3_d2,fr21_x5).
contrary(fr6_b2,fr25_y2).
contrary(fr9_a3,fr21_q1).
contrary(fr15_b2,fr15_s2).
contrary(fr17_d2,fr6_p2).
contrary(fr21_c1,fr21_x7).
contrary(fr17_d2,fr2_y3).
contrary(fr21_c3,fr21_v4).
contrary(fr21_d1,fr21_p3).
contrary(fr21_d2,fr21_q3).
contrary(fr2_b1,fr6_b2).
contrary(fr21_e2,fr21_c3).
contrary(fr25_a2,fr21_r1).
contrary(fr12_d1,fr21_s7).
head(r_fr21_0,fr21_v4).
head(r_fr21_1,fr21_v4).
body(r_fr21_1,fr24_f2).
body(r_fr21_1,fr6_b2).
body(r_fr21_1,fr21_c3).
body(r_fr21_1,fr21_d1).
body(r_fr21_1,fr21_q3).
body(r_fr21_1,fr21_r5).
head(r_fr21_2,fr21_v4).
body(r_fr21_2,fr3_d2).
body(r_fr21_2,fr25_a2).
body(r_fr21_2,fr11_z2).
body(r_fr21_2,fr21_u6).
body(r_fr21_2,fr21_v2).
body(r_fr21_2,fr21_x2).
head(r_fr21_3,fr21_v4).
body(r_fr21_3,fr9_a3).
head(r_fr21_4,fr21_v4).
body(r_fr21_4,fr15_b2).
body(r_fr21_4,fr21_d1).
head(r_fr21_5,fr17_x1).
body(r_fr21_5,fr24_f2).
body(r_fr21_5,fr3_d2).
body(r_fr21_5,fr9_a3).
body(r_fr21_5,fr15_b2).
body(r_fr21_5,fr21_c3).
body(r_fr21_5,fr12_d1).
head(r_fr21_6,fr17_x1).
head(r_fr21_7,fr21_u3).
body(r_fr21_7,fr6_b2).
body(r_fr21_7,fr21_p4).
body(r_fr21_7,fr23_z1).
body(r_fr21_7,fr21_s1).
body(r_fr21_7,fr21_t6).
head(r_fr21_8,fr21_u3).
body(r_fr21_8,fr9_a3).
body(r_fr21_8,fr21_d1).
body(r_fr21_8,fr21_s6).
body(r_fr21_8,fr21_u7).
head(r_fr21_9,fr21_u3).
body(r_fr21_9,fr12_d1).
body(r_fr21_9,fr21_u7).
head(r_fr21_10,fr21_v2).
body(r_fr21_10,fr21_c3).
head(r_fr21_11,fr21_v2).
body(r_fr21_11,fr21_r7).
head(r_fr21_12,fr2_y3).
body(r_fr21_12,fr9_a3).
body(r_fr21_12,fr11_z2).
head(r_fr21_13,fr2_y3).
body(r_fr21_13,fr21_r2).
head(r_fr21_14,fr2_y3).
body(r_fr21_14,fr21_r4).
body(r_fr21_14,fr21_t4).
body(r_fr21_14,fr21_u1).
head(r_fr21_15,fr2_y3).
body(r_fr21_15,fr24_f2).
body(r_fr21_15,fr15_b2).
body(r_fr21_15,fr21_r5).
body(r_fr21_15,fr21_t1).
body(r_fr21_15,fr21_t5).
body(r_fr21_15,fr25_y2).
head(r_fr21_16,fr2_y3).
body(r_fr21_16,fr21_q3).
body(r_fr21_16,fr21_x6).
head(r_fr21_17,fr21_x2).
body(r_fr21_17,fr17_d2).
body(r_fr21_17,fr21_v1).
body(r_fr21_17,fr25_y2).
body(r_fr21_17,fr2_y3).
head(r_fr21_18,fr21_x2).
body(r_fr21_18,fr21_c3).
body(r_fr21_18,fr21_t5).
head(r_fr21_19,fr21_x2).
body(r_fr21_19,fr12_d1).
head(r_fr21_20,fr21_x2).
body(r_fr21_20,fr3_d2).
head(r_fr21_21,fr21_q6).
body(r_fr21_21,fr21_c1).
body(r_fr21_21,fr12_d1).
body(r_fr21_21,fr21_r6).
body(r_fr21_21,fr21_y4).
body(r_fr21_21,fr25_y2).
head(r_fr21_22,fr21_q6).
head(r_fr21_23,fr10_u2).
body(r_fr21_23,fr21_t4).
body(r_fr21_23,fr5_s1).
head(r_fr21_24,fr10_u2).
body(r_fr21_24,fr9_a3).
body(r_fr21_24,fr2_b1).
body(r_fr21_24,fr12_d1).
body(r_fr21_24,fr21_r6).
body(r_fr21_24,fr25_z1).
body(r_fr21_24,fr21_u6).
head(r_fr21_25,fr10_u2).
body(r_fr21_25,fr24_f2).
body(r_fr21_25,fr9_a3).
head(r_fr21_26,fr21_p6).
body(r_fr21_26,fr6_b2).
body(r_fr21_26,fr21_c1).
body(r_fr21_26,fr21_p4).
body(r_fr21_26,fr21_u2).
body(r_fr21_26,fr3_q2).
head(r_fr21_27,fr21_p6).
body(r_fr21_27,fr24_f2).
body(r_fr21_27,fr21_c1).
body(r_fr21_27,fr17_d2).
body(r_fr21_27,fr21_d1).
body(r_fr21_27,fr2_b1).
body(r_fr21_27,fr21_r6).
head(r_fr21_28,fr21_p6).
body(r_fr21_28,fr3_d2).
body(r_fr21_28,fr21_d1).
body(r_fr21_28,fr21_e2).
body(r_fr21_28,fr3_q2).
body(r_fr21_28,fr21_w4).
head(r_fr21_29,fr21_p6).
body(r_fr21_29,fr4_v1).
body(r_fr21_29,fr21_u7).
body(r_fr21_29,fr21_y1).
head(r_fr21_30,fr21_p6).
body(r_fr21_30,fr15_b2).
head(r_fr21_31,fr25_y2).
body(r_fr21_31,fr24_f2).
body(r_fr21_31,fr6_b2).
body(r_fr21_31,fr9_a3).
body(r_fr21_31,fr21_e2).
head(r_fr21_32,fr25_y2).
body(r_fr21_32,fr6_b2).
body(r_fr21_32,fr15_b2).
body(r_fr21_32,fr21_c1).
body(r_fr21_32,fr21_d1).
head(r_fr21_33,fr25_y2).
body(r_fr21_33,fr21_w6).
body(r_fr21_33,fr21_w7).
head(r_fr21_34,fr25_y2).
body(r_fr21_34,fr21_q1).
body(r_fr21_34,fr21_t1).
body(r_fr21_34,fr21_v5).
head(r_fr21_35,fr24_p3).
body(r_fr21_35,fr15_b2).
body(r_fr21_35,fr17_d2).
body(r_fr21_35,fr21_d2).
body(r_fr21_35,fr21_x1).
head(r_fr21_36,fr24_p3).
body(r_fr21_36,fr24_f2).
body(r_fr21_36,fr21_w4).
head(r_fr21_37,fr24_p3).
head(r_fr21_38,fr24_p3).
body(r_fr21_38,fr21_d1).
body(r_fr21_38,fr2_b1).
head(r_fr21_39,fr24_p3).
body(r_fr21_39,fr21_c1).
body(r_fr21_39,fr17_d2).
body(r_fr21_39,fr2_b1).
body(r_fr21_39,fr21_e2).
body(r_fr21_39,fr25_a2).
head(r_fr21_40,fr21_v1).
body(r_fr21_40,fr4_v1).
body(r_fr21_40,fr21_y3).
body(r_fr21_40,fr5_s1).
head(r_fr21_41,fr21_v1).
body(r_fr21_41,fr17_d2).
head(r_fr21_42,fr21_p5).
body(r_fr21_42,fr15_b2).
body(r_fr21_42,fr21_c1).
body(r_fr21_42,fr17_d2).
body(r_fr21_42,fr21_t1).
head(r_fr21_43,fr21_p5).
body(r_fr21_43,fr12_d1).
head(r_fr21_44,fr21_p5).
body(r_fr21_44,fr24_f2).
body(r_fr21_44,fr9_a3).
body(r_fr21_44,fr12_d1).
body(r_fr21_44,fr21_r2).
head(r_fr21_45,fr21_p5).
body(r_fr21_45,fr6_b2).
body(r_fr21_45,fr17_d2).
body(r_fr21_45,fr17_d2).
body(r_fr21_45,fr21_r4).
head(r_fr21_46,fr21_p5).
head(r_fr21_47,fr6_p2).
body(r_fr21_47,fr11_z2).
body(r_fr21_47,fr21_x5).
head(r_fr21_48,fr6_p2).
body(r_fr21_48,fr15_b2).
body(r_fr21_48,fr21_d2).
body(r_fr21_48,fr21_e2).
body(r_fr21_48,fr21_r2).
body(r_fr21_48,fr21_s4).
head(r_fr21_49,fr21_s6).
body(r_fr21_49,fr24_f2).
body(r_fr21_49,fr15_b2).
body(r_fr21_49,fr21_c3).
body(r_fr21_49,fr25_a2).
body(r_fr21_49,fr12_d1).
body(r_fr21_49,fr25_x1).
head(r_fr21_50,fr21_s6).
body(r_fr21_50,fr21_q2).
body(r_fr21_50,fr21_t5).
body(r_fr21_50,fr21_u1).
body(r_fr21_50,fr21_u2).
body(r_fr21_50,fr21_w4).
body(r_fr21_50,fr21_y5).
head(r_fr21_51,fr21_s6).
head(r_fr21_52,fr21_s6).
body(r_fr21_52,fr2_b1).
head(r_fr21_53,fr21_s6).
body(r_fr21_53,fr3_d2).
body(r_fr21_53,fr15_b2).
body(r_fr21_53,fr12_d1).
body(r_fr21_53,fr21_q7).
body(r_fr21_53,fr21_w4).
head(r_fr21_54,fr15_s2).
body(r_fr21_54,fr21_r2).
body(r_fr21_54,fr21_z5).
head(r_fr21_55,fr15_s2).
body(r_fr21_55,fr9_a3).
body(r_fr21_55,fr21_u7).
body(r_fr21_55,fr21_y1).
body(r_fr21_55,fr21_y4).
head(r_fr21_56,fr15_s2).
body(r_fr21_56,fr21_c1).
head(r_fr21_57,fr21_w7).
body(r_fr21_57,fr3_d2).
body(r_fr21_57,fr9_a3).
body(r_fr21_57,fr21_c1).
body(r_fr21_57,fr12_d1).
body(r_fr21_57,fr21_r5).
body(r_fr21_57,fr21_y4).
head(r_fr21_58,fr21_w7).
body(r_fr21_58,fr17_d2).
body(r_fr21_58,fr21_d1).
body(r_fr21_58,fr21_r7).
body(r_fr21_58,fr21_t1).
head(r_fr21_59,fr21_w7).
head(r_fr21_60,fr21_w7).
body(r_fr21_60,fr21_c1).
body(r_fr21_60,fr21_t5).
body(r_fr21_60,fr21_v6).
body(r_fr21_60,fr21_x6).
body(r_fr21_60,fr21_y4).
body(r_fr21_60,fr17_x1).
head(r_fr21_61,fr21_v3).
head(r_fr21_62,fr21_v3).
body(r_fr21_62,fr3_d2).
body(r_fr21_62,fr9_a3).
body(r_fr21_62,fr21_d1).
body(r_fr21_62,fr21_p3).
body(r_fr21_62,fr11_z2).
body(r_fr21_62,fr21_u5).
head(r_fr21_63,fr21_v3).
body(r_fr21_63,fr21_s7).
body(r_fr21_63,fr21_y2).
head(r_fr21_64,fr21_v3).
body(r_fr21_64,fr24_f2).
body(r_fr21_64,fr2_b1).
body(r_fr21_64,fr21_q3).
body(r_fr21_64,fr21_t1).
body(r_fr21_64,fr21_w4).
body(r_fr21_64,fr5_s1).
head(r_fr21_65,fr21_s1).
body(r_fr21_65,fr9_a3).
body(r_fr21_65,fr21_v6).
head(r_fr21_66,fr21_s1).
body(r_fr21_66,fr9_a3).
body(r_fr21_66,fr12_d1).
body(r_fr21_66,fr21_u2).
body(r_fr21_66,fr21_v6).
body(r_fr21_66,fr21_x4).
body(r_fr21_66,fr21_y4).
head(r_fr21_67,fr21_r2).
body(r_fr21_67,fr21_r2).
body(r_fr21_67,fr21_w4).
body(r_fr21_67,fr21_x4).
head(r_fr21_68,fr21_r2).
body(r_fr21_68,fr23_z1).
body(r_fr21_68,fr5_s1).
body(r_fr21_68,fr21_x7).
head(r_fr21_69,fr21_r2).
body(r_fr21_69,fr21_t5).

assumption(fr22_a1).
assumption(fr11_e2).
assumption(fr22_c1).
assumption(fr20_c2).
assumption(fr22_e1).
assumption(fr12_d1).
assumption(fr22_a2).
assumption(fr17_d2).
assumption(fr12_d1).
assumption(fr9_b2).
assumption(fr17_d2).
assumption(fr12_d1).
assumption(fr12_d1).
assumption(fr12_d1).
assumption(fr20_c2).
contrary(fr22_a1,fr17_d2).
contrary(fr22_a2,fr9_q1).
contrary(fr12_d1,fr9_q1).
contrary(fr11_e2,fr15_x1).
contrary(fr17_d2,fr24_s1).
contrary(fr12_d1,fr17_d2).
contrary(fr22_c1,fr2_y3).
contrary(fr12_d1,fr22_p1).
contrary(fr20_c2,fr22_e1).
contrary(fr20_c2,fr22_s2).
contrary(fr9_b2,fr2_s2).
contrary(fr22_e1,fr25_y2).
contrary(fr17_d2,fr22_a2).
contrary(fr12_d1,fr11_e2).
contrary(fr12_d1,fr23_z1).
head(r_fr22_0,fr22_s2).
body(r_fr22_0,fr22_a2).
body(r_fr22_0,fr12_d1).
body(r_fr22_0,fr20_c2).
body(r_fr22_0,fr12_d1).
head(r_fr22_1,fr22_s2).
body(r_fr22_1,fr12_d1).
body(r_fr22_1,fr20_c2).
body(r_fr22_1,fr22_e1).
head(r_fr22_2,fr22_s2).
body(r_fr22_2,fr22_a2).
head(r_fr22_3,fr22_s2).
head(r_fr22_4,fr22_s2).
body(r_fr22_4,fr9_b2).
head(r_fr22_5,fr22_u1).
body(r_fr22_5,fr22_v2).
head(r_fr22_6,fr22_u1).
body(r_fr22_6,fr12_d1).
body(r_fr22_6,fr12_d1).
body(r_fr22_6,fr22_e1).
body(r_fr22_6,fr17_d2).
body(r_fr22_6,fr12_d1).
body(r_fr22_6,fr12_d1).
head(r_fr22_7,fr22_u1).
head(r_fr22_8,fr22_u1).
body(r_fr22_8,fr22_a1).
body(r_fr22_8,fr20_c2).
body(r_fr22_8,fr21_r2).
head(r_fr22_9,fr22_u1).
body(r_fr22_9,fr22_a2).
body(r_fr22_9,fr22_c1).
body(r_fr22_9,fr12_d1).
body(r_fr22_9,fr20_c2).
body(r_fr22_9,fr22_e1).
body(r_fr22_9,fr23_z1).
head(r_fr22_10,fr22_u1).
body(r_fr22_10,fr20_c2).
body(r_fr22_10,fr20_c2).
body(r_fr22_10,fr23_z1).
body(r_fr22_10,fr17_p3).
body(r_fr22_10,fr18_u1).
body(r_fr22_10,fr25_y2).
head(r_fr22_11,fr22_u1).
body(r_fr22_11,fr11_e2).
body(r_fr22_11,fr22_s1).
head(r_fr22_12,fr22_u1).
body(r_fr22_12,fr11_y3).
body(r_fr22_12,fr2_y3).
body(r_fr22_12,fr22_s2).
body(r_fr22_12,fr18_u1).
body(r_fr22_12,fr9_q1).
head(r_fr22_13,fr22_w2).
body(r_fr22_13,fr11_e2).
body(r_fr22_13,fr9_b2).
body(r_fr22_13,fr22_e1).
body(r_fr22_13,fr12_d1).
head(r_fr22_14,fr22_w2).
body(r_fr22_14,fr23_z1).
head(r_fr22_15,fr22_w2).
body(r_fr22_15,fr2_y3).
body(r_fr22_15,fr21_r2).
head(r_fr22_16,fr22_w2).
body(r_fr22_16,fr22_p1).
body(r_fr22_16,fr23_z1).
body(r_fr22_16,fr2_y2).
body(r_fr22_16,fr18_u1).
body(r_fr22_16,fr21_r2).
head(r_fr22_17,fr22_w2).
body(r_fr22_17,fr11_e2).
body(r_fr22_17,fr17_d2).
body(r_fr22_17,fr9_b2).
body(r_fr22_17,fr12_d1).
body(r_fr22_17,fr17_p3).
body(r_fr22_17,fr22_r2).
head(r_fr22_18,fr22_w2).
head(r_fr22_19,fr25_y2).
body(r_fr22_19,fr20_c2).
body(r_fr22_19,fr2_y2).
body(r_fr22_19,fr22_x1).
head(r_fr22_20,fr25_y2).
body(r_fr22_20,fr22_a1).
body(r_fr22_20,fr12_d1).
body(r_fr22_20,fr17_d2).
body(r_fr22_20,fr12_d1).
body(r_fr22_20,fr22_c1).
head(r_fr22_21,fr25_y2).
body(r_fr22_21,fr2_y3).
body(r_fr22_21,fr22_w2).
head(r_fr22_22,fr25_y2).
body(r_fr22_22,fr11_e2).
body(r_fr22_22,fr17_d2).
body(r_fr22_22,fr20_c2).
body(r_fr22_22,fr22_z2).
head(r_fr22_23,fr25_y2).
head(r_fr22_24,fr25_y2).
body(r_fr22_24,fr17_d2).
body(r_fr22_24,fr22_e1).
body(r_fr22_24,fr22_s2).
body(r_fr22_24,fr9_q1).
body(r_fr22_24,fr23_z1).
body(r_fr22_24,fr25_y2).
head(r_fr22_25,fr25_y2).
body(r_fr22_25,fr11_y3).
body(r_fr22_25,fr23_z1).
body(r_fr22_25,fr18_u1).
head(r_fr22_26,fr25_y2).
body(r_fr22_26,fr20_c2).
body(r_fr22_26,fr22_p1).
body(r_fr22_26,fr23_z1).
body(r_fr22_26,fr22_r2).
body(r_fr22_26,fr18_u1).
body(r_fr22_26,fr22_z2).
head(r_fr22_27,fr22_s1).
body(r_fr22_27,fr22_c1).
body(r_fr22_27,fr20_c2).
body(r_fr22_27,fr22_e1).
body(r_fr22_27,fr12_d1).
head(r_fr22_28,fr22_s1).
body(r_fr22_28,fr22_a1).
body(r_fr22_28,fr22_c1).
body(r_fr22_28,fr20_c2).
body(r_fr22_28,fr22_p1).
head(r_fr22_29,fr22_s1).
body(r_fr22_29,fr22_s2).
body(r_fr22_29,fr22_u1).
body(r_fr22_29,fr22_w2).
body(r_fr22_29,fr21_r2).
body(r_fr22_29,fr22_z2).
head(r_fr22_30,fr22_s1).
body(r_fr22_30,fr12_d1).
body(r_fr22_30,fr2_s2).
body(r_fr22_30,fr22_z2).
head(r_fr22_31,fr22_s1).
body(r_fr22_31,fr11_e2).
body(r_fr22_31,fr2_y3).
body(r_fr22_31,fr23_z1).
body(r_fr22_31,fr22_x1).
body(r_fr22_31,fr21_r2).
head(r_fr22_32,fr1_u1).
head(r_fr22_33,fr1_u1).
body(r_fr22_33,fr12_d1).
body(r_fr22_33,fr12_d1).
body(r_fr22_33,fr2_y3).
body(r_fr22_33,fr21_r2).
head(r_fr22_34,fr1_u1).
body(r_fr22_34,fr11_y3).
head(r_fr22_35,fr1_u1).
body(r_fr22_35,fr12_d1).
body(r_fr22_35,fr20_c2).
body(r_fr22_35,fr12_d1).
body(r_fr22_35,fr12_d1).
body(r_fr22_35,fr22_s2).
body(r_fr22_35,fr23_z1).
head(r_fr22_36,fr1_u1).
body(r_fr22_36,fr11_y3).
body(r_fr22_36,fr2_y3).
body(r_fr22_36,fr22_v2).
head(r_fr22_37,fr1_u1).
body(r_fr22_37,fr17_p3).
body(r_fr22_37,fr15_x1).
body(r_fr22_37,fr22_s2).
body(r_fr22_37,fr22_v2).
head(r_fr22_38,fr2_y2).
body(r_fr22_38,fr22_a1).
body(r_fr22_38,fr11_e2).
body(r_fr22_38,fr20_c2).
head(r_fr22_39,fr2_y2).
body(r_fr22_39,fr22_a1).
body(r_fr22_39,fr17_d2).
body(r_fr22_39,fr20_c2).
body(r_fr22_39,fr12_d1).
body(r_fr22_39,fr22_u1).
body(r_fr22_39,fr25_y2).
head(r_fr22_40,fr2_y2).
body(r_fr22_40,fr22_a2).
body(r_fr22_40,fr17_d2).
body(r_fr22_40,fr22_e1).
head(r_fr22_41,fr2_y2).
body(r_fr22_41,fr2_s2).
body(r_fr22_41,fr22_r2).
body(r_fr22_41,fr22_s2).
body(r_fr22_41,fr22_u1).
body(r_fr22_41,fr23_z1).
head(r_fr22_42,fr2_y2).
head(r_fr22_43,fr2_y2).
body(r_fr22_43,fr22_a2).
body(r_fr22_43,fr2_y3).
body(r_fr22_43,fr23_z1).
body(r_fr22_43,fr15_x1).
body(r_fr22_43,fr22_v2).
body(r_fr22_43,fr25_y2).
head(r_fr22_44,fr23_z1).
body(r_fr22_44,fr20_c2).
head(r_fr22_45,fr23_z1).
body(r_fr22_45,fr17_d2).
body(r_fr22_45,fr12_d1).
body(r_fr22_45,fr22_p1).
head(r_fr22_46,fr23_z1).
body(r_fr22_46,fr12_d1).
body(r_fr22_46,fr12_d1).
head(r_fr22_47,fr23_z1).
body(r_fr22_47,fr17_p3).
body(r_fr22_47,fr18_u1).
body(r_fr22_47,fr22_x1).
body(r_fr22_47,fr25_y2).
body(r_fr22_47,fr21_r2).
head(r_fr22_48,fr23_z1).
body(r_fr22_48,fr11_e2).
body(r_fr22_48,fr9_b2).
body(r_fr22_48,fr22_e1).
body(r_fr22_48,fr17_d2).
head(r_fr22_49,fr23_z1).
body(r_fr22_49,fr22_p1).
body(r_fr22_49,fr23_z1).
body(r_fr22_49,fr24_s1).
body(r_fr22_49,fr21_r2).
body(r_fr22_49,fr22_x1).
body(r_fr22_49,fr21_r2).
head(r_fr22_50,fr2_s2).
body(r_fr22_50,fr22_a1).
body(r_fr22_50,fr11_e2).
body(r_fr22_50,fr12_d1).
body(r_fr22_50,fr20_c2).
body(r_fr22_50,fr25_y2).
head(r_fr22_51,fr2_s2).
body(r_fr22_51,fr22_e1).
body(r_fr22_51,fr12_d1).
body(r_fr22_51,fr2_y3).
body(r_fr22_51,fr9_q1).
body(r_fr22_51,fr25_y2).
head(r_fr22_52,fr2_s2).
body(r_fr22_52,fr22_p1).
body(r_fr22_52,fr22_s2).
body(r_fr22_52,fr21_r2).
head(r_fr22_53,fr2_s2).
body(r_fr22_53,fr22_a1).
body(r_fr22_53,fr22_a2).
body(r_fr22_53,fr12_d1).
body(r_fr22_53,fr12_d1).
head(r_fr22_54,fr2_s2).
body(r_fr22_54,fr11_e2).
body(r_fr22_54,fr17_d2).
body(r_fr22_54,fr12_d1).
body(r_fr22_54,fr9_b2).
body(r_fr22_54,fr12_d1).
head(r_fr22_55,fr2_s2).
body(r_fr22_55,fr21_r2).
head(r_fr22_56,fr22_v2).
body(r_fr22_56,fr17_d2).
body(r_fr22_56,fr2_s2).
body(r_fr22_56,fr25_y2).
head(r_fr22_57,fr22_v2).
body(r_fr22_57,fr12_d1).
body(r_fr22_57,fr17_d2).
body(r_fr22_57,fr22_u1).
head(r_fr22_58,fr22_v2).
body(r_fr22_58,fr22_a1).
body(r_fr22_58,fr12_d1).
body(r_fr22_58,fr20_c2).
body(r_fr22_58,fr12_d1).
head(r_fr22_59,fr22_v2).
body(r_fr22_59,fr17_d2).
head(r_fr22_60,fr22_v2).
body(r_fr22_60,fr22_x1).
head(r_fr22_61,fr22_v2).
body(r_fr22_61,fr22_s1).
body(r_fr22_61,fr22_u1).
body(r_fr22_61,fr9_q1).
body(r_fr22_61,fr22_x1).
head(r_fr22_62,fr9_q1).
body(r_fr22_62,fr22_u1).
head(r_fr22_63,fr9_q1).
body(r_fr22_63,fr2_s2).
body(r_fr22_63,fr22_r2).
body(r_fr22_63,fr15_x1).
body(r_fr22_63,fr22_s2).
body(r_fr22_63,fr24_s1).
head(r_fr22_64,fr9_q1).
body(r_fr22_64,fr12_d1).
body(r_fr22_64,fr12_d1).
head(r_fr22_65,fr9_q1).
body(r_fr22_65,fr12_d1).
body(r_fr22_65,fr11_e2).
body(r_fr22_65,fr12_d1).
body(r_fr22_65,fr22_c1).
body(r_fr22_65,fr20_c2).
body(r_fr22_65,fr22_s1).
head(r_fr22_66,fr9_q1).
head(r_fr22_67,fr22_z2).
body(r_fr22_67,fr22_a1).
body(r_fr22_67,fr20_c2).
body(r_fr22_67,fr17_d2).
body(r_fr22_67,fr12_d1).
head(r_fr22_68,fr22_z2).
body(r_fr22_68,fr22_a1).
body(r_fr22_68,fr22_s2).
body(r_fr22_68,fr21_r2).
body(r_fr22_68,fr22_w2).
head(r_fr22_69,fr22_z2).
body(r_fr22_69,fr22_a1).
body(r_fr22_69,fr20_c2).
body(r_fr22_69,fr12_d1).
body(r_fr22_69,fr23_z1).
head(r_fr22_70,fr22_z2).
body(r_fr22_70,fr11_e2).
body(r_fr22_70,fr17_d2).
body(r_fr22_70,fr17_d2).
body(r_fr22_70,fr12_d1).
head(r_fr22_71,fr22_z2).
body(r_fr22_71,fr22_x1).
head(r_fr22_72,fr22_z2).
body(r_fr22_72,fr17_d2).
body(r_fr22_72,fr22_c1).
body(r_fr22_72,fr20_c2).
body(r_fr22_72,fr9_b2).
body(r_fr22_72,fr22_e1).
body(r_fr22_72,fr17_d2).
head(r_fr22_73,fr21_r2).
body(r_fr22_73,fr22_a2).
body(r_fr22_73,fr12_d1).
body(r_fr22_73,fr20_c2).
body(r_fr22_73,fr9_b2).
body(r_fr22_73,fr18_u1).
head(r_fr22_74,fr21_r2).
head(r_fr22_75,fr21_r2).
body(r_fr22_75,fr12_d1).
body(r_fr22_75,fr20_c2).
head(r_fr22_76,fr21_r2).
body(r_fr22_76,fr22_r2).
head(r_fr22_77,fr21_r2).
body(r_fr22_77,fr22_a2).
body(r_fr22_77,fr12_d1).
body(r_fr22_77,fr22_p1).
body(r_fr22_77,fr2_s2).
head(r_fr22_78,fr21_r2).
body(r_fr22_78,fr22_r2).
body(r_fr22_78,fr23_z1).
head(r_fr22_79,fr21_r2).
body(r_fr22_79,fr12_d1).
body(r_fr22_79,fr9_b2).
body(r_fr22_79,fr12_d1).
body(r_fr22_79,fr17_p3).
head(r_fr22_80,fr21_r2).
body(r_fr22_80,fr22_a1).
body(r_fr22_80,fr11_e2).
body(r_fr22_80,fr12_d1).
body(r_fr22_80,fr20_c2).
body(r_fr22_80,fr25_y2).
head(r_fr22_81,fr21_r2).
body(r_fr22_81,fr22_a1).
body(r_fr22_81,fr9_b2).
body(r_fr22_81,fr17_p3).
head(r_fr22_82,fr21_r2).
body(r_fr22_82,fr22_a1).
head(r_fr22_83,fr22_p1).
body(r_fr22_83,fr12_d1).
body(r_fr22_83,fr17_d2).
body(r_fr22_83,fr11_y3).
body(r_fr22_83,fr22_s2).
head(r_fr22_84,fr22_p1).
head(r_fr22_85,fr22_p1).
body(r_fr22_85,fr22_a1).
head(r_fr22_86,fr22_p1).
body(r_fr22_86,fr17_d2).
body(r_fr22_86,fr12_d1).
head(r_fr22_87,fr22_p1).
body(r_fr22_87,fr11_y3).
body(r_fr22_87,fr21_r2).
body(r_fr22_87,fr23_z1).
body(r_fr22_87,fr21_r2).
head(r_fr22_88,fr22_p1).
body(r_fr22_88,fr12_d1).
body(r_fr22_88,fr2_y2).
head(r_fr22_89,fr22_p1).
body(r_fr22_89,fr20_c2).
body(r_fr22_89,fr25_y2).
head(r_fr22_90,fr22_p1).
body(r_fr22_90,fr12_d1).
body(r_fr22_90,fr17_p3).
body(r_fr22_90,fr21_r2).
head(r_fr22_91,fr23_z1).
body(r_fr22_91,fr12_d1).
body(r_fr22_91,fr9_b2).
body(r_fr22_91,fr25_y2).
head(r_fr22_92,fr23_z1).
body(r_fr22_92,fr25_y2).
head(r_fr22_93,fr23_z1).
body(r_fr22_93,fr22_a2).
body(r_fr22_93,fr12_d1).
body(r_fr22_93,fr22_c1).
body(r_fr22_93,fr9_b2).
head(r_fr22_94,fr23_z1).
body(r_fr22_94,fr22_a1).
body(r_fr22_94,fr22_x1).
head(r_fr22_95,fr23_z1).
body(r_fr22_95,fr12_d1).
head(r_fr22_96,fr23_z1).
body(r_fr22_96,fr22_a2).
body(r_fr22_96,fr18_u1).
body(r_fr22_96,fr1_u1).
body(r_fr22_96,fr22_v2).
body(r_fr22_96,fr21_r2).
head(r_fr22_97,fr23_z1).
body(r_fr22_97,fr17_p3).
body(r_fr22_97,fr22_r2).
head(r_fr22_98,fr23_z1).
head(r_fr22_99,fr24_s1).
body(r_fr22_99,fr17_d2).
body(r_fr22_99,fr25_y2).
head(r_fr22_100,fr24_s1).
body(r_fr22_100,fr9_b2).
body(r_fr22_100,fr17_d2).
head(r_fr22_101,fr24_s1).
body(r_fr22_101,fr11_e2).
body(r_fr22_101,fr18_u1).
body(r_fr22_101,fr22_z2).
head(r_fr22_102,fr24_s1).
body(r_fr22_102,fr11_e2).
body(r_fr22_102,fr22_c1).
body(r_fr22_102,fr12_d1).
head(r_fr22_103,fr24_s1).
body(r_fr22_103,fr22_a1).
body(r_fr22_103,fr11_e2).
body(r_fr22_103,fr21_r2).
body(r_fr22_103,fr21_r2).
head(r_fr22_104,fr24_s1).
body(r_fr22_104,fr17_d2).
head(r_fr22_105,fr24_s1).
head(r_fr22_106,fr11_y3).
head(r_fr22_107,fr11_y3).
body(r_fr22_107,fr20_c2).
body(r_fr22_107,fr12_d1).
body(r_fr22_107,fr18_u1).
body(r_fr22_107,fr21_r2).
body(r_fr22_107,fr25_y2).
head(r_fr22_108,fr11_y3).
body(r_fr22_108,fr12_d1).
body(r_fr22_108,fr9_b2).
body(r_fr22_108,fr12_d1).
body(r_fr22_108,fr24_s1).
body(r_fr22_108,fr1_u1).
body(r_fr22_108,fr22_z2).
head(r_fr22_109,fr11_y3).
body(r_fr22_109,fr11_e2).
body(r_fr22_109,fr22_c1).
body(r_fr22_109,fr17_d2).
head(r_fr22_110,fr11_y3).
body(r_fr22_110,fr17_d2).
head(r_fr22_111,fr2_y3).
body(r_fr22_111,fr23_z1).
head(r_fr22_112,fr2_y3).
body(r_fr22_112,fr11_e2).
body(r_fr22_112,fr12_d1).
body(r_fr22_112,fr22_e1).
body(r_fr22_112,fr12_d1).
body(r_fr22_112,fr2_s2).
body(r_fr22_112,fr1_u1).
head(r_fr22_113,fr2_y3).
body(r_fr22_113,fr15_x1).
head(r_fr22_114,fr2_y3).
body(r_fr22_114,fr11_e2).
body(r_fr22_114,fr12_d1).
body(r_fr22_114,fr15_x1).
head(r_fr22_115,fr2_y3).
body(r_fr22_115,fr22_c1).
body(r_fr22_115,fr22_e1).
body(r_fr22_115,fr22_p1).
body(r_fr22_115,fr2_y2).
head(r_fr22_116,fr2_y3).
head(r_fr22_117,fr25_y2).
head(r_fr22_118,fr25_y2).
body(r_fr22_118,fr22_a1).
body(r_fr22_118,fr11_e2).
body(r_fr22_118,fr17_d2).
body(r_fr22_118,fr9_b2).
head(r_fr22_119,fr25_y2).
body(r_fr22_119,fr9_q1).
head(r_fr22_120,fr25_y2).
body(r_fr22_120,fr22_c1).
body(r_fr22_120,fr2_y2).
head(r_fr22_121,fr25_y2).
body(r_fr22_121,fr22_s1).
head(r_fr22_122,fr25_y2).
body(r_fr22_122,fr22_a1).
body(r_fr22_122,fr12_d1).
body(r_fr22_122,fr22_p1).
body(r_fr22_122,fr22_r2).
body(r_fr22_122,fr21_r2).
head(r_fr22_123,fr25_y2).
body(r_fr22_123,fr12_d1).
body(r_fr22_123,fr12_d1).
body(r_fr22_123,fr9_q1).

assumption(fr17_d2).
assumption(fr17_d2).
assumption(fr23_c1).
assumption(fr23_d1).
assumption(fr4_e1).
assumption(fr6_d3).
assumption(fr12_d1).
assumption(fr23_b2).
assumption(fr23_c2).
contrary(fr17_d2,fr6_t2).
contrary(fr12_d1,fr23_p2).
contrary(fr17_d2,fr12_d1).
contrary(fr23_b2,fr23_q1).
contrary(fr23_c1,fr5_s1).
contrary(fr23_c2,fr24_y2).
contrary(fr23_d1,fr23_p2).
contrary(fr4_e1,fr12_d1).
contrary(fr6_d3,fr23_z1).
head(r_fr23_0,fr25_x1).
body(r_fr23_0,fr23_c1).
body(r_fr23_0,fr5_s1).
body(r_fr23_0,fr23_u1).
head(r_fr23_1,fr25_x1).
body(r_fr23_1,fr17_d2).
head(r_fr23_2,fr24_y2).
body(r_fr23_2,fr17_d2).
body(r_fr23_2,fr17_d2).
body(r_fr23_2,fr5_s1).
head(r_fr23_3,fr24_y2).
body(r_fr23_3,fr12_r1).
body(r_fr23_3,fr23_u1).
body(r_fr23_3,fr21_r2).
head(r_fr23_4,fr24_y2).
body(r_fr23_4,fr23_c1).
body(r_fr23_4,fr23_d1).
body(r_fr23_4,fr21_r2).
head(r_fr23_5,fr23_z1).
body(r_fr23_5,fr12_d1).
body(r_fr23_5,fr23_b2).
head(r_fr23_6,fr23_z1).
body(r_fr23_6,fr17_d2).
head(r_fr23_7,fr23_z1).
body(r_fr23_7,fr8_v2).
body(r_fr23_7,fr12_r1).
body(r_fr23_7,fr7_z1).
head(r_fr23_8,fr6_t2).
head(r_fr23_9,fr6_t2).
body(r_fr23_9,fr17_d2).
body(r_fr23_9,fr4_e1).
head(r_fr23_10,fr12_r1).
body(r_fr23_10,fr17_d2).
body(r_fr23_10,fr23_c2).
head(r_fr23_11,fr12_r1).
head(r_fr23_12,fr8_v2).
body(r_fr23_12,fr23_b2).
head(r_fr23_13,fr8_v2).
body(r_fr23_13,fr23_t1).
body(r_fr23_13,fr21_r2).
head(r_fr23_14,fr8_v2).
body(r_fr23_14,fr23_p2).
body(r_fr23_14,fr5_s1).
body(r_fr23_14,fr23_t1).
head(r_fr23_15,fr23_u1).
body(r_fr23_15,fr23_t1).
body(r_fr23_15,fr5_s1).
head(r_fr23_16,fr23_u1).
body(r_fr23_16,fr23_q1).
head(r_fr23_17,fr23_u1).
body(r_fr23_17,fr12_d1).
body(r_fr23_17,fr23_b2).
body(r_fr23_17,fr5_s1).
head(r_fr23_18,fr5_s1).
body(r_fr23_18,fr12_d1).
body(r_fr23_18,fr17_d2).
body(r_fr23_18,fr23_c1).
head(r_fr23_19,fr5_s1).
body(r_fr23_19,fr17_d2).
body(r_fr23_19,fr23_c1).
body(r_fr23_19,fr23_p2).
head(r_fr23_20,fr23_q1).
body(r_fr23_20,fr6_d3).
head(r_fr23_21,fr23_q1).
head(r_fr23_22,fr23_q1).
body(r_fr23_22,fr5_s1).
head(r_fr23_23,fr5_s1).
body(r_fr23_23,fr5_s1).
body(r_fr23_23,fr21_r2).
head(r_fr23_24,fr5_s1).
body(r_fr23_24,fr12_d1).
head(r_fr23_25,fr5_s1).
body(r_fr23_25,fr12_d1).
body(r_fr23_25,fr23_b2).
body(r_fr23_25,fr4_e1).
head(r_fr23_26,fr5_s1).
body(r_fr23_26,fr23_p2).
body(r_fr23_26,fr7_z1).
head(r_fr23_27,fr23_p2).
body(r_fr23_27,fr23_t1).
body(r_fr23_27,fr21_r2).
body(r_fr23_27,fr7_z1).
head(r_fr23_28,fr23_p2).
body(r_fr23_28,fr6_d3).
body(r_fr23_28,fr23_t1).
body(r_fr23_28,fr21_r2).
head(r_fr23_29,fr23_p2).

assumption(fr16_f2).
assumption(fr2_b1).
assumption(fr24_c1).
assumption(fr24_d1).
assumption(fr24_e1).
assumption(fr24_f1).
assumption(fr16_f1).
assumption(fr12_d1).
assumption(fr24_c2).
assumption(fr24_d2).
assumption(fr6_a4).
assumption(fr24_f2).
assumption(fr17_d2).
assumption(fr24_b3).
assumption(fr24_c3).
contrary(fr16_f2,fr24_u1).
contrary(fr16_f1,fr24_f1).
contrary(fr17_d2,fr24_s1).
contrary(fr2_b1,fr6_a4).
contrary(fr12_d1,fr24_c1).
contrary(fr24_b3,fr6_t2).
contrary(fr24_c1,fr2_b1).
contrary(fr24_c2,fr23_z1).
contrary(fr24_c3,fr6_q4).
contrary(fr24_d1,fr24_y2).
contrary(fr24_d2,fr12_d1).
contrary(fr24_e1,fr16_f1).
contrary(fr6_a4,fr24_p2).
contrary(fr24_f1,fr24_x3).
contrary(fr24_f2,fr24_r1).
head(r_fr24_0,fr1_p1).
body(r_fr24_0,fr24_b3).
body(r_fr24_0,fr24_c3).
body(r_fr24_0,fr24_d1).
head(r_fr24_1,fr1_p1).
head(r_fr24_2,fr1_p1).
body(r_fr24_2,fr16_f2).
body(r_fr24_2,fr24_d1).
body(r_fr24_2,fr2_y3).
head(r_fr24_3,fr24_z1).
body(r_fr24_3,fr6_a4).
body(r_fr24_3,fr24_p3).
head(r_fr24_4,fr24_z1).
body(r_fr24_4,fr10_r3).
head(r_fr24_5,fr24_z1).
body(r_fr24_5,fr16_f1).
body(r_fr24_5,fr12_d1).
body(r_fr24_5,fr24_e1).
head(r_fr24_6,fr24_z1).
body(r_fr24_6,fr24_e1).
body(r_fr24_6,fr13_q3).
body(r_fr24_6,fr21_r2).
head(r_fr24_7,fr24_z1).
body(r_fr24_7,fr24_v2).
head(r_fr24_8,fr24_s1).
body(r_fr24_8,fr16_f2).
body(r_fr24_8,fr2_b1).
head(r_fr24_9,fr24_s1).
body(r_fr24_9,fr24_d2).
head(r_fr24_10,fr24_s1).
body(r_fr24_10,fr6_a4).
body(r_fr24_10,fr24_f2).
head(r_fr24_11,fr24_s1).
body(r_fr24_11,fr6_a4).
body(r_fr24_11,fr24_x3).
head(r_fr24_12,fr24_s1).
body(r_fr24_12,fr24_d1).
body(r_fr24_12,fr24_e1).
body(r_fr24_12,fr24_f2).
head(r_fr24_13,fr5_s1).
body(r_fr24_13,fr24_d2).
head(r_fr24_14,fr5_s1).
body(r_fr24_14,fr24_b3).
body(r_fr24_14,fr21_r2).
head(r_fr24_15,fr5_s1).
head(r_fr24_16,fr24_z3).
body(r_fr24_16,fr16_f1).
body(r_fr24_16,fr2_b1).
head(r_fr24_17,fr24_z3).
body(r_fr24_17,fr24_p2).
body(r_fr24_17,fr24_p3).
body(r_fr24_17,fr21_r2).
head(r_fr24_18,fr24_z3).
head(r_fr24_19,fr24_z3).
body(r_fr24_19,fr24_s3).
head(r_fr24_20,fr24_z3).
body(r_fr24_20,fr24_p2).
head(r_fr24_21,fr10_r3).
body(r_fr24_21,fr16_f1).
body(r_fr24_21,fr10_u2).
body(r_fr24_21,fr24_t3).
head(r_fr24_22,fr10_r3).
body(r_fr24_22,fr2_b1).
body(r_fr24_22,fr24_t3).
body(r_fr24_22,fr21_r2).
head(r_fr24_23,fr24_r3).
body(r_fr24_23,fr24_v2).
head(r_fr24_24,fr24_r3).
body(r_fr24_24,fr21_r2).
head(r_fr24_25,fr24_r3).
body(r_fr24_25,fr24_f1).
body(r_fr24_25,fr24_r1).
body(r_fr24_25,fr23_z1).
head(r_fr24_26,fr24_r3).
body(r_fr24_26,fr21_r2).
body(r_fr24_26,fr24_v2).
head(r_fr24_27,fr2_y3).
body(r_fr24_27,fr16_f1).
body(r_fr24_27,fr2_b1).
body(r_fr24_27,fr24_b3).
head(r_fr24_28,fr2_y3).
body(r_fr24_28,fr24_d2).
body(r_fr24_28,fr24_p1).
head(r_fr24_29,fr2_y3).
head(r_fr24_30,fr24_r1).
body(r_fr24_30,fr24_t3).
head(r_fr24_31,fr24_r1).
head(r_fr24_32,fr24_p2).
body(r_fr24_32,fr24_c1).
head(r_fr24_33,fr24_p2).
body(r_fr24_33,fr24_u2).
body(r_fr24_33,fr24_w1).
body(r_fr24_33,fr24_x1).
head(r_fr24_34,fr24_p2).
head(r_fr24_35,fr24_p2).
body(r_fr24_35,fr16_f2).
head(r_fr24_36,fr21_r2).
body(r_fr24_36,fr24_d1).
head(r_fr24_37,fr21_r2).
body(r_fr24_37,fr6_q4).
body(r_fr24_37,fr24_t3).
head(r_fr24_38,fr21_r2).
body(r_fr24_38,fr2_y3).
head(r_fr24_39,fr21_r2).
body(r_fr24_39,fr24_u2).
body(r_fr24_39,fr24_p3).
head(r_fr24_40,fr6_q4).
body(r_fr24_40,fr10_u2).
head(r_fr24_41,fr6_q4).
body(r_fr24_41,fr24_w1).
body(r_fr24_41,fr24_x1).
body(r_fr24_41,fr24_y2).
head(r_fr24_42,fr6_q4).
body(r_fr24_42,fr24_c3).
head(r_fr24_43,fr6_q4).
head(r_fr24_44,fr10_u2).
head(r_fr24_45,fr10_u2).
body(r_fr24_45,fr24_u1).
head(r_fr24_46,fr24_x3).
body(r_fr24_46,fr16_f2).
body(r_fr24_46,fr24_b3).
body(r_fr24_46,fr13_q3).
head(r_fr24_47,fr24_x3).
body(r_fr24_47,fr24_c3).
head(r_fr24_48,fr24_x3).
head(r_fr24_49,fr24_x3).
body(r_fr24_49,fr24_p1).
body(r_fr24_49,fr13_q3).
body(r_fr24_49,fr24_w1).
head(r_fr24_50,fr21_r2).
body(r_fr24_50,fr10_r3).
body(r_fr24_50,fr23_z1).
body(r_fr24_50,fr24_x1).
head(r_fr24_51,fr21_r2).
body(r_fr24_51,fr24_s3).
body(r_fr24_51,fr24_t3).
body(r_fr24_51,fr21_r2).
head(r_fr24_52,fr21_r2).
body(r_fr24_52,fr24_c2).
body(r_fr24_52,fr24_c3).
body(r_fr24_52,fr24_f2).
head(r_fr24_53,fr21_r2).
body(r_fr24_53,fr2_b1).
body(r_fr24_53,fr24_d1).
body(r_fr24_53,fr24_d2).
head(r_fr24_54,fr21_r2).
body(r_fr24_54,fr24_d1).
body(r_fr24_54,fr2_y3).
head(r_fr24_55,fr24_v2).
body(r_fr24_55,fr24_c1).
body(r_fr24_55,fr24_d1).
body(r_fr24_55,fr24_d2).
head(r_fr24_56,fr24_v2).
head(r_fr24_57,fr5_s1).
body(r_fr24_57,fr2_y3).
head(r_fr24_58,fr5_s1).
body(r_fr24_58,fr24_f1).
head(r_fr24_59,fr5_s1).
head(r_fr24_60,fr24_p3).
head(r_fr24_61,fr24_p3).
body(r_fr24_61,fr24_s3).
body(r_fr24_61,fr24_x1).
head(r_fr24_62,fr24_p3).
body(r_fr24_62,fr24_c1).
body(r_fr24_62,fr24_d1).
head(r_fr24_63,fr24_p3).
body(r_fr24_63,fr24_y2).
body(r_fr24_63,fr5_s1).
head(r_fr24_64,fr13_q3).
body(r_fr24_64,fr2_b1).
body(r_fr24_64,fr2_y3).
body(r_fr24_64,fr24_y2).
head(r_fr24_65,fr13_q3).
body(r_fr24_65,fr24_b3).
body(r_fr24_65,fr24_w1).
head(r_fr24_66,fr13_q3).
body(r_fr24_66,fr16_f2).
head(r_fr24_67,fr13_q3).
body(r_fr24_67,fr17_d2).
body(r_fr24_67,fr24_p3).
head(r_fr24_68,fr13_q3).
head(r_fr24_69,fr24_x1).
body(r_fr24_69,fr24_f1).
body(r_fr24_69,fr24_u2).
head(r_fr24_70,fr24_x1).
body(r_fr24_70,fr16_f2).
body(r_fr24_70,fr24_c2).
body(r_fr24_70,fr24_w1).

assumption(fr7_a4).
assumption(fr25_b1).
assumption(fr17_d2).
assumption(fr17_d2).
assumption(fr20_e3).
assumption(fr12_d1).
assumption(fr25_a2).
assumption(fr12_d1).
assumption(fr17_d2).
assumption(fr6_d4).
assumption(fr12_d1).
assumption(fr25_f2).
assumption(fr12_d1).
assumption(fr25_b3).
assumption(fr12_d1).
contrary(fr7_a4,fr11_y3).
contrary(fr25_a2,fr25_y2).
contrary(fr12_d1,fr22_w2).
contrary(fr25_b1,fr25_v1).
contrary(fr12_d1,fr6_d4).
contrary(fr25_b3,fr6_d4).
contrary(fr17_d2,fr25_v1).
contrary(fr17_d2,fr8_u2).
contrary(fr12_d1,fr12_d1).
contrary(fr17_d2,fr6_t2).
contrary(fr6_d4,fr10_r1).
contrary(fr20_e3,fr12_d1).
contrary(fr12_d1,fr11_y3).
contrary(fr12_d1,fr17_p3).
contrary(fr25_f2,fr25_x1).
head(r_fr25_0,fr18_u1).
body(r_fr25_0,fr21_r2).
body(r_fr25_0,fr25_z2).
head(r_fr25_1,fr18_u1).
body(r_fr25_1,fr12_d1).
body(r_fr25_1,fr17_d2).
body(r_fr25_1,fr12_d1).
body(r_fr25_1,fr25_x2).
head(r_fr25_2,fr18_u1).
body(r_fr25_2,fr21_r2).
head(r_fr25_3,fr18_u1).
body(r_fr25_3,fr7_a4).
body(r_fr25_3,fr6_d4).
body(r_fr25_3,fr12_d1).
body(r_fr25_3,fr12_d1).
body(r_fr25_3,fr6_t2).
head(r_fr25_4,fr18_u1).
body(r_fr25_4,fr6_d4).
body(r_fr25_4,fr25_r3).
body(r_fr25_4,fr8_u2).
body(r_fr25_4,fr20_x1).
body(r_fr25_4,fr22_w2).
head(r_fr25_5,fr18_u1).
body(r_fr25_5,fr11_y3).
body(r_fr25_5,fr22_w2).
head(r_fr25_6,fr18_u1).
body(r_fr25_6,fr25_a2).
body(r_fr25_6,fr11_y3).
body(r_fr25_6,fr25_q3).
head(r_fr25_7,fr18_u1).
body(r_fr25_7,fr25_q3).
body(r_fr25_7,fr8_u2).
head(r_fr25_8,fr18_u1).
body(r_fr25_8,fr7_a4).
body(r_fr25_8,fr12_d1).
body(r_fr25_8,fr25_b3).
body(r_fr25_8,fr20_e3).
body(r_fr25_8,fr13_q3).
body(r_fr25_8,fr25_u2).
head(r_fr25_9,fr18_u1).
body(r_fr25_9,fr7_a4).
body(r_fr25_9,fr12_d1).
body(r_fr25_9,fr12_d1).
body(r_fr25_9,fr25_f2).
body(r_fr25_9,fr20_x1).
head(r_fr25_10,fr18_u1).
body(r_fr25_10,fr12_d1).
body(r_fr25_10,fr25_b3).
body(r_fr25_10,fr12_d1).
body(r_fr25_10,fr25_f2).
body(r_fr25_10,fr22_w2).
head(r_fr25_11,fr18_u1).
body(r_fr25_11,fr13_q3).
body(r_fr25_11,fr25_x1).
head(r_fr25_12,fr18_u1).
body(r_fr25_12,fr17_d2).
body(r_fr25_12,fr12_d1).
body(r_fr25_12,fr12_d1).
head(r_fr25_13,fr18_u1).
body(r_fr25_13,fr17_d2).
body(r_fr25_13,fr6_t2).
body(r_fr25_13,fr20_x1).
body(r_fr25_13,fr25_v1).
head(r_fr25_14,fr18_u1).
body(r_fr25_14,fr12_d1).
body(r_fr25_14,fr12_d1).
body(r_fr25_14,fr25_f2).
body(r_fr25_14,fr10_r1).
head(r_fr25_15,fr18_u1).
body(r_fr25_15,fr25_a2).
body(r_fr25_15,fr25_b3).
body(r_fr25_15,fr25_z2).
head(r_fr25_16,fr18_u1).
body(r_fr25_16,fr12_d1).
body(r_fr25_16,fr6_d4).
body(r_fr25_16,fr10_r1).
body(r_fr25_16,fr25_z2).
head(r_fr25_17,fr18_u1).
body(r_fr25_17,fr25_b1).
head(r_fr25_18,fr18_u1).
body(r_fr25_18,fr25_q3).
head(r_fr25_19,fr18_u1).
body(r_fr25_19,fr12_d1).
body(r_fr25_19,fr12_d1).
body(r_fr25_19,fr12_d1).
head(r_fr25_20,fr18_u1).
body(r_fr25_20,fr25_a2).
body(r_fr25_20,fr6_d4).
body(r_fr25_20,fr12_d1).
head(r_fr25_21,fr18_u1).
body(r_fr25_21,fr25_f2).
body(r_fr25_21,fr25_p1).
body(r_fr25_21,fr25_p3).
head(r_fr25_22,fr18_u1).
head(r_fr25_23,fr18_u1).
body(r_fr25_23,fr11_y3).
body(r_fr25_23,fr13_q3).
body(r_fr25_23,fr21_u5).
body(r_fr25_23,fr25_v1).
body(r_fr25_23,fr22_w2).
body(r_fr25_23,fr25_z1).
head(r_fr25_24,fr18_u1).
body(r_fr25_24,fr25_b3).
body(r_fr25_24,fr17_d2).
body(r_fr25_24,fr12_d1).
body(r_fr25_24,fr17_p3).
head(r_fr25_25,fr17_p3).
body(r_fr25_25,fr25_b1).
body(r_fr25_25,fr17_d2).
body(r_fr25_25,fr12_d1).
body(r_fr25_25,fr25_p1).
head(r_fr25_26,fr17_p3).
body(r_fr25_26,fr12_d1).
body(r_fr25_26,fr25_p1).
body(r_fr25_26,fr25_x1).
head(r_fr25_27,fr17_p3).
body(r_fr25_27,fr25_b1).
head(r_fr25_28,fr17_p3).
body(r_fr25_28,fr12_d1).
body(r_fr25_28,fr25_p3).
body(r_fr25_28,fr25_q3).
head(r_fr25_29,fr17_p3).
body(r_fr25_29,fr12_d1).
head(r_fr25_30,fr17_p3).
body(r_fr25_30,fr7_a4).
body(r_fr25_30,fr17_d2).
body(r_fr25_30,fr11_y3).
body(r_fr25_30,fr25_p3).
head(r_fr25_31,fr17_p3).
body(r_fr25_31,fr17_d2).
head(r_fr25_32,fr17_p3).
body(r_fr25_32,fr25_b1).
body(r_fr25_32,fr17_d2).
body(r_fr25_32,fr12_d1).
body(r_fr25_32,fr25_v1).
body(r_fr25_32,fr25_z2).
head(r_fr25_33,fr17_p3).
body(r_fr25_33,fr12_d1).
body(r_fr25_33,fr10_r1).
body(r_fr25_33,fr8_u2).
body(r_fr25_33,fr22_w2).
head(r_fr25_34,fr17_p3).
body(r_fr25_34,fr6_d4).
body(r_fr25_34,fr11_y3).
body(r_fr25_34,fr25_p3).
body(r_fr25_34,fr8_z2).
body(r_fr25_34,fr25_w2).
body(r_fr25_34,fr25_x2).
head(r_fr25_35,fr17_p3).
body(r_fr25_35,fr17_d2).
body(r_fr25_35,fr12_d1).
body(r_fr25_35,fr22_w2).
body(r_fr25_35,fr25_w2).
body(r_fr25_35,fr25_y2).
head(r_fr25_36,fr17_p3).
body(r_fr25_36,fr11_y3).
body(r_fr25_36,fr25_u2).
head(r_fr25_37,fr17_p3).
body(r_fr25_37,fr25_a2).
body(r_fr25_37,fr12_d1).
head(r_fr25_38,fr17_p3).
body(r_fr25_38,fr25_b1).
body(r_fr25_38,fr10_r1).
head(r_fr25_39,fr17_p3).
body(r_fr25_39,fr20_e3).
body(r_fr25_39,fr25_x1).
head(r_fr25_40,fr17_p3).
body(r_fr25_40,fr6_t2).
body(r_fr25_40,fr25_r3).
body(r_fr25_40,fr10_r1).
body(r_fr25_40,fr20_x1).
body(r_fr25_40,fr25_x2).
body(r_fr25_40,fr25_y2).
head(r_fr25_41,fr17_p3).
body(r_fr25_41,fr7_a4).
body(r_fr25_41,fr25_a2).
body(r_fr25_41,fr12_d1).
body(r_fr25_41,fr17_d2).
body(r_fr25_41,fr6_d4).
body(r_fr25_41,fr20_e3).
head(r_fr25_42,fr17_p3).
body(r_fr25_42,fr12_d1).
body(r_fr25_42,fr25_p3).
head(r_fr25_43,fr17_p3).
body(r_fr25_43,fr25_a2).
body(r_fr25_43,fr12_d1).
body(r_fr25_43,fr25_p1).
body(r_fr25_43,fr25_z1).
head(r_fr25_44,fr17_p3).
body(r_fr25_44,fr10_r1).
body(r_fr25_44,fr22_w2).
body(r_fr25_44,fr25_x1).
head(r_fr25_45,fr17_p3).
body(r_fr25_45,fr17_d2).
body(r_fr25_45,fr12_d1).
body(r_fr25_45,fr12_d1).
body(r_fr25_45,fr25_f2).
head(r_fr25_46,fr17_p3).
head(r_fr25_47,fr17_p3).
body(r_fr25_47,fr20_e3).
body(r_fr25_47,fr12_d1).
body(r_fr25_47,fr25_q1).
head(r_fr25_48,fr17_p3).
body(r_fr25_48,fr7_a4).
body(r_fr25_48,fr12_d1).
body(r_fr25_48,fr12_d1).
body(r_fr25_48,fr6_t2).
body(r_fr25_48,fr25_z1).
head(r_fr25_49,fr25_x1).
body(r_fr25_49,fr6_d4).
body(r_fr25_49,fr10_r1).
body(r_fr25_49,fr21_u5).
body(r_fr25_49,fr21_r2).
body(r_fr25_49,fr25_x2).
head(r_fr25_50,fr25_x1).
body(r_fr25_50,fr12_d1).
body(r_fr25_50,fr25_f2).
body(r_fr25_50,fr13_q3).
body(r_fr25_50,fr25_v1).
head(r_fr25_51,fr25_x1).
body(r_fr25_51,fr25_p3).
body(r_fr25_51,fr8_u2).
head(r_fr25_52,fr25_x1).
body(r_fr25_52,fr17_d2).
body(r_fr25_52,fr20_e3).
body(r_fr25_52,fr12_d1).
body(r_fr25_52,fr12_d1).
head(r_fr25_53,fr25_x1).
body(r_fr25_53,fr12_d1).
body(r_fr25_53,fr25_b3).
body(r_fr25_53,fr6_d4).
body(r_fr25_53,fr12_d1).
body(r_fr25_53,fr10_r1).
head(r_fr25_54,fr25_x1).
body(r_fr25_54,fr7_a4).
body(r_fr25_54,fr20_e3).
body(r_fr25_54,fr12_d1).
body(r_fr25_54,fr25_p3).
body(r_fr25_54,fr25_v1).
head(r_fr25_55,fr25_x1).
body(r_fr25_55,fr7_a4).
body(r_fr25_55,fr17_d2).
body(r_fr25_55,fr22_w2).
body(r_fr25_55,fr25_y2).
head(r_fr25_56,fr25_x1).
body(r_fr25_56,fr12_d1).
body(r_fr25_56,fr12_d1).
body(r_fr25_56,fr25_q1).
body(r_fr25_56,fr25_q3).
body(r_fr25_56,fr13_q3).
body(r_fr25_56,fr21_u5).
head(r_fr25_57,fr25_x1).
body(r_fr25_57,fr7_a4).
body(r_fr25_57,fr25_b3).
body(r_fr25_57,fr20_e3).
body(r_fr25_57,fr25_f2).
head(r_fr25_58,fr25_x1).
body(r_fr25_58,fr25_y2).
head(r_fr25_59,fr25_x1).
body(r_fr25_59,fr7_a4).
body(r_fr25_59,fr8_u2).
head(r_fr25_60,fr25_x1).
body(r_fr25_60,fr6_t2).
head(r_fr25_61,fr25_x1).
body(r_fr25_61,fr25_p1).
body(r_fr25_61,fr11_y3).
body(r_fr25_61,fr8_u2).
body(r_fr25_61,fr22_w2).
body(r_fr25_61,fr25_x2).
head(r_fr25_62,fr25_x1).
body(r_fr25_62,fr25_b1).
body(r_fr25_62,fr12_d1).
head(r_fr25_63,fr25_x1).
body(r_fr25_63,fr25_b3).
head(r_fr25_64,fr25_x1).
body(r_fr25_64,fr7_a4).
body(r_fr25_64,fr12_d1).
body(r_fr25_64,fr25_b3).
body(r_fr25_64,fr17_d2).
body(r_fr25_64,fr25_f2).
head(r_fr25_65,fr25_x1).
body(r_fr25_65,fr8_z2).
head(r_fr25_66,fr25_x1).
body(r_fr25_66,fr25_a2).
body(r_fr25_66,fr6_d4).
body(r_fr25_66,fr21_u5).
body(r_fr25_66,fr25_w2).
body(r_fr25_66,fr25_x2).
head(r_fr25_67,fr25_x1).
body(r_fr25_67,fr25_b3).
body(r_fr25_67,fr17_d2).
head(r_fr25_68,fr25_x1).
body(r_fr25_68,fr10_r1).
body(r_fr25_68,fr21_u5).
body(r_fr25_68,fr8_u2).
body(r_fr25_68,fr25_u2).
body(r_fr25_68,fr25_z2).
head(r_fr25_69,fr25_x1).
body(r_fr25_69,fr7_a4).
body(r_fr25_69,fr6_d4).
body(r_fr25_69,fr25_q1).
body(r_fr25_69,fr8_z2).
body(r_fr25_69,fr25_r3).
body(r_fr25_69,fr25_z1).
head(r_fr25_70,fr25_x1).
head(r_fr25_71,fr25_x1).
body(r_fr25_71,fr25_b1).
head(r_fr25_72,fr25_x1).
body(r_fr25_72,fr7_a4).
body(r_fr25_72,fr17_d2).
body(r_fr25_72,fr17_d2).
body(r_fr25_72,fr6_d4).
body(r_fr25_72,fr25_p3).
body(r_fr25_72,fr25_u2).
head(r_fr25_73,fr20_x1).
body(r_fr25_73,fr12_d1).
body(r_fr25_73,fr17_d2).
body(r_fr25_73,fr17_d2).
body(r_fr25_73,fr25_v1).
body(r_fr25_73,fr25_x2).
head(r_fr25_74,fr20_x1).
body(r_fr25_74,fr25_p1).
body(r_fr25_74,fr8_z2).
body(r_fr25_74,fr22_w2).
body(r_fr25_74,fr25_z1).
body(r_fr25_74,fr25_z2).
head(r_fr25_75,fr20_x1).
body(r_fr25_75,fr25_b1).
body(r_fr25_75,fr25_b3).
body(r_fr25_75,fr25_x2).
body(r_fr25_75,fr25_z1).
head(r_fr25_76,fr20_x1).
body(r_fr25_76,fr25_b3).
body(r_fr25_76,fr17_d2).
body(r_fr25_76,fr12_d1).
body(r_fr25_76,fr13_q3).
head(r_fr25_77,fr20_x1).
body(r_fr25_77,fr17_d2).
body(r_fr25_77,fr12_d1).
body(r_fr25_77,fr25_v1).
head(r_fr25_78,fr20_x1).
body(r_fr25_78,fr25_p1).
body(r_fr25_78,fr25_r3).
body(r_fr25_78,fr10_r1).
body(r_fr25_78,fr21_r2).
head(r_fr25_79,fr20_x1).
body(r_fr25_79,fr7_a4).
head(r_fr25_80,fr20_x1).
body(r_fr25_80,fr21_u5).
body(r_fr25_80,fr8_u2).
body(r_fr25_80,fr25_u2).
body(r_fr25_80,fr25_v1).
body(r_fr25_80,fr25_w2).
body(r_fr25_80,fr25_x2).
head(r_fr25_81,fr20_x1).
body(r_fr25_81,fr17_d2).
body(r_fr25_81,fr25_v1).
body(r_fr25_81,fr25_y2).
body(r_fr25_81,fr25_z1).
head(r_fr25_82,fr20_x1).
body(r_fr25_82,fr12_d1).
body(r_fr25_82,fr12_d1).
body(r_fr25_82,fr25_q3).
body(r_fr25_82,fr25_r3).
body(r_fr25_82,fr25_z1).
body(r_fr25_82,fr25_z2).
head(r_fr25_83,fr20_x1).
body(r_fr25_83,fr25_r3).
body(r_fr25_83,fr21_u5).
head(r_fr25_84,fr20_x1).
body(r_fr25_84,fr25_a2).
body(r_fr25_84,fr25_b3).
body(r_fr25_84,fr12_d1).
body(r_fr25_84,fr12_d1).
head(r_fr25_85,fr20_x1).
body(r_fr25_85,fr7_a4).
body(r_fr25_85,fr6_d4).
body(r_fr25_85,fr25_p3).
body(r_fr25_85,fr21_u5).
body(r_fr25_85,fr25_x2).
body(r_fr25_85,fr25_z2).
head(r_fr25_86,fr20_x1).
body(r_fr25_86,fr12_d1).
head(r_fr25_87,fr20_x1).
body(r_fr25_87,fr25_b1).
body(r_fr25_87,fr17_d2).
body(r_fr25_87,fr12_d1).
head(r_fr25_88,fr20_x1).
body(r_fr25_88,fr17_d2).
body(r_fr25_88,fr6_d4).
body(r_fr25_88,fr20_e3).
body(r_fr25_88,fr25_f2).
body(r_fr25_88,fr21_r2).
head(r_fr25_89,fr20_x1).
head(r_fr25_90,fr20_x1).
body(r_fr25_90,fr25_a2).
body(r_fr25_90,fr13_q3).
body(r_fr25_90,fr21_u5).
body(r_fr25_90,fr25_x2).
head(r_fr25_91,fr20_x1).
body(r_fr25_91,fr12_d1).
body(r_fr25_91,fr25_x2).
head(r_fr25_92,fr20_x1).
body(r_fr25_92,fr17_d2).
body(r_fr25_92,fr20_e3).
body(r_fr25_92,fr12_d1).
body(r_fr25_92,fr21_r2).
body(r_fr25_92,fr25_z1).
head(r_fr25_93,fr20_x1).
body(r_fr25_93,fr12_d1).
body(r_fr25_93,fr17_d2).
head(r_fr25_94,fr20_x1).
body(r_fr25_94,fr12_d1).
body(r_fr25_94,fr25_b3).
body(r_fr25_94,fr12_d1).
body(r_fr25_94,fr17_d2).
body(r_fr25_94,fr25_f2).
head(r_fr25_95,fr20_x1).
body(r_fr25_95,fr25_b1).
body(r_fr25_95,fr6_d4).
body(r_fr25_95,fr10_r1).
head(r_fr25_96,fr20_x1).
body(r_fr25_96,fr25_b1).
body(r_fr25_96,fr12_d1).
body(r_fr25_96,fr12_d1).
head(r_fr25_97,fr20_x1).
body(r_fr25_97,fr25_a2).
body(r_fr25_97,fr12_d1).
body(r_fr25_97,fr25_w2).
body(r_fr25_97,fr25_z1).
head(r_fr25_98,fr20_x1).
body(r_fr25_98,fr17_d2).
head(r_fr25_99,fr25_y2).
body(r_fr25_99,fr25_a2).
body(r_fr25_99,fr12_d1).
body(r_fr25_99,fr12_d1).
body(r_fr25_99,fr17_d2).
body(r_fr25_99,fr17_d2).
body(r_fr25_99,fr20_e3).
head(r_fr25_100,fr25_y2).
body(r_fr25_100,fr25_a2).
body(r_fr25_100,fr12_d1).
body(r_fr25_100,fr20_e3).
body(r_fr25_100,fr12_d1).
body(r_fr25_100,fr25_q3).
head(r_fr25_101,fr25_y2).
body(r_fr25_101,fr25_a2).
body(r_fr25_101,fr25_f2).
body(r_fr25_101,fr11_y3).
body(r_fr25_101,fr8_z2).
body(r_fr25_101,fr6_t2).
body(r_fr25_101,fr25_w2).
head(r_fr25_102,fr25_y2).
head(r_fr25_103,fr25_y2).
body(r_fr25_103,fr12_d1).
body(r_fr25_103,fr17_d2).
body(r_fr25_103,fr12_d1).
body(r_fr25_103,fr25_f2).
head(r_fr25_104,fr25_y2).
body(r_fr25_104,fr7_a4).
body(r_fr25_104,fr17_d2).
head(r_fr25_105,fr25_y2).
body(r_fr25_105,fr25_q1).
head(r_fr25_106,fr25_y2).
body(r_fr25_106,fr25_b1).
body(r_fr25_106,fr25_q3).
head(r_fr25_107,fr25_y2).
body(r_fr25_107,fr12_d1).
head(r_fr25_108,fr25_y2).
body(r_fr25_108,fr17_d2).
body(r_fr25_108,fr17_d2).
body(r_fr25_108,fr12_d1).
body(r_fr25_108,fr13_q3).
body(r_fr25_108,fr25_w2).
head(r_fr25_109,fr25_y2).
body(r_fr25_109,fr25_b1).
body(r_fr25_109,fr12_d1).
body(r_fr25_109,fr12_d1).
body(r_fr25_109,fr6_d4).
body(r_fr25_109,fr12_d1).
body(r_fr25_109,fr25_f2).
head(r_fr25_110,fr25_y2).
body(r_fr25_110,fr17_d2).
head(r_fr25_111,fr25_y2).
body(r_fr25_111,fr8_z2).
body(r_fr25_111,fr25_w2).
head(r_fr25_112,fr25_y2).
body(r_fr25_112,fr12_d1).
body(r_fr25_112,fr25_q3).
body(r_fr25_112,fr25_r3).
body(r_fr25_112,fr8_u2).
body(r_fr25_112,fr25_w2).
head(r_fr25_113,fr25_y2).
body(r_fr25_113,fr25_b1).
body(r_fr25_113,fr17_d2).
body(r_fr25_113,fr20_e3).
body(r_fr25_113,fr12_d1).
head(r_fr25_114,fr25_y2).
body(r_fr25_114,fr11_y3).
head(r_fr25_115,fr25_y2).
body(r_fr25_115,fr12_d1).
body(r_fr25_115,fr25_p1).
body(r_fr25_115,fr25_p3).
body(r_fr25_115,fr25_q3).
body(r_fr25_115,fr13_q3).
body(r_fr25_115,fr25_z1).
head(r_fr25_116,fr25_y2).
body(r_fr25_116,fr11_y3).
body(r_fr25_116,fr21_u5).
head(r_fr25_117,fr25_y2).
body(r_fr25_117,fr12_d1).
body(r_fr25_117,fr12_d1).
head(r_fr25_118,fr25_y2).
body(r_fr25_118,fr12_d1).
body(r_fr25_118,fr17_d2).
body(r_fr25_118,fr25_r3).
body(r_fr25_118,fr13_q3).
head(r_fr25_119,fr25_y2).
body(r_fr25_119,fr17_d2).
body(r_fr25_119,fr25_r3).
body(r_fr25_119,fr10_r1).
body(r_fr25_119,fr8_u2).
head(r_fr25_120,fr25_y2).
body(r_fr25_120,fr25_b1).
body(r_fr25_120,fr25_x2).
head(r_fr25_121,fr25_y2).
body(r_fr25_121,fr17_d2).
body(r_fr25_121,fr12_d1).
head(r_fr25_122,fr25_z2).
body(r_fr25_122,fr7_a4).
body(r_fr25_122,fr12_d1).
head(r_fr25_123,fr25_z2).
body(r_fr25_123,fr25_q3).
head(r_fr25_124,fr25_z2).
body(r_fr25_124,fr12_d1).
body(r_fr25_124,fr12_d1).
body(r_fr25_124,fr12_d1).
head(r_fr25_125,fr25_z2).
body(r_fr25_125,fr25_a2).
body(r_fr25_125,fr12_d1).
body(r_fr25_125,fr25_p3).
body(r_fr25_125,fr10_r1).
head(r_fr25_126,fr25_z2).
body(r_fr25_126,fr17_d2).
body(r_fr25_126,fr25_p1).
head(r_fr25_127,fr25_z2).
body(r_fr25_127,fr25_b1).
body(r_fr25_127,fr25_b3).
body(r_fr25_127,fr6_d4).
body(r_fr25_127,fr12_d1).
body(r_fr25_127,fr21_u5).
head(r_fr25_128,fr25_z2).
body(r_fr25_128,fr7_a4).
body(r_fr25_128,fr25_a2).
body(r_fr25_128,fr12_d1).
body(r_fr25_128,fr11_y3).
body(r_fr25_128,fr8_u2).
head(r_fr25_129,fr25_z2).
body(r_fr25_129,fr7_a4).
body(r_fr25_129,fr12_d1).
head(r_fr25_130,fr25_z2).
body(r_fr25_130,fr25_a2).
body(r_fr25_130,fr12_d1).
body(r_fr25_130,fr25_f2).
body(r_fr25_130,fr21_u5).
body(r_fr25_130,fr21_r2).
head(r_fr25_131,fr25_z2).
body(r_fr25_131,fr22_w2).
body(r_fr25_131,fr25_z1).
head(r_fr25_132,fr25_z2).
body(r_fr25_132,fr17_d2).
body(r_fr25_132,fr17_d2).
body(r_fr25_132,fr12_d1).
body(r_fr25_132,fr25_f2).
head(r_fr25_133,fr25_z2).
body(r_fr25_133,fr25_p3).
body(r_fr25_133,fr25_q1).
body(r_fr25_133,fr8_z2).
body(r_fr25_133,fr13_q3).
body(r_fr25_133,fr25_w2).
head(r_fr25_134,fr25_z2).
body(r_fr25_134,fr25_b1).
body(r_fr25_134,fr12_d1).
body(r_fr25_134,fr25_w2).
head(r_fr25_135,fr25_z2).
body(r_fr25_135,fr12_d1).
body(r_fr25_135,fr17_d2).
body(r_fr25_135,fr8_u2).
body(r_fr25_135,fr25_u2).
head(r_fr25_136,fr25_z2).
body(r_fr25_136,fr12_d1).
body(r_fr25_136,fr12_d1).
body(r_fr25_136,fr8_z2).
head(r_fr25_137,fr25_z2).
body(r_fr25_137,fr7_a4).
body(r_fr25_137,fr25_a2).
body(r_fr25_137,fr17_d2).
body(r_fr25_137,fr17_d2).
body(r_fr25_137,fr25_q1).
head(r_fr25_138,fr25_z2).
body(r_fr25_138,fr8_z2).
body(r_fr25_138,fr8_u2).
body(r_fr25_138,fr25_u2).
body(r_fr25_138,fr22_w2).
head(r_fr25_139,fr25_z2).
body(r_fr25_139,fr25_x2).
head(r_fr25_140,fr25_z2).
body(r_fr25_140,fr25_a2).
body(r_fr25_140,fr12_d1).
body(r_fr25_140,fr17_d2).
body(r_fr25_140,fr17_d2).
body(r_fr25_140,fr25_r3).
body(r_fr25_140,fr21_r2).
head(r_fr25_141,fr25_z2).
body(r_fr25_141,fr7_a4).
body(r_fr25_141,fr25_a2).
body(r_fr25_141,fr17_d2).
body(r_fr25_141,fr17_d2).
body(r_fr25_141,fr17_d2).
body(r_fr25_141,fr25_q1).
head(r_fr25_142,fr25_z2).
head(r_fr25_143,fr25_z2).
body(r_fr25_143,fr12_d1).
body(r_fr25_143,fr6_t2).
body(r_fr25_143,fr10_r1).
body(r_fr25_143,fr25_w2).
head(r_fr25_144,fr25_z2).
body(r_fr25_144,fr22_w2).
head(r_fr25_145,fr25_z2).
body(r_fr25_145,fr25_f2).
body(r_fr25_145,fr25_q1).
body(r_fr25_145,fr25_v1).
head(r_fr25_146,fr25_z2).
body(r_fr25_146,fr12_d1).
body(r_fr25_146,fr17_d2).
body(r_fr25_146,fr25_q3).
body(r_fr25_146,fr22_w2).
head(r_fr25_147,fr25_z2).
body(r_fr25_147,fr25_a2).
body(r_fr25_147,fr17_d2).
body(r_fr25_147,fr21_u5).
body(r_fr25_147,fr25_v1).
head(r_fr25_148,fr25_z1).
body(r_fr25_148,fr25_q3).
body(r_fr25_148,fr10_r1).
body(r_fr25_148,fr13_q3).
body(r_fr25_148,fr8_u2).
body(r_fr25_148,fr25_x2).
head(r_fr25_149,fr25_z1).
body(r_fr25_149,fr25_a2).
body(r_fr25_149,fr12_d1).
body(r_fr25_149,fr17_d2).
body(r_fr25_149,fr20_e3).
body(r_fr25_149,fr6_t2).
head(r_fr25_150,fr25_z1).
body(r_fr25_150,fr7_a4).
body(r_fr25_150,fr25_b1).
body(r_fr25_150,fr12_d1).
body(r_fr25_150,fr25_b3).
body(r_fr25_150,fr25_x2).
head(r_fr25_151,fr25_z1).
body(r_fr25_151,fr7_a4).
body(r_fr25_151,fr17_d2).
body(r_fr25_151,fr17_d2).
body(r_fr25_151,fr12_d1).
body(r_fr25_151,fr17_d2).
head(r_fr25_152,fr25_z1).
body(r_fr25_152,fr21_u5).
head(r_fr25_153,fr25_z1).
body(r_fr25_153,fr6_d4).
body(r_fr25_153,fr12_d1).
body(r_fr25_153,fr25_f2).
body(r_fr25_153,fr25_p3).
body(r_fr25_153,fr13_q3).
head(r_fr25_154,fr25_z1).
body(r_fr25_154,fr25_q3).
body(r_fr25_154,fr8_u2).
body(r_fr25_154,fr25_v1).
body(r_fr25_154,fr21_r2).
head(r_fr25_155,fr25_z1).
body(r_fr25_155,fr7_a4).
body(r_fr25_155,fr25_p1).
body(r_fr25_155,fr11_y3).
body(r_fr25_155,fr6_t2).
body(r_fr25_155,fr25_v1).
head(r_fr25_156,fr25_z1).
body(r_fr25_156,fr12_d1).
body(r_fr25_156,fr25_p1).
body(r_fr25_156,fr11_y3).
body(r_fr25_156,fr25_q1).
body(r_fr25_156,fr21_u5).
head(r_fr25_157,fr25_z1).
body(r_fr25_157,fr12_d1).
body(r_fr25_157,fr17_d2).
head(r_fr25_158,fr25_z1).
body(r_fr25_158,fr12_d1).
body(r_fr25_158,fr25_p3).
body(r_fr25_158,fr8_u2).
body(r_fr25_158,fr25_x2).
head(r_fr25_159,fr25_z1).
body(r_fr25_159,fr25_b1).
head(r_fr25_160,fr25_z1).
body(r_fr25_160,fr11_y3).
body(r_fr25_160,fr25_p3).
head(r_fr25_161,fr25_z1).
body(r_fr25_161,fr25_b3).
body(r_fr25_161,fr17_d2).
body(r_fr25_161,fr10_r1).
body(r_fr25_161,fr13_q3).
body(r_fr25_161,fr21_r2).
head(r_fr25_162,fr25_z1).
body(r_fr25_162,fr20_e3).
body(r_fr25_162,fr6_t2).
body(r_fr25_162,fr25_x2).
head(r_fr25_163,fr25_z1).
body(r_fr25_163,fr25_p3).
body(r_fr25_163,fr25_q1).
body(r_fr25_163,fr21_r2).
body(r_fr25_163,fr25_w2).
head(r_fr25_164,fr25_z1).
body(r_fr25_164,fr7_a4).
body(r_fr25_164,fr25_b1).
body(r_fr25_164,fr25_b3).
body(r_fr25_164,fr17_d2).
body(r_fr25_164,fr25_f2).
head(r_fr25_165,fr25_z1).
body(r_fr25_165,fr25_a2).
head(r_fr25_166,fr25_z1).
body(r_fr25_166,fr17_d2).
body(r_fr25_166,fr6_d4).
head(r_fr25_167,fr25_z1).
body(r_fr25_167,fr25_a2).
body(r_fr25_167,fr25_p1).
body(r_fr25_167,fr11_y3).
body(r_fr25_167,fr8_z2).
body(r_fr25_167,fr25_u2).
head(r_fr25_168,fr25_z1).
head(r_fr25_169,fr25_z1).
body(r_fr25_169,fr25_b1).
body(r_fr25_169,fr11_y3).
body(r_fr25_169,fr25_r3).
body(r_fr25_169,fr21_r2).
head(r_fr25_170,fr25_z1).
body(r_fr25_170,fr7_a4).
body(r_fr25_170,fr17_d2).
body(r_fr25_170,fr6_d4).
body(r_fr25_170,fr12_d1).
head(r_fr25_171,fr25_z1).
body(r_fr25_171,fr25_b1).
body(r_fr25_171,fr25_b3).
body(r_fr25_171,fr17_d2).
body(r_fr25_171,fr25_q3).
head(r_fr25_172,fr25_z1).
body(r_fr25_172,fr12_d1).
head(r_fr25_173,fr25_z1).
body(r_fr25_173,fr7_a4).
body(r_fr25_173,fr8_z2).
body(r_fr25_173,fr25_q3).
body(r_fr25_173,fr25_r3).
body(r_fr25_173,fr10_r1).
body(r_fr25_173,fr25_x2).
head(r_fr25_174,fr13_q3).
body(r_fr25_174,fr17_d2).
body(r_fr25_174,fr12_d1).
head(r_fr25_175,fr13_q3).
body(r_fr25_175,fr25_b1).
head(r_fr25_176,fr13_q3).
body(r_fr25_176,fr7_a4).
body(r_fr25_176,fr17_d2).
head(r_fr25_177,fr13_q3).
body(r_fr25_177,fr25_a2).
body(r_fr25_177,fr25_b3).
body(r_fr25_177,fr17_d2).
body(r_fr25_177,fr6_d4).
body(r_fr25_177,fr6_t2).
body(r_fr25_177,fr10_r1).
head(r_fr25_178,fr13_q3).
body(r_fr25_178,fr8_z2).
body(r_fr25_178,fr21_u5).
head(r_fr25_179,fr13_q3).
body(r_fr25_179,fr12_d1).
body(r_fr25_179,fr17_d2).
body(r_fr25_179,fr25_f2).
body(r_fr25_179,fr25_q1).
body(r_fr25_179,fr21_u5).
body(r_fr25_179,fr8_u2).
head(r_fr25_180,fr13_q3).
body(r_fr25_180,fr17_d2).
head(r_fr25_181,fr13_q3).
body(r_fr25_181,fr25_q1).
body(r_fr25_181,fr21_u5).
head(r_fr25_182,fr13_q3).
body(r_fr25_182,fr7_a4).
head(r_fr25_183,fr13_q3).
body(r_fr25_183,fr25_a2).
body(r_fr25_183,fr25_b1).
body(r_fr25_183,fr8_z2).
body(r_fr25_183,fr21_u5).
body(r_fr25_183,fr25_x2).
head(r_fr25_184,fr13_q3).
body(r_fr25_184,fr12_d1).
body(r_fr25_184,fr12_d1).
body(r_fr25_184,fr17_d2).
body(r_fr25_184,fr12_d1).
body(r_fr25_184,fr21_u5).
head(r_fr25_185,fr13_q3).
body(r_fr25_185,fr20_e3).
body(r_fr25_185,fr11_y3).
body(r_fr25_185,fr10_r1).
body(r_fr25_185,fr22_w2).
body(r_fr25_185,fr25_x2).
head(r_fr25_186,fr13_q3).
body(r_fr25_186,fr25_p1).
head(r_fr25_187,fr13_q3).
body(r_fr25_187,fr25_u2).
head(r_fr25_188,fr13_q3).
body(r_fr25_188,fr25_b1).
body(r_fr25_188,fr12_d1).
body(r_fr25_188,fr17_d2).
body(r_fr25_188,fr12_d1).
body(r_fr25_188,fr25_q3).
head(r_fr25_189,fr13_q3).
body(r_fr25_189,fr25_b3).
body(r_fr25_189,fr12_d1).
body(r_fr25_189,fr25_p1).
head(r_fr25_190,fr13_q3).
body(r_fr25_190,fr12_d1).
body(r_fr25_190,fr25_b1).
body(r_fr25_190,fr12_d1).
body(r_fr25_190,fr25_p3).
head(r_fr25_191,fr13_q3).
body(r_fr25_191,fr11_y3).
body(r_fr25_191,fr25_p3).
body(r_fr25_191,fr10_r1).
body(r_fr25_191,fr8_u2).
head(r_fr25_192,fr13_q3).
body(r_fr25_192,fr25_b1).
body(r_fr25_192,fr12_d1).
body(r_fr25_192,fr6_d4).
body(r_fr25_192,fr25_f2).
body(r_fr25_192,fr25_p3).
body(r_fr25_192,fr25_x2).
head(r_fr25_193,fr13_q3).
head(r_fr25_194,fr13_q3).
body(r_fr25_194,fr12_d1).
body(r_fr25_194,fr11_y3).
body(r_fr25_194,fr25_p3).
body(r_fr25_194,fr25_q3).
body(r_fr25_194,fr22_w2).
body(r_fr25_194,fr25_x2).
head(r_fr25_195,fr13_q3).
body(r_fr25_195,fr25_a2).
body(r_fr25_195,fr8_z2).
head(r_fr25_196,fr13_q3).
body(r_fr25_196,fr12_d1).
body(r_fr25_196,fr21_u5).
body(r_fr25_196,fr21_r2).
head(r_fr25_197,fr13_q3).
body(r_fr25_197,fr25_a2).
body(r_fr25_197,fr12_d1).
body(r_fr25_197,fr12_d1).
body(r_fr25_197,fr25_v1).
head(r_fr25_198,fr25_p3).
body(r_fr25_198,fr25_b1).
body(r_fr25_198,fr6_d4).
body(r_fr25_198,fr12_d1).
body(r_fr25_198,fr12_d1).
head(r_fr25_199,fr25_p3).
body(r_fr25_199,fr25_p1).
body(r_fr25_199,fr25_q1).
body(r_fr25_199,fr6_t2).
body(r_fr25_199,fr25_r3).
body(r_fr25_199,fr25_u2).
head(r_fr25_200,fr25_p3).
body(r_fr25_200,fr25_b1).
head(r_fr25_201,fr25_p3).
body(r_fr25_201,fr25_x2).
head(r_fr25_202,fr25_p3).
body(r_fr25_202,fr12_d1).
body(r_fr25_202,fr6_t2).
head(r_fr25_203,fr25_p3).
body(r_fr25_203,fr12_d1).
body(r_fr25_203,fr25_p1).
body(r_fr25_203,fr11_y3).
body(r_fr25_203,fr25_q1).
body(r_fr25_203,fr22_w2).
body(r_fr25_203,fr25_w2).
head(r_fr25_204,fr25_p3).
body(r_fr25_204,fr12_d1).
body(r_fr25_204,fr25_b3).
body(r_fr25_204,fr25_f2).
body(r_fr25_204,fr25_p1).
body(r_fr25_204,fr25_w2).
head(r_fr25_205,fr25_p3).
body(r_fr25_205,fr25_b3).
body(r_fr25_205,fr11_y3).
body(r_fr25_205,fr22_w2).
body(r_fr25_205,fr25_x2).
head(r_fr25_206,fr25_p3).
body(r_fr25_206,fr8_u2).
body(r_fr25_206,fr25_v1).
body(r_fr25_206,fr21_r2).
body(r_fr25_206,fr22_w2).
body(r_fr25_206,fr25_x2).
head(r_fr25_207,fr25_p3).
body(r_fr25_207,fr12_d1).
head(r_fr25_208,fr25_p3).
body(r_fr25_208,fr21_u5).
body(r_fr25_208,fr25_v1).
head(r_fr25_209,fr25_p3).
body(r_fr25_209,fr25_b3).
body(r_fr25_209,fr12_d1).
body(r_fr25_209,fr17_d2).
body(r_fr25_209,fr11_y3).
body(r_fr25_209,fr25_v1).
head(r_fr25_210,fr25_p3).
body(r_fr25_210,fr7_a4).
body(r_fr25_210,fr25_a2).
body(r_fr25_210,fr12_d1).
body(r_fr25_210,fr6_d4).
head(r_fr25_211,fr25_p3).
body(r_fr25_211,fr25_a2).
head(r_fr25_212,fr25_p3).
body(r_fr25_212,fr25_b1).
body(r_fr25_212,fr25_p1).
body(r_fr25_212,fr25_q1).
body(r_fr25_212,fr8_z2).
body(r_fr25_212,fr10_r1).
body(r_fr25_212,fr25_v1).
head(r_fr25_213,fr25_p3).
body(r_fr25_213,fr25_p1).
head(r_fr25_214,fr25_p3).
body(r_fr25_214,fr6_t2).
body(r_fr25_214,fr21_u5).
body(r_fr25_214,fr8_u2).
body(r_fr25_214,fr25_v1).
body(r_fr25_214,fr25_w2).
body(r_fr25_214,fr25_x2).
head(r_fr25_215,fr25_p3).
body(r_fr25_215,fr12_d1).
body(r_fr25_215,fr25_p1).
body(r_fr25_215,fr25_q3).
body(r_fr25_215,fr21_u5).
body(r_fr25_215,fr25_u2).
body(r_fr25_215,fr25_v1).
head(r_fr25_216,fr25_p3).
body(r_fr25_216,fr25_f2).
body(r_fr25_216,fr8_z2).
body(r_fr25_216,fr25_v1).
head(r_fr25_217,fr25_p3).
body(r_fr25_217,fr20_e3).
body(r_fr25_217,fr25_r3).
head(r_fr25_218,fr25_p3).
head(r_fr25_219,fr25_p3).
body(r_fr25_219,fr10_r1).
head(r_fr25_220,fr25_p3).
body(r_fr25_220,fr25_a2).
body(r_fr25_220,fr25_b1).
head(r_fr25_221,fr25_p3).
body(r_fr25_221,fr7_a4).
body(r_fr25_221,fr25_b1).
body(r_fr25_221,fr25_f2).
body(r_fr25_221,fr11_y3).
body(r_fr25_221,fr8_z2).
body(r_fr25_221,fr25_w2).
head(r_fr25_222,fr25_p3).
body(r_fr25_222,fr7_a4).
body(r_fr25_222,fr25_b1).
body(r_fr25_222,fr12_d1).
body(r_fr25_222,fr20_e3).
body(r_fr25_222,fr12_d1).
body(r_fr25_222,fr25_q1).
head(r_fr25_223,fr25_p3).
body(r_fr25_223,fr11_y3).
head(r_fr25_224,fr8_u2).
body(r_fr25_224,fr25_a2).
body(r_fr25_224,fr17_d2).
body(r_fr25_224,fr12_d1).
body(r_fr25_224,fr25_p1).
body(r_fr25_224,fr25_r3).
head(r_fr25_225,fr8_u2).
body(r_fr25_225,fr25_q1).
body(r_fr25_225,fr25_w2).
head(r_fr25_226,fr8_u2).
body(r_fr25_226,fr25_q1).
body(r_fr25_226,fr8_z2).
body(r_fr25_226,fr6_t2).
body(r_fr25_226,fr25_r3).
body(r_fr25_226,fr10_r1).
body(r_fr25_226,fr25_w2).
head(r_fr25_227,fr8_u2).
body(r_fr25_227,fr17_d2).
body(r_fr25_227,fr6_d4).
body(r_fr25_227,fr8_z2).
head(r_fr25_228,fr8_u2).
body(r_fr25_228,fr12_d1).
body(r_fr25_228,fr12_d1).
body(r_fr25_228,fr25_w2).
head(r_fr25_229,fr8_u2).
body(r_fr25_229,fr8_z2).
head(r_fr25_230,fr8_u2).
body(r_fr25_230,fr7_a4).
body(r_fr25_230,fr25_a2).
body(r_fr25_230,fr25_b1).
body(r_fr25_230,fr17_d2).
body(r_fr25_230,fr6_d4).
body(r_fr25_230,fr25_f2).
head(r_fr25_231,fr8_u2).
body(r_fr25_231,fr7_a4).
head(r_fr25_232,fr8_u2).
body(r_fr25_232,fr12_d1).
body(r_fr25_232,fr17_d2).
body(r_fr25_232,fr17_d2).
body(r_fr25_232,fr12_d1).
body(r_fr25_232,fr12_d1).
body(r_fr25_232,fr12_d1).
head(r_fr25_233,fr8_u2).
body(r_fr25_233,fr25_a2).
body(r_fr25_233,fr17_d2).
body(r_fr25_233,fr25_u2).
body(r_fr25_233,fr25_w2).
head(r_fr25_234,fr8_u2).
body(r_fr25_234,fr25_u2).
head(r_fr25_235,fr8_u2).
body(r_fr25_235,fr25_p1).
body(r_fr25_235,fr25_x2).
head(r_fr25_236,fr8_u2).
body(r_fr25_236,fr7_a4).
body(r_fr25_236,fr8_z2).
body(r_fr25_236,fr25_r3).
body(r_fr25_236,fr10_r1).
head(r_fr25_237,fr8_u2).
body(r_fr25_237,fr7_a4).
body(r_fr25_237,fr12_d1).
body(r_fr25_237,fr17_d2).
body(r_fr25_237,fr25_f2).
head(r_fr25_238,fr8_u2).
body(r_fr25_238,fr25_u2).
body(r_fr25_238,fr25_w2).
head(r_fr25_239,fr8_u2).
body(r_fr25_239,fr17_d2).
body(r_fr25_239,fr10_r1).
body(r_fr25_239,fr25_u2).
head(r_fr25_240,fr8_u2).
body(r_fr25_240,fr17_d2).
body(r_fr25_240,fr25_w2).
head(r_fr25_241,fr8_u2).
body(r_fr25_241,fr17_d2).
body(r_fr25_241,fr6_d4).
body(r_fr25_241,fr12_d1).
body(r_fr25_241,fr25_f2).
head(r_fr25_242,fr8_u2).
body(r_fr25_242,fr12_d1).
body(r_fr25_242,fr21_r2).
head(r_fr25_243,fr8_u2).
body(r_fr25_243,fr11_y3).
body(r_fr25_243,fr25_r3).
body(r_fr25_243,fr21_u5).
body(r_fr25_243,fr25_v1).
body(r_fr25_243,fr25_x2).
head(r_fr25_244,fr8_u2).
body(r_fr25_244,fr25_f2).
body(r_fr25_244,fr25_p1).
body(r_fr25_244,fr25_v1).
head(r_fr25_245,fr8_u2).
body(r_fr25_245,fr7_a4).
body(r_fr25_245,fr25_b3).
body(r_fr25_245,fr17_d2).
body(r_fr25_245,fr12_d1).
body(r_fr25_245,fr11_y3).
head(r_fr25_246,fr8_u2).
body(r_fr25_246,fr25_b1).
body(r_fr25_246,fr17_d2).
body(r_fr25_246,fr12_d1).
body(r_fr25_246,fr17_d2).
body(r_fr25_246,fr6_d4).
body(r_fr25_246,fr25_q1).
head(r_fr25_247,fr8_u2).
head(r_fr25_248,fr8_u2).
body(r_fr25_248,fr12_d1).
body(r_fr25_248,fr12_d1).
head(r_fr25_249,fr6_t2).
body(r_fr25_249,fr25_p1).
body(r_fr25_249,fr8_z2).
body(r_fr25_249,fr10_r1).
body(r_fr25_249,fr21_u5).
body(r_fr25_249,fr21_r2).
head(r_fr25_250,fr6_t2).
body(r_fr25_250,fr12_d1).
body(r_fr25_250,fr11_y3).
head(r_fr25_251,fr6_t2).
body(r_fr25_251,fr7_a4).
body(r_fr25_251,fr25_a2).
body(r_fr25_251,fr17_d2).
head(r_fr25_252,fr6_t2).
body(r_fr25_252,fr8_z2).
head(r_fr25_253,fr6_t2).
body(r_fr25_253,fr25_q3).
head(r_fr25_254,fr6_t2).
body(r_fr25_254,fr25_a2).
body(r_fr25_254,fr12_d1).
body(r_fr25_254,fr25_b1).
body(r_fr25_254,fr12_d1).
body(r_fr25_254,fr17_d2).
body(r_fr25_254,fr17_d2).
head(r_fr25_255,fr6_t2).
body(r_fr25_255,fr17_d2).
body(r_fr25_255,fr12_d1).
body(r_fr25_255,fr17_d2).
body(r_fr25_255,fr20_e3).
body(r_fr25_255,fr25_r3).
body(r_fr25_255,fr25_x2).
head(r_fr25_256,fr6_t2).
body(r_fr25_256,fr25_u2).
head(r_fr25_257,fr6_t2).
body(r_fr25_257,fr12_d1).
body(r_fr25_257,fr25_q1).
body(r_fr25_257,fr25_v1).
body(r_fr25_257,fr25_w2).
body(r_fr25_257,fr25_x2).
head(r_fr25_258,fr6_t2).
body(r_fr25_258,fr11_y3).
head(r_fr25_259,fr6_t2).
body(r_fr25_259,fr25_a2).
body(r_fr25_259,fr12_d1).
body(r_fr25_259,fr17_d2).
body(r_fr25_259,fr25_r3).
body(r_fr25_259,fr25_u2).
body(r_fr25_259,fr25_w2).
head(r_fr25_260,fr6_t2).
head(r_fr25_261,fr6_t2).
body(r_fr25_261,fr12_d1).
body(r_fr25_261,fr17_d2).
body(r_fr25_261,fr11_y3).
body(r_fr25_261,fr25_v1).
body(r_fr25_261,fr21_r2).
body(r_fr25_261,fr22_w2).
head(r_fr25_262,fr6_t2).
body(r_fr25_262,fr7_a4).
body(r_fr25_262,fr12_d1).
body(r_fr25_262,fr25_b3).
body(r_fr25_262,fr12_d1).
body(r_fr25_262,fr25_f2).
head(r_fr25_263,fr6_t2).
body(r_fr25_263,fr17_d2).
head(r_fr25_264,fr6_t2).
body(r_fr25_264,fr25_x2).
head(r_fr25_265,fr6_t2).
body(r_fr25_265,fr11_y3).
body(r_fr25_265,fr8_z2).
body(r_fr25_265,fr25_x2).
head(r_fr25_266,fr6_t2).
body(r_fr25_266,fr12_d1).
body(r_fr25_266,fr8_z2).
body(r_fr25_266,fr10_r1).
body(r_fr25_266,fr21_u5).
body(r_fr25_266,fr25_u2).
body(r_fr25_266,fr25_v1).
head(r_fr25_267,fr6_t2).
body(r_fr25_267,fr7_a4).
body(r_fr25_267,fr12_d1).
body(r_fr25_267,fr25_b3).
body(r_fr25_267,fr12_d1).
head(r_fr25_268,fr6_t2).
body(r_fr25_268,fr6_d4).
body(r_fr25_268,fr10_r1).
body(r_fr25_268,fr25_w2).
head(r_fr25_269,fr6_t2).
body(r_fr25_269,fr6_d4).
body(r_fr25_269,fr12_d1).
body(r_fr25_269,fr8_z2).
body(r_fr25_269,fr21_r2).
head(r_fr25_270,fr6_t2).
body(r_fr25_270,fr25_b1).
body(r_fr25_270,fr25_b3).
body(r_fr25_270,fr25_f2).
head(r_fr25_271,fr6_t2).
body(r_fr25_271,fr17_d2).
body(r_fr25_271,fr17_d2).
body(r_fr25_271,fr12_d1).
body(r_fr25_271,fr12_d1).
head(r_fr25_272,fr25_w2).
body(r_fr25_272,fr25_b3).
head(r_fr25_273,fr25_w2).
body(r_fr25_273,fr7_a4).
body(r_fr25_273,fr12_d1).
body(r_fr25_273,fr20_e3).
body(r_fr25_273,fr11_y3).
body(r_fr25_273,fr10_r1).
head(r_fr25_274,fr25_w2).
body(r_fr25_274,fr12_d1).
body(r_fr25_274,fr17_d2).
body(r_fr25_274,fr8_z2).
body(r_fr25_274,fr21_u5).
head(r_fr25_275,fr25_w2).
body(r_fr25_275,fr12_d1).
body(r_fr25_275,fr25_q3).
body(r_fr25_275,fr22_w2).
head(r_fr25_276,fr25_w2).
body(r_fr25_276,fr12_d1).
body(r_fr25_276,fr25_p1).
body(r_fr25_276,fr25_q1).
body(r_fr25_276,fr25_r3).
body(r_fr25_276,fr25_v1).
body(r_fr25_276,fr22_w2).
head(r_fr25_277,fr25_w2).
body(r_fr25_277,fr25_r3).
body(r_fr25_277,fr21_u5).
body(r_fr25_277,fr25_u2).
body(r_fr25_277,fr22_w2).
head(r_fr25_278,fr25_w2).
body(r_fr25_278,fr7_a4).
body(r_fr25_278,fr25_a2).
body(r_fr25_278,fr12_d1).
body(r_fr25_278,fr12_d1).
body(r_fr25_278,fr12_d1).
body(r_fr25_278,fr22_w2).
head(r_fr25_279,fr25_w2).
body(r_fr25_279,fr12_d1).
body(r_fr25_279,fr17_d2).
body(r_fr25_279,fr17_d2).
body(r_fr25_279,fr25_q3).
body(r_fr25_279,fr21_r2).
head(r_fr25_280,fr25_w2).
body(r_fr25_280,fr20_e3).
body(r_fr25_280,fr12_d1).
body(r_fr25_280,fr11_y3).
head(r_fr25_281,fr25_w2).
body(r_fr25_281,fr8_z2).
head(r_fr25_282,fr25_w2).
body(r_fr25_282,fr12_d1).
body(r_fr25_282,fr25_p1).
body(r_fr25_282,fr25_r3).
head(r_fr25_283,fr25_w2).
body(r_fr25_283,fr25_r3).
body(r_fr25_283,fr25_x2).
head(r_fr25_284,fr25_w2).
body(r_fr25_284,fr17_d2).
body(r_fr25_284,fr8_z2).
head(r_fr25_285,fr25_w2).
body(r_fr25_285,fr7_a4).
body(r_fr25_285,fr12_d1).
body(r_fr25_285,fr17_d2).
body(r_fr25_285,fr6_d4).
body(r_fr25_285,fr12_d1).
body(r_fr25_285,fr22_w2).
head(r_fr25_286,fr25_w2).
body(r_fr25_286,fr7_a4).
body(r_fr25_286,fr12_d1).
head(r_fr25_287,fr25_w2).
body(r_fr25_287,fr7_a4).
body(r_fr25_287,fr12_d1).
body(r_fr25_287,fr25_r3).
head(r_fr25_288,fr25_w2).
body(r_fr25_288,fr25_b1).
body(r_fr25_288,fr17_d2).
head(r_fr25_289,fr25_w2).
body(r_fr25_289,fr11_y3).
body(r_fr25_289,fr25_r3).
body(r_fr25_289,fr25_v1).
body(r_fr25_289,fr21_r2).
body(r_fr25_289,fr22_w2).
head(r_fr25_290,fr25_w2).
body(r_fr25_290,fr25_b3).
body(r_fr25_290,fr25_f2).
body(r_fr25_290,fr22_w2).
head(r_fr25_291,fr25_w2).
body(r_fr25_291,fr12_d1).
body(r_fr25_291,fr25_f2).
body(r_fr25_291,fr25_q1).
head(r_fr25_292,fr25_w2).
head(r_fr25_293,fr25_w2).
body(r_fr25_293,fr25_q1).
head(r_fr25_294,fr25_w2).
body(r_fr25_294,fr25_b3).
body(r_fr25_294,fr25_p1).
body(r_fr25_294,fr8_z2).
body(r_fr25_294,fr10_r1).
body(r_fr25_294,fr21_r2).
head(r_fr25_295,fr25_q3).
body(r_fr25_295,fr25_a2).
body(r_fr25_295,fr25_b1).
body(r_fr25_295,fr10_r1).
body(r_fr25_295,fr21_u5).
body(r_fr25_295,fr25_x2).
head(r_fr25_296,fr25_q3).
body(r_fr25_296,fr12_d1).
body(r_fr25_296,fr25_f2).
body(r_fr25_296,fr25_p1).
body(r_fr25_296,fr25_q1).
body(r_fr25_296,fr21_r2).
head(r_fr25_297,fr25_q3).
body(r_fr25_297,fr7_a4).
body(r_fr25_297,fr12_d1).
body(r_fr25_297,fr25_p1).
body(r_fr25_297,fr10_r1).
body(r_fr25_297,fr21_u5).
body(r_fr25_297,fr22_w2).
head(r_fr25_298,fr25_q3).
body(r_fr25_298,fr12_d1).
body(r_fr25_298,fr17_d2).
body(r_fr25_298,fr17_d2).
head(r_fr25_299,fr25_q3).
body(r_fr25_299,fr25_u2).
head(r_fr25_300,fr25_q3).
body(r_fr25_300,fr10_r1).
head(r_fr25_301,fr25_q3).
body(r_fr25_301,fr12_d1).
body(r_fr25_301,fr6_d4).
body(r_fr25_301,fr12_d1).
body(r_fr25_301,fr25_f2).
body(r_fr25_301,fr22_w2).
head(r_fr25_302,fr25_q3).
body(r_fr25_302,fr25_a2).
body(r_fr25_302,fr25_b3).
body(r_fr25_302,fr12_d1).
head(r_fr25_303,fr25_q3).
body(r_fr25_303,fr25_b1).
head(r_fr25_304,fr25_q3).
body(r_fr25_304,fr11_y3).
body(r_fr25_304,fr25_q1).
body(r_fr25_304,fr25_r3).
body(r_fr25_304,fr21_u5).
body(r_fr25_304,fr25_v1).
body(r_fr25_304,fr21_r2).
head(r_fr25_305,fr25_q3).
body(r_fr25_305,fr11_y3).
body(r_fr25_305,fr25_q1).
body(r_fr25_305,fr21_u5).
body(r_fr25_305,fr25_u2).
body(r_fr25_305,fr25_v1).
body(r_fr25_305,fr25_x2).
head(r_fr25_306,fr25_q3).
body(r_fr25_306,fr25_b3).
body(r_fr25_306,fr8_z2).
body(r_fr25_306,fr10_r1).
body(r_fr25_306,fr21_r2).
head(r_fr25_307,fr25_q3).
body(r_fr25_307,fr17_d2).
body(r_fr25_307,fr12_d1).
head(r_fr25_308,fr25_q3).
body(r_fr25_308,fr12_d1).
body(r_fr25_308,fr17_d2).
body(r_fr25_308,fr17_d2).
body(r_fr25_308,fr8_z2).
head(r_fr25_309,fr25_q3).
body(r_fr25_309,fr25_a2).
body(r_fr25_309,fr12_d1).
body(r_fr25_309,fr12_d1).
body(r_fr25_309,fr17_d2).
body(r_fr25_309,fr20_e3).
head(r_fr25_310,fr25_q3).
body(r_fr25_310,fr12_d1).
body(r_fr25_310,fr17_d2).
body(r_fr25_310,fr17_d2).
body(r_fr25_310,fr12_d1).
head(r_fr25_311,fr25_q3).
body(r_fr25_311,fr12_d1).
body(r_fr25_311,fr12_d1).
body(r_fr25_311,fr25_q1).
head(r_fr25_312,fr25_q3).
body(r_fr25_312,fr12_d1).
body(r_fr25_312,fr25_b3).
body(r_fr25_312,fr8_z2).
body(r_fr25_312,fr21_u5).
body(r_fr25_312,fr25_x2).
head(r_fr25_313,fr25_q3).
head(r_fr25_314,fr25_q3).
body(r_fr25_314,fr12_d1).
body(r_fr25_314,fr17_d2).
body(r_fr25_314,fr12_d1).
body(r_fr25_314,fr11_y3).
body(r_fr25_314,fr22_w2).
body(r_fr25_314,fr25_x2).
head(r_fr25_315,fr25_q3).
body(r_fr25_315,fr7_a4).
body(r_fr25_315,fr12_d1).
body(r_fr25_315,fr12_d1).
body(r_fr25_315,fr11_y3).
head(r_fr25_316,fr25_q3).
body(r_fr25_316,fr8_z2).
body(r_fr25_316,fr21_u5).
body(r_fr25_316,fr25_u2).
body(r_fr25_316,fr25_v1).
body(r_fr25_316,fr22_w2).
head(r_fr25_317,fr25_q3).
body(r_fr25_317,fr12_d1).
body(r_fr25_317,fr10_r1).
body(r_fr25_317,fr21_r2).
head(r_fr25_318,fr25_q1).
body(r_fr25_318,fr22_w2).
head(r_fr25_319,fr25_q1).
body(r_fr25_319,fr21_u5).
head(r_fr25_320,fr25_q1).
body(r_fr25_320,fr25_a2).
body(r_fr25_320,fr12_d1).
body(r_fr25_320,fr17_d2).
body(r_fr25_320,fr12_d1).
body(r_fr25_320,fr25_v1).
head(r_fr25_321,fr25_q1).
body(r_fr25_321,fr25_r3).
head(r_fr25_322,fr25_q1).
body(r_fr25_322,fr25_p1).
body(r_fr25_322,fr8_z2).
body(r_fr25_322,fr10_r1).
body(r_fr25_322,fr21_r2).
body(r_fr25_322,fr25_x2).
head(r_fr25_323,fr25_q1).
body(r_fr25_323,fr12_d1).
body(r_fr25_323,fr17_d2).
body(r_fr25_323,fr25_r3).
body(r_fr25_323,fr10_r1).
body(r_fr25_323,fr22_w2).
body(r_fr25_323,fr25_x2).
head(r_fr25_324,fr25_q1).
body(r_fr25_324,fr7_a4).
body(r_fr25_324,fr12_d1).
body(r_fr25_324,fr17_d2).
body(r_fr25_324,fr12_d1).
body(r_fr25_324,fr25_f2).
head(r_fr25_325,fr25_q1).
body(r_fr25_325,fr25_a2).
body(r_fr25_325,fr25_b1).
body(r_fr25_325,fr17_d2).
body(r_fr25_325,fr20_e3).
head(r_fr25_326,fr25_q1).
body(r_fr25_326,fr12_d1).
head(r_fr25_327,fr25_q1).
body(r_fr25_327,fr12_d1).
body(r_fr25_327,fr25_f2).
body(r_fr25_327,fr11_y3).
body(r_fr25_327,fr25_u2).
head(r_fr25_328,fr25_q1).
body(r_fr25_328,fr25_v1).
head(r_fr25_329,fr25_q1).
body(r_fr25_329,fr25_p1).
body(r_fr25_329,fr25_u2).
body(r_fr25_329,fr25_x2).
head(r_fr25_330,fr25_q1).
body(r_fr25_330,fr25_b3).
body(r_fr25_330,fr17_d2).
body(r_fr25_330,fr12_d1).
head(r_fr25_331,fr25_q1).
body(r_fr25_331,fr25_p1).
body(r_fr25_331,fr11_y3).
body(r_fr25_331,fr21_u5).
body(r_fr25_331,fr22_w2).
head(r_fr25_332,fr25_q1).
body(r_fr25_332,fr12_d1).
body(r_fr25_332,fr12_d1).
body(r_fr25_332,fr6_d4).
body(r_fr25_332,fr25_r3).
head(r_fr25_333,fr25_q1).
body(r_fr25_333,fr25_p1).
body(r_fr25_333,fr11_y3).
body(r_fr25_333,fr8_z2).
body(r_fr25_333,fr25_r3).
body(r_fr25_333,fr25_u2).
body(r_fr25_333,fr25_v1).
head(r_fr25_334,fr25_q1).
body(r_fr25_334,fr25_b1).
body(r_fr25_334,fr17_d2).
body(r_fr25_334,fr8_z2).
body(r_fr25_334,fr21_r2).
body(r_fr25_334,fr25_x2).
head(r_fr25_335,fr25_q1).
body(r_fr25_335,fr17_d2).
body(r_fr25_335,fr12_d1).
body(r_fr25_335,fr12_d1).
head(r_fr25_336,fr25_q1).
body(r_fr25_336,fr12_d1).
body(r_fr25_336,fr12_d1).
body(r_fr25_336,fr17_d2).
body(r_fr25_336,fr21_u5).
body(r_fr25_336,fr21_r2).
head(r_fr25_337,fr25_q1).
head(r_fr25_338,fr25_q1).
body(r_fr25_338,fr17_d2).
body(r_fr25_338,fr25_f2).
body(r_fr25_338,fr25_u2).
head(r_fr25_339,fr25_q1).
body(r_fr25_339,fr25_p1).
body(r_fr25_339,fr21_u5).
head(r_fr25_340,fr25_q1).
body(r_fr25_340,fr17_d2).
head(r_fr25_341,fr25_q1).
body(r_fr25_341,fr12_d1).
head(r_fr25_342,fr25_r3).
body(r_fr25_342,fr25_p1).
body(r_fr25_342,fr11_y3).
body(r_fr25_342,fr10_r1).
body(r_fr25_342,fr21_u5).
body(r_fr25_342,fr21_r2).
body(r_fr25_342,fr25_x2).
head(r_fr25_343,fr25_r3).
body(r_fr25_343,fr11_y3).
body(r_fr25_343,fr25_u2).
body(r_fr25_343,fr21_r2).
body(r_fr25_343,fr22_w2).
head(r_fr25_344,fr25_r3).
body(r_fr25_344,fr25_b1).
body(r_fr25_344,fr25_b3).
body(r_fr25_344,fr17_d2).
body(r_fr25_344,fr12_d1).
body(r_fr25_344,fr17_d2).
body(r_fr25_344,fr10_r1).
head(r_fr25_345,fr25_r3).
body(r_fr25_345,fr10_r1).
body(r_fr25_345,fr21_u5).
body(r_fr25_345,fr25_u2).
body(r_fr25_345,fr25_x2).
head(r_fr25_346,fr25_r3).
body(r_fr25_346,fr17_d2).
body(r_fr25_346,fr17_d2).
body(r_fr25_346,fr12_d1).
body(r_fr25_346,fr25_f2).
head(r_fr25_347,fr25_r3).
body(r_fr25_347,fr6_d4).
body(r_fr25_347,fr25_f2).
body(r_fr25_347,fr25_u2).
head(r_fr25_348,fr25_r3).
body(r_fr25_348,fr25_b1).
body(r_fr25_348,fr11_y3).
body(r_fr25_348,fr10_r1).
head(r_fr25_349,fr25_r3).
body(r_fr25_349,fr21_u5).
head(r_fr25_350,fr25_r3).
body(r_fr25_350,fr25_u2).
head(r_fr25_351,fr25_r3).
body(r_fr25_351,fr12_d1).
body(r_fr25_351,fr6_d4).
body(r_fr25_351,fr11_y3).
body(r_fr25_351,fr8_z2).
body(r_fr25_351,fr21_r2).
head(r_fr25_352,fr25_r3).
body(r_fr25_352,fr21_r2).
head(r_fr25_353,fr25_r3).
body(r_fr25_353,fr25_p1).
body(r_fr25_353,fr11_y3).
body(r_fr25_353,fr10_r1).
body(r_fr25_353,fr25_v1).
body(r_fr25_353,fr22_w2).
body(r_fr25_353,fr25_x2).
head(r_fr25_354,fr25_r3).
body(r_fr25_354,fr25_b1).
head(r_fr25_355,fr25_r3).
body(r_fr25_355,fr6_d4).
body(r_fr25_355,fr12_d1).
head(r_fr25_356,fr25_r3).
body(r_fr25_356,fr25_b3).
body(r_fr25_356,fr21_u5).
body(r_fr25_356,fr21_r2).
head(r_fr25_357,fr25_r3).
body(r_fr25_357,fr12_d1).
body(r_fr25_357,fr20_e3).
head(r_fr25_358,fr25_r3).
body(r_fr25_358,fr7_a4).
body(r_fr25_358,fr12_d1).
body(r_fr25_358,fr8_z2).
body(r_fr25_358,fr10_r1).
body(r_fr25_358,fr21_r2).
head(r_fr25_359,fr25_r3).
head(r_fr25_360,fr25_r3).
body(r_fr25_360,fr12_d1).
body(r_fr25_360,fr25_u2).
body(r_fr25_360,fr25_v1).
body(r_fr25_360,fr21_r2).
head(r_fr25_361,fr25_r3).
body(r_fr25_361,fr25_a2).
body(r_fr25_361,fr25_b3).
body(r_fr25_361,fr12_d1).
body(r_fr25_361,fr25_f2).
body(r_fr25_361,fr25_x2).
head(r_fr25_362,fr25_r3).
body(r_fr25_362,fr12_d1).
body(r_fr25_362,fr25_b3).
body(r_fr25_362,fr12_d1).
head(r_fr25_363,fr25_r3).
body(r_fr25_363,fr25_v1).
head(r_fr25_364,fr25_r3).
body(r_fr25_364,fr8_z2).
head(r_fr25_365,fr25_r3).
body(r_fr25_365,fr12_d1).
body(r_fr25_365,fr12_d1).
body(r_fr25_365,fr25_f2).
head(r_fr25_366,fr25_p1).
body(r_fr25_366,fr25_a2).
body(r_fr25_366,fr12_d1).
body(r_fr25_366,fr12_d1).
body(r_fr25_366,fr8_z2).
head(r_fr25_367,fr25_p1).
body(r_fr25_367,fr25_x2).
head(r_fr25_368,fr25_p1).
body(r_fr25_368,fr25_a2).
body(r_fr25_368,fr12_d1).
body(r_fr25_368,fr25_f2).
body(r_fr25_368,fr11_y3).
body(r_fr25_368,fr21_r2).
head(r_fr25_369,fr25_p1).
body(r_fr25_369,fr7_a4).
body(r_fr25_369,fr25_b1).
body(r_fr25_369,fr17_d2).
body(r_fr25_369,fr20_e3).
body(r_fr25_369,fr21_r2).
body(r_fr25_369,fr25_x2).
head(r_fr25_370,fr25_p1).
body(r_fr25_370,fr11_y3).
head(r_fr25_371,fr25_p1).
body(r_fr25_371,fr17_d2).
body(r_fr25_371,fr6_d4).
body(r_fr25_371,fr11_y3).
body(r_fr25_371,fr10_r1).
body(r_fr25_371,fr21_u5).
head(r_fr25_372,fr25_p1).
body(r_fr25_372,fr8_z2).
body(r_fr25_372,fr10_r1).
body(r_fr25_372,fr21_u5).
body(r_fr25_372,fr21_r2).
head(r_fr25_373,fr25_p1).
body(r_fr25_373,fr25_b3).
body(r_fr25_373,fr12_d1).
body(r_fr25_373,fr6_d4).
body(r_fr25_373,fr21_u5).
body(r_fr25_373,fr25_u2).
body(r_fr25_373,fr21_r2).
head(r_fr25_374,fr25_p1).
body(r_fr25_374,fr10_r1).
head(r_fr25_375,fr25_p1).
body(r_fr25_375,fr11_y3).
body(r_fr25_375,fr10_r1).
body(r_fr25_375,fr25_u2).
body(r_fr25_375,fr22_w2).
body(r_fr25_375,fr25_x2).
head(r_fr25_376,fr25_p1).
body(r_fr25_376,fr7_a4).
body(r_fr25_376,fr25_b1).
body(r_fr25_376,fr12_d1).
body(r_fr25_376,fr25_b3).
body(r_fr25_376,fr17_d2).
body(r_fr25_376,fr12_d1).
head(r_fr25_377,fr25_p1).
body(r_fr25_377,fr6_d4).
body(r_fr25_377,fr12_d1).
body(r_fr25_377,fr10_r1).
body(r_fr25_377,fr25_u2).
body(r_fr25_377,fr22_w2).
body(r_fr25_377,fr25_x2).
head(r_fr25_378,fr25_p1).
body(r_fr25_378,fr25_b3).
head(r_fr25_379,fr25_p1).
body(r_fr25_379,fr12_d1).
body(r_fr25_379,fr17_d2).
body(r_fr25_379,fr22_w2).
head(r_fr25_380,fr25_p1).
body(r_fr25_380,fr11_y3).
body(r_fr25_380,fr21_u5).
head(r_fr25_381,fr25_p1).
body(r_fr25_381,fr25_f2).
head(r_fr25_382,fr25_p1).
body(r_fr25_382,fr8_z2).
body(r_fr25_382,fr25_v1).
body(r_fr25_382,fr21_r2).
head(r_fr25_383,fr25_p1).
body(r_fr25_383,fr17_d2).
head(r_fr25_384,fr25_p1).
body(r_fr25_384,fr8_z2).
body(r_fr25_384,fr21_u5).
body(r_fr25_384,fr25_u2).
body(r_fr25_384,fr25_v1).
body(r_fr25_384,fr21_r2).
body(r_fr25_384,fr22_w2).
head(r_fr25_385,fr25_p1).
body(r_fr25_385,fr7_a4).
body(r_fr25_385,fr25_b1).
body(r_fr25_385,fr12_d1).
body(r_fr25_385,fr20_e3).
body(r_fr25_385,fr21_r2).
body(r_fr25_385,fr22_w2).
head(r_fr25_386,fr25_p1).
body(r_fr25_386,fr12_d1).
body(r_fr25_386,fr11_y3).
body(r_fr25_386,fr10_r1).
body(r_fr25_386,fr25_v1).
body(r_fr25_386,fr22_w2).
head(r_fr25_387,fr25_p1).
body(r_fr25_387,fr12_d1).
body(r_fr25_387,fr25_b1).
body(r_fr25_387,fr12_d1).
body(r_fr25_387,fr12_d1).
body(r_fr25_387,fr20_e3).
body(r_fr25_387,fr21_u5).
head(r_fr25_388,fr25_p1).
body(r_fr25_388,fr17_d2).
body(r_fr25_388,fr25_f2).
body(r_fr25_388,fr11_y3).
body(r_fr25_388,fr10_r1).
body(r_fr25_388,fr25_u2).
body(r_fr25_388,fr21_r2).
head(r_fr25_389,fr25_u2).
body(r_fr25_389,fr12_d1).
body(r_fr25_389,fr17_d2).
body(r_fr25_389,fr10_r1).
body(r_fr25_389,fr25_x2).
head(r_fr25_390,fr25_u2).
body(r_fr25_390,fr12_d1).
body(r_fr25_390,fr25_b1).
body(r_fr25_390,fr12_d1).
body(r_fr25_390,fr25_b3).
body(r_fr25_390,fr21_r2).
body(r_fr25_390,fr25_x2).
head(r_fr25_391,fr25_u2).
body(r_fr25_391,fr12_d1).
body(r_fr25_391,fr10_r1).
body(r_fr25_391,fr21_r2).
body(r_fr25_391,fr22_w2).
head(r_fr25_392,fr25_u2).
body(r_fr25_392,fr17_d2).
body(r_fr25_392,fr12_d1).
body(r_fr25_392,fr17_d2).
body(r_fr25_392,fr20_e3).
body(r_fr25_392,fr8_z2).
body(r_fr25_392,fr10_r1).
head(r_fr25_393,fr25_u2).
body(r_fr25_393,fr25_a2).
body(r_fr25_393,fr25_b3).
body(r_fr25_393,fr17_d2).
body(r_fr25_393,fr25_v1).
head(r_fr25_394,fr25_u2).
body(r_fr25_394,fr17_d2).
body(r_fr25_394,fr20_e3).
body(r_fr25_394,fr11_y3).
body(r_fr25_394,fr8_z2).
body(r_fr25_394,fr21_u5).
body(r_fr25_394,fr21_r2).
head(r_fr25_395,fr25_u2).
body(r_fr25_395,fr17_d2).
body(r_fr25_395,fr6_d4).
body(r_fr25_395,fr10_r1).
head(r_fr25_396,fr25_u2).
body(r_fr25_396,fr10_r1).
body(r_fr25_396,fr21_r2).
head(r_fr25_397,fr25_u2).
body(r_fr25_397,fr25_b1).
body(r_fr25_397,fr25_f2).
body(r_fr25_397,fr25_v1).
body(r_fr25_397,fr22_w2).
head(r_fr25_398,fr25_u2).
body(r_fr25_398,fr25_f2).
head(r_fr25_399,fr25_u2).
body(r_fr25_399,fr17_d2).
body(r_fr25_399,fr25_x2).
head(r_fr25_400,fr25_u2).
body(r_fr25_400,fr6_d4).
body(r_fr25_400,fr8_z2).
body(r_fr25_400,fr21_u5).
head(r_fr25_401,fr25_u2).
body(r_fr25_401,fr12_d1).
body(r_fr25_401,fr11_y3).
body(r_fr25_401,fr10_r1).
body(r_fr25_401,fr25_v1).
body(r_fr25_401,fr21_r2).
body(r_fr25_401,fr22_w2).
head(r_fr25_402,fr25_u2).
body(r_fr25_402,fr17_d2).
body(r_fr25_402,fr12_d1).
body(r_fr25_402,fr12_d1).
head(r_fr25_403,fr25_u2).
body(r_fr25_403,fr8_z2).
body(r_fr25_403,fr22_w2).
head(r_fr25_404,fr25_u2).
body(r_fr25_404,fr25_v1).
body(r_fr25_404,fr21_r2).
head(r_fr25_405,fr25_u2).
body(r_fr25_405,fr7_a4).
body(r_fr25_405,fr21_r2).
head(r_fr25_406,fr25_u2).
body(r_fr25_406,fr25_a2).
body(r_fr25_406,fr8_z2).
body(r_fr25_406,fr25_x2).
head(r_fr25_407,fr25_u2).
body(r_fr25_407,fr12_d1).
head(r_fr25_408,fr25_u2).
head(r_fr25_409,fr25_u2).
body(r_fr25_409,fr7_a4).
head(r_fr25_410,fr25_u2).
body(r_fr25_410,fr12_d1).
body(r_fr25_410,fr25_b3).
body(r_fr25_410,fr17_d2).
body(r_fr25_410,fr17_d2).
body(r_fr25_410,fr17_d2).
head(r_fr25_411,fr25_u2).
body(r_fr25_411,fr25_a2).
body(r_fr25_411,fr12_d1).
body(r_fr25_411,fr25_b3).
body(r_fr25_411,fr17_d2).
body(r_fr25_411,fr25_f2).
head(r_fr25_412,fr25_u2).
body(r_fr25_412,fr12_d1).
body(r_fr25_412,fr12_d1).
body(r_fr25_412,fr6_d4).
head(r_fr25_413,fr10_r1).
body(r_fr25_413,fr12_d1).
head(r_fr25_414,fr10_r1).
body(r_fr25_414,fr7_a4).
body(r_fr25_414,fr25_b1).
body(r_fr25_414,fr12_d1).
body(r_fr25_414,fr21_u5).
head(r_fr25_415,fr10_r1).
head(r_fr25_416,fr10_r1).
body(r_fr25_416,fr8_z2).
body(r_fr25_416,fr25_x2).
head(r_fr25_417,fr10_r1).
body(r_fr25_417,fr25_b1).
body(r_fr25_417,fr17_d2).
body(r_fr25_417,fr25_f2).
body(r_fr25_417,fr25_x2).
head(r_fr25_418,fr10_r1).
body(r_fr25_418,fr21_r2).
head(r_fr25_419,fr10_r1).
body(r_fr25_419,fr21_r2).
body(r_fr25_419,fr22_w2).
body(r_fr25_419,fr25_x2).
head(r_fr25_420,fr10_r1).
body(r_fr25_420,fr25_b1).
body(r_fr25_420,fr17_d2).
body(r_fr25_420,fr12_d1).
body(r_fr25_420,fr21_u5).
body(r_fr25_420,fr21_r2).
body(r_fr25_420,fr25_x2).
head(r_fr25_421,fr10_r1).
body(r_fr25_421,fr7_a4).
body(r_fr25_421,fr25_b3).
body(r_fr25_421,fr20_e3).
body(r_fr25_421,fr12_d1).
body(r_fr25_421,fr25_v1).
head(r_fr25_422,fr10_r1).
body(r_fr25_422,fr7_a4).
body(r_fr25_422,fr12_d1).
body(r_fr25_422,fr21_u5).
head(r_fr25_423,fr10_r1).
body(r_fr25_423,fr25_v1).
body(r_fr25_423,fr22_w2).
head(r_fr25_424,fr10_r1).
body(r_fr25_424,fr7_a4).
body(r_fr25_424,fr12_d1).
body(r_fr25_424,fr17_d2).
body(r_fr25_424,fr6_d4).
body(r_fr25_424,fr20_e3).
head(r_fr25_425,fr10_r1).
body(r_fr25_425,fr8_z2).
body(r_fr25_425,fr25_v1).
body(r_fr25_425,fr25_x2).
head(r_fr25_426,fr10_r1).
body(r_fr25_426,fr7_a4).
body(r_fr25_426,fr25_a2).
body(r_fr25_426,fr12_d1).
body(r_fr25_426,fr20_e3).
body(r_fr25_426,fr12_d1).
head(r_fr25_427,fr10_r1).
body(r_fr25_427,fr7_a4).
body(r_fr25_427,fr25_b1).
body(r_fr25_427,fr12_d1).
body(r_fr25_427,fr17_d2).
body(r_fr25_427,fr6_d4).
body(r_fr25_427,fr12_d1).
head(r_fr25_428,fr10_r1).
body(r_fr25_428,fr25_a2).
body(r_fr25_428,fr25_b3).
body(r_fr25_428,fr11_y3).
head(r_fr25_429,fr10_r1).
body(r_fr25_429,fr20_e3).
head(r_fr25_430,fr10_r1).
body(r_fr25_430,fr7_a4).
body(r_fr25_430,fr17_d2).
body(r_fr25_430,fr17_d2).
body(r_fr25_430,fr17_d2).
body(r_fr25_430,fr20_e3).
body(r_fr25_430,fr12_d1).
head(r_fr25_431,fr10_r1).
body(r_fr25_431,fr20_e3).
body(r_fr25_431,fr25_v1).
body(r_fr25_431,fr21_r2).
body(r_fr25_431,fr22_w2).
head(r_fr25_432,fr10_r1).
body(r_fr25_432,fr22_w2).
head(r_fr25_433,fr10_r1).
body(r_fr25_433,fr25_v1).
body(r_fr25_433,fr21_r2).
head(r_fr25_434,fr10_r1).
body(r_fr25_434,fr17_d2).
body(r_fr25_434,fr25_f2).
body(r_fr25_434,fr11_y3).
body(r_fr25_434,fr21_u5).
body(r_fr25_434,fr25_v1).
body(r_fr25_434,fr22_w2).
head(r_fr25_435,fr10_r1).
body(r_fr25_435,fr7_a4).
body(r_fr25_435,fr25_b1).
body(r_fr25_435,fr6_d4).
head(r_fr25_436,fr10_r1).
body(r_fr25_436,fr6_d4).
body(r_fr25_436,fr21_r2).
body(r_fr25_436,fr25_x2).
head(r_fr25_437,fr10_r1).
body(r_fr25_437,fr25_b1).
body(r_fr25_437,fr6_d4).
body(r_fr25_437,fr20_e3).
body(r_fr25_437,fr11_y3).
head(r_fr25_438,fr10_r1).
body(r_fr25_438,fr8_z2).
body(r_fr25_438,fr21_u5).
body(r_fr25_438,fr25_v1).
body(r_fr25_438,fr25_x2).
head(r_fr25_439,fr25_v1).
body(r_fr25_439,fr12_d1).
body(r_fr25_439,fr12_d1).
body(r_fr25_439,fr17_d2).
head(r_fr25_440,fr25_v1).
body(r_fr25_440,fr11_y3).
body(r_fr25_440,fr21_u5).
body(r_fr25_440,fr21_r2).
body(r_fr25_440,fr25_x2).
head(r_fr25_441,fr25_v1).
body(r_fr25_441,fr12_d1).
body(r_fr25_441,fr25_x2).
head(r_fr25_442,fr25_v1).
body(r_fr25_442,fr12_d1).
body(r_fr25_442,fr11_y3).
body(r_fr25_442,fr21_r2).
head(r_fr25_443,fr25_v1).
body(r_fr25_443,fr11_y3).
head(r_fr25_444,fr25_v1).
body(r_fr25_444,fr12_d1).
head(r_fr25_445,fr25_v1).
body(r_fr25_445,fr11_y3).
body(r_fr25_445,fr21_r2).
body(r_fr25_445,fr22_w2).
body(r_fr25_445,fr25_x2).
head(r_fr25_446,fr25_v1).
body(r_fr25_446,fr25_b3).
body(r_fr25_446,fr17_d2).
head(r_fr25_447,fr25_v1).
body(r_fr25_447,fr20_e3).
head(r_fr25_448,fr25_v1).
body(r_fr25_448,fr25_b1).
body(r_fr25_448,fr12_d1).
body(r_fr25_448,fr8_z2).
head(r_fr25_449,fr25_v1).
body(r_fr25_449,fr25_b3).
body(r_fr25_449,fr12_d1).
body(r_fr25_449,fr21_r2).
head(r_fr25_450,fr25_v1).
body(r_fr25_450,fr8_z2).
body(r_fr25_450,fr21_u5).
body(r_fr25_450,fr22_w2).
head(r_fr25_451,fr25_v1).
body(r_fr25_451,fr7_a4).
body(r_fr25_451,fr12_d1).
body(r_fr25_451,fr25_b3).
body(r_fr25_451,fr25_f2).
body(r_fr25_451,fr22_w2).
body(r_fr25_451,fr25_x2).
head(r_fr25_452,fr25_v1).
body(r_fr25_452,fr11_y3).
body(r_fr25_452,fr8_z2).
body(r_fr25_452,fr21_r2).
body(r_fr25_452,fr22_w2).
head(r_fr25_453,fr25_v1).
body(r_fr25_453,fr11_y3).
body(r_fr25_453,fr8_z2).
body(r_fr25_453,fr22_w2).
body(r_fr25_453,fr25_x2).
head(r_fr25_454,fr25_v1).
body(r_fr25_454,fr25_a2).
body(r_fr25_454,fr12_d1).
body(r_fr25_454,fr6_d4).
body(r_fr25_454,fr12_d1).
body(r_fr25_454,fr12_d1).
body(r_fr25_454,fr25_f2).
head(r_fr25_455,fr25_v1).
body(r_fr25_455,fr12_d1).
body(r_fr25_455,fr12_d1).
body(r_fr25_455,fr25_f2).
body(r_fr25_455,fr11_y3).
body(r_fr25_455,fr21_r2).
head(r_fr25_456,fr25_v1).
body(r_fr25_456,fr6_d4).
body(r_fr25_456,fr8_z2).
body(r_fr25_456,fr21_r2).
body(r_fr25_456,fr22_w2).
body(r_fr25_456,fr25_x2).
head(r_fr25_457,fr25_v1).
body(r_fr25_457,fr11_y3).
body(r_fr25_457,fr8_z2).
body(r_fr25_457,fr21_u5).
head(r_fr25_458,fr25_v1).
body(r_fr25_458,fr25_a2).
body(r_fr25_458,fr12_d1).
body(r_fr25_458,fr20_e3).
body(r_fr25_458,fr25_f2).
head(r_fr25_459,fr25_v1).
body(r_fr25_459,fr25_b1).
body(r_fr25_459,fr8_z2).
body(r_fr25_459,fr21_u5).
body(r_fr25_459,fr21_r2).
head(r_fr25_460,fr25_v1).
body(r_fr25_460,fr21_u5).
head(r_fr25_461,fr25_v1).
body(r_fr25_461,fr8_z2).
body(r_fr25_461,fr22_w2).
body(r_fr25_461,fr25_x2).
head(r_fr25_462,fr25_v1).
body(r_fr25_462,fr12_d1).
body(r_fr25_462,fr17_d2).
body(r_fr25_462,fr12_d1).
body(r_fr25_462,fr25_x2).
head(r_fr25_463,fr25_v1).
head(r_fr25_464,fr25_x2).
body(r_fr25_464,fr7_a4).
body(r_fr25_464,fr12_d1).
head(r_fr25_465,fr25_x2).
body(r_fr25_465,fr20_e3).
body(r_fr25_465,fr12_d1).
head(r_fr25_466,fr25_x2).
body(r_fr25_466,fr17_d2).
body(r_fr25_466,fr17_d2).
body(r_fr25_466,fr20_e3).
body(r_fr25_466,fr8_z2).
head(r_fr25_467,fr25_x2).
body(r_fr25_467,fr12_d1).
body(r_fr25_467,fr12_d1).
head(r_fr25_468,fr25_x2).
body(r_fr25_468,fr17_d2).
head(r_fr25_469,fr25_x2).
body(r_fr25_469,fr11_y3).
body(r_fr25_469,fr8_z2).
body(r_fr25_469,fr21_u5).
body(r_fr25_469,fr21_r2).
body(r_fr25_469,fr22_w2).
head(r_fr25_470,fr25_x2).
body(r_fr25_470,fr7_a4).
body(r_fr25_470,fr25_b1).
body(r_fr25_470,fr12_d1).
body(r_fr25_470,fr25_b3).
body(r_fr25_470,fr17_d2).
body(r_fr25_470,fr17_d2).
head(r_fr25_471,fr25_x2).
body(r_fr25_471,fr12_d1).
body(r_fr25_471,fr8_z2).
body(r_fr25_471,fr21_u5).
body(r_fr25_471,fr22_w2).
head(r_fr25_472,fr25_x2).
body(r_fr25_472,fr17_d2).
body(r_fr25_472,fr17_d2).
body(r_fr25_472,fr21_r2).
body(r_fr25_472,fr22_w2).
head(r_fr25_473,fr25_x2).
body(r_fr25_473,fr7_a4).
body(r_fr25_473,fr25_b3).
body(r_fr25_473,fr21_u5).
head(r_fr25_474,fr25_x2).
body(r_fr25_474,fr12_d1).
body(r_fr25_474,fr11_y3).
body(r_fr25_474,fr21_u5).
body(r_fr25_474,fr21_r2).
body(r_fr25_474,fr22_w2).
head(r_fr25_475,fr25_x2).
body(r_fr25_475,fr25_a2).
body(r_fr25_475,fr25_b1).
body(r_fr25_475,fr12_d1).
body(r_fr25_475,fr21_r2).
head(r_fr25_476,fr25_x2).
body(r_fr25_476,fr7_a4).
body(r_fr25_476,fr25_a2).
body(r_fr25_476,fr12_d1).
body(r_fr25_476,fr25_b1).
body(r_fr25_476,fr17_d2).
body(r_fr25_476,fr17_d2).
head(r_fr25_477,fr25_x2).
body(r_fr25_477,fr25_a2).
body(r_fr25_477,fr12_d1).
body(r_fr25_477,fr25_b1).
body(r_fr25_477,fr12_d1).
body(r_fr25_477,fr12_d1).
body(r_fr25_477,fr21_u5).
head(r_fr25_478,fr25_x2).
body(r_fr25_478,fr17_d2).
body(r_fr25_478,fr11_y3).
head(r_fr25_479,fr25_x2).
body(r_fr25_479,fr11_y3).
body(r_fr25_479,fr21_r2).
body(r_fr25_479,fr22_w2).
head(r_fr25_480,fr25_x2).
body(r_fr25_480,fr21_u5).
head(r_fr25_481,fr25_x2).
body(r_fr25_481,fr20_e3).
body(r_fr25_481,fr11_y3).
body(r_fr25_481,fr8_z2).
body(r_fr25_481,fr21_r2).
body(r_fr25_481,fr22_w2).
head(r_fr25_482,fr25_x2).
body(r_fr25_482,fr17_d2).
head(r_fr25_483,fr25_x2).
body(r_fr25_483,fr12_d1).
body(r_fr25_483,fr11_y3).
body(r_fr25_483,fr21_u5).
body(r_fr25_483,fr21_r2).
body(r_fr25_483,fr22_w2).
head(r_fr25_484,fr25_x2).
body(r_fr25_484,fr7_a4).
body(r_fr25_484,fr12_d1).
body(r_fr25_484,fr17_d2).
body(r_fr25_484,fr17_d2).
body(r_fr25_484,fr6_d4).
body(r_fr25_484,fr25_f2).
head(r_fr25_485,fr25_x2).
body(r_fr25_485,fr11_y3).
body(r_fr25_485,fr8_z2).
body(r_fr25_485,fr21_r2).
head(r_fr25_486,fr25_x2).
body(r_fr25_486,fr12_d1).
body(r_fr25_486,fr25_b3).
body(r_fr25_486,fr17_d2).
body(r_fr25_486,fr6_d4).
body(r_fr25_486,fr25_f2).
body(r_fr25_486,fr21_u5).
head(r_fr25_487,fr25_x2).
body(r_fr25_487,fr25_b1).
body(r_fr25_487,fr11_y3).
body(r_fr25_487,fr8_z2).
body(r_fr25_487,fr21_r2).
body(r_fr25_487,fr22_w2).
head(r_fr25_488,fr25_x2).
body(r_fr25_488,fr11_y3).
body(r_fr25_488,fr21_u5).
body(r_fr25_488,fr21_r2).
head(r_fr25_489,fr25_x2).

