assumption(fr20_b1).
assumption(fr2_f1).
assumption(fr1_c1).
assumption(fr7_b1).
assumption(fr13_c1).
assumption(fr1_f1).
assumption(fr1_a2).
assumption(fr1_b2).
assumption(fr1_c2).
assumption(fr6_d1).
assumption(fr1_e2).
assumption(fr1_f2).
assumption(fr1_a3).
assumption(fr1_b3).
assumption(fr1_c3).
contrary(fr20_b1,fr20_y5).
contrary(fr1_a2,fr2_f1).
contrary(fr1_a3,fr12_r3).
contrary(fr2_f1,fr12_r3).
contrary(fr1_b2,fr1_y2).
contrary(fr1_b3,fr1_z2).
contrary(fr1_c1,fr1_t1).
contrary(fr1_c2,fr1_b2).
contrary(fr1_c3,fr20_b1).
contrary(fr7_b1,fr1_f2).
contrary(fr6_d1,fr22_u1).
contrary(fr13_c1,fr1_c1).
contrary(fr1_e2,fr1_v1).
contrary(fr1_f1,fr1_a2).
contrary(fr1_f2,fr21_r2).
head(r_fr1_0,fr22_u1).
body(r_fr1_0,fr6_d1).
body(r_fr1_0,fr1_q3).
body(r_fr1_0,fr21_r2).
body(r_fr1_0,fr1_t1).
body(r_fr1_0,fr1_x1).
body(r_fr1_0,fr10_q2).
head(r_fr1_1,fr22_u1).
body(r_fr1_1,fr1_b3).
head(r_fr1_2,fr22_u1).
body(r_fr1_2,fr1_c2).
head(r_fr1_3,fr22_u1).
body(r_fr1_3,fr2_f1).
body(r_fr1_3,fr6_d1).
body(r_fr1_3,fr1_e2).
head(r_fr1_4,fr22_u1).
body(r_fr1_4,fr1_z2).
head(r_fr1_5,fr22_u1).
body(r_fr1_5,fr1_e2).
body(r_fr1_5,fr1_q2).
body(r_fr1_5,fr22_u1).
body(r_fr1_5,fr20_y5).
body(r_fr1_5,fr1_x1).
body(r_fr1_5,fr22_q5).
head(r_fr1_6,fr22_u1).
body(r_fr1_6,fr1_c3).
head(r_fr1_7,fr22_u1).
body(r_fr1_7,fr1_c2).
body(r_fr1_7,fr1_z2).
head(r_fr1_8,fr22_u1).
body(r_fr1_8,fr12_r3).
body(r_fr1_8,fr1_q2).
body(r_fr1_8,fr1_s2).
body(r_fr1_8,fr20_y5).
body(r_fr1_8,fr1_v1).
body(r_fr1_8,fr1_y2).
head(r_fr1_9,fr22_u1).
body(r_fr1_9,fr1_e2).
body(r_fr1_9,fr21_r2).
body(r_fr1_9,fr10_q2).
head(r_fr1_10,fr22_u1).
body(r_fr1_10,fr20_b1).
body(r_fr1_10,fr1_a3).
body(r_fr1_10,fr1_b2).
body(r_fr1_10,fr7_b1).
body(r_fr1_10,fr1_f1).
body(r_fr1_10,fr18_u4).
head(r_fr1_11,fr22_u1).
body(r_fr1_11,fr6_d1).
body(r_fr1_11,fr1_q3).
body(r_fr1_11,fr1_s2).
body(r_fr1_11,fr1_y2).
body(r_fr1_11,fr1_z2).
head(r_fr1_12,fr22_u1).
head(r_fr1_13,fr1_q2).
body(r_fr1_13,fr1_b2).
body(r_fr1_13,fr1_f1).
body(r_fr1_13,fr1_w1).
head(r_fr1_14,fr1_q2).
body(r_fr1_14,fr6_d1).
body(r_fr1_14,fr1_s2).
body(r_fr1_14,fr1_x1).
head(r_fr1_15,fr1_q2).
body(r_fr1_15,fr1_e2).
head(r_fr1_16,fr1_q2).
body(r_fr1_16,fr1_t1).
body(r_fr1_16,fr1_u1).
body(r_fr1_16,fr22_q5).
head(r_fr1_17,fr1_q2).
body(r_fr1_17,fr2_f1).
body(r_fr1_17,fr1_b3).
head(r_fr1_18,fr1_q2).
body(r_fr1_18,fr1_a3).
head(r_fr1_19,fr1_q2).
body(r_fr1_19,fr20_b1).
body(r_fr1_19,fr1_b3).
body(r_fr1_19,fr7_b1).
body(r_fr1_19,fr6_d1).
body(r_fr1_19,fr1_r2).
head(r_fr1_20,fr1_q2).
body(r_fr1_20,fr2_f1).
body(r_fr1_20,fr10_q2).
head(r_fr1_21,fr1_q2).
body(r_fr1_21,fr20_b1).
body(r_fr1_21,fr1_b2).
body(r_fr1_21,fr1_c3).
body(r_fr1_21,fr6_d1).
body(r_fr1_21,fr13_c1).
body(r_fr1_21,fr12_r3).
head(r_fr1_22,fr1_q2).
body(r_fr1_22,fr1_b2).
head(r_fr1_23,fr1_q2).
body(r_fr1_23,fr1_r2).
head(r_fr1_24,fr1_q2).
body(r_fr1_24,fr21_r2).
body(r_fr1_24,fr20_y5).
body(r_fr1_24,fr22_q5).
head(r_fr1_25,fr1_q2).
body(r_fr1_25,fr2_f1).
body(r_fr1_25,fr1_p3).
body(r_fr1_25,fr1_s2).
body(r_fr1_25,fr1_u1).
body(r_fr1_25,fr18_u4).
body(r_fr1_25,fr1_y2).
head(r_fr1_26,fr1_q2).
body(r_fr1_26,fr1_q1).
body(r_fr1_26,fr1_s2).
body(r_fr1_26,fr10_q2).
head(r_fr1_27,fr1_p3).
body(r_fr1_27,fr20_b1).
body(r_fr1_27,fr2_f1).
body(r_fr1_27,fr7_b1).
body(r_fr1_27,fr13_c1).
body(r_fr1_27,fr1_e2).
body(r_fr1_27,fr1_f2).
head(r_fr1_28,fr1_p3).
body(r_fr1_28,fr1_b2).
body(r_fr1_28,fr1_f2).
body(r_fr1_28,fr20_y5).
head(r_fr1_29,fr1_p3).
body(r_fr1_29,fr1_a3).
body(r_fr1_29,fr1_c1).
body(r_fr1_29,fr1_c3).
body(r_fr1_29,fr13_c1).
body(r_fr1_29,fr22_u1).
head(r_fr1_30,fr1_p3).
body(r_fr1_30,fr1_a2).
body(r_fr1_30,fr13_c1).
body(r_fr1_30,fr1_e2).
body(r_fr1_30,fr12_r3).
body(r_fr1_30,fr22_q5).
head(r_fr1_31,fr1_p3).
body(r_fr1_31,fr1_b2).
body(r_fr1_31,fr1_b3).
body(r_fr1_31,fr1_u1).
head(r_fr1_32,fr1_p3).
body(r_fr1_32,fr20_b1).
body(r_fr1_32,fr1_c2).
body(r_fr1_32,fr7_b1).
body(r_fr1_32,fr6_d1).
body(r_fr1_32,fr1_f1).
head(r_fr1_33,fr1_p3).
body(r_fr1_33,fr1_p2).
body(r_fr1_33,fr1_x1).
body(r_fr1_33,fr1_z1).
head(r_fr1_34,fr1_p3).
body(r_fr1_34,fr6_d1).
body(r_fr1_34,fr1_s2).
head(r_fr1_35,fr1_p3).
body(r_fr1_35,fr22_u1).
head(r_fr1_36,fr1_p3).
head(r_fr1_37,fr1_p3).
body(r_fr1_37,fr1_e2).
body(r_fr1_37,fr1_r2).
body(r_fr1_37,fr1_v1).
head(r_fr1_38,fr1_r2).
body(r_fr1_38,fr22_u1).
body(r_fr1_38,fr7_y1).
head(r_fr1_39,fr1_r2).
body(r_fr1_39,fr1_q3).
body(r_fr1_39,fr1_x1).
body(r_fr1_39,fr10_q2).
body(r_fr1_39,fr22_q5).
body(r_fr1_39,fr1_y2).
head(r_fr1_40,fr1_r2).
body(r_fr1_40,fr1_a2).
body(r_fr1_40,fr2_f1).
body(r_fr1_40,fr1_b2).
body(r_fr1_40,fr7_b1).
body(r_fr1_40,fr1_e2).
body(r_fr1_40,fr1_f1).
head(r_fr1_41,fr1_r2).
body(r_fr1_41,fr10_q2).
head(r_fr1_42,fr1_r2).
body(r_fr1_42,fr6_d1).
body(r_fr1_42,fr1_q3).
body(r_fr1_42,fr22_u1).
body(r_fr1_42,fr1_s2).
body(r_fr1_42,fr1_u1).
head(r_fr1_43,fr1_r2).
body(r_fr1_43,fr20_b1).
body(r_fr1_43,fr1_a3).
body(r_fr1_43,fr1_b3).
body(r_fr1_43,fr6_d1).
body(r_fr1_43,fr13_c1).
body(r_fr1_43,fr1_f1).
head(r_fr1_44,fr1_r2).
body(r_fr1_44,fr2_f1).
body(r_fr1_44,fr1_c1).
body(r_fr1_44,fr1_c3).
head(r_fr1_45,fr1_r2).
body(r_fr1_45,fr1_a3).
body(r_fr1_45,fr1_p2).
body(r_fr1_45,fr1_q3).
body(r_fr1_45,fr10_s2).
body(r_fr1_45,fr18_u4).
body(r_fr1_45,fr1_z2).
head(r_fr1_46,fr1_r2).
body(r_fr1_46,fr1_c1).
body(r_fr1_46,fr7_b1).
head(r_fr1_47,fr1_r2).
body(r_fr1_47,fr20_b1).
body(r_fr1_47,fr1_a3).
body(r_fr1_47,fr13_c1).
body(r_fr1_47,fr1_e2).
head(r_fr1_48,fr1_r2).
head(r_fr1_49,fr1_r2).
body(r_fr1_49,fr1_p2).
head(r_fr1_50,fr1_r2).
body(r_fr1_50,fr12_r3).
body(r_fr1_50,fr1_u1).
body(r_fr1_50,fr1_x1).
head(r_fr1_51,fr1_r2).
body(r_fr1_51,fr1_y2).
head(r_fr1_52,fr1_u1).
body(r_fr1_52,fr1_c3).
body(r_fr1_52,fr1_e2).
body(r_fr1_52,fr18_u4).
body(r_fr1_52,fr1_z1).
head(r_fr1_53,fr1_u1).
body(r_fr1_53,fr2_f1).
body(r_fr1_53,fr1_q3).
body(r_fr1_53,fr21_r2).
body(r_fr1_53,fr7_y1).
head(r_fr1_54,fr1_u1).
body(r_fr1_54,fr1_f2).
head(r_fr1_55,fr1_u1).
body(r_fr1_55,fr1_b3).
body(r_fr1_55,fr1_e2).
body(r_fr1_55,fr1_w1).
head(r_fr1_56,fr1_u1).
body(r_fr1_56,fr20_b1).
body(r_fr1_56,fr10_q2).
head(r_fr1_57,fr1_u1).
body(r_fr1_57,fr2_f1).
body(r_fr1_57,fr7_b1).
head(r_fr1_58,fr1_u1).
body(r_fr1_58,fr1_c3).
body(r_fr1_58,fr1_f2).
head(r_fr1_59,fr1_u1).
body(r_fr1_59,fr1_t1).
body(r_fr1_59,fr7_y1).
body(r_fr1_59,fr1_z1).
head(r_fr1_60,fr1_u1).
body(r_fr1_60,fr1_a2).
body(r_fr1_60,fr2_f1).
body(r_fr1_60,fr1_b3).
body(r_fr1_60,fr1_c2).
body(r_fr1_60,fr1_c3).
body(r_fr1_60,fr1_e2).
head(r_fr1_61,fr1_u1).
head(r_fr1_62,fr1_u1).
body(r_fr1_62,fr12_r3).
head(r_fr1_63,fr1_q1).
body(r_fr1_63,fr1_a2).
body(r_fr1_63,fr1_c2).
body(r_fr1_63,fr1_f1).
body(r_fr1_63,fr1_f2).
body(r_fr1_63,fr22_q5).
head(r_fr1_64,fr1_q1).
body(r_fr1_64,fr13_c1).
body(r_fr1_64,fr7_y1).
body(r_fr1_64,fr1_x1).
body(r_fr1_64,fr22_q5).
head(r_fr1_65,fr1_q1).
body(r_fr1_65,fr1_f1).
head(r_fr1_66,fr1_q1).
body(r_fr1_66,fr1_a2).
body(r_fr1_66,fr1_a3).
body(r_fr1_66,fr1_c3).
body(r_fr1_66,fr1_q3).
body(r_fr1_66,fr1_w1).
head(r_fr1_67,fr1_q1).
body(r_fr1_67,fr12_r3).
head(r_fr1_68,fr1_q1).
body(r_fr1_68,fr7_b1).
body(r_fr1_68,fr1_e2).
body(r_fr1_68,fr1_f1).
body(r_fr1_68,fr1_x1).
head(r_fr1_69,fr1_q1).
body(r_fr1_69,fr20_b1).
body(r_fr1_69,fr13_c1).
body(r_fr1_69,fr1_p2).
body(r_fr1_69,fr1_s2).
body(r_fr1_69,fr1_w1).
body(r_fr1_69,fr1_z1).
head(r_fr1_70,fr1_q1).
body(r_fr1_70,fr1_b2).
body(r_fr1_70,fr1_c1).
body(r_fr1_70,fr1_q3).
body(r_fr1_70,fr10_s2).
body(r_fr1_70,fr1_z2).
head(r_fr1_71,fr1_q1).
body(r_fr1_71,fr2_f1).
body(r_fr1_71,fr6_d1).
body(r_fr1_71,fr1_s2).
body(r_fr1_71,fr18_u4).
head(r_fr1_72,fr1_q1).
body(r_fr1_72,fr10_q2).
head(r_fr1_73,fr1_q1).
head(r_fr1_74,fr1_q1).
body(r_fr1_74,fr1_b2).
body(r_fr1_74,fr1_p2).
body(r_fr1_74,fr1_t1).
body(r_fr1_74,fr1_v1).
head(r_fr1_75,fr21_r2).
body(r_fr1_75,fr20_b1).
body(r_fr1_75,fr1_c3).
body(r_fr1_75,fr7_b1).
body(r_fr1_75,fr1_f1).
body(r_fr1_75,fr1_f2).
body(r_fr1_75,fr1_y2).
head(r_fr1_76,fr21_r2).
body(r_fr1_76,fr2_f1).
body(r_fr1_76,fr1_b3).
body(r_fr1_76,fr1_c2).
body(r_fr1_76,fr13_c1).
body(r_fr1_76,fr1_f1).
head(r_fr1_77,fr21_r2).
body(r_fr1_77,fr2_f1).
body(r_fr1_77,fr1_f2).
body(r_fr1_77,fr22_u1).
body(r_fr1_77,fr1_s2).
body(r_fr1_77,fr1_v1).
body(r_fr1_77,fr22_q5).
head(r_fr1_78,fr21_r2).
body(r_fr1_78,fr1_a2).
body(r_fr1_78,fr1_a3).
body(r_fr1_78,fr1_c2).
body(r_fr1_78,fr1_c3).
body(r_fr1_78,fr1_e2).
body(r_fr1_78,fr22_u1).
head(r_fr1_79,fr21_r2).
body(r_fr1_79,fr20_b1).
body(r_fr1_79,fr1_c1).
body(r_fr1_79,fr1_c3).
body(r_fr1_79,fr13_c1).
body(r_fr1_79,fr1_e2).
head(r_fr1_80,fr21_r2).
body(r_fr1_80,fr20_b1).
body(r_fr1_80,fr1_a3).
body(r_fr1_80,fr1_c1).
head(r_fr1_81,fr21_r2).
body(r_fr1_81,fr1_p2).
body(r_fr1_81,fr1_q3).
body(r_fr1_81,fr22_u1).
body(r_fr1_81,fr1_v1).
body(r_fr1_81,fr1_x1).
body(r_fr1_81,fr1_z2).
head(r_fr1_82,fr21_r2).
body(r_fr1_82,fr1_a2).
body(r_fr1_82,fr1_q3).
body(r_fr1_82,fr10_q2).
body(r_fr1_82,fr1_z2).
head(r_fr1_83,fr21_r2).
body(r_fr1_83,fr1_b3).
body(r_fr1_83,fr13_c1).
head(r_fr1_84,fr21_r2).
body(r_fr1_84,fr2_f1).
body(r_fr1_84,fr1_b2).
body(r_fr1_84,fr7_b1).
body(r_fr1_84,fr13_c1).
head(r_fr1_85,fr21_r2).
body(r_fr1_85,fr1_f1).
head(r_fr1_86,fr21_r2).
body(r_fr1_86,fr1_a3).
body(r_fr1_86,fr2_f1).
body(r_fr1_86,fr1_c2).
body(r_fr1_86,fr1_f2).
body(r_fr1_86,fr10_q2).
head(r_fr1_87,fr21_r2).
head(r_fr1_88,fr22_q5).
body(r_fr1_88,fr2_f1).
body(r_fr1_88,fr1_b3).
body(r_fr1_88,fr1_x1).
body(r_fr1_88,fr10_q2).
body(r_fr1_88,fr1_y2).
head(r_fr1_89,fr22_q5).
head(r_fr1_90,fr22_q5).
body(r_fr1_90,fr1_a2).
body(r_fr1_90,fr1_a3).
body(r_fr1_90,fr6_d1).
body(r_fr1_90,fr1_p2).
body(r_fr1_90,fr22_u1).
body(r_fr1_90,fr1_v1).
head(r_fr1_91,fr22_q5).
body(r_fr1_91,fr1_a3).
body(r_fr1_91,fr2_f1).
body(r_fr1_91,fr1_b3).
body(r_fr1_91,fr13_c1).
body(r_fr1_91,fr1_f2).
head(r_fr1_92,fr22_q5).
body(r_fr1_92,fr1_c2).
head(r_fr1_93,fr22_q5).
body(r_fr1_93,fr20_b1).
body(r_fr1_93,fr13_c1).
body(r_fr1_93,fr1_f2).
head(r_fr1_94,fr22_q5).
body(r_fr1_94,fr1_b2).
body(r_fr1_94,fr1_q3).
head(r_fr1_95,fr22_q5).
body(r_fr1_95,fr20_b1).
body(r_fr1_95,fr13_c1).
body(r_fr1_95,fr1_y2).
body(r_fr1_95,fr1_z1).
head(r_fr1_96,fr22_q5).
body(r_fr1_96,fr7_y1).
body(r_fr1_96,fr10_s2).
body(r_fr1_96,fr1_w1).
body(r_fr1_96,fr1_x1).
body(r_fr1_96,fr1_z1).
body(r_fr1_96,fr1_z2).
head(r_fr1_97,fr22_q5).
body(r_fr1_97,fr1_c3).
body(r_fr1_97,fr12_r3).
body(r_fr1_97,fr1_s2).
body(r_fr1_97,fr1_w1).
body(r_fr1_97,fr18_u4).
head(r_fr1_98,fr22_q5).
body(r_fr1_98,fr7_b1).
body(r_fr1_98,fr6_d1).
body(r_fr1_98,fr1_v1).
head(r_fr1_99,fr22_q5).
body(r_fr1_99,fr13_c1).
body(r_fr1_99,fr1_f1).
body(r_fr1_99,fr1_f2).
body(r_fr1_99,fr1_v1).
head(r_fr1_100,fr22_q5).
body(r_fr1_100,fr1_f1).
head(r_fr1_101,fr22_q5).
body(r_fr1_101,fr2_f1).
body(r_fr1_101,fr1_c3).
body(r_fr1_101,fr1_f2).
body(r_fr1_101,fr1_z1).
head(r_fr1_102,fr1_z2).
body(r_fr1_102,fr6_d1).
head(r_fr1_103,fr1_z2).
head(r_fr1_104,fr1_z2).
body(r_fr1_104,fr12_r3).
body(r_fr1_104,fr1_q3).
body(r_fr1_104,fr1_s2).
head(r_fr1_105,fr1_z2).
body(r_fr1_105,fr1_t1).
body(r_fr1_105,fr1_v1).
body(r_fr1_105,fr10_s2).
body(r_fr1_105,fr1_y2).
head(r_fr1_106,fr1_z2).
body(r_fr1_106,fr1_a2).
body(r_fr1_106,fr1_a3).
body(r_fr1_106,fr1_c1).
head(r_fr1_107,fr1_z2).
body(r_fr1_107,fr7_b1).
body(r_fr1_107,fr22_u1).
head(r_fr1_108,fr1_z2).
body(r_fr1_108,fr1_p2).
body(r_fr1_108,fr1_t1).
body(r_fr1_108,fr20_y5).
body(r_fr1_108,fr7_y1).
body(r_fr1_108,fr1_z1).
head(r_fr1_109,fr1_z2).
body(r_fr1_109,fr2_f1).
body(r_fr1_109,fr1_b3).
body(r_fr1_109,fr6_d1).
body(r_fr1_109,fr1_e2).
body(r_fr1_109,fr1_f2).
head(r_fr1_110,fr1_z2).
body(r_fr1_110,fr20_y5).
body(r_fr1_110,fr7_y1).
body(r_fr1_110,fr1_v1).
body(r_fr1_110,fr1_z1).
head(r_fr1_111,fr1_z2).
body(r_fr1_111,fr2_f1).
body(r_fr1_111,fr1_b3).
body(r_fr1_111,fr1_f1).
body(r_fr1_111,fr7_y1).
body(r_fr1_111,fr1_z1).
head(r_fr1_112,fr1_z2).
body(r_fr1_112,fr1_c1).
body(r_fr1_112,fr1_e2).
body(r_fr1_112,fr1_w1).
head(r_fr1_113,fr1_t1).
body(r_fr1_113,fr20_b1).
body(r_fr1_113,fr1_b3).
body(r_fr1_113,fr1_c2).
body(r_fr1_113,fr13_c1).
body(r_fr1_113,fr1_f1).
body(r_fr1_113,fr1_f2).
head(r_fr1_114,fr1_t1).
body(r_fr1_114,fr13_c1).
body(r_fr1_114,fr1_p2).
body(r_fr1_114,fr1_w1).
body(r_fr1_114,fr1_x1).
body(r_fr1_114,fr10_q2).
head(r_fr1_115,fr1_t1).
body(r_fr1_115,fr20_b1).
body(r_fr1_115,fr1_b2).
body(r_fr1_115,fr1_b3).
body(r_fr1_115,fr1_c1).
body(r_fr1_115,fr7_b1).
body(r_fr1_115,fr6_d1).
head(r_fr1_116,fr1_t1).
head(r_fr1_117,fr1_t1).
body(r_fr1_117,fr20_b1).
head(r_fr1_118,fr1_t1).
body(r_fr1_118,fr1_b3).
head(r_fr1_119,fr1_t1).
body(r_fr1_119,fr1_b3).
body(r_fr1_119,fr1_c1).
body(r_fr1_119,fr7_b1).
body(r_fr1_119,fr6_d1).
head(r_fr1_120,fr1_t1).
body(r_fr1_120,fr20_b1).
body(r_fr1_120,fr1_c1).
body(r_fr1_120,fr1_x1).
body(r_fr1_120,fr10_q2).
body(r_fr1_120,fr1_z1).
head(r_fr1_121,fr1_t1).
body(r_fr1_121,fr1_p2).
body(r_fr1_121,fr18_u4).
body(r_fr1_121,fr1_y2).
head(r_fr1_122,fr1_t1).
body(r_fr1_122,fr1_a2).
body(r_fr1_122,fr1_c1).
body(r_fr1_122,fr1_c2).
body(r_fr1_122,fr6_d1).
head(r_fr1_123,fr1_t1).
body(r_fr1_123,fr1_a3).
body(r_fr1_123,fr7_b1).
body(r_fr1_123,fr1_e2).
body(r_fr1_123,fr18_u4).
body(r_fr1_123,fr1_y2).
head(r_fr1_124,fr1_t1).
body(r_fr1_124,fr1_c1).
body(r_fr1_124,fr13_c1).
body(r_fr1_124,fr1_e2).
body(r_fr1_124,fr1_y2).
head(r_fr1_125,fr1_t1).
body(r_fr1_125,fr1_a3).
body(r_fr1_125,fr22_u1).
body(r_fr1_125,fr1_v1).
body(r_fr1_125,fr10_s2).
body(r_fr1_125,fr1_y2).
head(r_fr1_126,fr1_y2).
body(r_fr1_126,fr22_u1).
body(r_fr1_126,fr1_s2).
head(r_fr1_127,fr1_y2).
body(r_fr1_127,fr20_y5).
head(r_fr1_128,fr1_y2).
body(r_fr1_128,fr6_d1).
head(r_fr1_129,fr1_y2).
body(r_fr1_129,fr20_b1).
body(r_fr1_129,fr1_c1).
body(r_fr1_129,fr1_f1).
body(r_fr1_129,fr22_u1).
body(r_fr1_129,fr7_y1).
head(r_fr1_130,fr1_y2).
body(r_fr1_130,fr13_c1).
body(r_fr1_130,fr1_s2).
body(r_fr1_130,fr10_q2).
head(r_fr1_131,fr1_y2).
body(r_fr1_131,fr1_b3).
body(r_fr1_131,fr1_c2).
body(r_fr1_131,fr1_c3).
head(r_fr1_132,fr1_y2).
body(r_fr1_132,fr1_b3).
head(r_fr1_133,fr1_y2).
body(r_fr1_133,fr1_a3).
body(r_fr1_133,fr6_d1).
head(r_fr1_134,fr1_y2).
body(r_fr1_134,fr1_b2).
body(r_fr1_134,fr1_c2).
body(r_fr1_134,fr1_f1).
head(r_fr1_135,fr1_y2).
body(r_fr1_135,fr12_r3).
head(r_fr1_136,fr1_y2).
head(r_fr1_137,fr20_y5).
body(r_fr1_137,fr2_f1).
body(r_fr1_137,fr7_y1).
head(r_fr1_138,fr20_y5).
body(r_fr1_138,fr2_f1).
body(r_fr1_138,fr1_b3).
body(r_fr1_138,fr6_d1).
body(r_fr1_138,fr10_q2).
body(r_fr1_138,fr1_z1).
head(r_fr1_139,fr20_y5).
body(r_fr1_139,fr12_r3).
body(r_fr1_139,fr1_q3).
body(r_fr1_139,fr10_s2).
body(r_fr1_139,fr10_q2).
head(r_fr1_140,fr20_y5).
body(r_fr1_140,fr1_a3).
body(r_fr1_140,fr7_b1).
body(r_fr1_140,fr13_c1).
head(r_fr1_141,fr20_y5).
body(r_fr1_141,fr1_b3).
body(r_fr1_141,fr13_c1).
body(r_fr1_141,fr18_u4).
head(r_fr1_142,fr20_y5).
body(r_fr1_142,fr2_f1).
body(r_fr1_142,fr1_b3).
body(r_fr1_142,fr6_d1).
body(r_fr1_142,fr1_q3).
head(r_fr1_143,fr20_y5).
body(r_fr1_143,fr1_a3).
body(r_fr1_143,fr1_b2).
body(r_fr1_143,fr1_p2).
body(r_fr1_143,fr10_s2).
head(r_fr1_144,fr20_y5).
head(r_fr1_145,fr20_y5).
body(r_fr1_145,fr1_a2).
body(r_fr1_145,fr22_u1).
body(r_fr1_145,fr1_s2).
body(r_fr1_145,fr18_u4).
body(r_fr1_145,fr1_x1).
body(r_fr1_145,fr10_q2).
head(r_fr1_146,fr20_y5).
body(r_fr1_146,fr7_b1).
body(r_fr1_146,fr1_q3).
body(r_fr1_146,fr22_u1).
body(r_fr1_146,fr1_v1).
body(r_fr1_146,fr1_x1).
head(r_fr1_147,fr20_y5).
body(r_fr1_147,fr7_y1).
head(r_fr1_148,fr20_y5).
body(r_fr1_148,fr20_b1).
body(r_fr1_148,fr1_a2).
body(r_fr1_148,fr1_e2).
body(r_fr1_148,fr22_u1).
head(r_fr1_149,fr20_y5).
body(r_fr1_149,fr6_d1).
body(r_fr1_149,fr13_c1).
body(r_fr1_149,fr22_u1).
head(r_fr1_150,fr20_y5).
body(r_fr1_150,fr1_a2).
body(r_fr1_150,fr1_a3).
body(r_fr1_150,fr2_f1).
body(r_fr1_150,fr1_b3).
body(r_fr1_150,fr1_c1).
body(r_fr1_150,fr1_q3).
head(r_fr1_151,fr18_u4).
body(r_fr1_151,fr1_b3).
head(r_fr1_152,fr18_u4).
body(r_fr1_152,fr22_u1).
body(r_fr1_152,fr1_z1).
head(r_fr1_153,fr18_u4).
body(r_fr1_153,fr1_s2).
body(r_fr1_153,fr1_w1).
head(r_fr1_154,fr18_u4).
body(r_fr1_154,fr1_b2).
body(r_fr1_154,fr1_c2).
body(r_fr1_154,fr1_e2).
body(r_fr1_154,fr1_f2).
body(r_fr1_154,fr1_p2).
body(r_fr1_154,fr1_w1).
head(r_fr1_155,fr18_u4).
body(r_fr1_155,fr20_b1).
body(r_fr1_155,fr1_a3).
body(r_fr1_155,fr1_b3).
body(r_fr1_155,fr12_r3).
head(r_fr1_156,fr18_u4).
body(r_fr1_156,fr10_s2).
head(r_fr1_157,fr18_u4).
body(r_fr1_157,fr12_r3).
body(r_fr1_157,fr22_u1).
body(r_fr1_157,fr7_y1).
body(r_fr1_157,fr1_v1).
body(r_fr1_157,fr1_z1).
head(r_fr1_158,fr18_u4).
body(r_fr1_158,fr20_b1).
body(r_fr1_158,fr1_c3).
body(r_fr1_158,fr1_w1).
head(r_fr1_159,fr18_u4).
body(r_fr1_159,fr20_b1).
head(r_fr1_160,fr18_u4).
body(r_fr1_160,fr1_a2).
body(r_fr1_160,fr7_b1).
body(r_fr1_160,fr1_p2).
head(r_fr1_161,fr18_u4).
body(r_fr1_161,fr1_a2).
body(r_fr1_161,fr1_b2).
head(r_fr1_162,fr1_w1).
body(r_fr1_162,fr1_c1).
body(r_fr1_162,fr12_r3).
body(r_fr1_162,fr1_p2).
body(r_fr1_162,fr1_x1).
body(r_fr1_162,fr1_z1).
head(r_fr1_163,fr1_w1).
body(r_fr1_163,fr2_f1).
head(r_fr1_164,fr1_w1).
body(r_fr1_164,fr20_b1).
body(r_fr1_164,fr1_c3).
body(r_fr1_164,fr1_q3).
body(r_fr1_164,fr10_s2).
body(r_fr1_164,fr1_x1).
head(r_fr1_165,fr1_w1).
body(r_fr1_165,fr1_b2).
body(r_fr1_165,fr1_v1).
body(r_fr1_165,fr10_s2).
head(r_fr1_166,fr1_w1).
body(r_fr1_166,fr1_s2).
body(r_fr1_166,fr7_y1).
body(r_fr1_166,fr1_v1).
head(r_fr1_167,fr1_w1).
body(r_fr1_167,fr1_b3).
body(r_fr1_167,fr1_f2).
head(r_fr1_168,fr1_w1).
body(r_fr1_168,fr12_r3).
body(r_fr1_168,fr7_y1).
body(r_fr1_168,fr1_v1).
head(r_fr1_169,fr1_w1).
body(r_fr1_169,fr20_b1).
body(r_fr1_169,fr1_c2).
body(r_fr1_169,fr12_r3).
body(r_fr1_169,fr1_q3).
body(r_fr1_169,fr7_y1).
body(r_fr1_169,fr1_z1).
head(r_fr1_170,fr1_w1).
head(r_fr1_171,fr1_w1).
body(r_fr1_171,fr6_d1).
head(r_fr1_172,fr1_w1).
body(r_fr1_172,fr1_b2).
body(r_fr1_172,fr22_u1).
body(r_fr1_172,fr1_x1).
body(r_fr1_172,fr10_q2).
head(r_fr1_173,fr1_w1).
body(r_fr1_173,fr1_q3).
body(r_fr1_173,fr1_s2).
body(r_fr1_173,fr10_s2).
body(r_fr1_173,fr1_x1).
head(r_fr1_174,fr1_w1).
body(r_fr1_174,fr1_p2).
body(r_fr1_174,fr1_q3).
body(r_fr1_174,fr1_s2).
body(r_fr1_174,fr7_y1).
body(r_fr1_174,fr1_v1).
head(r_fr1_175,fr1_s2).
body(r_fr1_175,fr12_r3).
body(r_fr1_175,fr22_u1).
body(r_fr1_175,fr1_v1).
body(r_fr1_175,fr10_s2).
body(r_fr1_175,fr1_x1).
head(r_fr1_176,fr1_s2).
body(r_fr1_176,fr13_c1).
body(r_fr1_176,fr1_p2).
body(r_fr1_176,fr10_q2).
head(r_fr1_177,fr1_s2).
body(r_fr1_177,fr1_f1).
body(r_fr1_177,fr1_p2).
body(r_fr1_177,fr7_y1).
head(r_fr1_178,fr1_s2).
body(r_fr1_178,fr1_c2).
body(r_fr1_178,fr1_q3).
body(r_fr1_178,fr10_s2).
head(r_fr1_179,fr1_s2).
body(r_fr1_179,fr1_c1).
body(r_fr1_179,fr13_c1).
body(r_fr1_179,fr1_f1).
body(r_fr1_179,fr1_q3).
body(r_fr1_179,fr22_u1).
body(r_fr1_179,fr7_y1).
head(r_fr1_180,fr1_s2).
body(r_fr1_180,fr12_r3).
body(r_fr1_180,fr1_q3).
body(r_fr1_180,fr22_u1).
body(r_fr1_180,fr7_y1).
body(r_fr1_180,fr1_x1).
body(r_fr1_180,fr10_q2).
head(r_fr1_181,fr1_s2).
body(r_fr1_181,fr1_v1).
head(r_fr1_182,fr1_s2).
body(r_fr1_182,fr6_d1).
body(r_fr1_182,fr1_f2).
body(r_fr1_182,fr1_p2).
head(r_fr1_183,fr1_s2).
body(r_fr1_183,fr1_a2).
body(r_fr1_183,fr1_b3).
body(r_fr1_183,fr1_p2).
head(r_fr1_184,fr1_s2).
body(r_fr1_184,fr2_f1).
head(r_fr1_185,fr1_s2).
body(r_fr1_185,fr1_p2).
body(r_fr1_185,fr1_q3).
body(r_fr1_185,fr1_z1).
head(r_fr1_186,fr7_y1).
body(r_fr1_186,fr1_a3).
body(r_fr1_186,fr1_c2).
body(r_fr1_186,fr13_c1).
head(r_fr1_187,fr7_y1).
body(r_fr1_187,fr1_x1).
body(r_fr1_187,fr10_q2).
head(r_fr1_188,fr7_y1).
body(r_fr1_188,fr12_r3).
body(r_fr1_188,fr1_v1).
body(r_fr1_188,fr10_s2).
body(r_fr1_188,fr1_x1).
head(r_fr1_189,fr7_y1).
body(r_fr1_189,fr1_p2).
body(r_fr1_189,fr1_v1).
body(r_fr1_189,fr10_s2).
body(r_fr1_189,fr1_x1).
head(r_fr1_190,fr7_y1).
body(r_fr1_190,fr1_f2).
body(r_fr1_190,fr1_v1).
body(r_fr1_190,fr10_q2).
head(r_fr1_191,fr7_y1).
body(r_fr1_191,fr1_a3).
body(r_fr1_191,fr1_c3).
body(r_fr1_191,fr6_d1).
body(r_fr1_191,fr1_f1).
head(r_fr1_192,fr7_y1).
body(r_fr1_192,fr20_b1).
body(r_fr1_192,fr1_c2).
head(r_fr1_193,fr7_y1).
body(r_fr1_193,fr1_a3).
body(r_fr1_193,fr7_b1).
body(r_fr1_193,fr6_d1).
body(r_fr1_193,fr1_f2).
body(r_fr1_193,fr1_p2).
body(r_fr1_193,fr10_s2).
head(r_fr1_194,fr7_y1).
body(r_fr1_194,fr13_c1).
body(r_fr1_194,fr10_s2).
head(r_fr1_195,fr7_y1).
body(r_fr1_195,fr20_b1).
body(r_fr1_195,fr12_r3).
body(r_fr1_195,fr1_p2).
body(r_fr1_195,fr1_v1).
body(r_fr1_195,fr1_z1).
head(r_fr1_196,fr7_y1).
head(r_fr1_197,fr7_y1).
body(r_fr1_197,fr20_b1).
body(r_fr1_197,fr1_a2).
body(r_fr1_197,fr2_f1).
body(r_fr1_197,fr6_d1).
body(r_fr1_197,fr1_e2).
head(r_fr1_198,fr7_y1).
body(r_fr1_198,fr1_a2).
body(r_fr1_198,fr1_a3).
body(r_fr1_198,fr1_b2).
body(r_fr1_198,fr10_s2).
head(r_fr1_199,fr1_v1).
body(r_fr1_199,fr1_a3).
body(r_fr1_199,fr1_b2).
body(r_fr1_199,fr1_b3).
body(r_fr1_199,fr1_c3).
body(r_fr1_199,fr7_b1).
body(r_fr1_199,fr1_q3).
head(r_fr1_200,fr1_v1).
body(r_fr1_200,fr2_f1).
body(r_fr1_200,fr1_c1).
body(r_fr1_200,fr1_c3).
body(r_fr1_200,fr1_p2).
body(r_fr1_200,fr10_s2).
body(r_fr1_200,fr1_z1).
head(r_fr1_201,fr1_v1).
body(r_fr1_201,fr1_c2).
body(r_fr1_201,fr1_c3).
body(r_fr1_201,fr7_b1).
body(r_fr1_201,fr1_f1).
body(r_fr1_201,fr10_s2).
head(r_fr1_202,fr1_v1).
body(r_fr1_202,fr1_a2).
body(r_fr1_202,fr1_b2).
body(r_fr1_202,fr1_c2).
body(r_fr1_202,fr12_r3).
body(r_fr1_202,fr1_p2).
head(r_fr1_203,fr1_v1).
body(r_fr1_203,fr7_b1).
body(r_fr1_203,fr1_p2).
body(r_fr1_203,fr1_x1).
head(r_fr1_204,fr1_v1).
body(r_fr1_204,fr1_a2).
body(r_fr1_204,fr1_c1).
body(r_fr1_204,fr1_c2).
body(r_fr1_204,fr6_d1).
head(r_fr1_205,fr1_v1).
body(r_fr1_205,fr1_c1).
body(r_fr1_205,fr13_c1).
head(r_fr1_206,fr1_v1).
body(r_fr1_206,fr12_r3).
body(r_fr1_206,fr1_q3).
body(r_fr1_206,fr10_s2).
head(r_fr1_207,fr1_v1).
head(r_fr1_208,fr1_v1).
body(r_fr1_208,fr1_c2).
head(r_fr1_209,fr1_v1).
body(r_fr1_209,fr1_c1).
body(r_fr1_209,fr1_q3).
body(r_fr1_209,fr22_u1).
body(r_fr1_209,fr1_x1).
body(r_fr1_209,fr10_q2).
body(r_fr1_209,fr1_z1).
head(r_fr1_210,fr1_x1).
body(r_fr1_210,fr12_r3).
body(r_fr1_210,fr1_q3).
body(r_fr1_210,fr22_u1).
body(r_fr1_210,fr10_s2).
head(r_fr1_211,fr1_x1).
body(r_fr1_211,fr20_b1).
body(r_fr1_211,fr1_f1).
head(r_fr1_212,fr1_x1).
body(r_fr1_212,fr1_a3).
body(r_fr1_212,fr1_c1).
body(r_fr1_212,fr1_c3).
head(r_fr1_213,fr1_x1).
body(r_fr1_213,fr2_f1).
body(r_fr1_213,fr1_p2).
body(r_fr1_213,fr22_u1).
body(r_fr1_213,fr10_s2).
body(r_fr1_213,fr1_z1).
head(r_fr1_214,fr1_x1).
body(r_fr1_214,fr1_b2).
body(r_fr1_214,fr1_p2).
body(r_fr1_214,fr1_q3).
body(r_fr1_214,fr22_u1).
body(r_fr1_214,fr10_s2).
head(r_fr1_215,fr1_x1).
body(r_fr1_215,fr12_r3).
body(r_fr1_215,fr1_q3).
body(r_fr1_215,fr10_q2).
head(r_fr1_216,fr1_x1).
body(r_fr1_216,fr1_a2).
body(r_fr1_216,fr1_b3).
body(r_fr1_216,fr7_b1).
body(r_fr1_216,fr1_p2).
body(r_fr1_216,fr22_u1).
body(r_fr1_216,fr10_q2).
head(r_fr1_217,fr1_x1).
body(r_fr1_217,fr1_c2).
body(r_fr1_217,fr1_c3).
body(r_fr1_217,fr6_d1).
body(r_fr1_217,fr13_c1).
body(r_fr1_217,fr1_p2).
body(r_fr1_217,fr1_q3).
head(r_fr1_218,fr1_x1).
body(r_fr1_218,fr1_a3).
body(r_fr1_218,fr1_b3).
body(r_fr1_218,fr1_c1).
body(r_fr1_218,fr7_b1).
body(r_fr1_218,fr6_d1).
body(r_fr1_218,fr1_f2).
head(r_fr1_219,fr1_x1).
body(r_fr1_219,fr1_p2).
body(r_fr1_219,fr1_q3).
body(r_fr1_219,fr22_u1).
body(r_fr1_219,fr1_z1).
head(r_fr1_220,fr1_x1).
body(r_fr1_220,fr1_q3).
head(r_fr1_221,fr1_x1).
body(r_fr1_221,fr1_e2).
head(r_fr1_222,fr1_x1).
head(r_fr1_223,fr1_z1).
body(r_fr1_223,fr1_a3).
body(r_fr1_223,fr1_c3).
body(r_fr1_223,fr1_p2).
body(r_fr1_223,fr1_q3).
head(r_fr1_224,fr1_z1).
body(r_fr1_224,fr1_a2).
body(r_fr1_224,fr2_f1).
body(r_fr1_224,fr6_d1).
body(r_fr1_224,fr1_p2).
head(r_fr1_225,fr1_z1).
body(r_fr1_225,fr20_b1).
body(r_fr1_225,fr2_f1).
head(r_fr1_226,fr1_z1).
body(r_fr1_226,fr1_c2).
head(r_fr1_227,fr1_z1).
body(r_fr1_227,fr1_p2).
body(r_fr1_227,fr1_q3).
body(r_fr1_227,fr22_u1).
head(r_fr1_228,fr1_z1).
body(r_fr1_228,fr20_b1).
body(r_fr1_228,fr10_s2).
body(r_fr1_228,fr10_q2).
head(r_fr1_229,fr1_z1).
head(r_fr1_230,fr1_z1).
body(r_fr1_230,fr1_b3).
body(r_fr1_230,fr1_c2).
body(r_fr1_230,fr1_f2).
body(r_fr1_230,fr10_s2).
head(r_fr1_231,fr1_z1).
body(r_fr1_231,fr1_q3).
body(r_fr1_231,fr10_s2).
head(r_fr1_232,fr1_z1).
body(r_fr1_232,fr7_b1).
body(r_fr1_232,fr12_r3).
head(r_fr1_233,fr1_z1).
body(r_fr1_233,fr1_a3).
body(r_fr1_233,fr2_f1).
body(r_fr1_233,fr1_c2).
body(r_fr1_233,fr12_r3).
body(r_fr1_233,fr1_p2).
head(r_fr1_234,fr1_z1).
body(r_fr1_234,fr7_b1).
body(r_fr1_234,fr6_d1).
body(r_fr1_234,fr1_f1).
body(r_fr1_234,fr12_r3).
head(r_fr1_235,fr1_z1).
body(r_fr1_235,fr6_d1).
body(r_fr1_235,fr22_u1).
head(r_fr1_236,fr10_q2).
body(r_fr1_236,fr7_b1).
body(r_fr1_236,fr12_r3).
body(r_fr1_236,fr1_q3).
body(r_fr1_236,fr22_u1).
body(r_fr1_236,fr10_s2).
head(r_fr1_237,fr10_q2).
body(r_fr1_237,fr1_q3).
body(r_fr1_237,fr22_u1).
body(r_fr1_237,fr10_s2).
head(r_fr1_238,fr10_q2).
body(r_fr1_238,fr20_b1).
body(r_fr1_238,fr6_d1).
body(r_fr1_238,fr1_p2).
body(r_fr1_238,fr1_q3).
body(r_fr1_238,fr22_u1).
head(r_fr1_239,fr10_q2).
body(r_fr1_239,fr7_b1).
body(r_fr1_239,fr1_e2).
body(r_fr1_239,fr12_r3).
body(r_fr1_239,fr1_p2).
body(r_fr1_239,fr22_u1).
head(r_fr1_240,fr10_q2).
body(r_fr1_240,fr2_f1).
body(r_fr1_240,fr1_f2).
body(r_fr1_240,fr12_r3).
body(r_fr1_240,fr10_s2).
head(r_fr1_241,fr10_q2).
body(r_fr1_241,fr12_r3).
body(r_fr1_241,fr1_q3).
body(r_fr1_241,fr22_u1).
body(r_fr1_241,fr10_s2).
head(r_fr1_242,fr10_q2).
body(r_fr1_242,fr1_b2).
body(r_fr1_242,fr1_b3).
body(r_fr1_242,fr1_c3).
body(r_fr1_242,fr1_f2).
body(r_fr1_242,fr12_r3).
body(r_fr1_242,fr1_p2).
head(r_fr1_243,fr10_q2).
head(r_fr1_244,fr10_q2).
body(r_fr1_244,fr1_c2).
head(r_fr1_245,fr10_q2).
body(r_fr1_245,fr1_a3).
body(r_fr1_245,fr1_b2).
body(r_fr1_245,fr1_b3).
body(r_fr1_245,fr1_c1).
body(r_fr1_245,fr1_q3).
body(r_fr1_245,fr10_s2).
head(r_fr1_246,fr10_q2).
body(r_fr1_246,fr2_f1).
body(r_fr1_246,fr1_c3).
body(r_fr1_246,fr12_r3).
body(r_fr1_246,fr1_q3).
head(r_fr1_247,fr10_q2).
body(r_fr1_247,fr6_d1).
body(r_fr1_247,fr1_e2).
head(r_fr1_248,fr10_q2).
body(r_fr1_248,fr12_r3).
body(r_fr1_248,fr10_s2).
head(r_fr1_249,fr10_q2).
body(r_fr1_249,fr1_b3).
body(r_fr1_249,fr12_r3).
body(r_fr1_249,fr1_q3).
body(r_fr1_249,fr10_s2).

assumption(fr2_a1).
assumption(fr2_b1).
assumption(fr2_c1).
assumption(fr2_d1).
assumption(fr2_e1).
assumption(fr2_f1).
assumption(fr2_a2).
assumption(fr2_b2).
assumption(fr2_c2).
assumption(fr17_e4).
assumption(fr2_e2).
assumption(fr2_f2).
assumption(fr2_a3).
assumption(fr2_b3).
assumption(fr16_d2).
contrary(fr2_a1,fr19_y2).
contrary(fr2_a2,fr2_s2).
contrary(fr2_a3,fr2_b2).
contrary(fr2_b1,fr13_z1).
contrary(fr2_b2,fr2_b1).
contrary(fr2_b3,fr2_c2).
contrary(fr2_c1,fr2_b1).
contrary(fr2_c2,fr2_w2).
contrary(fr16_d2,fr2_v2).
contrary(fr2_d1,fr2_p3).
contrary(fr17_e4,fr2_s2).
contrary(fr2_e1,fr2_p1).
contrary(fr2_e2,fr2_t1).
contrary(fr2_f1,fr2_b3).
contrary(fr2_f2,fr2_c1).
head(r_fr2_0,fr20_v6).
body(r_fr2_0,fr2_b1).
body(r_fr2_0,fr2_q2).
body(r_fr2_0,fr2_s2).
body(r_fr2_0,fr2_x2).
head(r_fr2_1,fr20_v6).
body(r_fr2_1,fr2_c1).
body(r_fr2_1,fr16_d2).
body(r_fr2_1,fr2_p3).
head(r_fr2_2,fr20_v6).
body(r_fr2_2,fr2_p1).
body(r_fr2_2,fr2_p3).
body(r_fr2_2,fr11_v2).
body(r_fr2_2,fr13_z1).
head(r_fr2_3,fr20_v6).
head(r_fr2_4,fr20_v6).
body(r_fr2_4,fr2_a1).
body(r_fr2_4,fr2_c1).
body(r_fr2_4,fr2_d1).
body(r_fr2_4,fr17_e4).
head(r_fr2_5,fr3_p1).
body(r_fr2_5,fr2_a1).
body(r_fr2_5,fr2_e2).
head(r_fr2_6,fr3_p1).
head(r_fr2_7,fr3_p1).
body(r_fr2_7,fr2_x2).
head(r_fr2_8,fr2_q1).
body(r_fr2_8,fr2_a2).
body(r_fr2_8,fr2_b3).
body(r_fr2_8,fr2_d1).
body(r_fr2_8,fr2_e1).
body(r_fr2_8,fr2_e2).
body(r_fr2_8,fr2_w2).
head(r_fr2_9,fr2_q1).
head(r_fr2_10,fr2_q1).
body(r_fr2_10,fr2_b2).
body(r_fr2_10,fr2_q2).
body(r_fr2_10,fr2_t1).
body(r_fr2_10,fr2_x2).
head(r_fr2_11,fr11_v2).
head(r_fr2_12,fr11_v2).
body(r_fr2_12,fr2_b2).
body(r_fr2_12,fr16_d2).
body(r_fr2_12,fr17_e4).
head(r_fr2_13,fr2_x1).
body(r_fr2_13,fr2_a1).
body(r_fr2_13,fr2_a2).
body(r_fr2_13,fr2_f2).
body(r_fr2_13,fr13_z1).
body(r_fr2_13,fr2_y2).
head(r_fr2_14,fr2_x1).
body(r_fr2_14,fr2_a1).
body(r_fr2_14,fr2_b1).
body(r_fr2_14,fr2_r1).
body(r_fr2_14,fr2_t1).
body(r_fr2_14,fr2_y2).
head(r_fr2_15,fr2_x1).
body(r_fr2_15,fr2_v2).
head(r_fr2_16,fr2_y1).
body(r_fr2_16,fr2_a1).
body(r_fr2_16,fr2_a2).
body(r_fr2_16,fr2_b3).
body(r_fr2_16,fr2_r2).
body(r_fr2_16,fr11_v2).
body(r_fr2_16,fr13_z1).
head(r_fr2_17,fr2_y1).
head(r_fr2_18,fr19_y2).
body(r_fr2_18,fr2_c2).
head(r_fr2_19,fr19_y2).
body(r_fr2_19,fr2_v1).
head(r_fr2_20,fr19_y2).
body(r_fr2_20,fr16_d2).
body(r_fr2_20,fr2_p3).
body(r_fr2_20,fr2_q2).
body(r_fr2_20,fr13_v2).
body(r_fr2_20,fr2_v1).
head(r_fr2_21,fr19_y2).
head(r_fr2_22,fr19_y2).
body(r_fr2_22,fr2_p1).
head(r_fr2_23,fr13_v2).
body(r_fr2_23,fr2_p1).
body(r_fr2_23,fr16_p1).
body(r_fr2_23,fr2_v1).
body(r_fr2_23,fr21_r2).
body(r_fr2_23,fr2_x1).
body(r_fr2_23,fr2_y2).
head(r_fr2_24,fr13_v2).
body(r_fr2_24,fr2_e2).
head(r_fr2_25,fr13_v2).
body(r_fr2_25,fr2_q2).
body(r_fr2_25,fr2_r2).
head(r_fr2_26,fr13_v2).
body(r_fr2_26,fr2_c1).
head(r_fr2_27,fr13_v2).
body(r_fr2_27,fr2_c1).
body(r_fr2_27,fr3_p1).
body(r_fr2_27,fr2_x1).
head(r_fr2_28,fr2_x2).
body(r_fr2_28,fr2_a3).
body(r_fr2_28,fr2_f2).
body(r_fr2_28,fr2_r1).
body(r_fr2_28,fr19_y2).
body(r_fr2_28,fr2_y2).
body(r_fr2_28,fr2_z2).
head(r_fr2_29,fr2_x2).
body(r_fr2_29,fr16_d2).
body(r_fr2_29,fr2_r2).
head(r_fr2_30,fr2_s2).
body(r_fr2_30,fr2_a2).
body(r_fr2_30,fr2_c1).
body(r_fr2_30,fr2_c2).
body(r_fr2_30,fr2_d1).
body(r_fr2_30,fr17_e4).
body(r_fr2_30,fr2_t1).
head(r_fr2_31,fr2_s2).
body(r_fr2_31,fr2_b1).
body(r_fr2_31,fr2_p3).
body(r_fr2_31,fr2_q2).
body(r_fr2_31,fr2_v1).
body(r_fr2_31,fr2_v2).
head(r_fr2_32,fr13_z1).
body(r_fr2_32,fr2_a3).
body(r_fr2_32,fr2_c1).
body(r_fr2_32,fr2_c2).
body(r_fr2_32,fr2_f2).
head(r_fr2_33,fr13_z1).
body(r_fr2_33,fr2_b3).
body(r_fr2_33,fr2_v2).
body(r_fr2_33,fr2_y1).
head(r_fr2_34,fr13_z1).
body(r_fr2_34,fr2_a2).
body(r_fr2_34,fr2_c1).
body(r_fr2_34,fr2_f1).
body(r_fr2_34,fr3_p1).
body(r_fr2_34,fr2_q1).
head(r_fr2_35,fr13_z1).
body(r_fr2_35,fr17_p3).
body(r_fr2_35,fr2_y2).
head(r_fr2_36,fr2_r2).
body(r_fr2_36,fr2_a1).
body(r_fr2_36,fr2_a3).
body(r_fr2_36,fr2_c2).
body(r_fr2_36,fr17_e4).
body(r_fr2_36,fr2_e2).
head(r_fr2_37,fr2_r2).
body(r_fr2_37,fr2_b1).
body(r_fr2_37,fr2_d1).
body(r_fr2_37,fr2_p1).
body(r_fr2_37,fr2_q2).
body(r_fr2_37,fr17_p3).
body(r_fr2_37,fr2_x1).
head(r_fr2_38,fr2_v1).
body(r_fr2_38,fr2_b1).
body(r_fr2_38,fr16_d2).
body(r_fr2_38,fr17_e4).
body(r_fr2_38,fr2_e2).
body(r_fr2_38,fr2_f1).
head(r_fr2_39,fr2_v1).
body(r_fr2_39,fr2_t1).
body(r_fr2_39,fr2_v2).
body(r_fr2_39,fr2_x1).
body(r_fr2_39,fr2_y2).
head(r_fr2_40,fr2_v1).
body(r_fr2_40,fr20_v6).
head(r_fr2_41,fr2_v1).
body(r_fr2_41,fr2_e1).
head(r_fr2_42,fr17_p3).
body(r_fr2_42,fr16_d2).
body(r_fr2_42,fr2_d1).
head(r_fr2_43,fr17_p3).
body(r_fr2_43,fr2_y2).
head(r_fr2_44,fr2_p1).
body(r_fr2_44,fr3_p1).
body(r_fr2_44,fr11_v2).
body(r_fr2_44,fr13_z1).
body(r_fr2_44,fr17_p3).
body(r_fr2_44,fr2_x2).
head(r_fr2_45,fr2_p1).
body(r_fr2_45,fr2_q2).
body(r_fr2_45,fr21_r2).
body(r_fr2_45,fr2_x2).
head(r_fr2_46,fr2_p1).
body(r_fr2_46,fr2_r1).
body(r_fr2_46,fr2_z2).
head(r_fr2_47,fr2_p1).
body(r_fr2_47,fr17_e4).
body(r_fr2_47,fr21_r2).
body(r_fr2_47,fr2_w2).
head(r_fr2_48,fr2_p3).
body(r_fr2_48,fr2_q1).
body(r_fr2_48,fr13_v2).
body(r_fr2_48,fr13_z1).
body(r_fr2_48,fr2_y2).
head(r_fr2_49,fr2_p3).
head(r_fr2_50,fr2_p3).
body(r_fr2_50,fr2_b3).
body(r_fr2_50,fr2_p1).
body(r_fr2_50,fr2_x2).
head(r_fr2_51,fr2_q2).
body(r_fr2_51,fr2_d1).
body(r_fr2_51,fr11_v2).
body(r_fr2_51,fr17_p3).
head(r_fr2_52,fr2_q2).
body(r_fr2_52,fr3_p1).
body(r_fr2_52,fr19_y2).
body(r_fr2_52,fr2_s2).
body(r_fr2_52,fr2_v1).
head(r_fr2_53,fr2_q2).
body(r_fr2_53,fr2_p1).
body(r_fr2_53,fr2_p3).
body(r_fr2_53,fr2_x1).
head(r_fr2_54,fr2_q2).
body(r_fr2_54,fr3_p1).
body(r_fr2_54,fr2_r1).
body(r_fr2_54,fr2_y1).
body(r_fr2_54,fr2_y2).
head(r_fr2_55,fr2_w2).
body(r_fr2_55,fr17_e4).
head(r_fr2_56,fr2_w2).
head(r_fr2_57,fr2_v2).
body(r_fr2_57,fr3_p1).
body(r_fr2_57,fr2_p3).
body(r_fr2_57,fr16_p1).
head(r_fr2_58,fr2_v2).
body(r_fr2_58,fr2_b1).
body(r_fr2_58,fr16_d2).
body(r_fr2_58,fr17_e4).
body(r_fr2_58,fr2_e1).
head(r_fr2_59,fr2_v2).
body(r_fr2_59,fr2_a2).
body(r_fr2_59,fr2_y1).
body(r_fr2_59,fr2_y2).
body(r_fr2_59,fr20_v6).
head(r_fr2_60,fr2_t1).
body(r_fr2_60,fr2_a3).
body(r_fr2_60,fr2_p3).
body(r_fr2_60,fr2_r1).
body(r_fr2_60,fr2_s2).
body(r_fr2_60,fr17_p3).
body(r_fr2_60,fr21_r2).
head(r_fr2_61,fr2_t1).
body(r_fr2_61,fr2_e1).

assumption(fr3_a1).
assumption(fr3_b1).
assumption(fr25_a3).
assumption(fr3_d1).
assumption(fr2_a1).
assumption(fr3_f1).
assumption(fr3_a2).
assumption(fr3_b2).
assumption(fr17_e2).
assumption(fr3_d2).
assumption(fr3_e2).
assumption(fr3_f2).
assumption(fr3_a3).
assumption(fr3_b3).
assumption(fr17_a2).
contrary(fr3_a1,fr2_a1).
contrary(fr3_a2,fr7_q1).
contrary(fr3_a3,fr6_u2).
contrary(fr3_b1,fr20_v6).
contrary(fr3_b2,fr17_a2).
contrary(fr3_b3,fr3_r1).
contrary(fr25_a3,fr23_w1).
contrary(fr17_e2,fr1_q2).
contrary(fr17_a2,fr3_z1).
contrary(fr3_d1,fr3_a2).
contrary(fr3_d2,fr3_t1).
contrary(fr2_a1,fr3_x1).
contrary(fr3_e2,fr1_q2).
contrary(fr3_f1,fr3_a3).
contrary(fr3_f2,fr3_x1).
head(r_fr3_0,fr23_s3).
body(r_fr3_0,fr3_b1).
body(r_fr3_0,fr3_r2).
body(r_fr3_0,fr21_t3).
body(r_fr3_0,fr13_v1).
body(r_fr3_0,fr11_z1).
head(r_fr3_1,fr23_s3).
body(r_fr3_1,fr3_e2).
body(r_fr3_1,fr3_t1).
body(r_fr3_1,fr3_x1).
body(r_fr3_1,fr11_z1).
head(r_fr3_2,fr23_s3).
body(r_fr3_2,fr3_a1).
body(r_fr3_2,fr17_a2).
body(r_fr3_2,fr3_p3).
head(r_fr3_3,fr23_s3).
body(r_fr3_3,fr3_a1).
body(r_fr3_3,fr3_a3).
body(r_fr3_3,fr3_b1).
body(r_fr3_3,fr3_b3).
body(r_fr3_3,fr3_e2).
body(r_fr3_3,fr3_t1).
head(r_fr3_4,fr23_s3).
body(r_fr3_4,fr3_b1).
body(r_fr3_4,fr3_b3).
head(r_fr3_5,fr23_s3).
body(r_fr3_5,fr17_e2).
body(r_fr3_5,fr23_w1).
head(r_fr3_6,fr23_s3).
body(r_fr3_6,fr3_b1).
body(r_fr3_6,fr7_q1).
body(r_fr3_6,fr3_r1).
head(r_fr3_7,fr23_s3).
body(r_fr3_7,fr3_a3).
body(r_fr3_7,fr17_e2).
body(r_fr3_7,fr3_d1).
body(r_fr3_7,fr3_f1).
body(r_fr3_7,fr3_f2).
body(r_fr3_7,fr3_t1).
head(r_fr3_8,fr23_s3).
body(r_fr3_8,fr3_r2).
head(r_fr3_9,fr23_s3).
body(r_fr3_9,fr3_a1).
body(r_fr3_9,fr3_a3).
body(r_fr3_9,fr3_b2).
body(r_fr3_9,fr3_b3).
body(r_fr3_9,fr17_e2).
head(r_fr3_10,fr23_s3).
body(r_fr3_10,fr3_f2).
head(r_fr3_11,fr23_s3).
body(r_fr3_11,fr3_e2).
body(r_fr3_11,fr20_v6).
body(r_fr3_11,fr21_t3).
body(r_fr3_11,fr3_w1).
head(r_fr3_12,fr23_s3).
body(r_fr3_12,fr17_a2).
body(r_fr3_12,fr13_v1).
body(r_fr3_12,fr3_x1).
head(r_fr3_13,fr23_s3).
body(r_fr3_13,fr3_r1).
body(r_fr3_13,fr13_v1).
body(r_fr3_13,fr3_x2).
head(r_fr3_14,fr23_s3).
body(r_fr3_14,fr3_a3).
body(r_fr3_14,fr3_v1).
head(r_fr3_15,fr23_s3).
body(r_fr3_15,fr3_a1).
body(r_fr3_15,fr3_a2).
body(r_fr3_15,fr3_b3).
body(r_fr3_15,fr3_f2).
body(r_fr3_15,fr3_t1).
head(r_fr3_16,fr23_s3).
body(r_fr3_16,fr3_a3).
body(r_fr3_16,fr17_a2).
body(r_fr3_16,fr3_e2).
body(r_fr3_16,fr6_u2).
body(r_fr3_16,fr3_v1).
head(r_fr3_17,fr23_s3).
body(r_fr3_17,fr3_b3).
body(r_fr3_17,fr25_a3).
body(r_fr3_17,fr17_e2).
body(r_fr3_17,fr17_a2).
body(r_fr3_17,fr3_e2).
head(r_fr3_18,fr23_s3).
body(r_fr3_18,fr20_v6).
body(r_fr3_18,fr3_r2).
body(r_fr3_18,fr23_w1).
head(r_fr3_19,fr23_s3).
body(r_fr3_19,fr3_b3).
body(r_fr3_19,fr3_d1).
body(r_fr3_19,fr3_f2).
body(r_fr3_19,fr2_t1).
head(r_fr3_20,fr3_z1).
body(r_fr3_20,fr3_a2).
body(r_fr3_20,fr17_e2).
body(r_fr3_20,fr3_f1).
head(r_fr3_21,fr3_z1).
body(r_fr3_21,fr3_p3).
body(r_fr3_21,fr3_s2).
body(r_fr3_21,fr23_w1).
body(r_fr3_21,fr3_v1).
body(r_fr3_21,fr2_t1).
body(r_fr3_21,fr13_u1).
head(r_fr3_22,fr3_z1).
body(r_fr3_22,fr3_b3).
body(r_fr3_22,fr1_q2).
body(r_fr3_22,fr23_w1).
body(r_fr3_22,fr3_v1).
body(r_fr3_22,fr11_z1).
head(r_fr3_23,fr3_z1).
body(r_fr3_23,fr3_a3).
body(r_fr3_23,fr25_a3).
body(r_fr3_23,fr17_e2).
body(r_fr3_23,fr17_a2).
body(r_fr3_23,fr3_v1).
body(r_fr3_23,fr11_z1).
head(r_fr3_24,fr3_z1).
body(r_fr3_24,fr3_a2).
body(r_fr3_24,fr17_e2).
body(r_fr3_24,fr17_a2).
body(r_fr3_24,fr3_d2).
body(r_fr3_24,fr3_f2).
body(r_fr3_24,fr3_x2).
head(r_fr3_25,fr3_z1).
body(r_fr3_25,fr3_b3).
body(r_fr3_25,fr7_q1).
body(r_fr3_25,fr3_w1).
body(r_fr3_25,fr3_x2).
head(r_fr3_26,fr3_z1).
body(r_fr3_26,fr17_a2).
body(r_fr3_26,fr13_v1).
body(r_fr3_26,fr3_u2).
body(r_fr3_26,fr3_w2).
body(r_fr3_26,fr2_t1).
head(r_fr3_27,fr3_z1).
body(r_fr3_27,fr3_d2).
body(r_fr3_27,fr20_v6).
body(r_fr3_27,fr3_s1).
body(r_fr3_27,fr3_t1).
head(r_fr3_28,fr3_z1).
body(r_fr3_28,fr3_b3).
body(r_fr3_28,fr21_t3).
body(r_fr3_28,fr3_x2).
head(r_fr3_29,fr3_z1).
body(r_fr3_29,fr3_p3).
body(r_fr3_29,fr3_r2).
body(r_fr3_29,fr13_v1).
body(r_fr3_29,fr23_w1).
body(r_fr3_29,fr3_u2).
body(r_fr3_29,fr11_z1).
head(r_fr3_30,fr3_z1).
body(r_fr3_30,fr3_a2).
body(r_fr3_30,fr3_b1).
body(r_fr3_30,fr3_b3).
body(r_fr3_30,fr3_s2).
body(r_fr3_30,fr3_w1).
head(r_fr3_31,fr3_z1).
body(r_fr3_31,fr2_a1).
body(r_fr3_31,fr6_u2).
body(r_fr3_31,fr13_u1).
head(r_fr3_32,fr3_z1).
body(r_fr3_32,fr3_a1).
body(r_fr3_32,fr3_b3).
body(r_fr3_32,fr25_a3).
body(r_fr3_32,fr3_d1).
body(r_fr3_32,fr2_a1).
body(r_fr3_32,fr3_e2).
head(r_fr3_33,fr3_z1).
body(r_fr3_33,fr3_a3).
body(r_fr3_33,fr3_b1).
body(r_fr3_33,fr17_e2).
body(r_fr3_33,fr3_f2).
body(r_fr3_33,fr7_q1).
head(r_fr3_34,fr3_z1).
body(r_fr3_34,fr3_b1).
body(r_fr3_34,fr3_e2).
body(r_fr3_34,fr21_t3).
body(r_fr3_34,fr3_w1).
body(r_fr3_34,fr13_u1).
head(r_fr3_35,fr3_z1).
body(r_fr3_35,fr3_b1).
body(r_fr3_35,fr3_b3).
body(r_fr3_35,fr17_a2).
body(r_fr3_35,fr2_a1).
head(r_fr3_36,fr3_z1).
body(r_fr3_36,fr3_e2).
body(r_fr3_36,fr3_f1).
body(r_fr3_36,fr21_t3).
body(r_fr3_36,fr3_s2).
body(r_fr3_36,fr3_x2).
body(r_fr3_36,fr11_z1).
head(r_fr3_37,fr3_z1).
body(r_fr3_37,fr25_a3).
head(r_fr3_38,fr3_z1).
head(r_fr3_39,fr3_z1).
body(r_fr3_39,fr3_a2).
body(r_fr3_39,fr3_b2).
body(r_fr3_39,fr2_a1).
body(r_fr3_39,fr3_u2).
body(r_fr3_39,fr3_w2).
head(r_fr3_40,fr3_x1).
body(r_fr3_40,fr3_d1).
head(r_fr3_41,fr3_x1).
body(r_fr3_41,fr3_b1).
body(r_fr3_41,fr3_b2).
body(r_fr3_41,fr25_a3).
body(r_fr3_41,fr3_d1).
body(r_fr3_41,fr3_f2).
head(r_fr3_42,fr3_x1).
body(r_fr3_42,fr3_a2).
body(r_fr3_42,fr3_d2).
body(r_fr3_42,fr2_a1).
body(r_fr3_42,fr3_f1).
body(r_fr3_42,fr6_u2).
body(r_fr3_42,fr21_t3).
head(r_fr3_43,fr3_x1).
body(r_fr3_43,fr3_d1).
body(r_fr3_43,fr7_q1).
body(r_fr3_43,fr3_u2).
body(r_fr3_43,fr3_w2).
head(r_fr3_44,fr3_x1).
body(r_fr3_44,fr3_a2).
body(r_fr3_44,fr3_a3).
body(r_fr3_44,fr3_e2).
body(r_fr3_44,fr21_t3).
body(r_fr3_44,fr3_x2).
head(r_fr3_45,fr3_x1).
body(r_fr3_45,fr3_x2).
head(r_fr3_46,fr3_x1).
body(r_fr3_46,fr2_t1).
body(r_fr3_46,fr13_u1).
head(r_fr3_47,fr3_x1).
body(r_fr3_47,fr3_a2).
body(r_fr3_47,fr25_a3).
body(r_fr3_47,fr3_d1).
body(r_fr3_47,fr3_r2).
body(r_fr3_47,fr3_u2).
body(r_fr3_47,fr13_u1).
head(r_fr3_48,fr3_x1).
body(r_fr3_48,fr3_b1).
body(r_fr3_48,fr3_e2).
body(r_fr3_48,fr20_v6).
body(r_fr3_48,fr21_t3).
body(r_fr3_48,fr3_t1).
body(r_fr3_48,fr11_z1).
head(r_fr3_49,fr3_x1).
body(r_fr3_49,fr3_b3).
body(r_fr3_49,fr2_t1).
head(r_fr3_50,fr3_x1).
body(r_fr3_50,fr3_p3).
body(r_fr3_50,fr3_r2).
body(r_fr3_50,fr3_w2).
body(r_fr3_50,fr3_x2).
head(r_fr3_51,fr3_x1).
body(r_fr3_51,fr3_b1).
body(r_fr3_51,fr3_b2).
body(r_fr3_51,fr3_b3).
body(r_fr3_51,fr17_e2).
head(r_fr3_52,fr3_x1).
body(r_fr3_52,fr3_d1).
body(r_fr3_52,fr2_a1).
body(r_fr3_52,fr3_u2).
body(r_fr3_52,fr3_w2).
body(r_fr3_52,fr11_z1).
head(r_fr3_53,fr3_x1).
head(r_fr3_54,fr3_x1).
body(r_fr3_54,fr3_p1).
body(r_fr3_54,fr3_r1).
body(r_fr3_54,fr3_u2).
body(r_fr3_54,fr3_v1).
head(r_fr3_55,fr3_x1).
body(r_fr3_55,fr17_a2).
body(r_fr3_55,fr20_v6).
body(r_fr3_55,fr3_s1).
body(r_fr3_55,fr3_t1).
body(r_fr3_55,fr3_x2).
head(r_fr3_56,fr3_x1).
body(r_fr3_56,fr3_e2).
head(r_fr3_57,fr2_t1).
body(r_fr3_57,fr3_s2).
head(r_fr3_58,fr2_t1).
body(r_fr3_58,fr17_e2).
head(r_fr3_59,fr2_t1).
body(r_fr3_59,fr3_b3).
body(r_fr3_59,fr3_f1).
body(r_fr3_59,fr3_p3).
head(r_fr3_60,fr2_t1).
body(r_fr3_60,fr3_p3).
body(r_fr3_60,fr1_q2).
body(r_fr3_60,fr3_r1).
body(r_fr3_60,fr3_r2).
body(r_fr3_60,fr21_t3).
body(r_fr3_60,fr11_z1).
head(r_fr3_61,fr2_t1).
body(r_fr3_61,fr3_b2).
body(r_fr3_61,fr3_b3).
body(r_fr3_61,fr17_a2).
body(r_fr3_61,fr3_d1).
body(r_fr3_61,fr3_d2).
head(r_fr3_62,fr2_t1).
body(r_fr3_62,fr17_a2).
head(r_fr3_63,fr2_t1).
body(r_fr3_63,fr17_a2).
body(r_fr3_63,fr3_e2).
body(r_fr3_63,fr6_u2).
body(r_fr3_63,fr3_r2).
body(r_fr3_63,fr11_z1).
head(r_fr3_64,fr2_t1).
body(r_fr3_64,fr3_b1).
body(r_fr3_64,fr3_t1).
head(r_fr3_65,fr2_t1).
body(r_fr3_65,fr3_a1).
body(r_fr3_65,fr3_b3).
body(r_fr3_65,fr3_e2).
body(r_fr3_65,fr3_x2).
head(r_fr3_66,fr2_t1).
body(r_fr3_66,fr17_a2).
body(r_fr3_66,fr20_v6).
body(r_fr3_66,fr3_p3).
body(r_fr3_66,fr21_t3).
body(r_fr3_66,fr3_w2).
head(r_fr3_67,fr2_t1).
body(r_fr3_67,fr3_a3).
body(r_fr3_67,fr3_b1).
body(r_fr3_67,fr3_b2).
body(r_fr3_67,fr3_b3).
body(r_fr3_67,fr17_e2).
body(r_fr3_67,fr3_f2).
head(r_fr3_68,fr2_t1).
body(r_fr3_68,fr3_e2).
body(r_fr3_68,fr3_f1).
head(r_fr3_69,fr2_t1).
body(r_fr3_69,fr3_w2).
head(r_fr3_70,fr2_t1).
body(r_fr3_70,fr3_a2).
body(r_fr3_70,fr17_a2).
body(r_fr3_70,fr7_q1).
body(r_fr3_70,fr3_s2).
body(r_fr3_70,fr23_w1).
head(r_fr3_71,fr2_t1).
body(r_fr3_71,fr20_v6).
body(r_fr3_71,fr3_w1).
head(r_fr3_72,fr2_t1).
body(r_fr3_72,fr3_a3).
body(r_fr3_72,fr3_b1).
body(r_fr3_72,fr3_d1).
body(r_fr3_72,fr3_d2).
body(r_fr3_72,fr3_e2).
body(r_fr3_72,fr3_f2).
head(r_fr3_73,fr2_t1).
head(r_fr3_74,fr13_v1).
body(r_fr3_74,fr3_b3).
head(r_fr3_75,fr13_v1).
body(r_fr3_75,fr3_a3).
body(r_fr3_75,fr3_d2).
body(r_fr3_75,fr23_w1).
body(r_fr3_75,fr3_v1).
body(r_fr3_75,fr13_u1).
head(r_fr3_76,fr13_v1).
body(r_fr3_76,fr3_p3).
body(r_fr3_76,fr3_r2).
body(r_fr3_76,fr3_w1).
body(r_fr3_76,fr3_x2).
head(r_fr3_77,fr13_v1).
body(r_fr3_77,fr3_a1).
head(r_fr3_78,fr13_v1).
body(r_fr3_78,fr3_a3).
body(r_fr3_78,fr3_f2).
body(r_fr3_78,fr20_v6).
body(r_fr3_78,fr3_s1).
body(r_fr3_78,fr3_t1).
body(r_fr3_78,fr3_x2).
head(r_fr3_79,fr13_v1).
body(r_fr3_79,fr3_a2).
body(r_fr3_79,fr17_a2).
body(r_fr3_79,fr3_d1).
body(r_fr3_79,fr2_a1).
body(r_fr3_79,fr3_e2).
body(r_fr3_79,fr3_f2).
head(r_fr3_80,fr13_v1).
body(r_fr3_80,fr3_a1).
body(r_fr3_80,fr17_e2).
body(r_fr3_80,fr3_r2).
body(r_fr3_80,fr21_t3).
body(r_fr3_80,fr3_s2).
head(r_fr3_81,fr13_v1).
body(r_fr3_81,fr3_b2).
body(r_fr3_81,fr3_p3).
body(r_fr3_81,fr7_q1).
body(r_fr3_81,fr3_r2).
body(r_fr3_81,fr3_t1).
head(r_fr3_82,fr13_v1).
body(r_fr3_82,fr3_a3).
body(r_fr3_82,fr3_b1).
body(r_fr3_82,fr3_d2).
body(r_fr3_82,fr3_e2).
body(r_fr3_82,fr3_f1).
body(r_fr3_82,fr3_t1).
head(r_fr3_83,fr13_v1).
body(r_fr3_83,fr3_d2).
head(r_fr3_84,fr13_v1).
body(r_fr3_84,fr3_s2).
head(r_fr3_85,fr13_v1).
body(r_fr3_85,fr2_a1).
body(r_fr3_85,fr7_q1).
head(r_fr3_86,fr13_v1).
body(r_fr3_86,fr3_a2).
body(r_fr3_86,fr25_a3).
body(r_fr3_86,fr3_d1).
body(r_fr3_86,fr2_a1).
body(r_fr3_86,fr3_f1).
body(r_fr3_86,fr3_f2).
head(r_fr3_87,fr13_v1).
body(r_fr3_87,fr3_s2).
body(r_fr3_87,fr23_w1).
body(r_fr3_87,fr3_w1).
body(r_fr3_87,fr3_x2).
body(r_fr3_87,fr11_z1).
head(r_fr3_88,fr13_v1).
body(r_fr3_88,fr17_e2).
body(r_fr3_88,fr3_d1).
body(r_fr3_88,fr23_w1).
body(r_fr3_88,fr3_w1).
body(r_fr3_88,fr3_w2).
body(r_fr3_88,fr3_x2).
head(r_fr3_89,fr13_v1).
head(r_fr3_90,fr13_v1).
body(r_fr3_90,fr17_e2).
body(r_fr3_90,fr2_a1).
body(r_fr3_90,fr3_e2).
body(r_fr3_90,fr6_u2).
head(r_fr3_91,fr13_v1).
body(r_fr3_91,fr25_a3).
body(r_fr3_91,fr17_a2).
body(r_fr3_91,fr2_a1).
body(r_fr3_91,fr3_f1).
body(r_fr3_91,fr3_t1).
body(r_fr3_91,fr3_u2).
head(r_fr3_92,fr3_w2).
body(r_fr3_92,fr3_s1).
body(r_fr3_92,fr3_t1).
body(r_fr3_92,fr23_w1).
body(r_fr3_92,fr3_w1).
head(r_fr3_93,fr3_w2).
body(r_fr3_93,fr7_q1).
head(r_fr3_94,fr3_w2).
body(r_fr3_94,fr3_a3).
body(r_fr3_94,fr3_b2).
body(r_fr3_94,fr3_e2).
body(r_fr3_94,fr3_f2).
head(r_fr3_95,fr3_w2).
body(r_fr3_95,fr3_b2).
head(r_fr3_96,fr3_w2).
body(r_fr3_96,fr3_a1).
body(r_fr3_96,fr3_a3).
body(r_fr3_96,fr3_b1).
body(r_fr3_96,fr3_b3).
body(r_fr3_96,fr17_a2).
body(r_fr3_96,fr3_e2).
head(r_fr3_97,fr3_w2).
body(r_fr3_97,fr3_u2).
head(r_fr3_98,fr3_w2).
body(r_fr3_98,fr3_b2).
body(r_fr3_98,fr3_d1).
body(r_fr3_98,fr2_a1).
body(r_fr3_98,fr3_f1).
head(r_fr3_99,fr3_w2).
body(r_fr3_99,fr3_a3).
body(r_fr3_99,fr25_a3).
body(r_fr3_99,fr3_r1).
body(r_fr3_99,fr3_u2).
head(r_fr3_100,fr3_w2).
body(r_fr3_100,fr3_b1).
body(r_fr3_100,fr3_b2).
body(r_fr3_100,fr3_b3).
body(r_fr3_100,fr25_a3).
body(r_fr3_100,fr17_e2).
head(r_fr3_101,fr3_w2).
body(r_fr3_101,fr3_e2).
body(r_fr3_101,fr3_p3).
head(r_fr3_102,fr3_w2).
body(r_fr3_102,fr3_a3).
body(r_fr3_102,fr17_a2).
body(r_fr3_102,fr3_p1).
body(r_fr3_102,fr7_q1).
body(r_fr3_102,fr23_w1).
head(r_fr3_103,fr3_w2).
body(r_fr3_103,fr3_b3).
body(r_fr3_103,fr17_a2).
body(r_fr3_103,fr20_v6).
body(r_fr3_103,fr21_t3).
body(r_fr3_103,fr3_v1).
head(r_fr3_104,fr3_w2).
body(r_fr3_104,fr3_a2).
body(r_fr3_104,fr3_a3).
body(r_fr3_104,fr3_b2).
body(r_fr3_104,fr17_a2).
body(r_fr3_104,fr3_d1).
body(r_fr3_104,fr2_a1).
head(r_fr3_105,fr3_w2).
body(r_fr3_105,fr3_p1).
body(r_fr3_105,fr20_v6).
body(r_fr3_105,fr3_r1).
body(r_fr3_105,fr23_w1).
body(r_fr3_105,fr3_u2).
head(r_fr3_106,fr3_w2).
body(r_fr3_106,fr17_a2).
head(r_fr3_107,fr3_w2).
head(r_fr3_108,fr3_w2).
body(r_fr3_108,fr3_a2).
body(r_fr3_108,fr3_a3).
body(r_fr3_108,fr17_a2).
body(r_fr3_108,fr3_d1).
body(r_fr3_108,fr3_d2).
body(r_fr3_108,fr3_e2).
head(r_fr3_109,fr3_w2).
body(r_fr3_109,fr3_a1).
body(r_fr3_109,fr3_a2).
body(r_fr3_109,fr7_q1).
body(r_fr3_109,fr3_s2).
body(r_fr3_109,fr11_z1).
head(r_fr3_110,fr3_w2).
body(r_fr3_110,fr3_p3).
body(r_fr3_110,fr3_v1).
body(r_fr3_110,fr11_z1).
head(r_fr3_111,fr3_w2).
body(r_fr3_111,fr3_d1).
body(r_fr3_111,fr1_q2).
body(r_fr3_111,fr3_r2).
body(r_fr3_111,fr3_w1).
body(r_fr3_111,fr3_x2).
body(r_fr3_111,fr11_z1).
head(r_fr3_112,fr3_r2).
head(r_fr3_113,fr3_r2).
body(r_fr3_113,fr3_p1).
head(r_fr3_114,fr3_r2).
body(r_fr3_114,fr17_e2).
body(r_fr3_114,fr3_e2).
body(r_fr3_114,fr3_p1).
body(r_fr3_114,fr20_v6).
body(r_fr3_114,fr3_w1).
body(r_fr3_114,fr11_z1).
head(r_fr3_115,fr3_r2).
body(r_fr3_115,fr17_e2).
head(r_fr3_116,fr3_r2).
body(r_fr3_116,fr3_b3).
body(r_fr3_116,fr2_a1).
head(r_fr3_117,fr3_r2).
body(r_fr3_117,fr25_a3).
body(r_fr3_117,fr3_d2).
body(r_fr3_117,fr6_u2).
body(r_fr3_117,fr23_w1).
body(r_fr3_117,fr11_z1).
head(r_fr3_118,fr3_r2).
body(r_fr3_118,fr23_w1).
head(r_fr3_119,fr3_r2).
body(r_fr3_119,fr3_b2).
body(r_fr3_119,fr3_d2).
body(r_fr3_119,fr3_p3).
head(r_fr3_120,fr3_r2).
body(r_fr3_120,fr6_u2).
body(r_fr3_120,fr3_v1).
body(r_fr3_120,fr3_w1).
body(r_fr3_120,fr3_x2).
body(r_fr3_120,fr11_z1).
head(r_fr3_121,fr3_r2).
body(r_fr3_121,fr3_a1).
body(r_fr3_121,fr3_a2).
body(r_fr3_121,fr25_a3).
body(r_fr3_121,fr2_a1).
body(r_fr3_121,fr3_f1).
head(r_fr3_122,fr3_r2).
body(r_fr3_122,fr3_f1).
head(r_fr3_123,fr3_r2).
body(r_fr3_123,fr3_f1).
body(r_fr3_123,fr3_p1).
body(r_fr3_123,fr7_q1).
body(r_fr3_123,fr21_t3).
body(r_fr3_123,fr3_s1).
head(r_fr3_124,fr3_r2).
body(r_fr3_124,fr3_b3).
body(r_fr3_124,fr3_t1).
head(r_fr3_125,fr3_r2).
body(r_fr3_125,fr3_a2).
body(r_fr3_125,fr3_a3).
body(r_fr3_125,fr3_b1).
body(r_fr3_125,fr17_a2).
body(r_fr3_125,fr3_e2).
body(r_fr3_125,fr3_f2).
head(r_fr3_126,fr3_r2).
body(r_fr3_126,fr3_a2).
body(r_fr3_126,fr3_a3).
body(r_fr3_126,fr3_b1).
body(r_fr3_126,fr25_a3).
body(r_fr3_126,fr17_a2).
body(r_fr3_126,fr3_e2).
head(r_fr3_127,fr3_r2).
body(r_fr3_127,fr3_p1).
body(r_fr3_127,fr3_p3).
body(r_fr3_127,fr3_s1).
body(r_fr3_127,fr3_s2).
body(r_fr3_127,fr3_t1).
body(r_fr3_127,fr23_w1).
head(r_fr3_128,fr3_r2).
body(r_fr3_128,fr3_b1).
body(r_fr3_128,fr3_d2).
body(r_fr3_128,fr2_a1).
body(r_fr3_128,fr3_r1).
body(r_fr3_128,fr3_u2).
head(r_fr3_129,fr3_r2).
body(r_fr3_129,fr3_a2).
body(r_fr3_129,fr3_b3).
body(r_fr3_129,fr3_p1).
body(r_fr3_129,fr7_q1).
body(r_fr3_129,fr3_r1).
body(r_fr3_129,fr3_u2).
head(r_fr3_130,fr3_r2).
body(r_fr3_130,fr3_a2).
body(r_fr3_130,fr3_s1).
head(r_fr3_131,fr1_q2).
body(r_fr3_131,fr3_a1).
body(r_fr3_131,fr3_a2).
body(r_fr3_131,fr17_a2).
body(r_fr3_131,fr3_s2).
head(r_fr3_132,fr1_q2).
body(r_fr3_132,fr3_a3).
body(r_fr3_132,fr3_b2).
body(r_fr3_132,fr3_d1).
head(r_fr3_133,fr1_q2).
body(r_fr3_133,fr17_a2).
body(r_fr3_133,fr3_f1).
body(r_fr3_133,fr13_u1).
head(r_fr3_134,fr1_q2).
body(r_fr3_134,fr3_v1).
body(r_fr3_134,fr3_x2).
head(r_fr3_135,fr1_q2).
body(r_fr3_135,fr3_a2).
body(r_fr3_135,fr3_p3).
body(r_fr3_135,fr21_t3).
body(r_fr3_135,fr23_w1).
head(r_fr3_136,fr1_q2).
body(r_fr3_136,fr3_p3).
body(r_fr3_136,fr3_s2).
body(r_fr3_136,fr23_w1).
body(r_fr3_136,fr11_z1).
head(r_fr3_137,fr1_q2).
body(r_fr3_137,fr3_d2).
body(r_fr3_137,fr2_a1).
body(r_fr3_137,fr3_e2).
body(r_fr3_137,fr3_u2).
body(r_fr3_137,fr3_v1).
head(r_fr3_138,fr1_q2).
body(r_fr3_138,fr3_f1).
body(r_fr3_138,fr11_z1).
head(r_fr3_139,fr1_q2).
body(r_fr3_139,fr3_b2).
body(r_fr3_139,fr3_d2).
body(r_fr3_139,fr3_p3).
body(r_fr3_139,fr6_u2).
body(r_fr3_139,fr23_w1).
head(r_fr3_140,fr1_q2).
body(r_fr3_140,fr3_a3).
body(r_fr3_140,fr3_b3).
body(r_fr3_140,fr3_d1).
body(r_fr3_140,fr3_e2).
body(r_fr3_140,fr3_f1).
head(r_fr3_141,fr1_q2).
body(r_fr3_141,fr3_b3).
body(r_fr3_141,fr17_e2).
body(r_fr3_141,fr3_d1).
body(r_fr3_141,fr3_p1).
body(r_fr3_141,fr3_s2).
head(r_fr3_142,fr1_q2).
body(r_fr3_142,fr6_u2).
head(r_fr3_143,fr1_q2).
body(r_fr3_143,fr3_v1).
head(r_fr3_144,fr1_q2).
body(r_fr3_144,fr3_d2).
head(r_fr3_145,fr1_q2).
body(r_fr3_145,fr3_a1).
body(r_fr3_145,fr3_e2).
body(r_fr3_145,fr21_t3).
body(r_fr3_145,fr3_x2).
head(r_fr3_146,fr1_q2).
body(r_fr3_146,fr3_a1).
body(r_fr3_146,fr3_f2).
body(r_fr3_146,fr3_p1).
head(r_fr3_147,fr1_q2).
head(r_fr3_148,fr1_q2).
body(r_fr3_148,fr3_d2).
body(r_fr3_148,fr7_q1).
head(r_fr3_149,fr1_q2).
body(r_fr3_149,fr17_e2).
body(r_fr3_149,fr3_r1).
body(r_fr3_149,fr3_s2).
body(r_fr3_149,fr3_w1).
body(r_fr3_149,fr3_x2).
body(r_fr3_149,fr11_z1).
head(r_fr3_150,fr3_p1).
body(r_fr3_150,fr3_a2).
body(r_fr3_150,fr3_s1).
body(r_fr3_150,fr3_w1).
head(r_fr3_151,fr3_p1).
body(r_fr3_151,fr17_e2).
body(r_fr3_151,fr3_f1).
body(r_fr3_151,fr3_t1).
head(r_fr3_152,fr3_p1).
body(r_fr3_152,fr3_a2).
body(r_fr3_152,fr3_b1).
body(r_fr3_152,fr2_a1).
head(r_fr3_153,fr3_p1).
body(r_fr3_153,fr3_p3).
body(r_fr3_153,fr7_q1).
body(r_fr3_153,fr6_u2).
body(r_fr3_153,fr21_t3).
body(r_fr3_153,fr3_t1).
body(r_fr3_153,fr3_x2).
head(r_fr3_154,fr3_p1).
body(r_fr3_154,fr3_b3).
body(r_fr3_154,fr25_a3).
body(r_fr3_154,fr2_a1).
body(r_fr3_154,fr3_r1).
body(r_fr3_154,fr3_v1).
head(r_fr3_155,fr3_p1).
body(r_fr3_155,fr3_a3).
body(r_fr3_155,fr3_d1).
body(r_fr3_155,fr3_e2).
head(r_fr3_156,fr3_p1).
body(r_fr3_156,fr3_b1).
body(r_fr3_156,fr3_b3).
body(r_fr3_156,fr2_a1).
body(r_fr3_156,fr3_s1).
head(r_fr3_157,fr3_p1).
body(r_fr3_157,fr3_a2).
body(r_fr3_157,fr3_b3).
body(r_fr3_157,fr25_a3).
body(r_fr3_157,fr3_d1).
body(r_fr3_157,fr2_a1).
head(r_fr3_158,fr3_p1).
body(r_fr3_158,fr20_v6).
body(r_fr3_158,fr3_x2).
head(r_fr3_159,fr3_p1).
body(r_fr3_159,fr3_w1).
head(r_fr3_160,fr3_p1).
body(r_fr3_160,fr3_a3).
body(r_fr3_160,fr21_t3).
body(r_fr3_160,fr3_u2).
head(r_fr3_161,fr3_p1).
body(r_fr3_161,fr3_a3).
body(r_fr3_161,fr3_b1).
body(r_fr3_161,fr17_e2).
body(r_fr3_161,fr3_d1).
head(r_fr3_162,fr3_p1).
body(r_fr3_162,fr3_a1).
body(r_fr3_162,fr3_b2).
body(r_fr3_162,fr25_a3).
body(r_fr3_162,fr17_e2).
body(r_fr3_162,fr17_a2).
head(r_fr3_163,fr3_p1).
body(r_fr3_163,fr17_e2).
body(r_fr3_163,fr3_f1).
body(r_fr3_163,fr3_s1).
body(r_fr3_163,fr3_w1).
head(r_fr3_164,fr3_p1).
head(r_fr3_165,fr3_p1).
body(r_fr3_165,fr17_a2).
body(r_fr3_165,fr3_p3).
body(r_fr3_165,fr13_u1).
head(r_fr3_166,fr3_p1).
body(r_fr3_166,fr20_v6).
body(r_fr3_166,fr7_q1).
body(r_fr3_166,fr3_s1).
body(r_fr3_166,fr23_w1).
head(r_fr3_167,fr3_p1).
body(r_fr3_167,fr3_s2).
body(r_fr3_167,fr13_u1).
head(r_fr3_168,fr23_w1).
body(r_fr3_168,fr3_x2).
head(r_fr3_169,fr23_w1).
body(r_fr3_169,fr3_a2).
body(r_fr3_169,fr3_b2).
body(r_fr3_169,fr25_a3).
body(r_fr3_169,fr2_a1).
body(r_fr3_169,fr3_f1).
head(r_fr3_170,fr23_w1).
body(r_fr3_170,fr3_b1).
body(r_fr3_170,fr3_r1).
head(r_fr3_171,fr23_w1).
body(r_fr3_171,fr3_r1).
head(r_fr3_172,fr23_w1).
body(r_fr3_172,fr3_f1).
body(r_fr3_172,fr11_z1).
head(r_fr3_173,fr23_w1).
body(r_fr3_173,fr3_a3).
head(r_fr3_174,fr23_w1).
body(r_fr3_174,fr3_f2).
body(r_fr3_174,fr3_r1).
body(r_fr3_174,fr3_u2).
head(r_fr3_175,fr23_w1).
body(r_fr3_175,fr17_a2).
body(r_fr3_175,fr3_p3).
body(r_fr3_175,fr3_u2).
body(r_fr3_175,fr3_w1).
body(r_fr3_175,fr13_u1).
head(r_fr3_176,fr23_w1).
body(r_fr3_176,fr7_q1).
body(r_fr3_176,fr3_s1).
head(r_fr3_177,fr23_w1).
body(r_fr3_177,fr3_b1).
head(r_fr3_178,fr23_w1).
head(r_fr3_179,fr23_w1).
body(r_fr3_179,fr17_e2).
body(r_fr3_179,fr17_a2).
body(r_fr3_179,fr2_a1).
head(r_fr3_180,fr23_w1).
body(r_fr3_180,fr20_v6).
body(r_fr3_180,fr3_s1).
body(r_fr3_180,fr3_u2).
body(r_fr3_180,fr3_v1).
body(r_fr3_180,fr3_x2).
head(r_fr3_181,fr23_w1).
body(r_fr3_181,fr3_a1).
body(r_fr3_181,fr3_e2).
head(r_fr3_182,fr23_w1).
body(r_fr3_182,fr3_b1).
body(r_fr3_182,fr3_d1).
body(r_fr3_182,fr21_t3).
body(r_fr3_182,fr3_s1).
body(r_fr3_182,fr3_v1).
head(r_fr3_183,fr23_w1).
body(r_fr3_183,fr20_v6).
body(r_fr3_183,fr3_r1).
body(r_fr3_183,fr3_s2).
head(r_fr3_184,fr23_w1).
body(r_fr3_184,fr20_v6).
body(r_fr3_184,fr3_r1).
head(r_fr3_185,fr23_w1).
body(r_fr3_185,fr21_t3).
body(r_fr3_185,fr3_s1).
body(r_fr3_185,fr3_w1).
head(r_fr3_186,fr23_w1).
body(r_fr3_186,fr3_b1).
body(r_fr3_186,fr3_d2).
body(r_fr3_186,fr11_z1).
head(r_fr3_187,fr23_w1).
body(r_fr3_187,fr3_a1).
body(r_fr3_187,fr3_b2).
body(r_fr3_187,fr7_q1).
body(r_fr3_187,fr6_u2).
body(r_fr3_187,fr3_t1).
head(r_fr3_188,fr6_u2).
body(r_fr3_188,fr3_b3).
body(r_fr3_188,fr3_f2).
body(r_fr3_188,fr20_v6).
head(r_fr3_189,fr6_u2).
body(r_fr3_189,fr7_q1).
body(r_fr3_189,fr21_t3).
body(r_fr3_189,fr3_u2).
head(r_fr3_190,fr6_u2).
body(r_fr3_190,fr3_b3).
body(r_fr3_190,fr3_f1).
body(r_fr3_190,fr3_p3).
body(r_fr3_190,fr7_q1).
body(r_fr3_190,fr21_t3).
body(r_fr3_190,fr3_v1).
head(r_fr3_191,fr6_u2).
body(r_fr3_191,fr20_v6).
body(r_fr3_191,fr3_w1).
head(r_fr3_192,fr6_u2).
body(r_fr3_192,fr17_e2).
body(r_fr3_192,fr20_v6).
body(r_fr3_192,fr3_s1).
body(r_fr3_192,fr3_u2).
body(r_fr3_192,fr13_u1).
head(r_fr3_193,fr6_u2).
body(r_fr3_193,fr3_a1).
body(r_fr3_193,fr2_a1).
body(r_fr3_193,fr3_f2).
body(r_fr3_193,fr7_q1).
body(r_fr3_193,fr11_z1).
head(r_fr3_194,fr6_u2).
body(r_fr3_194,fr3_r1).
body(r_fr3_194,fr3_s1).
body(r_fr3_194,fr13_u1).
head(r_fr3_195,fr6_u2).
body(r_fr3_195,fr20_v6).
body(r_fr3_195,fr3_p3).
body(r_fr3_195,fr3_s2).
body(r_fr3_195,fr3_v1).
body(r_fr3_195,fr3_w1).
body(r_fr3_195,fr11_z1).
head(r_fr3_196,fr6_u2).
body(r_fr3_196,fr3_a2).
body(r_fr3_196,fr3_b2).
body(r_fr3_196,fr3_d1).
body(r_fr3_196,fr3_f2).
body(r_fr3_196,fr3_p3).
body(r_fr3_196,fr13_u1).
head(r_fr3_197,fr6_u2).
body(r_fr3_197,fr17_e2).
body(r_fr3_197,fr7_q1).
body(r_fr3_197,fr21_t3).
head(r_fr3_198,fr6_u2).
body(r_fr3_198,fr3_f1).
body(r_fr3_198,fr3_r1).
body(r_fr3_198,fr3_t1).
body(r_fr3_198,fr3_v1).
head(r_fr3_199,fr6_u2).
body(r_fr3_199,fr3_w1).
head(r_fr3_200,fr6_u2).
head(r_fr3_201,fr6_u2).
body(r_fr3_201,fr3_b1).
body(r_fr3_201,fr3_b3).
body(r_fr3_201,fr17_e2).
body(r_fr3_201,fr3_d1).
body(r_fr3_201,fr3_d2).
body(r_fr3_201,fr3_f2).
head(r_fr3_202,fr6_u2).
body(r_fr3_202,fr7_q1).
body(r_fr3_202,fr3_u2).
body(r_fr3_202,fr3_w1).
body(r_fr3_202,fr3_x2).
body(r_fr3_202,fr13_u1).
head(r_fr3_203,fr6_u2).
body(r_fr3_203,fr20_v6).
body(r_fr3_203,fr7_q1).
body(r_fr3_203,fr3_s2).
body(r_fr3_203,fr3_t1).
body(r_fr3_203,fr13_u1).
head(r_fr3_204,fr6_u2).
body(r_fr3_204,fr3_a2).
body(r_fr3_204,fr17_e2).
body(r_fr3_204,fr3_d1).
body(r_fr3_204,fr3_d2).
body(r_fr3_204,fr2_a1).
body(r_fr3_204,fr3_w1).
head(r_fr3_205,fr6_u2).
body(r_fr3_205,fr3_r1).
body(r_fr3_205,fr11_z1).
head(r_fr3_206,fr6_u2).
body(r_fr3_206,fr3_d1).
body(r_fr3_206,fr3_f2).
head(r_fr3_207,fr3_s1).
body(r_fr3_207,fr3_b1).
body(r_fr3_207,fr25_a3).
body(r_fr3_207,fr3_s2).
head(r_fr3_208,fr3_s1).
body(r_fr3_208,fr3_b1).
body(r_fr3_208,fr17_a2).
body(r_fr3_208,fr3_d1).
body(r_fr3_208,fr3_d2).
body(r_fr3_208,fr2_a1).
body(r_fr3_208,fr3_e2).
head(r_fr3_209,fr3_s1).
body(r_fr3_209,fr3_a3).
body(r_fr3_209,fr25_a3).
body(r_fr3_209,fr17_a2).
body(r_fr3_209,fr3_t1).
body(r_fr3_209,fr3_v1).
head(r_fr3_210,fr3_s1).
body(r_fr3_210,fr3_b1).
body(r_fr3_210,fr3_b3).
body(r_fr3_210,fr3_f1).
head(r_fr3_211,fr3_s1).
body(r_fr3_211,fr21_t3).
head(r_fr3_212,fr3_s1).
body(r_fr3_212,fr7_q1).
body(r_fr3_212,fr21_t3).
body(r_fr3_212,fr3_u2).
body(r_fr3_212,fr3_x2).
head(r_fr3_213,fr3_s1).
body(r_fr3_213,fr20_v6).
body(r_fr3_213,fr3_t1).
body(r_fr3_213,fr3_v1).
head(r_fr3_214,fr3_s1).
body(r_fr3_214,fr3_a2).
body(r_fr3_214,fr7_q1).
body(r_fr3_214,fr3_r1).
body(r_fr3_214,fr3_t1).
body(r_fr3_214,fr3_w1).
head(r_fr3_215,fr3_s1).
body(r_fr3_215,fr17_e2).
body(r_fr3_215,fr3_r1).
body(r_fr3_215,fr11_z1).
head(r_fr3_216,fr3_s1).
body(r_fr3_216,fr3_a1).
body(r_fr3_216,fr3_a3).
body(r_fr3_216,fr3_b2).
body(r_fr3_216,fr3_u2).
head(r_fr3_217,fr3_s1).
body(r_fr3_217,fr3_d1).
body(r_fr3_217,fr7_q1).
body(r_fr3_217,fr3_w1).
head(r_fr3_218,fr3_s1).
body(r_fr3_218,fr3_a1).
body(r_fr3_218,fr3_a2).
body(r_fr3_218,fr3_b2).
body(r_fr3_218,fr17_e2).
body(r_fr3_218,fr17_a2).
body(r_fr3_218,fr3_e2).
head(r_fr3_219,fr3_s1).
body(r_fr3_219,fr3_d2).
body(r_fr3_219,fr7_q1).
body(r_fr3_219,fr3_r1).
body(r_fr3_219,fr3_x2).
body(r_fr3_219,fr13_u1).
head(r_fr3_220,fr3_s1).
body(r_fr3_220,fr3_a1).
body(r_fr3_220,fr25_a3).
body(r_fr3_220,fr3_d1).
body(r_fr3_220,fr3_d2).
body(r_fr3_220,fr3_f2).
body(r_fr3_220,fr3_s2).
head(r_fr3_221,fr3_s1).
body(r_fr3_221,fr3_a2).
body(r_fr3_221,fr3_b3).
body(r_fr3_221,fr25_a3).
body(r_fr3_221,fr3_e2).
body(r_fr3_221,fr3_f1).
body(r_fr3_221,fr3_f2).
head(r_fr3_222,fr3_s1).
body(r_fr3_222,fr3_b2).
head(r_fr3_223,fr3_s1).
head(r_fr3_224,fr13_u1).
body(r_fr3_224,fr17_e2).
head(r_fr3_225,fr13_u1).
body(r_fr3_225,fr3_a1).
body(r_fr3_225,fr3_a3).
body(r_fr3_225,fr3_d2).
body(r_fr3_225,fr3_f2).
body(r_fr3_225,fr3_w1).
head(r_fr3_226,fr13_u1).
body(r_fr3_226,fr11_z1).
head(r_fr3_227,fr13_u1).
body(r_fr3_227,fr3_p3).
body(r_fr3_227,fr7_q1).
body(r_fr3_227,fr3_r1).
body(r_fr3_227,fr3_t1).
body(r_fr3_227,fr3_w1).
body(r_fr3_227,fr3_x2).
head(r_fr3_228,fr13_u1).
body(r_fr3_228,fr3_a3).
body(r_fr3_228,fr20_v6).
body(r_fr3_228,fr3_s2).
body(r_fr3_228,fr3_x2).
head(r_fr3_229,fr13_u1).
body(r_fr3_229,fr7_q1).
body(r_fr3_229,fr21_t3).
head(r_fr3_230,fr13_u1).
body(r_fr3_230,fr3_a2).
body(r_fr3_230,fr7_q1).
body(r_fr3_230,fr3_r1).
head(r_fr3_231,fr13_u1).
body(r_fr3_231,fr25_a3).
body(r_fr3_231,fr17_a2).
body(r_fr3_231,fr3_d1).
body(r_fr3_231,fr3_e2).
body(r_fr3_231,fr3_f1).
head(r_fr3_232,fr13_u1).
body(r_fr3_232,fr21_t3).
body(r_fr3_232,fr3_s2).
body(r_fr3_232,fr3_t1).
body(r_fr3_232,fr11_z1).
head(r_fr3_233,fr13_u1).
body(r_fr3_233,fr20_v6).
body(r_fr3_233,fr7_q1).
body(r_fr3_233,fr3_s2).
body(r_fr3_233,fr3_t1).
body(r_fr3_233,fr3_u2).
body(r_fr3_233,fr3_v1).
head(r_fr3_234,fr13_u1).
body(r_fr3_234,fr3_a3).
body(r_fr3_234,fr3_f1).
body(r_fr3_234,fr3_f2).
body(r_fr3_234,fr3_t1).
body(r_fr3_234,fr3_x2).
head(r_fr3_235,fr13_u1).
body(r_fr3_235,fr3_a3).
body(r_fr3_235,fr17_e2).
body(r_fr3_235,fr20_v6).
body(r_fr3_235,fr3_t1).
head(r_fr3_236,fr13_u1).
body(r_fr3_236,fr3_a2).
body(r_fr3_236,fr3_b1).
body(r_fr3_236,fr3_d1).
head(r_fr3_237,fr13_u1).
head(r_fr3_238,fr13_u1).
body(r_fr3_238,fr25_a3).
body(r_fr3_238,fr17_e2).
body(r_fr3_238,fr3_f1).
head(r_fr3_239,fr13_u1).
body(r_fr3_239,fr3_a3).
body(r_fr3_239,fr3_b2).
body(r_fr3_239,fr3_e2).
body(r_fr3_239,fr3_f1).
body(r_fr3_239,fr20_v6).
body(r_fr3_239,fr11_z1).
head(r_fr3_240,fr13_u1).
body(r_fr3_240,fr3_b3).
body(r_fr3_240,fr3_s2).
body(r_fr3_240,fr3_t1).
body(r_fr3_240,fr3_x2).
head(r_fr3_241,fr13_u1).
body(r_fr3_241,fr3_a1).
body(r_fr3_241,fr3_b1).
body(r_fr3_241,fr3_d1).
head(r_fr3_242,fr13_u1).
body(r_fr3_242,fr3_s2).
body(r_fr3_242,fr3_t1).
body(r_fr3_242,fr3_v1).
head(r_fr3_243,fr3_t1).
body(r_fr3_243,fr3_a2).
body(r_fr3_243,fr3_a3).
body(r_fr3_243,fr3_b3).
body(r_fr3_243,fr25_a3).
body(r_fr3_243,fr3_d2).
head(r_fr3_244,fr3_t1).
body(r_fr3_244,fr3_a3).
body(r_fr3_244,fr17_a2).
body(r_fr3_244,fr3_d1).
body(r_fr3_244,fr3_f1).
head(r_fr3_245,fr3_t1).
body(r_fr3_245,fr3_d1).
body(r_fr3_245,fr20_v6).
body(r_fr3_245,fr3_p3).
body(r_fr3_245,fr3_v1).
head(r_fr3_246,fr3_t1).
body(r_fr3_246,fr25_a3).
body(r_fr3_246,fr20_v6).
body(r_fr3_246,fr3_s2).
body(r_fr3_246,fr3_u2).
body(r_fr3_246,fr3_v1).
body(r_fr3_246,fr11_z1).
head(r_fr3_247,fr3_t1).
body(r_fr3_247,fr3_a1).
body(r_fr3_247,fr3_a3).
body(r_fr3_247,fr25_a3).
body(r_fr3_247,fr17_a2).
body(r_fr3_247,fr3_f2).
head(r_fr3_248,fr3_t1).
body(r_fr3_248,fr3_a1).
body(r_fr3_248,fr3_b1).
body(r_fr3_248,fr17_a2).
head(r_fr3_249,fr3_t1).
body(r_fr3_249,fr3_b1).
head(r_fr3_250,fr3_t1).
body(r_fr3_250,fr2_a1).
body(r_fr3_250,fr20_v6).
body(r_fr3_250,fr3_p3).
body(r_fr3_250,fr3_s2).
body(r_fr3_250,fr3_x2).
head(r_fr3_251,fr3_t1).
body(r_fr3_251,fr20_v6).
body(r_fr3_251,fr3_p3).
body(r_fr3_251,fr7_q1).
body(r_fr3_251,fr3_w1).
head(r_fr3_252,fr3_t1).
body(r_fr3_252,fr20_v6).
body(r_fr3_252,fr3_p3).
body(r_fr3_252,fr7_q1).
body(r_fr3_252,fr3_u2).
body(r_fr3_252,fr3_v1).
body(r_fr3_252,fr11_z1).
head(r_fr3_253,fr3_t1).
body(r_fr3_253,fr25_a3).
body(r_fr3_253,fr3_d2).
head(r_fr3_254,fr3_t1).
head(r_fr3_255,fr3_t1).
body(r_fr3_255,fr3_r1).
body(r_fr3_255,fr3_w1).
head(r_fr3_256,fr3_t1).
body(r_fr3_256,fr3_b3).
body(r_fr3_256,fr25_a3).
body(r_fr3_256,fr3_f2).
head(r_fr3_257,fr3_t1).
body(r_fr3_257,fr3_e2).
body(r_fr3_257,fr3_x2).
head(r_fr3_258,fr3_t1).
body(r_fr3_258,fr3_x2).
head(r_fr3_259,fr3_t1).
body(r_fr3_259,fr3_r1).
head(r_fr3_260,fr3_t1).
body(r_fr3_260,fr3_a3).
body(r_fr3_260,fr17_e2).
body(r_fr3_260,fr3_f2).
body(r_fr3_260,fr20_v6).
body(r_fr3_260,fr3_s2).
head(r_fr3_261,fr20_v6).
body(r_fr3_261,fr3_b3).
body(r_fr3_261,fr3_d2).
body(r_fr3_261,fr3_f2).
head(r_fr3_262,fr20_v6).
head(r_fr3_263,fr20_v6).
body(r_fr3_263,fr3_b2).
head(r_fr3_264,fr20_v6).
body(r_fr3_264,fr3_b2).
body(r_fr3_264,fr17_e2).
body(r_fr3_264,fr3_d2).
head(r_fr3_265,fr20_v6).
body(r_fr3_265,fr3_r1).
body(r_fr3_265,fr21_t3).
head(r_fr3_266,fr20_v6).
body(r_fr3_266,fr2_a1).
body(r_fr3_266,fr3_f2).
body(r_fr3_266,fr3_p3).
body(r_fr3_266,fr3_r1).
body(r_fr3_266,fr3_w1).
head(r_fr3_267,fr20_v6).
body(r_fr3_267,fr21_t3).
body(r_fr3_267,fr3_v1).
body(r_fr3_267,fr3_x2).
head(r_fr3_268,fr20_v6).
body(r_fr3_268,fr3_a2).
body(r_fr3_268,fr3_f1).
body(r_fr3_268,fr3_f2).
body(r_fr3_268,fr3_v1).
body(r_fr3_268,fr3_x2).
head(r_fr3_269,fr20_v6).
body(r_fr3_269,fr3_b1).
body(r_fr3_269,fr3_b3).
body(r_fr3_269,fr17_e2).
body(r_fr3_269,fr3_f1).
body(r_fr3_269,fr3_v1).
head(r_fr3_270,fr20_v6).
body(r_fr3_270,fr3_a2).
body(r_fr3_270,fr3_b2).
body(r_fr3_270,fr3_e2).
body(r_fr3_270,fr3_f2).
head(r_fr3_271,fr20_v6).
body(r_fr3_271,fr17_e2).
head(r_fr3_272,fr20_v6).
body(r_fr3_272,fr3_a2).
body(r_fr3_272,fr3_a3).
body(r_fr3_272,fr3_f2).
body(r_fr3_272,fr3_v1).
body(r_fr3_272,fr3_x2).
head(r_fr3_273,fr20_v6).
body(r_fr3_273,fr3_b2).
body(r_fr3_273,fr17_a2).
body(r_fr3_273,fr3_d2).
body(r_fr3_273,fr3_f1).
body(r_fr3_273,fr7_q1).
head(r_fr3_274,fr20_v6).
body(r_fr3_274,fr21_t3).
head(r_fr3_275,fr20_v6).
body(r_fr3_275,fr3_b1).
body(r_fr3_275,fr3_b2).
body(r_fr3_275,fr25_a3).
body(r_fr3_275,fr17_a2).
body(r_fr3_275,fr2_a1).
body(r_fr3_275,fr3_f1).
head(r_fr3_276,fr20_v6).
body(r_fr3_276,fr3_a3).
body(r_fr3_276,fr3_b1).
body(r_fr3_276,fr3_d1).
body(r_fr3_276,fr3_d2).
body(r_fr3_276,fr3_v1).
body(r_fr3_276,fr3_w1).
head(r_fr3_277,fr20_v6).
body(r_fr3_277,fr17_a2).
body(r_fr3_277,fr7_q1).
body(r_fr3_277,fr3_s2).
body(r_fr3_277,fr3_w1).
body(r_fr3_277,fr3_x2).
head(r_fr3_278,fr20_v6).
body(r_fr3_278,fr3_p3).
body(r_fr3_278,fr3_r1).
body(r_fr3_278,fr3_w1).
head(r_fr3_279,fr3_u2).
body(r_fr3_279,fr3_b1).
body(r_fr3_279,fr3_b3).
body(r_fr3_279,fr7_q1).
body(r_fr3_279,fr3_x2).
body(r_fr3_279,fr11_z1).
head(r_fr3_280,fr3_u2).
body(r_fr3_280,fr3_a2).
body(r_fr3_280,fr3_b1).
body(r_fr3_280,fr3_d1).
head(r_fr3_281,fr3_u2).
body(r_fr3_281,fr21_t3).
body(r_fr3_281,fr3_v1).
body(r_fr3_281,fr3_x2).
head(r_fr3_282,fr3_u2).
body(r_fr3_282,fr3_b2).
body(r_fr3_282,fr17_e2).
body(r_fr3_282,fr3_s2).
body(r_fr3_282,fr3_w1).
body(r_fr3_282,fr3_x2).
head(r_fr3_283,fr3_u2).
body(r_fr3_283,fr3_a1).
body(r_fr3_283,fr3_f2).
body(r_fr3_283,fr7_q1).
body(r_fr3_283,fr3_v1).
body(r_fr3_283,fr3_w1).
body(r_fr3_283,fr3_x2).
head(r_fr3_284,fr3_u2).
body(r_fr3_284,fr3_p3).
body(r_fr3_284,fr3_v1).
head(r_fr3_285,fr3_u2).
body(r_fr3_285,fr3_b2).
body(r_fr3_285,fr25_a3).
body(r_fr3_285,fr3_d2).
head(r_fr3_286,fr3_u2).
body(r_fr3_286,fr25_a3).
body(r_fr3_286,fr3_p3).
body(r_fr3_286,fr7_q1).
body(r_fr3_286,fr3_w1).
body(r_fr3_286,fr3_x2).
head(r_fr3_287,fr3_u2).
body(r_fr3_287,fr3_v1).
body(r_fr3_287,fr11_z1).
head(r_fr3_288,fr3_u2).
body(r_fr3_288,fr3_f1).
body(r_fr3_288,fr3_p3).
body(r_fr3_288,fr3_s2).
body(r_fr3_288,fr3_v1).
body(r_fr3_288,fr11_z1).
head(r_fr3_289,fr3_u2).
body(r_fr3_289,fr25_a3).
body(r_fr3_289,fr21_t3).
head(r_fr3_290,fr3_u2).
body(r_fr3_290,fr3_a1).
body(r_fr3_290,fr3_b3).
body(r_fr3_290,fr2_a1).
body(r_fr3_290,fr3_p3).
body(r_fr3_290,fr11_z1).
head(r_fr3_291,fr3_u2).
body(r_fr3_291,fr3_a1).
body(r_fr3_291,fr3_b1).
body(r_fr3_291,fr17_e2).
body(r_fr3_291,fr2_a1).
body(r_fr3_291,fr3_e2).
body(r_fr3_291,fr3_f2).
head(r_fr3_292,fr3_u2).
body(r_fr3_292,fr17_a2).
body(r_fr3_292,fr7_q1).
head(r_fr3_293,fr3_u2).
body(r_fr3_293,fr3_e2).
head(r_fr3_294,fr3_u2).
body(r_fr3_294,fr3_a1).
body(r_fr3_294,fr3_a2).
body(r_fr3_294,fr17_e2).
body(r_fr3_294,fr17_a2).
body(r_fr3_294,fr3_w1).
body(r_fr3_294,fr11_z1).
head(r_fr3_295,fr3_u2).
head(r_fr3_296,fr3_u2).
body(r_fr3_296,fr3_p3).
body(r_fr3_296,fr3_w1).
head(r_fr3_297,fr3_u2).
body(r_fr3_297,fr3_r1).
body(r_fr3_297,fr21_t3).
body(r_fr3_297,fr3_w1).
head(r_fr3_298,fr3_u2).
body(r_fr3_298,fr3_a3).
body(r_fr3_298,fr3_b2).
body(r_fr3_298,fr17_e2).
body(r_fr3_298,fr2_a1).
body(r_fr3_298,fr21_t3).
head(r_fr3_299,fr21_t3).
body(r_fr3_299,fr17_e2).
body(r_fr3_299,fr7_q1).
body(r_fr3_299,fr3_r1).
body(r_fr3_299,fr3_s2).
body(r_fr3_299,fr3_x2).
body(r_fr3_299,fr11_z1).
head(r_fr3_300,fr21_t3).
body(r_fr3_300,fr17_a2).
body(r_fr3_300,fr3_d1).
body(r_fr3_300,fr3_d2).
body(r_fr3_300,fr3_r1).
body(r_fr3_300,fr3_v1).
body(r_fr3_300,fr11_z1).
head(r_fr3_301,fr21_t3).
body(r_fr3_301,fr3_r1).
body(r_fr3_301,fr3_v1).
head(r_fr3_302,fr21_t3).
body(r_fr3_302,fr3_b2).
body(r_fr3_302,fr17_e2).
body(r_fr3_302,fr3_e2).
head(r_fr3_303,fr21_t3).
body(r_fr3_303,fr3_b2).
body(r_fr3_303,fr3_b3).
head(r_fr3_304,fr21_t3).
body(r_fr3_304,fr17_e2).
body(r_fr3_304,fr3_s2).
head(r_fr3_305,fr21_t3).
body(r_fr3_305,fr3_b3).
body(r_fr3_305,fr3_p3).
body(r_fr3_305,fr3_s2).
body(r_fr3_305,fr3_w1).
body(r_fr3_305,fr11_z1).
head(r_fr3_306,fr21_t3).
body(r_fr3_306,fr3_p3).
body(r_fr3_306,fr3_s2).
head(r_fr3_307,fr21_t3).
body(r_fr3_307,fr3_a2).
body(r_fr3_307,fr17_a2).
body(r_fr3_307,fr3_d1).
body(r_fr3_307,fr3_p3).
body(r_fr3_307,fr3_w1).
head(r_fr3_308,fr21_t3).
body(r_fr3_308,fr3_s2).
head(r_fr3_309,fr21_t3).
body(r_fr3_309,fr25_a3).
body(r_fr3_309,fr3_d1).
body(r_fr3_309,fr3_d2).
body(r_fr3_309,fr3_f2).
body(r_fr3_309,fr7_q1).
body(r_fr3_309,fr3_x2).
head(r_fr3_310,fr21_t3).
body(r_fr3_310,fr3_b3).
body(r_fr3_310,fr17_a2).
body(r_fr3_310,fr3_d2).
body(r_fr3_310,fr3_r1).
body(r_fr3_310,fr11_z1).
head(r_fr3_311,fr21_t3).
body(r_fr3_311,fr3_r1).
body(r_fr3_311,fr3_w1).
body(r_fr3_311,fr3_x2).
head(r_fr3_312,fr21_t3).
body(r_fr3_312,fr3_a1).
body(r_fr3_312,fr3_p3).
body(r_fr3_312,fr3_s2).
body(r_fr3_312,fr3_x2).
body(r_fr3_312,fr11_z1).
head(r_fr3_313,fr21_t3).
head(r_fr3_314,fr21_t3).
body(r_fr3_314,fr3_b2).
body(r_fr3_314,fr3_d2).
body(r_fr3_314,fr3_f1).
body(r_fr3_314,fr3_x2).
head(r_fr3_315,fr21_t3).
body(r_fr3_315,fr17_e2).
body(r_fr3_315,fr3_p3).
body(r_fr3_315,fr7_q1).
body(r_fr3_315,fr3_r1).
body(r_fr3_315,fr3_s2).
body(r_fr3_315,fr11_z1).
head(r_fr3_316,fr11_z1).
body(r_fr3_316,fr17_e2).
body(r_fr3_316,fr3_f1).
body(r_fr3_316,fr3_p3).
head(r_fr3_317,fr11_z1).
body(r_fr3_317,fr17_e2).
body(r_fr3_317,fr2_a1).
body(r_fr3_317,fr3_e2).
head(r_fr3_318,fr11_z1).
body(r_fr3_318,fr3_p3).
body(r_fr3_318,fr3_s2).
body(r_fr3_318,fr3_x2).
head(r_fr3_319,fr11_z1).
body(r_fr3_319,fr3_a1).
body(r_fr3_319,fr3_a2).
body(r_fr3_319,fr3_e2).
body(r_fr3_319,fr3_x2).
head(r_fr3_320,fr11_z1).
body(r_fr3_320,fr3_v1).
body(r_fr3_320,fr3_x2).
head(r_fr3_321,fr11_z1).
body(r_fr3_321,fr3_a3).
body(r_fr3_321,fr3_b3).
body(r_fr3_321,fr17_e2).
body(r_fr3_321,fr17_a2).
head(r_fr3_322,fr11_z1).
body(r_fr3_322,fr3_b1).
body(r_fr3_322,fr3_p3).
body(r_fr3_322,fr7_q1).
body(r_fr3_322,fr3_r1).
body(r_fr3_322,fr3_w1).
body(r_fr3_322,fr3_x2).
head(r_fr3_323,fr11_z1).
body(r_fr3_323,fr3_a1).
body(r_fr3_323,fr3_r1).
body(r_fr3_323,fr3_s2).
body(r_fr3_323,fr3_x2).
head(r_fr3_324,fr11_z1).
body(r_fr3_324,fr3_a1).
body(r_fr3_324,fr3_a2).
body(r_fr3_324,fr3_w1).
head(r_fr3_325,fr11_z1).
body(r_fr3_325,fr3_b1).
body(r_fr3_325,fr3_b3).
body(r_fr3_325,fr3_p3).
body(r_fr3_325,fr3_r1).
body(r_fr3_325,fr3_v1).
body(r_fr3_325,fr3_x2).
head(r_fr3_326,fr11_z1).
body(r_fr3_326,fr3_d1).
head(r_fr3_327,fr11_z1).
body(r_fr3_327,fr3_x2).
head(r_fr3_328,fr11_z1).
body(r_fr3_328,fr3_b3).
body(r_fr3_328,fr2_a1).
body(r_fr3_328,fr7_q1).
body(r_fr3_328,fr3_v1).
body(r_fr3_328,fr3_x2).
head(r_fr3_329,fr11_z1).
body(r_fr3_329,fr3_b3).
body(r_fr3_329,fr3_d1).
body(r_fr3_329,fr3_p3).
body(r_fr3_329,fr7_q1).
body(r_fr3_329,fr3_r1).
head(r_fr3_330,fr11_z1).
body(r_fr3_330,fr3_p3).
body(r_fr3_330,fr3_r1).
head(r_fr3_331,fr11_z1).
body(r_fr3_331,fr3_b1).
body(r_fr3_331,fr3_b3).
body(r_fr3_331,fr2_a1).
body(r_fr3_331,fr3_p3).
body(r_fr3_331,fr3_s2).
body(r_fr3_331,fr3_v1).
head(r_fr3_332,fr11_z1).
head(r_fr3_333,fr11_z1).
body(r_fr3_333,fr3_p3).
head(r_fr3_334,fr7_q1).
body(r_fr3_334,fr3_a2).
body(r_fr3_334,fr3_p3).
body(r_fr3_334,fr3_x2).
head(r_fr3_335,fr7_q1).
head(r_fr3_336,fr7_q1).
body(r_fr3_336,fr3_p3).
body(r_fr3_336,fr3_r1).
body(r_fr3_336,fr3_s2).
body(r_fr3_336,fr3_v1).
body(r_fr3_336,fr3_w1).
head(r_fr3_337,fr7_q1).
body(r_fr3_337,fr3_w1).
head(r_fr3_338,fr7_q1).
body(r_fr3_338,fr3_p3).
body(r_fr3_338,fr3_x2).
head(r_fr3_339,fr7_q1).
body(r_fr3_339,fr3_a2).
body(r_fr3_339,fr17_e2).
body(r_fr3_339,fr17_a2).
body(r_fr3_339,fr3_f1).
head(r_fr3_340,fr7_q1).
body(r_fr3_340,fr3_f1).
head(r_fr3_341,fr7_q1).
body(r_fr3_341,fr17_e2).
body(r_fr3_341,fr2_a1).
body(r_fr3_341,fr3_f1).
body(r_fr3_341,fr3_p3).
body(r_fr3_341,fr3_s2).
body(r_fr3_341,fr3_v1).
head(r_fr3_342,fr7_q1).
body(r_fr3_342,fr3_d2).
body(r_fr3_342,fr3_e2).
body(r_fr3_342,fr3_f1).
head(r_fr3_343,fr7_q1).
body(r_fr3_343,fr3_b3).
body(r_fr3_343,fr3_e2).
head(r_fr3_344,fr7_q1).
body(r_fr3_344,fr3_d2).
body(r_fr3_344,fr2_a1).
body(r_fr3_344,fr3_e2).
body(r_fr3_344,fr3_p3).
body(r_fr3_344,fr3_s2).
body(r_fr3_344,fr3_x2).
head(r_fr3_345,fr7_q1).
body(r_fr3_345,fr3_a3).
head(r_fr3_346,fr7_q1).
body(r_fr3_346,fr3_a1).
body(r_fr3_346,fr3_e2).
body(r_fr3_346,fr3_p3).
body(r_fr3_346,fr3_s2).
body(r_fr3_346,fr3_v1).
body(r_fr3_346,fr3_w1).
head(r_fr3_347,fr7_q1).
body(r_fr3_347,fr2_a1).
body(r_fr3_347,fr3_p3).
body(r_fr3_347,fr3_r1).
body(r_fr3_347,fr3_x2).
head(r_fr3_348,fr7_q1).
body(r_fr3_348,fr25_a3).
body(r_fr3_348,fr17_e2).
body(r_fr3_348,fr3_p3).
body(r_fr3_348,fr3_s2).
body(r_fr3_348,fr3_v1).
body(r_fr3_348,fr3_x2).
head(r_fr3_349,fr7_q1).
body(r_fr3_349,fr3_a2).
body(r_fr3_349,fr3_b3).
body(r_fr3_349,fr3_e2).
body(r_fr3_349,fr3_v1).
head(r_fr3_350,fr7_q1).
body(r_fr3_350,fr25_a3).
body(r_fr3_350,fr17_e2).
head(r_fr3_351,fr3_x2).
body(r_fr3_351,fr3_a1).
head(r_fr3_352,fr3_x2).
body(r_fr3_352,fr3_f2).
body(r_fr3_352,fr3_p3).
body(r_fr3_352,fr3_r1).
body(r_fr3_352,fr3_v1).
head(r_fr3_353,fr3_x2).
body(r_fr3_353,fr3_d2).
body(r_fr3_353,fr3_p3).
body(r_fr3_353,fr3_r1).
body(r_fr3_353,fr3_s2).
body(r_fr3_353,fr3_v1).
body(r_fr3_353,fr3_w1).
head(r_fr3_354,fr3_x2).
body(r_fr3_354,fr25_a3).
body(r_fr3_354,fr3_p3).
head(r_fr3_355,fr3_x2).
body(r_fr3_355,fr3_v1).
head(r_fr3_356,fr3_x2).
body(r_fr3_356,fr3_v1).
body(r_fr3_356,fr3_w1).
head(r_fr3_357,fr3_x2).
body(r_fr3_357,fr3_b1).
body(r_fr3_357,fr3_s2).
head(r_fr3_358,fr3_x2).
body(r_fr3_358,fr17_a2).
body(r_fr3_358,fr3_f1).
body(r_fr3_358,fr3_s2).
body(r_fr3_358,fr3_v1).
head(r_fr3_359,fr3_x2).
body(r_fr3_359,fr3_p3).
body(r_fr3_359,fr3_v1).
head(r_fr3_360,fr3_x2).
body(r_fr3_360,fr3_w1).
head(r_fr3_361,fr3_x2).
body(r_fr3_361,fr17_e2).
body(r_fr3_361,fr3_f2).
body(r_fr3_361,fr3_p3).
body(r_fr3_361,fr3_s2).
body(r_fr3_361,fr3_v1).
body(r_fr3_361,fr3_w1).
head(r_fr3_362,fr3_x2).
body(r_fr3_362,fr3_b3).
head(r_fr3_363,fr3_x2).
body(r_fr3_363,fr17_a2).
body(r_fr3_363,fr3_d1).
body(r_fr3_363,fr2_a1).
head(r_fr3_364,fr3_x2).
body(r_fr3_364,fr3_f2).
body(r_fr3_364,fr3_s2).
head(r_fr3_365,fr3_x2).
body(r_fr3_365,fr3_a2).
body(r_fr3_365,fr3_b1).
body(r_fr3_365,fr17_e2).
body(r_fr3_365,fr17_a2).
body(r_fr3_365,fr3_d2).
body(r_fr3_365,fr2_a1).
head(r_fr3_366,fr3_x2).
body(r_fr3_366,fr3_a1).
body(r_fr3_366,fr3_d1).
body(r_fr3_366,fr3_s2).
head(r_fr3_367,fr3_x2).
body(r_fr3_367,fr3_a1).
body(r_fr3_367,fr3_s2).
head(r_fr3_368,fr3_x2).
head(r_fr3_369,fr3_x2).
body(r_fr3_369,fr3_e2).
body(r_fr3_369,fr3_w1).
head(r_fr3_370,fr3_x2).
body(r_fr3_370,fr3_s2).

assumption(fr4_a1).
assumption(fr4_b1).
assumption(fr4_c1).
assumption(fr13_d1).
assumption(fr4_e1).
assumption(fr2_a3).
assumption(fr4_a2).
assumption(fr2_a1).
assumption(fr4_c2).
assumption(fr4_d2).
assumption(fr23_a2).
assumption(fr4_f2).
contrary(fr4_a1,fr4_t1).
contrary(fr4_a2,fr4_t2).
contrary(fr4_b1,fr4_f2).
contrary(fr2_a1,fr4_c2).
contrary(fr4_c1,fr4_a1).
contrary(fr4_c2,fr4_v1).
contrary(fr13_d1,fr4_s2).
contrary(fr4_d2,fr4_c1).
contrary(fr4_e1,fr2_a3).
contrary(fr23_a2,fr7_q1).
contrary(fr2_a3,fr4_d2).
contrary(fr4_f2,fr4_a1).
head(r_fr4_0,fr20_y5).
body(r_fr4_0,fr4_q1).
body(r_fr4_0,fr4_s2).
body(r_fr4_0,fr20_q4).
body(r_fr4_0,fr20_r3).
body(r_fr4_0,fr18_r3).
head(r_fr4_1,fr20_y5).
body(r_fr4_1,fr4_q2).
body(r_fr4_1,fr20_q4).
body(r_fr4_1,fr4_x2).
head(r_fr4_2,fr20_y5).
body(r_fr4_2,fr4_s2).
body(r_fr4_2,fr7_q1).
body(r_fr4_2,fr4_x2).
head(r_fr4_3,fr20_y5).
body(r_fr4_3,fr4_e1).
body(r_fr4_3,fr4_f2).
body(r_fr4_3,fr4_w1).
head(r_fr4_4,fr22_u1).
body(r_fr4_4,fr4_a1).
body(r_fr4_4,fr4_b1).
body(r_fr4_4,fr4_c2).
body(r_fr4_4,fr4_d2).
body(r_fr4_4,fr23_a2).
head(r_fr4_5,fr22_u1).
body(r_fr4_5,fr4_a1).
body(r_fr4_5,fr4_a2).
body(r_fr4_5,fr4_x2).
head(r_fr4_6,fr22_u1).
body(r_fr4_6,fr4_c1).
body(r_fr4_6,fr4_e1).
body(r_fr4_6,fr4_f2).
head(r_fr4_7,fr22_u1).
body(r_fr4_7,fr4_a1).
body(r_fr4_7,fr4_c1).
body(r_fr4_7,fr4_d2).
body(r_fr4_7,fr2_a3).
body(r_fr4_7,fr4_t1).
head(r_fr4_8,fr4_s2).
body(r_fr4_8,fr2_a1).
body(r_fr4_8,fr4_f2).
body(r_fr4_8,fr4_s1).
head(r_fr4_9,fr4_s2).
body(r_fr4_9,fr4_a2).
body(r_fr4_9,fr4_c1).
body(r_fr4_9,fr4_c2).
body(r_fr4_9,fr4_e1).
head(r_fr4_10,fr4_x2).
body(r_fr4_10,fr4_e1).
body(r_fr4_10,fr20_y5).
body(r_fr4_10,fr4_t1).
body(r_fr4_10,fr22_u1).
head(r_fr4_11,fr4_x2).
body(r_fr4_11,fr4_b1).
body(r_fr4_11,fr13_d1).
body(r_fr4_11,fr23_a2).
body(r_fr4_11,fr4_f2).
head(r_fr4_12,fr4_x2).
body(r_fr4_12,fr4_p2).
body(r_fr4_12,fr4_s2).
body(r_fr4_12,fr20_r3).
body(r_fr4_12,fr4_w1).
head(r_fr4_13,fr4_q2).
body(r_fr4_13,fr4_a2).
body(r_fr4_13,fr4_d2).
body(r_fr4_13,fr4_v1).
body(r_fr4_13,fr7_q1).
head(r_fr4_14,fr4_q2).
head(r_fr4_15,fr13_t1).
body(r_fr4_15,fr23_a2).
body(r_fr4_15,fr4_f2).
head(r_fr4_16,fr13_t1).
body(r_fr4_16,fr2_a1).
body(r_fr4_16,fr4_c1).
body(r_fr4_16,fr22_u1).
head(r_fr4_17,fr13_t1).
head(r_fr4_18,fr4_q1).
body(r_fr4_18,fr4_a2).
head(r_fr4_19,fr4_q1).
body(r_fr4_19,fr23_a2).
head(r_fr4_20,fr4_y1).
body(r_fr4_20,fr4_t1).
head(r_fr4_21,fr4_y1).
head(r_fr4_22,fr4_y1).
body(r_fr4_22,fr4_c2).
body(r_fr4_22,fr23_a2).
body(r_fr4_22,fr20_q4).
body(r_fr4_22,fr4_w1).
body(r_fr4_22,fr22_u1).
head(r_fr4_23,fr4_w1).
body(r_fr4_23,fr4_y1).
head(r_fr4_24,fr4_w1).
head(r_fr4_25,fr4_t2).
body(r_fr4_25,fr4_c2).
body(r_fr4_25,fr13_d1).
body(r_fr4_25,fr2_a3).
body(r_fr4_25,fr4_q2).
body(r_fr4_25,fr4_s1).
head(r_fr4_26,fr4_t2).
body(r_fr4_26,fr4_a1).
body(r_fr4_26,fr4_c1).
body(r_fr4_26,fr20_q4).
head(r_fr4_27,fr4_t2).
body(r_fr4_27,fr13_t1).
body(r_fr4_27,fr20_q4).
body(r_fr4_27,fr20_r3).
head(r_fr4_28,fr4_v1).
body(r_fr4_28,fr4_f2).
body(r_fr4_28,fr4_s2).
head(r_fr4_29,fr4_v1).
body(r_fr4_29,fr4_p2).
head(r_fr4_30,fr20_q4).
body(r_fr4_30,fr23_a2).
body(r_fr4_30,fr2_a3).
head(r_fr4_31,fr20_q4).
body(r_fr4_31,fr4_a2).
body(r_fr4_31,fr4_q1).
body(r_fr4_31,fr4_t1).
body(r_fr4_31,fr20_r3).
head(r_fr4_32,fr20_q4).
body(r_fr4_32,fr4_c2).
body(r_fr4_32,fr4_e1).
body(r_fr4_32,fr4_q2).
body(r_fr4_32,fr18_r3).
head(r_fr4_33,fr20_q4).
body(r_fr4_33,fr13_t1).
body(r_fr4_33,fr4_q1).
body(r_fr4_33,fr5_r2).
body(r_fr4_33,fr4_t2).
body(r_fr4_33,fr22_u1).
head(r_fr4_34,fr18_r3).
body(r_fr4_34,fr4_f2).
body(r_fr4_34,fr4_t2).
head(r_fr4_35,fr18_r3).
body(r_fr4_35,fr13_d1).
body(r_fr4_35,fr4_q2).
body(r_fr4_35,fr20_r3).
head(r_fr4_36,fr18_r3).
body(r_fr4_36,fr4_c1).
body(r_fr4_36,fr4_c2).
body(r_fr4_36,fr4_f2).
head(r_fr4_37,fr18_r3).
body(r_fr4_37,fr13_d1).
body(r_fr4_37,fr4_q2).
body(r_fr4_37,fr20_y5).
body(r_fr4_37,fr22_u1).
head(r_fr4_38,fr4_t1).
body(r_fr4_38,fr4_c2).
body(r_fr4_38,fr4_q2).
body(r_fr4_38,fr4_t2).
body(r_fr4_38,fr7_q1).
head(r_fr4_39,fr4_t1).
body(r_fr4_39,fr4_a1).
body(r_fr4_39,fr23_a2).
body(r_fr4_39,fr4_t2).
body(r_fr4_39,fr22_u1).
head(r_fr4_40,fr4_t1).
head(r_fr4_41,fr7_q1).
body(r_fr4_41,fr4_b1).
body(r_fr4_41,fr23_a2).
body(r_fr4_41,fr4_y1).
head(r_fr4_42,fr7_q1).
head(r_fr4_43,fr7_q1).
body(r_fr4_43,fr4_a2).
body(r_fr4_43,fr4_e1).
body(r_fr4_43,fr4_f2).
head(r_fr4_44,fr7_q1).
head(r_fr4_45,fr7_q1).
body(r_fr4_45,fr2_a1).
body(r_fr4_45,fr2_a3).

assumption(fr5_a1).
assumption(fr5_b1).
assumption(fr24_e1).
assumption(fr22_c3).
assumption(fr5_e1).
assumption(fr5_f1).
assumption(fr5_a2).
assumption(fr5_b2).
assumption(fr24_b2).
assumption(fr5_d2).
assumption(fr5_e2).
assumption(fr5_f2).
assumption(fr6_c2).
assumption(fr5_b3).
assumption(fr5_c3).
contrary(fr5_a1,fr5_x1).
contrary(fr5_a2,fr5_q3).
contrary(fr6_c2,fr5_u3).
contrary(fr5_b1,fr6_c2).
contrary(fr5_b2,fr5_q2).
contrary(fr5_b3,fr5_z1).
contrary(fr24_e1,fr3_v1).
contrary(fr24_b2,fr5_q4).
contrary(fr5_c3,fr5_z3).
contrary(fr22_c3,fr5_s3).
contrary(fr5_d2,fr24_e1).
contrary(fr5_e1,fr5_p2).
contrary(fr5_e2,fr22_u1).
contrary(fr5_f1,fr5_z1).
contrary(fr5_f2,fr7_y1).
head(r_fr5_0,fr5_r3).
body(r_fr5_0,fr5_p1).
body(r_fr5_0,fr7_p1).
body(r_fr5_0,fr5_q2).
body(r_fr5_0,fr5_s3).
body(r_fr5_0,fr5_t1).
body(r_fr5_0,fr5_t2).
body(r_fr5_0,fr5_u1).
body(r_fr5_0,fr5_u3).
body(r_fr5_0,fr5_v1).
body(r_fr5_0,fr25_u2).
body(r_fr5_0,fr7_y1).
body(r_fr5_0,fr5_w3).
body(r_fr5_0,fr5_x1).
body(r_fr5_0,fr5_x3).
body(r_fr5_0,fr5_z1).
body(r_fr5_0,fr5_z2).
body(r_fr5_0,fr5_z3).
head(r_fr5_1,fr5_r3).
body(r_fr5_1,fr5_a2).
body(r_fr5_1,fr24_e1).
body(r_fr5_1,fr5_d2).
body(r_fr5_1,fr5_e1).
body(r_fr5_1,fr5_p2).
body(r_fr5_1,fr5_p4).
body(r_fr5_1,fr5_q3).
body(r_fr5_1,fr22_u1).
body(r_fr5_1,fr5_t2).
body(r_fr5_1,fr5_u1).
body(r_fr5_1,fr5_u2).
body(r_fr5_1,fr25_u2).
body(r_fr5_1,fr10_r2).
body(r_fr5_1,fr5_y2).
body(r_fr5_1,fr5_z2).
body(r_fr5_1,fr5_z3).
head(r_fr5_2,fr5_r3).
body(r_fr5_2,fr5_a2).
body(r_fr5_2,fr5_e1).
body(r_fr5_2,fr5_f2).
body(r_fr5_2,fr5_p4).
body(r_fr5_2,fr5_q2).
body(r_fr5_2,fr5_s1).
body(r_fr5_2,fr5_s3).
body(r_fr5_2,fr5_t1).
body(r_fr5_2,fr5_t2).
body(r_fr5_2,fr5_t3).
body(r_fr5_2,fr5_u1).
body(r_fr5_2,fr5_v1).
body(r_fr5_2,fr5_w1).
body(r_fr5_2,fr5_r2).
body(r_fr5_2,fr10_q1).
head(r_fr5_3,fr5_r3).
body(r_fr5_3,fr5_a2).
body(r_fr5_3,fr5_b1).
body(r_fr5_3,fr5_d2).
body(r_fr5_3,fr5_e2).
body(r_fr5_3,fr5_p1).
body(r_fr5_3,fr5_p4).
body(r_fr5_3,fr5_q3).
body(r_fr5_3,fr5_q4).
body(r_fr5_3,fr22_u1).
body(r_fr5_3,fr5_s3).
body(r_fr5_3,fr5_t2).
body(r_fr5_3,fr5_u3).
body(r_fr5_3,fr10_r2).
body(r_fr5_3,fr5_r2).
body(r_fr5_3,fr5_y1).
body(r_fr5_3,fr5_y2).
head(r_fr5_4,fr5_r3).
body(r_fr5_4,fr5_a2).
body(r_fr5_4,fr6_c2).
body(r_fr5_4,fr5_b2).
body(r_fr5_4,fr5_e1).
body(r_fr5_4,fr5_f2).
body(r_fr5_4,fr5_p1).
body(r_fr5_4,fr5_p3).
body(r_fr5_4,fr7_p1).
body(r_fr5_4,fr5_r2).
body(r_fr5_4,fr5_s1).
body(r_fr5_4,fr5_s3).
body(r_fr5_4,fr5_t2).
body(r_fr5_4,fr5_u3).
body(r_fr5_4,fr5_v1).
body(r_fr5_4,fr25_u2).
body(r_fr5_4,fr5_w1).
body(r_fr5_4,fr5_x1).
body(r_fr5_4,fr5_r2).
head(r_fr5_5,fr5_p1).
body(r_fr5_5,fr5_a2).
body(r_fr5_5,fr5_b3).
body(r_fr5_5,fr24_b2).
body(r_fr5_5,fr22_c3).
body(r_fr5_5,fr5_e1).
body(r_fr5_5,fr5_p2).
body(r_fr5_5,fr5_p3).
body(r_fr5_5,fr5_p4).
body(r_fr5_5,fr7_p1).
body(r_fr5_5,fr5_q2).
body(r_fr5_5,fr5_r3).
body(r_fr5_5,fr5_s3).
body(r_fr5_5,fr5_t2).
body(r_fr5_5,fr5_u2).
body(r_fr5_5,fr5_w1).
body(r_fr5_5,fr5_x1).
body(r_fr5_5,fr5_r2).
body(r_fr5_5,fr5_z3).
head(r_fr5_6,fr5_p1).
body(r_fr5_6,fr5_b1).
body(r_fr5_6,fr24_e1).
body(r_fr5_6,fr5_p3).
body(r_fr5_6,fr5_p4).
body(r_fr5_6,fr5_q2).
body(r_fr5_6,fr5_q4).
body(r_fr5_6,fr5_r3).
body(r_fr5_6,fr22_u1).
body(r_fr5_6,fr5_t1).
body(r_fr5_6,fr5_t3).
body(r_fr5_6,fr5_u1).
body(r_fr5_6,fr10_r2).
body(r_fr5_6,fr5_w1).
body(r_fr5_6,fr5_x1).
body(r_fr5_6,fr5_r2).
body(r_fr5_6,fr5_x3).
body(r_fr5_6,fr5_z3).
head(r_fr5_7,fr5_p1).
body(r_fr5_7,fr5_q3).
body(r_fr5_7,fr5_q4).
body(r_fr5_7,fr5_r3).
body(r_fr5_7,fr22_u1).
body(r_fr5_7,fr5_t2).
body(r_fr5_7,fr5_u1).
body(r_fr5_7,fr25_u2).
body(r_fr5_7,fr10_r2).
body(r_fr5_7,fr7_y1).
body(r_fr5_7,fr5_x1).
body(r_fr5_7,fr5_r2).
body(r_fr5_7,fr5_x3).
body(r_fr5_7,fr5_y1).
body(r_fr5_7,fr5_y2).
body(r_fr5_7,fr5_z3).
head(r_fr5_8,fr5_p1).
body(r_fr5_8,fr5_a1).
body(r_fr5_8,fr5_b2).
body(r_fr5_8,fr24_e1).
body(r_fr5_8,fr5_p2).
body(r_fr5_8,fr5_p3).
body(r_fr5_8,fr5_p4).
body(r_fr5_8,fr5_q3).
body(r_fr5_8,fr5_q4).
body(r_fr5_8,fr5_r2).
body(r_fr5_8,fr5_r3).
body(r_fr5_8,fr5_t1).
body(r_fr5_8,fr5_t2).
body(r_fr5_8,fr5_u3).
body(r_fr5_8,fr5_v1).
body(r_fr5_8,fr5_x1).
body(r_fr5_8,fr5_y1).
body(r_fr5_8,fr10_q1).
body(r_fr5_8,fr5_z1).
head(r_fr5_9,fr5_r2).
body(r_fr5_9,fr5_a1).
body(r_fr5_9,fr5_a2).
body(r_fr5_9,fr24_b2).
body(r_fr5_9,fr5_f2).
body(r_fr5_9,fr5_p2).
body(r_fr5_9,fr7_p1).
body(r_fr5_9,fr5_q3).
body(r_fr5_9,fr5_q4).
body(r_fr5_9,fr5_r3).
body(r_fr5_9,fr22_u1).
body(r_fr5_9,fr5_t1).
body(r_fr5_9,fr5_u3).
body(r_fr5_9,fr10_r2).
body(r_fr5_9,fr7_y1).
body(r_fr5_9,fr5_x1).
body(r_fr5_9,fr5_x3).
head(r_fr5_10,fr5_r2).
body(r_fr5_10,fr5_a1).
body(r_fr5_10,fr5_c3).
body(r_fr5_10,fr5_p1).
body(r_fr5_10,fr7_p1).
body(r_fr5_10,fr5_q2).
body(r_fr5_10,fr3_v1).
body(r_fr5_10,fr22_u1).
body(r_fr5_10,fr5_s3).
body(r_fr5_10,fr5_u1).
body(r_fr5_10,fr5_u3).
body(r_fr5_10,fr5_v1).
body(r_fr5_10,fr5_w1).
body(r_fr5_10,fr5_z1).
body(r_fr5_10,fr5_z2).
body(r_fr5_10,fr5_z3).
head(r_fr5_11,fr5_r2).
body(r_fr5_11,fr24_e1).
body(r_fr5_11,fr24_b2).
body(r_fr5_11,fr5_c3).
body(r_fr5_11,fr5_e2).
body(r_fr5_11,fr5_f1).
body(r_fr5_11,fr5_p1).
body(r_fr5_11,fr7_p1).
body(r_fr5_11,fr3_v1).
body(r_fr5_11,fr5_r2).
body(r_fr5_11,fr5_r3).
body(r_fr5_11,fr5_s3).
body(r_fr5_11,fr5_u2).
body(r_fr5_11,fr5_v1).
body(r_fr5_11,fr25_u2).
body(r_fr5_11,fr7_y1).
body(r_fr5_11,fr5_y2).
body(r_fr5_11,fr10_q1).
head(r_fr5_12,fr5_r2).
body(r_fr5_12,fr5_a1).
body(r_fr5_12,fr5_a2).
body(r_fr5_12,fr24_e1).
body(r_fr5_12,fr5_e1).
body(r_fr5_12,fr5_f1).
body(r_fr5_12,fr5_f2).
body(r_fr5_12,fr5_p1).
body(r_fr5_12,fr5_p3).
body(r_fr5_12,fr5_p4).
body(r_fr5_12,fr5_q3).
body(r_fr5_12,fr5_q4).
body(r_fr5_12,fr5_r3).
body(r_fr5_12,fr5_s1).
body(r_fr5_12,fr5_t1).
body(r_fr5_12,fr5_u3).
body(r_fr5_12,fr7_y1).
body(r_fr5_12,fr5_x1).
body(r_fr5_12,fr5_y2).
head(r_fr5_13,fr5_r2).
body(r_fr5_13,fr5_b2).
body(r_fr5_13,fr5_c3).
body(r_fr5_13,fr22_c3).
body(r_fr5_13,fr5_d2).
body(r_fr5_13,fr5_p4).
body(r_fr5_13,fr5_q3).
body(r_fr5_13,fr5_q4).
body(r_fr5_13,fr5_r3).
body(r_fr5_13,fr5_s1).
body(r_fr5_13,fr5_t2).
body(r_fr5_13,fr5_t3).
body(r_fr5_13,fr5_u1).
body(r_fr5_13,fr5_u3).
body(r_fr5_13,fr25_u2).
body(r_fr5_13,fr10_r2).
body(r_fr5_13,fr5_w1).
body(r_fr5_13,fr7_y1).
body(r_fr5_13,fr5_y1).
head(r_fr5_14,fr7_y1).
body(r_fr5_14,fr5_a2).
body(r_fr5_14,fr6_c2).
body(r_fr5_14,fr22_c3).
body(r_fr5_14,fr5_d2).
body(r_fr5_14,fr5_f1).
body(r_fr5_14,fr5_r2).
body(r_fr5_14,fr5_r3).
body(r_fr5_14,fr5_s1).
body(r_fr5_14,fr5_t3).
body(r_fr5_14,fr5_u1).
body(r_fr5_14,fr25_u2).
body(r_fr5_14,fr10_r2).
body(r_fr5_14,fr5_x1).
body(r_fr5_14,fr5_x3).
body(r_fr5_14,fr5_y1).
body(r_fr5_14,fr5_z2).
head(r_fr5_15,fr7_y1).
body(r_fr5_15,fr5_d2).
body(r_fr5_15,fr5_f2).
body(r_fr5_15,fr5_p1).
body(r_fr5_15,fr5_p2).
body(r_fr5_15,fr5_p3).
body(r_fr5_15,fr7_p1).
body(r_fr5_15,fr5_q3).
body(r_fr5_15,fr5_q4).
body(r_fr5_15,fr3_v1).
body(r_fr5_15,fr5_t3).
body(r_fr5_15,fr5_u1).
body(r_fr5_15,fr5_u2).
body(r_fr5_15,fr25_u2).
body(r_fr5_15,fr10_r2).
body(r_fr5_15,fr5_w1).
body(r_fr5_15,fr5_x1).
body(r_fr5_15,fr5_r2).
body(r_fr5_15,fr5_x3).
head(r_fr5_16,fr7_y1).
body(r_fr5_16,fr5_b2).
body(r_fr5_16,fr5_c3).
body(r_fr5_16,fr5_p3).
body(r_fr5_16,fr7_p1).
body(r_fr5_16,fr5_r2).
body(r_fr5_16,fr5_s1).
body(r_fr5_16,fr5_s3).
body(r_fr5_16,fr5_u3).
body(r_fr5_16,fr5_v1).
body(r_fr5_16,fr25_u2).
body(r_fr5_16,fr5_r2).
body(r_fr5_16,fr10_q1).
body(r_fr5_16,fr5_z1).
body(r_fr5_16,fr5_z2).
body(r_fr5_16,fr5_z3).
head(r_fr5_17,fr7_y1).
body(r_fr5_17,fr5_a2).
body(r_fr5_17,fr5_b1).
body(r_fr5_17,fr5_b3).
body(r_fr5_17,fr24_b2).
body(r_fr5_17,fr5_p3).
body(r_fr5_17,fr5_q4).
body(r_fr5_17,fr5_r2).
body(r_fr5_17,fr22_u1).
body(r_fr5_17,fr5_t1).
body(r_fr5_17,fr5_t2).
body(r_fr5_17,fr5_u3).
body(r_fr5_17,fr5_v1).
body(r_fr5_17,fr5_w1).
body(r_fr5_17,fr5_x1).
body(r_fr5_17,fr5_z1).
body(r_fr5_17,fr5_z2).
head(r_fr5_18,fr7_y1).
body(r_fr5_18,fr6_c2).
body(r_fr5_18,fr5_b1).
body(r_fr5_18,fr22_c3).
body(r_fr5_18,fr5_p4).
body(r_fr5_18,fr7_p1).
body(r_fr5_18,fr5_q4).
body(r_fr5_18,fr5_s3).
body(r_fr5_18,fr5_t1).
body(r_fr5_18,fr5_t2).
body(r_fr5_18,fr5_t3).
body(r_fr5_18,fr5_u1).
body(r_fr5_18,fr5_u2).
body(r_fr5_18,fr5_v1).
body(r_fr5_18,fr10_r2).
body(r_fr5_18,fr5_x1).
body(r_fr5_18,fr5_y1).
body(r_fr5_18,fr10_q1).
head(r_fr5_19,fr5_y2).
body(r_fr5_19,fr5_b1).
body(r_fr5_19,fr5_f2).
body(r_fr5_19,fr5_p1).
body(r_fr5_19,fr5_p3).
body(r_fr5_19,fr5_p4).
body(r_fr5_19,fr7_p1).
body(r_fr5_19,fr5_r3).
body(r_fr5_19,fr5_t1).
body(r_fr5_19,fr5_u2).
body(r_fr5_19,fr5_v1).
body(r_fr5_19,fr25_u2).
body(r_fr5_19,fr10_r2).
body(r_fr5_19,fr5_w1).
body(r_fr5_19,fr5_w3).
body(r_fr5_19,fr5_r2).
body(r_fr5_19,fr5_x3).
body(r_fr5_19,fr5_z2).
body(r_fr5_19,fr5_z3).
head(r_fr5_20,fr5_y2).
body(r_fr5_20,fr5_b2).
body(r_fr5_20,fr22_c3).
body(r_fr5_20,fr7_p1).
body(r_fr5_20,fr5_q2).
body(r_fr5_20,fr5_q3).
body(r_fr5_20,fr5_q4).
body(r_fr5_20,fr5_r2).
body(r_fr5_20,fr5_r3).
body(r_fr5_20,fr5_s3).
body(r_fr5_20,fr5_t2).
body(r_fr5_20,fr5_t3).
body(r_fr5_20,fr5_u1).
body(r_fr5_20,fr10_r2).
body(r_fr5_20,fr7_y1).
body(r_fr5_20,fr5_r2).
body(r_fr5_20,fr5_x3).
body(r_fr5_20,fr5_z1).
head(r_fr5_21,fr5_z1).
body(r_fr5_21,fr5_p2).
body(r_fr5_21,fr7_p1).
body(r_fr5_21,fr5_q2).
body(r_fr5_21,fr5_q3).
body(r_fr5_21,fr5_q4).
body(r_fr5_21,fr3_v1).
body(r_fr5_21,fr5_r3).
body(r_fr5_21,fr5_t2).
body(r_fr5_21,fr5_t3).
body(r_fr5_21,fr5_u1).
body(r_fr5_21,fr5_u2).
body(r_fr5_21,fr5_u3).
body(r_fr5_21,fr25_u2).
body(r_fr5_21,fr7_y1).
body(r_fr5_21,fr5_r2).
body(r_fr5_21,fr5_x3).
body(r_fr5_21,fr5_y1).
body(r_fr5_21,fr10_q1).
head(r_fr5_22,fr5_z1).
body(r_fr5_22,fr5_a1).
body(r_fr5_22,fr6_c2).
body(r_fr5_22,fr5_b3).
body(r_fr5_22,fr5_c3).
body(r_fr5_22,fr5_e2).
body(r_fr5_22,fr5_f1).
body(r_fr5_22,fr5_p2).
body(r_fr5_22,fr5_p3).
body(r_fr5_22,fr5_s1).
body(r_fr5_22,fr5_s3).
body(r_fr5_22,fr5_t2).
body(r_fr5_22,fr5_t3).
body(r_fr5_22,fr5_u1).
body(r_fr5_22,fr25_u2).
body(r_fr5_22,fr5_w3).
body(r_fr5_22,fr5_x3).
body(r_fr5_22,fr5_y1).
head(r_fr5_23,fr5_z1).
body(r_fr5_23,fr5_b2).
body(r_fr5_23,fr5_p2).
body(r_fr5_23,fr5_q3).
body(r_fr5_23,fr5_q4).
body(r_fr5_23,fr3_v1).
body(r_fr5_23,fr5_r2).
body(r_fr5_23,fr22_u1).
body(r_fr5_23,fr5_t1).
body(r_fr5_23,fr5_t2).
body(r_fr5_23,fr5_u1).
body(r_fr5_23,fr25_u2).
body(r_fr5_23,fr10_r2).
body(r_fr5_23,fr5_w1).
body(r_fr5_23,fr5_w3).
body(r_fr5_23,fr5_x1).
body(r_fr5_23,fr5_x3).
body(r_fr5_23,fr5_z3).
head(r_fr5_24,fr5_z1).
body(r_fr5_24,fr5_a1).
body(r_fr5_24,fr6_c2).
body(r_fr5_24,fr24_b2).
body(r_fr5_24,fr5_d2).
body(r_fr5_24,fr5_p2).
body(r_fr5_24,fr5_p4).
body(r_fr5_24,fr5_q3).
body(r_fr5_24,fr5_q4).
body(r_fr5_24,fr3_v1).
body(r_fr5_24,fr5_r2).
body(r_fr5_24,fr5_r3).
body(r_fr5_24,fr5_s1).
body(r_fr5_24,fr5_t1).
body(r_fr5_24,fr5_u3).
body(r_fr5_24,fr5_y1).
body(r_fr5_24,fr10_q1).
body(r_fr5_24,fr5_z3).
head(r_fr5_25,fr5_v1).
body(r_fr5_25,fr6_c2).
body(r_fr5_25,fr7_p1).
body(r_fr5_25,fr5_q2).
body(r_fr5_25,fr5_q4).
body(r_fr5_25,fr3_v1).
body(r_fr5_25,fr5_s1).
body(r_fr5_25,fr22_u1).
body(r_fr5_25,fr5_t1).
body(r_fr5_25,fr5_t2).
body(r_fr5_25,fr5_u1).
body(r_fr5_25,fr5_u2).
body(r_fr5_25,fr25_u2).
body(r_fr5_25,fr5_w1).
body(r_fr5_25,fr7_y1).
body(r_fr5_25,fr5_r2).
body(r_fr5_25,fr10_q1).
body(r_fr5_25,fr5_z1).
body(r_fr5_25,fr5_z3).
head(r_fr5_26,fr5_v1).
body(r_fr5_26,fr22_c3).
body(r_fr5_26,fr5_e1).
body(r_fr5_26,fr5_p2).
body(r_fr5_26,fr5_q3).
body(r_fr5_26,fr3_v1).
body(r_fr5_26,fr5_s3).
body(r_fr5_26,fr5_t1).
body(r_fr5_26,fr5_t2).
body(r_fr5_26,fr5_u2).
body(r_fr5_26,fr5_u3).
body(r_fr5_26,fr5_w1).
body(r_fr5_26,fr5_x1).
body(r_fr5_26,fr5_y1).
body(r_fr5_26,fr5_y2).
body(r_fr5_26,fr10_q1).
head(r_fr5_27,fr5_v1).
body(r_fr5_27,fr5_a2).
body(r_fr5_27,fr5_b1).
body(r_fr5_27,fr5_b3).
body(r_fr5_27,fr5_c3).
body(r_fr5_27,fr5_e2).
body(r_fr5_27,fr5_f1).
body(r_fr5_27,fr5_p1).
body(r_fr5_27,fr5_p3).
body(r_fr5_27,fr3_v1).
body(r_fr5_27,fr5_s3).
body(r_fr5_27,fr5_t2).
body(r_fr5_27,fr5_u1).
body(r_fr5_27,fr5_u2).
body(r_fr5_27,fr7_y1).
body(r_fr5_27,fr5_w3).
head(r_fr5_28,fr5_v1).
body(r_fr5_28,fr6_c2).
body(r_fr5_28,fr24_e1).
body(r_fr5_28,fr22_c3).
body(r_fr5_28,fr5_d2).
body(r_fr5_28,fr5_e2).
body(r_fr5_28,fr5_f2).
body(r_fr5_28,fr5_p2).
body(r_fr5_28,fr5_p4).
body(r_fr5_28,fr5_s1).
body(r_fr5_28,fr5_s3).
body(r_fr5_28,fr5_u2).
body(r_fr5_28,fr25_u2).
body(r_fr5_28,fr10_r2).
body(r_fr5_28,fr5_w3).
body(r_fr5_28,fr5_r2).
body(r_fr5_28,fr10_q1).
body(r_fr5_28,fr5_z3).
head(r_fr5_29,fr5_v1).
body(r_fr5_29,fr5_a1).
body(r_fr5_29,fr24_e1).
body(r_fr5_29,fr5_e2).
body(r_fr5_29,fr5_p1).
body(r_fr5_29,fr5_q3).
body(r_fr5_29,fr5_q4).
body(r_fr5_29,fr3_v1).
body(r_fr5_29,fr5_r2).
body(r_fr5_29,fr22_u1).
body(r_fr5_29,fr5_t3).
body(r_fr5_29,fr25_u2).
body(r_fr5_29,fr10_r2).
body(r_fr5_29,fr7_y1).
body(r_fr5_29,fr5_w3).
body(r_fr5_29,fr5_x1).
body(r_fr5_29,fr5_x3).
body(r_fr5_29,fr5_y2).
body(r_fr5_29,fr5_z1).
head(r_fr5_30,fr5_s3).
body(r_fr5_30,fr5_a1).
body(r_fr5_30,fr6_c2).
body(r_fr5_30,fr5_b1).
body(r_fr5_30,fr5_b3).
body(r_fr5_30,fr5_d2).
body(r_fr5_30,fr5_e1).
body(r_fr5_30,fr5_p1).
body(r_fr5_30,fr3_v1).
body(r_fr5_30,fr5_r2).
body(r_fr5_30,fr5_r3).
body(r_fr5_30,fr5_s1).
body(r_fr5_30,fr22_u1).
body(r_fr5_30,fr5_t2).
body(r_fr5_30,fr5_u2).
body(r_fr5_30,fr5_w1).
body(r_fr5_30,fr7_y1).
body(r_fr5_30,fr5_x3).
body(r_fr5_30,fr5_z2).
head(r_fr5_31,fr5_s3).
body(r_fr5_31,fr5_a2).
body(r_fr5_31,fr6_c2).
body(r_fr5_31,fr24_b2).
body(r_fr5_31,fr5_c3).
body(r_fr5_31,fr5_e1).
body(r_fr5_31,fr5_p1).
body(r_fr5_31,fr5_p2).
body(r_fr5_31,fr5_p3).
body(r_fr5_31,fr5_p4).
body(r_fr5_31,fr5_q3).
body(r_fr5_31,fr5_t1).
body(r_fr5_31,fr5_t2).
body(r_fr5_31,fr5_u1).
body(r_fr5_31,fr10_r2).
body(r_fr5_31,fr5_x1).
body(r_fr5_31,fr5_r2).
body(r_fr5_31,fr5_y2).
head(r_fr5_32,fr5_s3).
body(r_fr5_32,fr5_p1).
body(r_fr5_32,fr5_p3).
body(r_fr5_32,fr5_q2).
body(r_fr5_32,fr5_q3).
body(r_fr5_32,fr22_u1).
body(r_fr5_32,fr5_t2).
body(r_fr5_32,fr5_t3).
body(r_fr5_32,fr5_u2).
body(r_fr5_32,fr25_u2).
body(r_fr5_32,fr7_y1).
body(r_fr5_32,fr5_x1).
body(r_fr5_32,fr5_r2).
body(r_fr5_32,fr5_x3).
body(r_fr5_32,fr5_z1).
body(r_fr5_32,fr5_z2).
body(r_fr5_32,fr5_z3).
head(r_fr5_33,fr5_s3).
body(r_fr5_33,fr5_c3).
body(r_fr5_33,fr5_e2).
body(r_fr5_33,fr5_p2).
body(r_fr5_33,fr5_q2).
body(r_fr5_33,fr5_q4).
body(r_fr5_33,fr3_v1).
body(r_fr5_33,fr5_t2).
body(r_fr5_33,fr5_t3).
body(r_fr5_33,fr5_u1).
body(r_fr5_33,fr25_u2).
body(r_fr5_33,fr10_r2).
body(r_fr5_33,fr5_w3).
body(r_fr5_33,fr5_r2).
body(r_fr5_33,fr5_y1).
body(r_fr5_33,fr5_y2).
body(r_fr5_33,fr5_z1).
body(r_fr5_33,fr5_z2).
body(r_fr5_33,fr5_z3).
head(r_fr5_34,fr5_p2).
body(r_fr5_34,fr5_a1).
body(r_fr5_34,fr24_e1).
body(r_fr5_34,fr5_d2).
body(r_fr5_34,fr5_e1).
body(r_fr5_34,fr5_p4).
body(r_fr5_34,fr5_s1).
body(r_fr5_34,fr22_u1).
body(r_fr5_34,fr5_t1).
body(r_fr5_34,fr5_t2).
body(r_fr5_34,fr5_u2).
body(r_fr5_34,fr5_u3).
body(r_fr5_34,fr5_v1).
body(r_fr5_34,fr10_r2).
body(r_fr5_34,fr5_w1).
body(r_fr5_34,fr5_y2).
body(r_fr5_34,fr5_z3).
head(r_fr5_35,fr5_p2).
body(r_fr5_35,fr5_a1).
body(r_fr5_35,fr5_d2).
body(r_fr5_35,fr5_p1).
body(r_fr5_35,fr5_p4).
body(r_fr5_35,fr7_p1).
body(r_fr5_35,fr5_q2).
body(r_fr5_35,fr5_q3).
body(r_fr5_35,fr3_v1).
body(r_fr5_35,fr5_t1).
body(r_fr5_35,fr5_t3).
body(r_fr5_35,fr5_u1).
body(r_fr5_35,fr5_w1).
body(r_fr5_35,fr5_w3).
body(r_fr5_35,fr5_x1).
body(r_fr5_35,fr5_r2).
body(r_fr5_35,fr5_x3).
body(r_fr5_35,fr5_y2).
head(r_fr5_36,fr5_u3).
body(r_fr5_36,fr5_a2).
body(r_fr5_36,fr6_c2).
body(r_fr5_36,fr5_b3).
body(r_fr5_36,fr5_e1).
body(r_fr5_36,fr7_p1).
body(r_fr5_36,fr5_q4).
body(r_fr5_36,fr3_v1).
body(r_fr5_36,fr5_r2).
body(r_fr5_36,fr5_r3).
body(r_fr5_36,fr5_s1).
body(r_fr5_36,fr22_u1).
body(r_fr5_36,fr5_t3).
body(r_fr5_36,fr5_v1).
body(r_fr5_36,fr5_x1).
body(r_fr5_36,fr5_r2).
body(r_fr5_36,fr5_z2).
head(r_fr5_37,fr5_u3).
body(r_fr5_37,fr5_a1).
body(r_fr5_37,fr5_d2).
body(r_fr5_37,fr5_f2).
body(r_fr5_37,fr5_p2).
body(r_fr5_37,fr5_q4).
body(r_fr5_37,fr3_v1).
body(r_fr5_37,fr5_r2).
body(r_fr5_37,fr5_s1).
body(r_fr5_37,fr5_t2).
body(r_fr5_37,fr5_u1).
body(r_fr5_37,fr5_u2).
body(r_fr5_37,fr5_v1).
body(r_fr5_37,fr25_u2).
body(r_fr5_37,fr7_y1).
body(r_fr5_37,fr5_w3).
body(r_fr5_37,fr5_y1).
body(r_fr5_37,fr10_q1).
body(r_fr5_37,fr5_z3).
head(r_fr5_38,fr5_u3).
body(r_fr5_38,fr5_a2).
body(r_fr5_38,fr5_b3).
body(r_fr5_38,fr24_b2).
body(r_fr5_38,fr5_f1).
body(r_fr5_38,fr5_f2).
body(r_fr5_38,fr5_p2).
body(r_fr5_38,fr7_p1).
body(r_fr5_38,fr5_q4).
body(r_fr5_38,fr3_v1).
body(r_fr5_38,fr5_s3).
body(r_fr5_38,fr5_t2).
body(r_fr5_38,fr5_u2).
body(r_fr5_38,fr10_r2).
body(r_fr5_38,fr5_w1).
body(r_fr5_38,fr5_r2).
body(r_fr5_38,fr10_q1).
head(r_fr5_39,fr5_u3).
body(r_fr5_39,fr5_b2).
body(r_fr5_39,fr5_p4).
body(r_fr5_39,fr7_p1).
body(r_fr5_39,fr5_q2).
body(r_fr5_39,fr5_q4).
body(r_fr5_39,fr5_r3).
body(r_fr5_39,fr5_s1).
body(r_fr5_39,fr22_u1).
body(r_fr5_39,fr5_t2).
body(r_fr5_39,fr5_u1).
body(r_fr5_39,fr5_u2).
body(r_fr5_39,fr25_u2).
body(r_fr5_39,fr7_y1).
body(r_fr5_39,fr5_w3).
body(r_fr5_39,fr5_x1).
body(r_fr5_39,fr5_x3).
body(r_fr5_39,fr10_q1).
body(r_fr5_39,fr5_z2).
head(r_fr5_40,fr5_s1).
body(r_fr5_40,fr5_p1).
body(r_fr5_40,fr5_p2).
body(r_fr5_40,fr5_p3).
body(r_fr5_40,fr7_p1).
body(r_fr5_40,fr5_q2).
body(r_fr5_40,fr3_v1).
body(r_fr5_40,fr5_r2).
body(r_fr5_40,fr5_t1).
body(r_fr5_40,fr5_u3).
body(r_fr5_40,fr5_w1).
body(r_fr5_40,fr7_y1).
body(r_fr5_40,fr5_r2).
body(r_fr5_40,fr5_x3).
body(r_fr5_40,fr5_y2).
body(r_fr5_40,fr10_q1).
body(r_fr5_40,fr5_z2).
body(r_fr5_40,fr5_z3).
head(r_fr5_41,fr5_s1).
body(r_fr5_41,fr5_p1).
body(r_fr5_41,fr5_p4).
body(r_fr5_41,fr7_p1).
body(r_fr5_41,fr5_q3).
body(r_fr5_41,fr5_r2).
body(r_fr5_41,fr5_r3).
body(r_fr5_41,fr5_s3).
body(r_fr5_41,fr5_t1).
body(r_fr5_41,fr25_u2).
body(r_fr5_41,fr10_r2).
body(r_fr5_41,fr7_y1).
body(r_fr5_41,fr5_w3).
body(r_fr5_41,fr5_x3).
body(r_fr5_41,fr5_y1).
body(r_fr5_41,fr5_y2).
body(r_fr5_41,fr10_q1).
body(r_fr5_41,fr5_z1).
head(r_fr5_42,fr5_s1).
body(r_fr5_42,fr24_e1).
body(r_fr5_42,fr5_p2).
body(r_fr5_42,fr5_p3).
body(r_fr5_42,fr5_p4).
body(r_fr5_42,fr7_p1).
body(r_fr5_42,fr5_q2).
body(r_fr5_42,fr5_q3).
body(r_fr5_42,fr3_v1).
body(r_fr5_42,fr5_r3).
body(r_fr5_42,fr22_u1).
body(r_fr5_42,fr5_s3).
body(r_fr5_42,fr5_t1).
body(r_fr5_42,fr5_v1).
body(r_fr5_42,fr5_x1).
body(r_fr5_42,fr5_y2).
body(r_fr5_42,fr10_q1).
body(r_fr5_42,fr5_z1).
head(r_fr5_43,fr10_q1).
body(r_fr5_43,fr5_a1).
body(r_fr5_43,fr5_a2).
body(r_fr5_43,fr5_b2).
body(r_fr5_43,fr5_p1).
body(r_fr5_43,fr5_p2).
body(r_fr5_43,fr5_q2).
body(r_fr5_43,fr5_q4).
body(r_fr5_43,fr5_r2).
body(r_fr5_43,fr5_t1).
body(r_fr5_43,fr5_t3).
body(r_fr5_43,fr5_u1).
body(r_fr5_43,fr5_u3).
body(r_fr5_43,fr10_r2).
body(r_fr5_43,fr5_x1).
body(r_fr5_43,fr5_r2).
body(r_fr5_43,fr5_x3).
body(r_fr5_43,fr5_y2).
body(r_fr5_43,fr5_z3).
head(r_fr5_44,fr10_q1).
body(r_fr5_44,fr5_a1).
body(r_fr5_44,fr5_b1).
body(r_fr5_44,fr5_b3).
body(r_fr5_44,fr22_c3).
body(r_fr5_44,fr5_f1).
body(r_fr5_44,fr5_p1).
body(r_fr5_44,fr5_p2).
body(r_fr5_44,fr5_t2).
body(r_fr5_44,fr5_u2).
body(r_fr5_44,fr5_u3).
body(r_fr5_44,fr5_v1).
body(r_fr5_44,fr10_r2).
body(r_fr5_44,fr5_w1).
body(r_fr5_44,fr5_y1).
body(r_fr5_44,fr5_y2).
body(r_fr5_44,fr5_z2).
body(r_fr5_44,fr5_z3).
head(r_fr5_45,fr10_q1).
body(r_fr5_45,fr5_p2).
body(r_fr5_45,fr5_p3).
body(r_fr5_45,fr5_q2).
body(r_fr5_45,fr5_q4).
body(r_fr5_45,fr5_r2).
body(r_fr5_45,fr5_s1).
body(r_fr5_45,fr22_u1).
body(r_fr5_45,fr5_s3).
body(r_fr5_45,fr5_t3).
body(r_fr5_45,fr5_u1).
body(r_fr5_45,fr5_v1).
body(r_fr5_45,fr25_u2).
body(r_fr5_45,fr5_w1).
body(r_fr5_45,fr5_x3).
body(r_fr5_45,fr5_y2).
body(r_fr5_45,fr5_z2).
head(r_fr5_46,fr10_q1).
body(r_fr5_46,fr5_b3).
body(r_fr5_46,fr24_e1).
body(r_fr5_46,fr5_p2).
body(r_fr5_46,fr5_p3).
body(r_fr5_46,fr5_q2).
body(r_fr5_46,fr5_q4).
body(r_fr5_46,fr3_v1).
body(r_fr5_46,fr5_r2).
body(r_fr5_46,fr5_s1).
body(r_fr5_46,fr22_u1).
body(r_fr5_46,fr5_s3).
body(r_fr5_46,fr5_t1).
body(r_fr5_46,fr5_t3).
body(r_fr5_46,fr5_u3).
body(r_fr5_46,fr25_u2).
body(r_fr5_46,fr7_y1).
head(r_fr5_47,fr10_q1).
body(r_fr5_47,fr5_a1).
body(r_fr5_47,fr24_b2).
body(r_fr5_47,fr22_c3).
body(r_fr5_47,fr5_e1).
body(r_fr5_47,fr5_f2).
body(r_fr5_47,fr5_p2).
body(r_fr5_47,fr5_q4).
body(r_fr5_47,fr5_r3).
body(r_fr5_47,fr22_u1).
body(r_fr5_47,fr5_t1).
body(r_fr5_47,fr5_u2).
body(r_fr5_47,fr5_w1).
body(r_fr5_47,fr5_w3).
body(r_fr5_47,fr5_x3).
body(r_fr5_47,fr5_y1).
body(r_fr5_47,fr5_z1).
body(r_fr5_47,fr5_z3).
head(r_fr5_48,fr5_w3).
body(r_fr5_48,fr24_b2).
body(r_fr5_48,fr5_f1).
body(r_fr5_48,fr5_p2).
body(r_fr5_48,fr5_q2).
body(r_fr5_48,fr5_s1).
body(r_fr5_48,fr5_t1).
body(r_fr5_48,fr5_t2).
body(r_fr5_48,fr5_t3).
body(r_fr5_48,fr5_u2).
body(r_fr5_48,fr25_u2).
body(r_fr5_48,fr10_r2).
body(r_fr5_48,fr5_x1).
body(r_fr5_48,fr5_z1).
body(r_fr5_48,fr5_z2).
body(r_fr5_48,fr5_z3).
head(r_fr5_49,fr5_w3).
body(r_fr5_49,fr5_a1).
body(r_fr5_49,fr5_a2).
body(r_fr5_49,fr22_c3).
body(r_fr5_49,fr5_d2).
body(r_fr5_49,fr5_e1).
body(r_fr5_49,fr5_p4).
body(r_fr5_49,fr5_q2).
body(r_fr5_49,fr3_v1).
body(r_fr5_49,fr22_u1).
body(r_fr5_49,fr5_t1).
body(r_fr5_49,fr5_t3).
body(r_fr5_49,fr5_u1).
body(r_fr5_49,fr5_u2).
body(r_fr5_49,fr5_u3).
body(r_fr5_49,fr25_u2).
body(r_fr5_49,fr7_y1).
body(r_fr5_49,fr5_x1).
body(r_fr5_49,fr10_q1).
head(r_fr5_50,fr5_w1).
body(r_fr5_50,fr5_a1).
body(r_fr5_50,fr5_a2).
body(r_fr5_50,fr22_c3).
body(r_fr5_50,fr5_e2).
body(r_fr5_50,fr5_p1).
body(r_fr5_50,fr7_p1).
body(r_fr5_50,fr5_q2).
body(r_fr5_50,fr5_q3).
body(r_fr5_50,fr3_v1).
body(r_fr5_50,fr5_r2).
body(r_fr5_50,fr5_s1).
body(r_fr5_50,fr5_u2).
body(r_fr5_50,fr5_r2).
body(r_fr5_50,fr5_x3).
body(r_fr5_50,fr10_q1).
body(r_fr5_50,fr5_z3).
head(r_fr5_51,fr5_w1).
body(r_fr5_51,fr5_a1).
body(r_fr5_51,fr3_v1).
body(r_fr5_51,fr5_r2).
body(r_fr5_51,fr5_r3).
body(r_fr5_51,fr5_t1).
body(r_fr5_51,fr5_t2).
body(r_fr5_51,fr5_t3).
body(r_fr5_51,fr5_u1).
body(r_fr5_51,fr25_u2).
body(r_fr5_51,fr10_r2).
body(r_fr5_51,fr5_r2).
body(r_fr5_51,fr5_x3).
body(r_fr5_51,fr10_q1).
body(r_fr5_51,fr5_z2).
body(r_fr5_51,fr5_z3).
head(r_fr5_52,fr5_t3).
body(r_fr5_52,fr5_b1).
body(r_fr5_52,fr24_e1).
body(r_fr5_52,fr5_d2).
body(r_fr5_52,fr5_p1).
body(r_fr5_52,fr5_p3).
body(r_fr5_52,fr5_p4).
body(r_fr5_52,fr5_q3).
body(r_fr5_52,fr5_r3).
body(r_fr5_52,fr5_t2).
body(r_fr5_52,fr5_u1).
body(r_fr5_52,fr5_u2).
body(r_fr5_52,fr5_r2).
body(r_fr5_52,fr5_y1).
body(r_fr5_52,fr5_z1).
body(r_fr5_52,fr5_z3).
head(r_fr5_53,fr5_t3).
body(r_fr5_53,fr5_a1).
body(r_fr5_53,fr6_c2).
body(r_fr5_53,fr5_b3).
body(r_fr5_53,fr24_b2).
body(r_fr5_53,fr5_c3).
body(r_fr5_53,fr5_e1).
body(r_fr5_53,fr5_p1).
body(r_fr5_53,fr7_p1).
body(r_fr5_53,fr5_q4).
body(r_fr5_53,fr3_v1).
body(r_fr5_53,fr5_r3).
body(r_fr5_53,fr5_s3).
body(r_fr5_53,fr5_u1).
body(r_fr5_53,fr5_u2).
body(r_fr5_53,fr5_u3).
body(r_fr5_53,fr10_r2).
body(r_fr5_53,fr5_x1).
head(r_fr5_54,fr5_t3).
body(r_fr5_54,fr5_e2).
body(r_fr5_54,fr5_f1).
body(r_fr5_54,fr5_p4).
body(r_fr5_54,fr7_p1).
body(r_fr5_54,fr5_q4).
body(r_fr5_54,fr3_v1).
body(r_fr5_54,fr5_u2).
body(r_fr5_54,fr10_r2).
body(r_fr5_54,fr7_y1).
body(r_fr5_54,fr5_x1).
body(r_fr5_54,fr5_r2).
body(r_fr5_54,fr5_x3).
body(r_fr5_54,fr5_y1).
body(r_fr5_54,fr5_y2).
body(r_fr5_54,fr10_q1).
body(r_fr5_54,fr5_z1).
body(r_fr5_54,fr5_z2).
head(r_fr5_55,fr5_t3).
body(r_fr5_55,fr5_a1).
body(r_fr5_55,fr5_b1).
body(r_fr5_55,fr5_b2).
body(r_fr5_55,fr22_c3).
body(r_fr5_55,fr5_f1).
body(r_fr5_55,fr5_p3).
body(r_fr5_55,fr7_p1).
body(r_fr5_55,fr5_q4).
body(r_fr5_55,fr3_v1).
body(r_fr5_55,fr5_r2).
body(r_fr5_55,fr5_u1).
body(r_fr5_55,fr5_u3).
body(r_fr5_55,fr10_r2).
body(r_fr5_55,fr5_r2).
body(r_fr5_55,fr10_q1).
body(r_fr5_55,fr5_z2).
head(r_fr5_56,fr5_z2).
body(r_fr5_56,fr5_b1).
body(r_fr5_56,fr5_b2).
body(r_fr5_56,fr5_b3).
body(r_fr5_56,fr5_c3).
body(r_fr5_56,fr5_f1).
body(r_fr5_56,fr5_p1).
body(r_fr5_56,fr5_p2).
body(r_fr5_56,fr5_p3).
body(r_fr5_56,fr5_q2).
body(r_fr5_56,fr3_v1).
body(r_fr5_56,fr5_r2).
body(r_fr5_56,fr22_u1).
body(r_fr5_56,fr5_t1).
body(r_fr5_56,fr5_t3).
body(r_fr5_56,fr5_x1).
body(r_fr5_56,fr5_r2).
body(r_fr5_56,fr5_z1).
body(r_fr5_56,fr5_z3).
head(r_fr5_57,fr5_z2).
body(r_fr5_57,fr5_b1).
body(r_fr5_57,fr5_b3).
body(r_fr5_57,fr5_d2).
body(r_fr5_57,fr5_p3).
body(r_fr5_57,fr5_q2).
body(r_fr5_57,fr5_r2).
body(r_fr5_57,fr22_u1).
body(r_fr5_57,fr5_s3).
body(r_fr5_57,fr5_t2).
body(r_fr5_57,fr5_t3).
body(r_fr5_57,fr5_u2).
body(r_fr5_57,fr25_u2).
body(r_fr5_57,fr10_r2).
body(r_fr5_57,fr5_w1).
body(r_fr5_57,fr5_w3).
body(r_fr5_57,fr5_y1).
body(r_fr5_57,fr5_y2).
head(r_fr5_58,fr5_z2).
body(r_fr5_58,fr5_a1).
body(r_fr5_58,fr5_a2).
body(r_fr5_58,fr5_b2).
body(r_fr5_58,fr24_b2).
body(r_fr5_58,fr22_c3).
body(r_fr5_58,fr5_e1).
body(r_fr5_58,fr5_p3).
body(r_fr5_58,fr7_p1).
body(r_fr5_58,fr5_q2).
body(r_fr5_58,fr3_v1).
body(r_fr5_58,fr5_r2).
body(r_fr5_58,fr5_s1).
body(r_fr5_58,fr22_u1).
body(r_fr5_58,fr5_t2).
body(r_fr5_58,fr5_t3).
body(r_fr5_58,fr5_r2).
body(r_fr5_58,fr5_z1).
head(r_fr5_59,fr5_q3).
body(r_fr5_59,fr5_a1).
body(r_fr5_59,fr6_c2).
body(r_fr5_59,fr5_b3).
body(r_fr5_59,fr5_c3).
body(r_fr5_59,fr5_e1).
body(r_fr5_59,fr5_f2).
body(r_fr5_59,fr5_p4).
body(r_fr5_59,fr5_r2).
body(r_fr5_59,fr5_r3).
body(r_fr5_59,fr22_u1).
body(r_fr5_59,fr5_t3).
body(r_fr5_59,fr5_w1).
body(r_fr5_59,fr7_y1).
body(r_fr5_59,fr5_x3).
body(r_fr5_59,fr5_y1).
body(r_fr5_59,fr10_q1).
body(r_fr5_59,fr5_z2).
body(r_fr5_59,fr5_z3).
head(r_fr5_60,fr5_q3).
body(r_fr5_60,fr5_p4).
body(r_fr5_60,fr7_p1).
body(r_fr5_60,fr5_r2).
body(r_fr5_60,fr5_r3).
body(r_fr5_60,fr22_u1).
body(r_fr5_60,fr5_t3).
body(r_fr5_60,fr5_v1).
body(r_fr5_60,fr5_w1).
body(r_fr5_60,fr7_y1).
body(r_fr5_60,fr5_w3).
body(r_fr5_60,fr5_r2).
body(r_fr5_60,fr5_x3).
body(r_fr5_60,fr5_y2).
body(r_fr5_60,fr10_q1).
body(r_fr5_60,fr5_z1).
body(r_fr5_60,fr5_z3).
head(r_fr5_61,fr5_t1).
body(r_fr5_61,fr5_b2).
body(r_fr5_61,fr5_d2).
body(r_fr5_61,fr5_p1).
body(r_fr5_61,fr5_p4).
body(r_fr5_61,fr5_q3).
body(r_fr5_61,fr3_v1).
body(r_fr5_61,fr22_u1).
body(r_fr5_61,fr5_t2).
body(r_fr5_61,fr5_u1).
body(r_fr5_61,fr5_u2).
body(r_fr5_61,fr5_u3).
body(r_fr5_61,fr5_v1).
body(r_fr5_61,fr25_u2).
body(r_fr5_61,fr7_y1).
body(r_fr5_61,fr5_x3).
body(r_fr5_61,fr5_z3).
head(r_fr5_62,fr5_t1).
body(r_fr5_62,fr5_e2).
body(r_fr5_62,fr5_p1).
body(r_fr5_62,fr5_p2).
body(r_fr5_62,fr5_p3).
body(r_fr5_62,fr7_p1).
body(r_fr5_62,fr22_u1).
body(r_fr5_62,fr5_s3).
body(r_fr5_62,fr5_t2).
body(r_fr5_62,fr5_u1).
body(r_fr5_62,fr5_u2).
body(r_fr5_62,fr5_u3).
body(r_fr5_62,fr10_r2).
body(r_fr5_62,fr5_w1).
body(r_fr5_62,fr5_x1).
body(r_fr5_62,fr5_r2).
body(r_fr5_62,fr5_z1).
body(r_fr5_62,fr5_z2).
head(r_fr5_63,fr5_r2).
body(r_fr5_63,fr24_b2).
body(r_fr5_63,fr5_c3).
body(r_fr5_63,fr22_c3).
body(r_fr5_63,fr5_p4).
body(r_fr5_63,fr5_q3).
body(r_fr5_63,fr5_q4).
body(r_fr5_63,fr5_r3).
body(r_fr5_63,fr5_s1).
body(r_fr5_63,fr5_t1).
body(r_fr5_63,fr5_t2).
body(r_fr5_63,fr5_t3).
body(r_fr5_63,fr5_u1).
body(r_fr5_63,fr5_u2).
body(r_fr5_63,fr5_w1).
body(r_fr5_63,fr5_w3).
body(r_fr5_63,fr5_x3).
body(r_fr5_63,fr10_q1).
body(r_fr5_63,fr5_z2).
head(r_fr5_64,fr5_r2).
body(r_fr5_64,fr5_b3).
body(r_fr5_64,fr24_b2).
body(r_fr5_64,fr5_c3).
body(r_fr5_64,fr5_e2).
body(r_fr5_64,fr5_p3).
body(r_fr5_64,fr5_p4).
body(r_fr5_64,fr5_q2).
body(r_fr5_64,fr3_v1).
body(r_fr5_64,fr5_s1).
body(r_fr5_64,fr22_u1).
body(r_fr5_64,fr5_t3).
body(r_fr5_64,fr5_u1).
body(r_fr5_64,fr5_w1).
body(r_fr5_64,fr7_y1).
body(r_fr5_64,fr5_x1).
body(r_fr5_64,fr5_r2).
body(r_fr5_64,fr5_y1).
body(r_fr5_64,fr5_z3).
head(r_fr5_65,fr5_r2).
body(r_fr5_65,fr6_c2).
body(r_fr5_65,fr5_b3).
body(r_fr5_65,fr5_p2).
body(r_fr5_65,fr5_p3).
body(r_fr5_65,fr7_p1).
body(r_fr5_65,fr5_q2).
body(r_fr5_65,fr3_v1).
body(r_fr5_65,fr5_s1).
body(r_fr5_65,fr5_t2).
body(r_fr5_65,fr5_t3).
body(r_fr5_65,fr5_v1).
body(r_fr5_65,fr7_y1).
body(r_fr5_65,fr5_r2).
body(r_fr5_65,fr5_y1).
body(r_fr5_65,fr5_y2).
body(r_fr5_65,fr5_z3).
head(r_fr5_66,fr5_u1).
body(r_fr5_66,fr6_c2).
body(r_fr5_66,fr5_d2).
body(r_fr5_66,fr5_f2).
body(r_fr5_66,fr5_p2).
body(r_fr5_66,fr5_q2).
body(r_fr5_66,fr5_q3).
body(r_fr5_66,fr22_u1).
body(r_fr5_66,fr25_u2).
body(r_fr5_66,fr10_r2).
body(r_fr5_66,fr5_w1).
body(r_fr5_66,fr7_y1).
body(r_fr5_66,fr5_w3).
body(r_fr5_66,fr5_x1).
body(r_fr5_66,fr5_r2).
body(r_fr5_66,fr10_q1).
body(r_fr5_66,fr5_z1).
body(r_fr5_66,fr5_z2).
body(r_fr5_66,fr5_z3).
head(r_fr5_67,fr5_u1).
body(r_fr5_67,fr6_c2).
body(r_fr5_67,fr5_b1).
body(r_fr5_67,fr5_b3).
body(r_fr5_67,fr5_d2).
body(r_fr5_67,fr5_p1).
body(r_fr5_67,fr5_p3).
body(r_fr5_67,fr5_q4).
body(r_fr5_67,fr5_t1).
body(r_fr5_67,fr5_t3).
body(r_fr5_67,fr5_u2).
body(r_fr5_67,fr5_u3).
body(r_fr5_67,fr7_y1).
body(r_fr5_67,fr5_r2).
body(r_fr5_67,fr5_x3).
body(r_fr5_67,fr5_y2).

assumption(fr2_f1).
assumption(fr9_c1).
assumption(fr25_e2).
assumption(fr6_d1).
assumption(fr6_e1).
assumption(fr2_a1).
assumption(fr6_a2).
assumption(fr6_b2).
assumption(fr6_c2).
assumption(fr20_b1).
assumption(fr6_e2).
assumption(fr6_f2).
assumption(fr13_c1).
assumption(fr6_b3).
assumption(fr24_e1).
contrary(fr2_f1,fr6_x2).
contrary(fr6_a2,fr13_c1).
contrary(fr13_c1,fr2_f1).
contrary(fr9_c1,fr7_w1).
contrary(fr6_b2,fr11_z1).
contrary(fr6_b3,fr23_t3).
contrary(fr25_e2,fr6_b2).
contrary(fr6_c2,fr6_z2).
contrary(fr24_e1,fr7_w1).
contrary(fr6_d1,fr11_z1).
contrary(fr20_b1,fr6_e2).
contrary(fr6_e1,fr2_a1).
contrary(fr6_e2,fr6_w1).
contrary(fr2_a1,fr6_s1).
contrary(fr6_f2,fr7_w1).
head(r_fr6_0,fr6_z2).
body(r_fr6_0,fr25_e2).
body(r_fr6_0,fr24_e1).
body(r_fr6_0,fr6_y1).
head(r_fr6_1,fr6_z2).
body(r_fr6_1,fr6_a2).
head(r_fr6_2,fr6_z2).
body(r_fr6_2,fr2_f1).
body(r_fr6_2,fr13_c1).
body(r_fr6_2,fr9_c1).
body(r_fr6_2,fr24_e1).
body(r_fr6_2,fr6_d1).
body(r_fr6_2,fr6_f2).
head(r_fr6_3,fr6_z2).
body(r_fr6_3,fr9_c1).
body(r_fr6_3,fr6_b2).
body(r_fr6_3,fr6_c2).
body(r_fr6_3,fr6_e2).
head(r_fr6_4,fr6_z2).
body(r_fr6_4,fr25_e2).
body(r_fr6_4,fr6_p3).
body(r_fr6_4,fr6_r2).
body(r_fr6_4,fr6_w1).
body(r_fr6_4,fr6_x1).
head(r_fr6_5,fr6_z2).
body(r_fr6_5,fr6_d1).
body(r_fr6_5,fr6_s1).
body(r_fr6_5,fr6_t2).
body(r_fr6_5,fr6_v2).
body(r_fr6_5,fr6_w2).
head(r_fr6_6,fr6_z2).
body(r_fr6_6,fr2_a1).
head(r_fr6_7,fr6_z2).
body(r_fr6_7,fr6_x2).
head(r_fr6_8,fr6_z2).
body(r_fr6_8,fr20_b1).
body(r_fr6_8,fr6_f2).
body(r_fr6_8,fr6_x1).
head(r_fr6_9,fr6_z2).
body(r_fr6_9,fr6_a2).
body(r_fr6_9,fr6_b3).
body(r_fr6_9,fr23_t3).
head(r_fr6_10,fr6_z2).
head(r_fr6_11,fr6_z2).
body(r_fr6_11,fr13_c1).
head(r_fr6_12,fr6_z2).
body(r_fr6_12,fr13_c1).
body(r_fr6_12,fr6_c2).
head(r_fr6_13,fr6_z2).
body(r_fr6_13,fr11_z1).
body(r_fr6_13,fr7_w1).
body(r_fr6_13,fr6_t2).
body(r_fr6_13,fr6_x2).
head(r_fr6_14,fr6_z2).
body(r_fr6_14,fr6_a2).
body(r_fr6_14,fr6_d1).
body(r_fr6_14,fr20_b1).
body(r_fr6_14,fr2_a1).
head(r_fr6_15,fr6_z2).
body(r_fr6_15,fr6_d1).
body(r_fr6_15,fr6_e1).
body(r_fr6_15,fr6_f2).
body(r_fr6_15,fr22_x6).
body(r_fr6_15,fr6_r2).
body(r_fr6_15,fr6_x2).
head(r_fr6_16,fr6_z2).
body(r_fr6_16,fr13_c1).
body(r_fr6_16,fr6_e2).
body(r_fr6_16,fr6_t2).
body(r_fr6_16,fr6_x2).
head(r_fr6_17,fr6_x2).
body(r_fr6_17,fr6_c2).
head(r_fr6_18,fr6_x2).
body(r_fr6_18,fr24_e1).
body(r_fr6_18,fr6_e2).
body(r_fr6_18,fr2_a1).
body(r_fr6_18,fr22_x6).
body(r_fr6_18,fr6_t2).
head(r_fr6_19,fr6_x2).
body(r_fr6_19,fr6_q1).
body(r_fr6_19,fr23_t3).
head(r_fr6_20,fr6_x2).
body(r_fr6_20,fr11_z1).
body(r_fr6_20,fr6_q1).
body(r_fr6_20,fr7_w1).
body(r_fr6_20,fr6_w1).
body(r_fr6_20,fr6_z1).
head(r_fr6_21,fr6_x2).
body(r_fr6_21,fr2_f1).
body(r_fr6_21,fr13_c1).
body(r_fr6_21,fr6_b3).
body(r_fr6_21,fr25_e2).
body(r_fr6_21,fr11_z1).
body(r_fr6_21,fr6_t2).
head(r_fr6_22,fr6_x2).
body(r_fr6_22,fr20_b1).
body(r_fr6_22,fr11_z1).
body(r_fr6_22,fr16_w3).
head(r_fr6_23,fr6_x2).
body(r_fr6_23,fr6_f2).
body(r_fr6_23,fr22_x6).
body(r_fr6_23,fr6_r3).
body(r_fr6_23,fr16_w3).
head(r_fr6_24,fr6_x2).
body(r_fr6_24,fr6_a2).
body(r_fr6_24,fr25_e2).
body(r_fr6_24,fr20_b1).
body(r_fr6_24,fr6_e1).
body(r_fr6_24,fr7_w1).
body(r_fr6_24,fr6_x1).
head(r_fr6_25,fr6_x2).
body(r_fr6_25,fr6_a2).
body(r_fr6_25,fr13_c1).
body(r_fr6_25,fr7_w1).
body(r_fr6_25,fr6_x1).
head(r_fr6_26,fr6_x2).
body(r_fr6_26,fr6_b3).
body(r_fr6_26,fr2_a1).
body(r_fr6_26,fr16_w3).
head(r_fr6_27,fr6_x2).
body(r_fr6_27,fr22_x6).
body(r_fr6_27,fr6_t1).
head(r_fr6_28,fr6_x2).
body(r_fr6_28,fr6_a2).
body(r_fr6_28,fr11_z1).
body(r_fr6_28,fr13_z1).
head(r_fr6_29,fr6_x2).
body(r_fr6_29,fr6_b3).
body(r_fr6_29,fr25_e2).
body(r_fr6_29,fr2_a1).
body(r_fr6_29,fr6_t2).
body(r_fr6_29,fr6_z1).
head(r_fr6_30,fr6_x2).
head(r_fr6_31,fr6_x2).
body(r_fr6_31,fr6_b3).
body(r_fr6_31,fr6_z1).
head(r_fr6_32,fr6_u2).
body(r_fr6_32,fr25_e2).
body(r_fr6_32,fr6_f2).
body(r_fr6_32,fr11_z1).
head(r_fr6_33,fr6_u2).
body(r_fr6_33,fr24_e1).
body(r_fr6_33,fr6_e1).
body(r_fr6_33,fr6_q1).
body(r_fr6_33,fr7_w1).
body(r_fr6_33,fr22_x6).
body(r_fr6_33,fr23_t3).
head(r_fr6_34,fr6_u2).
body(r_fr6_34,fr13_z1).
body(r_fr6_34,fr6_t1).
head(r_fr6_35,fr6_u2).
body(r_fr6_35,fr13_c1).
body(r_fr6_35,fr9_c1).
body(r_fr6_35,fr25_e2).
body(r_fr6_35,fr6_c2).
body(r_fr6_35,fr6_d1).
body(r_fr6_35,fr6_t1).
head(r_fr6_36,fr6_u2).
body(r_fr6_36,fr9_c1).
body(r_fr6_36,fr6_b3).
body(r_fr6_36,fr6_c2).
body(r_fr6_36,fr11_z1).
body(r_fr6_36,fr6_q1).
body(r_fr6_36,fr6_w1).
head(r_fr6_37,fr6_u2).
body(r_fr6_37,fr9_c1).
body(r_fr6_37,fr24_e1).
body(r_fr6_37,fr6_e1).
head(r_fr6_38,fr6_u2).
body(r_fr6_38,fr25_e2).
body(r_fr6_38,fr6_e1).
body(r_fr6_38,fr6_e2).
body(r_fr6_38,fr6_r3).
body(r_fr6_38,fr7_w1).
body(r_fr6_38,fr6_x1).
head(r_fr6_39,fr6_u2).
body(r_fr6_39,fr25_e2).
head(r_fr6_40,fr6_u2).
body(r_fr6_40,fr6_a2).
body(r_fr6_40,fr6_e1).
head(r_fr6_41,fr6_u2).
body(r_fr6_41,fr6_t2).
body(r_fr6_41,fr6_x1).
head(r_fr6_42,fr6_u2).
body(r_fr6_42,fr6_s1).
body(r_fr6_42,fr23_t3).
body(r_fr6_42,fr6_x1).
body(r_fr6_42,fr16_w3).
body(r_fr6_42,fr6_z1).
head(r_fr6_43,fr6_u2).
body(r_fr6_43,fr11_z1).
body(r_fr6_43,fr6_s1).
body(r_fr6_43,fr6_v2).
body(r_fr6_43,fr6_y1).
head(r_fr6_44,fr6_u2).
body(r_fr6_44,fr6_a2).
body(r_fr6_44,fr13_c1).
body(r_fr6_44,fr24_e1).
body(r_fr6_44,fr6_d1).
body(r_fr6_44,fr6_e1).
head(r_fr6_45,fr6_u2).
head(r_fr6_46,fr6_u2).
body(r_fr6_46,fr6_b3).
body(r_fr6_46,fr6_e1).
body(r_fr6_46,fr6_e2).
body(r_fr6_46,fr2_a1).
body(r_fr6_46,fr6_f2).
body(r_fr6_46,fr6_z1).
head(r_fr6_47,fr6_u2).
body(r_fr6_47,fr13_z1).
body(r_fr6_47,fr7_w1).
body(r_fr6_47,fr6_v2).
body(r_fr6_47,fr6_w1).
body(r_fr6_47,fr6_w2).
body(r_fr6_47,fr16_w3).
head(r_fr6_48,fr6_u2).
body(r_fr6_48,fr6_e2).
body(r_fr6_48,fr7_w1).
body(r_fr6_48,fr6_s1).
body(r_fr6_48,fr6_u1).
body(r_fr6_48,fr6_x1).
body(r_fr6_48,fr6_z1).
head(r_fr6_49,fr11_z1).
body(r_fr6_49,fr6_a2).
body(r_fr6_49,fr6_b2).
body(r_fr6_49,fr25_e2).
body(r_fr6_49,fr6_f2).
body(r_fr6_49,fr6_s1).
body(r_fr6_49,fr6_w2).
head(r_fr6_50,fr11_z1).
body(r_fr6_50,fr6_b2).
body(r_fr6_50,fr25_e2).
body(r_fr6_50,fr6_e1).
head(r_fr6_51,fr11_z1).
body(r_fr6_51,fr6_b3).
body(r_fr6_51,fr6_q1).
body(r_fr6_51,fr22_x6).
head(r_fr6_52,fr11_z1).
body(r_fr6_52,fr6_p3).
body(r_fr6_52,fr6_q1).
body(r_fr6_52,fr6_w2).
head(r_fr6_53,fr11_z1).
body(r_fr6_53,fr24_e1).
body(r_fr6_53,fr7_w1).
body(r_fr6_53,fr7_w1).
head(r_fr6_54,fr11_z1).
body(r_fr6_54,fr9_c1).
body(r_fr6_54,fr6_b3).
body(r_fr6_54,fr6_d1).
body(r_fr6_54,fr6_f2).
body(r_fr6_54,fr6_s1).
body(r_fr6_54,fr23_t3).
head(r_fr6_55,fr11_z1).
body(r_fr6_55,fr6_d1).
head(r_fr6_56,fr11_z1).
body(r_fr6_56,fr9_c1).
body(r_fr6_56,fr6_d1).
body(r_fr6_56,fr2_a1).
head(r_fr6_57,fr11_z1).
body(r_fr6_57,fr7_w1).
body(r_fr6_57,fr23_t3).
head(r_fr6_58,fr11_z1).
body(r_fr6_58,fr13_z1).
head(r_fr6_59,fr11_z1).
body(r_fr6_59,fr6_a2).
body(r_fr6_59,fr9_c1).
body(r_fr6_59,fr6_b2).
body(r_fr6_59,fr6_c2).
body(r_fr6_59,fr20_b1).
body(r_fr6_59,fr2_a1).
head(r_fr6_60,fr11_z1).
body(r_fr6_60,fr2_f1).
body(r_fr6_60,fr6_a2).
body(r_fr6_60,fr13_c1).
body(r_fr6_60,fr20_b1).
body(r_fr6_60,fr6_s1).
body(r_fr6_60,fr7_w1).
head(r_fr6_61,fr11_z1).
body(r_fr6_61,fr2_f1).
body(r_fr6_61,fr6_a2).
body(r_fr6_61,fr24_e1).
body(r_fr6_61,fr7_w1).
head(r_fr6_62,fr11_z1).
body(r_fr6_62,fr13_c1).
body(r_fr6_62,fr9_c1).
body(r_fr6_62,fr6_b2).
body(r_fr6_62,fr25_e2).
body(r_fr6_62,fr6_e1).
body(r_fr6_62,fr6_e2).
head(r_fr6_63,fr11_z1).
body(r_fr6_63,fr6_b2).
body(r_fr6_63,fr24_e1).
body(r_fr6_63,fr2_a1).
body(r_fr6_63,fr6_f2).
head(r_fr6_64,fr11_z1).
head(r_fr6_65,fr22_x6).
body(r_fr6_65,fr6_b2).
body(r_fr6_65,fr6_b3).
body(r_fr6_65,fr24_e1).
body(r_fr6_65,fr6_e1).
body(r_fr6_65,fr6_f2).
body(r_fr6_65,fr6_q1).
head(r_fr6_66,fr22_x6).
body(r_fr6_66,fr13_c1).
body(r_fr6_66,fr6_b2).
body(r_fr6_66,fr7_w1).
body(r_fr6_66,fr7_w1).
head(r_fr6_67,fr22_x6).
body(r_fr6_67,fr6_a2).
body(r_fr6_67,fr13_c1).
body(r_fr6_67,fr6_f2).
body(r_fr6_67,fr6_s1).
body(r_fr6_67,fr23_t3).
body(r_fr6_67,fr6_w1).
head(r_fr6_68,fr22_x6).
body(r_fr6_68,fr9_c1).
body(r_fr6_68,fr6_c2).
body(r_fr6_68,fr6_p3).
body(r_fr6_68,fr6_r3).
body(r_fr6_68,fr6_x1).
body(r_fr6_68,fr6_z1).
head(r_fr6_69,fr22_x6).
body(r_fr6_69,fr25_e2).
body(r_fr6_69,fr6_d1).
body(r_fr6_69,fr6_z1).
head(r_fr6_70,fr22_x6).
body(r_fr6_70,fr6_a2).
head(r_fr6_71,fr22_x6).
head(r_fr6_72,fr22_x6).
body(r_fr6_72,fr2_f1).
body(r_fr6_72,fr23_t3).
body(r_fr6_72,fr6_v2).
head(r_fr6_73,fr22_x6).
body(r_fr6_73,fr7_w1).
head(r_fr6_74,fr22_x6).
body(r_fr6_74,fr6_a2).
body(r_fr6_74,fr9_c1).
body(r_fr6_74,fr6_b3).
body(r_fr6_74,fr25_e2).
body(r_fr6_74,fr6_e2).
body(r_fr6_74,fr6_f2).
head(r_fr6_75,fr22_x6).
body(r_fr6_75,fr6_r2).
body(r_fr6_75,fr7_w1).
head(r_fr6_76,fr22_x6).
body(r_fr6_76,fr6_d1).
body(r_fr6_76,fr6_e2).
body(r_fr6_76,fr6_p3).
body(r_fr6_76,fr6_r2).
body(r_fr6_76,fr6_r3).
head(r_fr6_77,fr22_x6).
body(r_fr6_77,fr6_r2).
head(r_fr6_78,fr22_x6).
body(r_fr6_78,fr2_f1).
body(r_fr6_78,fr13_z1).
body(r_fr6_78,fr6_x1).
head(r_fr6_79,fr22_x6).
body(r_fr6_79,fr6_r2).
body(r_fr6_79,fr6_t2).
body(r_fr6_79,fr6_u1).
body(r_fr6_79,fr6_y1).
head(r_fr6_80,fr22_x6).
body(r_fr6_80,fr6_e1).
body(r_fr6_80,fr6_q1).
head(r_fr6_81,fr22_x6).
body(r_fr6_81,fr25_e2).
body(r_fr6_81,fr6_q1).
body(r_fr6_81,fr6_r2).
body(r_fr6_81,fr6_s1).
body(r_fr6_81,fr16_w3).
head(r_fr6_82,fr16_w3).
body(r_fr6_82,fr13_c1).
body(r_fr6_82,fr6_b3).
body(r_fr6_82,fr20_b1).
body(r_fr6_82,fr6_r2).
body(r_fr6_82,fr6_u1).
body(r_fr6_82,fr6_w1).
head(r_fr6_83,fr16_w3).
head(r_fr6_84,fr16_w3).
body(r_fr6_84,fr6_c2).
body(r_fr6_84,fr6_d1).
body(r_fr6_84,fr6_u1).
body(r_fr6_84,fr6_y1).
head(r_fr6_85,fr16_w3).
body(r_fr6_85,fr6_e2).
head(r_fr6_86,fr16_w3).
body(r_fr6_86,fr2_f1).
body(r_fr6_86,fr13_c1).
body(r_fr6_86,fr25_e2).
body(r_fr6_86,fr6_u1).
head(r_fr6_87,fr16_w3).
body(r_fr6_87,fr6_w1).
head(r_fr6_88,fr16_w3).
body(r_fr6_88,fr24_e1).
body(r_fr6_88,fr20_b1).
body(r_fr6_88,fr6_e2).
body(r_fr6_88,fr6_s1).
body(r_fr6_88,fr6_y1).
head(r_fr6_89,fr16_w3).
body(r_fr6_89,fr2_f1).
body(r_fr6_89,fr6_a2).
body(r_fr6_89,fr6_t1).
head(r_fr6_90,fr16_w3).
body(r_fr6_90,fr9_c1).
head(r_fr6_91,fr16_w3).
body(r_fr6_91,fr6_c2).
head(r_fr6_92,fr16_w3).
body(r_fr6_92,fr6_a2).
body(r_fr6_92,fr6_e1).
body(r_fr6_92,fr6_r2).
body(r_fr6_92,fr6_x1).
head(r_fr6_93,fr16_w3).
body(r_fr6_93,fr6_s1).
body(r_fr6_93,fr6_t2).
head(r_fr6_94,fr16_w3).
body(r_fr6_94,fr6_b2).
body(r_fr6_94,fr24_e1).
body(r_fr6_94,fr20_b1).
body(r_fr6_94,fr13_z1).
body(r_fr6_94,fr6_t2).
body(r_fr6_94,fr6_z1).
head(r_fr6_95,fr16_w3).
body(r_fr6_95,fr6_a2).
body(r_fr6_95,fr24_e1).
body(r_fr6_95,fr6_e2).
body(r_fr6_95,fr7_w1).
body(r_fr6_95,fr6_s1).
head(r_fr6_96,fr16_w3).
body(r_fr6_96,fr2_f1).
body(r_fr6_96,fr6_b2).
body(r_fr6_96,fr24_e1).
body(r_fr6_96,fr6_f2).
head(r_fr6_97,fr6_v2).
body(r_fr6_97,fr6_t2).
head(r_fr6_98,fr6_v2).
body(r_fr6_98,fr6_p3).
body(r_fr6_98,fr7_w1).
body(r_fr6_98,fr6_y1).
head(r_fr6_99,fr6_v2).
body(r_fr6_99,fr6_z1).
head(r_fr6_100,fr6_v2).
body(r_fr6_100,fr6_w1).
head(r_fr6_101,fr6_v2).
body(r_fr6_101,fr25_e2).
body(r_fr6_101,fr6_e2).
body(r_fr6_101,fr2_a1).
body(r_fr6_101,fr13_z1).
body(r_fr6_101,fr7_w1).
head(r_fr6_102,fr6_v2).
body(r_fr6_102,fr13_z1).
body(r_fr6_102,fr6_q1).
body(r_fr6_102,fr6_w2).
head(r_fr6_103,fr6_v2).
body(r_fr6_103,fr6_e1).
body(r_fr6_103,fr6_p3).
body(r_fr6_103,fr6_w1).
head(r_fr6_104,fr6_v2).
body(r_fr6_104,fr6_d1).
body(r_fr6_104,fr6_e1).
body(r_fr6_104,fr13_z1).
body(r_fr6_104,fr6_p3).
head(r_fr6_105,fr6_v2).
body(r_fr6_105,fr13_c1).
body(r_fr6_105,fr6_e1).
body(r_fr6_105,fr6_x1).
head(r_fr6_106,fr6_v2).
body(r_fr6_106,fr25_e2).
body(r_fr6_106,fr24_e1).
body(r_fr6_106,fr6_u1).
head(r_fr6_107,fr6_v2).
body(r_fr6_107,fr6_a2).
head(r_fr6_108,fr6_v2).
body(r_fr6_108,fr6_a2).
body(r_fr6_108,fr6_e1).
body(r_fr6_108,fr6_q1).
body(r_fr6_108,fr6_r3).
head(r_fr6_109,fr6_v2).
head(r_fr6_110,fr6_v2).
body(r_fr6_110,fr6_a2).
body(r_fr6_110,fr6_b2).
body(r_fr6_110,fr24_e1).
body(r_fr6_110,fr7_w1).
body(r_fr6_110,fr6_t1).
head(r_fr6_111,fr6_v2).
body(r_fr6_111,fr9_c1).
body(r_fr6_111,fr6_b2).
body(r_fr6_111,fr6_q1).
head(r_fr6_112,fr6_r2).
body(r_fr6_112,fr6_a2).
body(r_fr6_112,fr6_b3).
body(r_fr6_112,fr20_b1).
body(r_fr6_112,fr6_e1).
body(r_fr6_112,fr6_e2).
body(r_fr6_112,fr6_w2).
head(r_fr6_113,fr6_r2).
body(r_fr6_113,fr6_q1).
body(r_fr6_113,fr6_r3).
body(r_fr6_113,fr6_s1).
body(r_fr6_113,fr23_t3).
head(r_fr6_114,fr6_r2).
body(r_fr6_114,fr7_w1).
head(r_fr6_115,fr6_r2).
body(r_fr6_115,fr2_f1).
body(r_fr6_115,fr6_a2).
body(r_fr6_115,fr6_d1).
head(r_fr6_116,fr6_r2).
body(r_fr6_116,fr6_d1).
head(r_fr6_117,fr6_r2).
body(r_fr6_117,fr6_c2).
body(r_fr6_117,fr6_p3).
body(r_fr6_117,fr6_t2).
body(r_fr6_117,fr6_y1).
head(r_fr6_118,fr6_r2).
body(r_fr6_118,fr13_z1).
body(r_fr6_118,fr6_w2).
body(r_fr6_118,fr6_y1).
head(r_fr6_119,fr6_r2).
body(r_fr6_119,fr6_a2).
body(r_fr6_119,fr6_z1).
head(r_fr6_120,fr6_r2).
body(r_fr6_120,fr6_a2).
body(r_fr6_120,fr9_c1).
body(r_fr6_120,fr25_e2).
body(r_fr6_120,fr6_c2).
body(r_fr6_120,fr6_w1).
head(r_fr6_121,fr6_r2).
body(r_fr6_121,fr13_z1).
body(r_fr6_121,fr6_q1).
body(r_fr6_121,fr7_w1).
body(r_fr6_121,fr6_y1).
head(r_fr6_122,fr6_r2).
head(r_fr6_123,fr6_r2).
body(r_fr6_123,fr2_f1).
body(r_fr6_123,fr6_b3).
body(r_fr6_123,fr6_d1).
body(r_fr6_123,fr7_w1).
head(r_fr6_124,fr6_r2).
body(r_fr6_124,fr25_e2).
body(r_fr6_124,fr6_p3).
body(r_fr6_124,fr6_s1).
body(r_fr6_124,fr6_u1).
body(r_fr6_124,fr6_w2).
body(r_fr6_124,fr6_z1).
head(r_fr6_125,fr6_r2).
body(r_fr6_125,fr6_r3).
body(r_fr6_125,fr6_u1).
body(r_fr6_125,fr6_y1).
head(r_fr6_126,fr6_r2).
body(r_fr6_126,fr6_a2).
body(r_fr6_126,fr6_b3).
body(r_fr6_126,fr6_c2).
body(r_fr6_126,fr24_e1).
body(r_fr6_126,fr6_d1).
body(r_fr6_126,fr6_w1).
head(r_fr6_127,fr6_r2).
body(r_fr6_127,fr2_f1).
body(r_fr6_127,fr13_c1).
body(r_fr6_127,fr6_b2).
body(r_fr6_127,fr24_e1).
body(r_fr6_127,fr6_p3).
head(r_fr6_128,fr7_w1).
body(r_fr6_128,fr9_c1).
body(r_fr6_128,fr20_b1).
head(r_fr6_129,fr7_w1).
body(r_fr6_129,fr6_d1).
head(r_fr6_130,fr7_w1).
body(r_fr6_130,fr9_c1).
body(r_fr6_130,fr6_c2).
body(r_fr6_130,fr6_e1).
body(r_fr6_130,fr2_a1).
body(r_fr6_130,fr6_r3).
head(r_fr6_131,fr7_w1).
body(r_fr6_131,fr2_f1).
body(r_fr6_131,fr6_e1).
body(r_fr6_131,fr6_u1).
body(r_fr6_131,fr6_w1).
body(r_fr6_131,fr6_w2).
head(r_fr6_132,fr7_w1).
body(r_fr6_132,fr6_a2).
body(r_fr6_132,fr9_c1).
body(r_fr6_132,fr25_e2).
body(r_fr6_132,fr6_r3).
head(r_fr6_133,fr7_w1).
body(r_fr6_133,fr2_a1).
body(r_fr6_133,fr7_w1).
body(r_fr6_133,fr6_t2).
body(r_fr6_133,fr23_t3).
body(r_fr6_133,fr6_w2).
body(r_fr6_133,fr6_z1).
head(r_fr6_134,fr7_w1).
body(r_fr6_134,fr6_b3).
body(r_fr6_134,fr25_e2).
body(r_fr6_134,fr6_c2).
body(r_fr6_134,fr24_e1).
body(r_fr6_134,fr2_a1).
head(r_fr6_135,fr7_w1).
body(r_fr6_135,fr2_f1).
head(r_fr6_136,fr7_w1).
body(r_fr6_136,fr9_c1).
body(r_fr6_136,fr25_e2).
head(r_fr6_137,fr7_w1).
body(r_fr6_137,fr7_w1).
body(r_fr6_137,fr6_t2).
body(r_fr6_137,fr6_w1).
body(r_fr6_137,fr6_y1).
head(r_fr6_138,fr7_w1).
body(r_fr6_138,fr7_w1).
body(r_fr6_138,fr6_t1).
head(r_fr6_139,fr7_w1).
body(r_fr6_139,fr25_e2).
body(r_fr6_139,fr20_b1).
body(r_fr6_139,fr6_e1).
body(r_fr6_139,fr7_w1).
body(r_fr6_139,fr6_t1).
body(r_fr6_139,fr6_u1).
head(r_fr6_140,fr7_w1).
body(r_fr6_140,fr24_e1).
body(r_fr6_140,fr2_a1).
body(r_fr6_140,fr6_q1).
body(r_fr6_140,fr6_r3).
head(r_fr6_141,fr7_w1).
body(r_fr6_141,fr6_a2).
body(r_fr6_141,fr13_c1).
body(r_fr6_141,fr25_e2).
body(r_fr6_141,fr24_e1).
body(r_fr6_141,fr6_e2).
head(r_fr6_142,fr7_w1).
body(r_fr6_142,fr13_z1).
body(r_fr6_142,fr6_t1).
body(r_fr6_142,fr6_t2).
head(r_fr6_143,fr6_t1).
body(r_fr6_143,fr2_a1).
body(r_fr6_143,fr6_t2).
body(r_fr6_143,fr23_t3).
head(r_fr6_144,fr6_t1).
body(r_fr6_144,fr7_w1).
head(r_fr6_145,fr6_t1).
body(r_fr6_145,fr6_d1).
body(r_fr6_145,fr20_b1).
body(r_fr6_145,fr2_a1).
body(r_fr6_145,fr6_u1).
body(r_fr6_145,fr6_x1).
head(r_fr6_146,fr6_t1).
body(r_fr6_146,fr6_d1).
body(r_fr6_146,fr23_t3).
head(r_fr6_147,fr6_t1).
body(r_fr6_147,fr6_a2).
body(r_fr6_147,fr6_b2).
body(r_fr6_147,fr6_b3).
body(r_fr6_147,fr6_d1).
body(r_fr6_147,fr20_b1).
body(r_fr6_147,fr6_e2).
head(r_fr6_148,fr6_t1).
body(r_fr6_148,fr13_c1).
body(r_fr6_148,fr24_e1).
head(r_fr6_149,fr6_t1).
body(r_fr6_149,fr13_c1).
body(r_fr6_149,fr9_c1).
body(r_fr6_149,fr6_d1).
head(r_fr6_150,fr6_t1).
body(r_fr6_150,fr6_b3).
body(r_fr6_150,fr6_d1).
body(r_fr6_150,fr6_y1).
head(r_fr6_151,fr6_t1).
body(r_fr6_151,fr13_z1).
body(r_fr6_151,fr6_r3).
body(r_fr6_151,fr6_w2).
body(r_fr6_151,fr6_y1).
head(r_fr6_152,fr6_t1).
body(r_fr6_152,fr6_b2).
body(r_fr6_152,fr2_a1).
body(r_fr6_152,fr6_u1).
head(r_fr6_153,fr6_t1).
body(r_fr6_153,fr6_b3).
body(r_fr6_153,fr25_e2).
body(r_fr6_153,fr6_f2).
head(r_fr6_154,fr6_t1).
body(r_fr6_154,fr6_p3).
body(r_fr6_154,fr6_t2).
body(r_fr6_154,fr6_u1).
body(r_fr6_154,fr6_w1).
body(r_fr6_154,fr6_w2).
body(r_fr6_154,fr6_z1).
head(r_fr6_155,fr6_t1).
head(r_fr6_156,fr6_t1).
body(r_fr6_156,fr6_b2).
body(r_fr6_156,fr20_b1).
body(r_fr6_156,fr6_q1).
body(r_fr6_156,fr7_w1).
body(r_fr6_156,fr6_x1).
body(r_fr6_156,fr6_y1).
head(r_fr6_157,fr6_t1).
body(r_fr6_157,fr6_f2).
body(r_fr6_157,fr6_q1).
body(r_fr6_157,fr6_s1).
body(r_fr6_157,fr6_t2).
body(r_fr6_157,fr6_y1).
head(r_fr6_158,fr6_t1).
body(r_fr6_158,fr6_e2).
body(r_fr6_158,fr6_p3).
body(r_fr6_158,fr6_q1).
body(r_fr6_158,fr6_s1).
body(r_fr6_158,fr6_y1).
head(r_fr6_159,fr6_p3).
body(r_fr6_159,fr7_w1).
body(r_fr6_159,fr6_w2).
body(r_fr6_159,fr6_y1).
body(r_fr6_159,fr6_z1).
head(r_fr6_160,fr6_p3).
body(r_fr6_160,fr6_f2).
body(r_fr6_160,fr13_z1).
body(r_fr6_160,fr7_w1).
body(r_fr6_160,fr6_r3).
head(r_fr6_161,fr6_p3).
body(r_fr6_161,fr25_e2).
body(r_fr6_161,fr6_e1).
body(r_fr6_161,fr6_e2).
body(r_fr6_161,fr6_r3).
body(r_fr6_161,fr6_u1).
head(r_fr6_162,fr6_p3).
body(r_fr6_162,fr2_f1).
body(r_fr6_162,fr9_c1).
body(r_fr6_162,fr6_c2).
body(r_fr6_162,fr24_e1).
body(r_fr6_162,fr7_w1).
body(r_fr6_162,fr6_x1).
head(r_fr6_163,fr6_p3).
body(r_fr6_163,fr25_e2).
body(r_fr6_163,fr6_c2).
body(r_fr6_163,fr24_e1).
body(r_fr6_163,fr6_d1).
body(r_fr6_163,fr2_a1).
body(r_fr6_163,fr6_f2).
head(r_fr6_164,fr6_p3).
body(r_fr6_164,fr6_b2).
body(r_fr6_164,fr7_w1).
body(r_fr6_164,fr6_r3).
body(r_fr6_164,fr6_t2).
body(r_fr6_164,fr23_t3).
body(r_fr6_164,fr6_z1).
head(r_fr6_165,fr6_p3).
body(r_fr6_165,fr6_z1).
head(r_fr6_166,fr6_p3).
body(r_fr6_166,fr6_e2).
body(r_fr6_166,fr7_w1).
head(r_fr6_167,fr6_p3).
body(r_fr6_167,fr13_c1).
body(r_fr6_167,fr6_e1).
body(r_fr6_167,fr6_f2).
body(r_fr6_167,fr6_w1).
head(r_fr6_168,fr6_p3).
body(r_fr6_168,fr9_c1).
head(r_fr6_169,fr6_p3).
body(r_fr6_169,fr13_c1).
head(r_fr6_170,fr6_p3).
body(r_fr6_170,fr7_w1).
body(r_fr6_170,fr6_r3).
body(r_fr6_170,fr6_s1).
body(r_fr6_170,fr6_t2).
body(r_fr6_170,fr6_w2).
body(r_fr6_170,fr6_x1).
head(r_fr6_171,fr6_p3).
body(r_fr6_171,fr2_f1).
body(r_fr6_171,fr6_a2).
body(r_fr6_171,fr9_c1).
body(r_fr6_171,fr6_e2).
body(r_fr6_171,fr2_a1).
body(r_fr6_171,fr6_s1).
head(r_fr6_172,fr6_p3).
body(r_fr6_172,fr6_b2).
body(r_fr6_172,fr25_e2).
head(r_fr6_173,fr6_p3).
body(r_fr6_173,fr6_w1).
body(r_fr6_173,fr6_z1).
head(r_fr6_174,fr6_p3).
head(r_fr6_175,fr6_p3).
body(r_fr6_175,fr6_a2).
body(r_fr6_175,fr6_e1).
head(r_fr6_176,fr6_x1).
body(r_fr6_176,fr6_a2).
body(r_fr6_176,fr9_c1).
body(r_fr6_176,fr20_b1).
head(r_fr6_177,fr6_x1).
body(r_fr6_177,fr6_c2).
body(r_fr6_177,fr6_q1).
body(r_fr6_177,fr7_w1).
body(r_fr6_177,fr6_r3).
body(r_fr6_177,fr6_s1).
body(r_fr6_177,fr6_y1).
head(r_fr6_178,fr6_x1).
body(r_fr6_178,fr13_z1).
body(r_fr6_178,fr7_w1).
body(r_fr6_178,fr6_u1).
body(r_fr6_178,fr23_t3).
body(r_fr6_178,fr6_w1).
head(r_fr6_179,fr6_x1).
body(r_fr6_179,fr24_e1).
body(r_fr6_179,fr6_e2).
body(r_fr6_179,fr6_w2).
body(r_fr6_179,fr6_y1).
head(r_fr6_180,fr6_x1).
body(r_fr6_180,fr9_c1).
body(r_fr6_180,fr6_b2).
body(r_fr6_180,fr6_c2).
body(r_fr6_180,fr20_b1).
body(r_fr6_180,fr6_e1).
body(r_fr6_180,fr6_e2).
head(r_fr6_181,fr6_x1).
body(r_fr6_181,fr7_w1).
head(r_fr6_182,fr6_x1).
body(r_fr6_182,fr20_b1).
body(r_fr6_182,fr6_f2).
body(r_fr6_182,fr6_u1).
body(r_fr6_182,fr6_y1).
head(r_fr6_183,fr6_x1).
body(r_fr6_183,fr6_a2).
body(r_fr6_183,fr6_b2).
body(r_fr6_183,fr13_z1).
body(r_fr6_183,fr7_w1).
head(r_fr6_184,fr6_x1).
body(r_fr6_184,fr6_c2).
head(r_fr6_185,fr6_x1).
head(r_fr6_186,fr6_x1).
body(r_fr6_186,fr2_f1).
body(r_fr6_186,fr2_a1).
body(r_fr6_186,fr6_r3).
head(r_fr6_187,fr6_x1).
body(r_fr6_187,fr20_b1).
head(r_fr6_188,fr6_x1).
body(r_fr6_188,fr13_c1).
body(r_fr6_188,fr6_b2).
body(r_fr6_188,fr6_c2).
body(r_fr6_188,fr2_a1).
body(r_fr6_188,fr7_w1).
body(r_fr6_188,fr6_w1).
head(r_fr6_189,fr6_x1).
body(r_fr6_189,fr9_c1).
head(r_fr6_190,fr6_x1).
body(r_fr6_190,fr6_c2).
body(r_fr6_190,fr6_e1).
body(r_fr6_190,fr7_w1).
body(r_fr6_190,fr6_t2).
head(r_fr6_191,fr6_x1).
body(r_fr6_191,fr6_d1).
body(r_fr6_191,fr6_w1).
head(r_fr6_192,fr6_x1).
body(r_fr6_192,fr6_s1).
head(r_fr6_193,fr7_w1).
body(r_fr6_193,fr24_e1).
body(r_fr6_193,fr13_z1).
body(r_fr6_193,fr6_w2).
head(r_fr6_194,fr7_w1).
body(r_fr6_194,fr6_c2).
body(r_fr6_194,fr20_b1).
head(r_fr6_195,fr7_w1).
body(r_fr6_195,fr2_a1).
body(r_fr6_195,fr6_s1).
body(r_fr6_195,fr23_t3).
head(r_fr6_196,fr7_w1).
body(r_fr6_196,fr6_e2).
body(r_fr6_196,fr6_s1).
body(r_fr6_196,fr6_w2).
body(r_fr6_196,fr6_y1).
body(r_fr6_196,fr6_z1).
head(r_fr6_197,fr7_w1).
body(r_fr6_197,fr6_b3).
head(r_fr6_198,fr7_w1).
body(r_fr6_198,fr6_w1).
body(r_fr6_198,fr6_z1).
head(r_fr6_199,fr7_w1).
body(r_fr6_199,fr2_f1).
body(r_fr6_199,fr9_c1).
body(r_fr6_199,fr6_b2).
body(r_fr6_199,fr6_b3).
body(r_fr6_199,fr6_c2).
body(r_fr6_199,fr6_d1).
head(r_fr6_200,fr7_w1).
body(r_fr6_200,fr13_z1).
body(r_fr6_200,fr6_q1).
head(r_fr6_201,fr7_w1).
body(r_fr6_201,fr9_c1).
body(r_fr6_201,fr24_e1).
body(r_fr6_201,fr6_e2).
body(r_fr6_201,fr13_z1).
body(r_fr6_201,fr6_w2).
head(r_fr6_202,fr7_w1).
body(r_fr6_202,fr13_c1).
body(r_fr6_202,fr6_d1).
body(r_fr6_202,fr2_a1).
body(r_fr6_202,fr6_f2).
head(r_fr6_203,fr7_w1).
head(r_fr6_204,fr7_w1).
body(r_fr6_204,fr6_q1).
body(r_fr6_204,fr7_w1).
body(r_fr6_204,fr23_t3).
head(r_fr6_205,fr7_w1).
body(r_fr6_205,fr6_b2).
body(r_fr6_205,fr24_e1).
body(r_fr6_205,fr6_f2).
body(r_fr6_205,fr6_r3).
head(r_fr6_206,fr7_w1).
body(r_fr6_206,fr6_w2).
head(r_fr6_207,fr6_u1).
body(r_fr6_207,fr20_b1).
body(r_fr6_207,fr6_e1).
body(r_fr6_207,fr2_a1).
head(r_fr6_208,fr6_u1).
head(r_fr6_209,fr6_u1).
body(r_fr6_209,fr13_z1).
body(r_fr6_209,fr7_w1).
body(r_fr6_209,fr6_s1).
body(r_fr6_209,fr23_t3).
head(r_fr6_210,fr6_u1).
body(r_fr6_210,fr2_f1).
body(r_fr6_210,fr13_c1).
body(r_fr6_210,fr6_e1).
head(r_fr6_211,fr6_u1).
body(r_fr6_211,fr13_c1).
body(r_fr6_211,fr6_d1).
body(r_fr6_211,fr6_e2).
body(r_fr6_211,fr6_f2).
head(r_fr6_212,fr6_u1).
body(r_fr6_212,fr6_q1).
body(r_fr6_212,fr7_w1).
head(r_fr6_213,fr6_u1).
body(r_fr6_213,fr6_d1).
body(r_fr6_213,fr6_w1).
body(r_fr6_213,fr6_z1).
head(r_fr6_214,fr6_u1).
body(r_fr6_214,fr6_a2).
body(r_fr6_214,fr25_e2).
body(r_fr6_214,fr6_t2).
body(r_fr6_214,fr6_w1).
body(r_fr6_214,fr6_y1).
head(r_fr6_215,fr6_u1).
body(r_fr6_215,fr6_r3).
body(r_fr6_215,fr6_s1).
body(r_fr6_215,fr6_w1).
head(r_fr6_216,fr6_u1).
body(r_fr6_216,fr6_f2).
head(r_fr6_217,fr6_u1).
body(r_fr6_217,fr2_f1).
body(r_fr6_217,fr6_e1).
body(r_fr6_217,fr7_w1).
body(r_fr6_217,fr6_w1).
body(r_fr6_217,fr6_z1).
head(r_fr6_218,fr6_u1).
body(r_fr6_218,fr2_f1).
body(r_fr6_218,fr24_e1).
body(r_fr6_218,fr13_z1).
head(r_fr6_219,fr6_u1).
body(r_fr6_219,fr6_e2).
body(r_fr6_219,fr6_s1).
body(r_fr6_219,fr6_y1).
head(r_fr6_220,fr6_u1).
body(r_fr6_220,fr2_f1).
body(r_fr6_220,fr13_c1).
body(r_fr6_220,fr24_e1).
body(r_fr6_220,fr6_w2).
head(r_fr6_221,fr6_u1).
body(r_fr6_221,fr6_a2).
body(r_fr6_221,fr13_c1).
body(r_fr6_221,fr6_b3).
body(r_fr6_221,fr7_w1).
body(r_fr6_221,fr6_s1).
body(r_fr6_221,fr23_t3).
head(r_fr6_222,fr6_s1).
body(r_fr6_222,fr2_a1).
body(r_fr6_222,fr6_q1).
body(r_fr6_222,fr7_w1).
body(r_fr6_222,fr6_z1).
head(r_fr6_223,fr6_s1).
body(r_fr6_223,fr9_c1).
body(r_fr6_223,fr24_e1).
body(r_fr6_223,fr6_f2).
body(r_fr6_223,fr7_w1).
head(r_fr6_224,fr6_s1).
body(r_fr6_224,fr24_e1).
body(r_fr6_224,fr13_z1).
head(r_fr6_225,fr6_s1).
body(r_fr6_225,fr13_z1).
body(r_fr6_225,fr7_w1).
body(r_fr6_225,fr23_t3).
body(r_fr6_225,fr6_w2).
body(r_fr6_225,fr6_z1).
head(r_fr6_226,fr6_s1).
body(r_fr6_226,fr6_a2).
body(r_fr6_226,fr6_b3).
body(r_fr6_226,fr24_e1).
head(r_fr6_227,fr6_s1).
body(r_fr6_227,fr13_c1).
body(r_fr6_227,fr24_e1).
body(r_fr6_227,fr13_z1).
body(r_fr6_227,fr6_t2).
body(r_fr6_227,fr6_w1).
body(r_fr6_227,fr6_w2).
head(r_fr6_228,fr6_s1).
body(r_fr6_228,fr2_f1).
body(r_fr6_228,fr24_e1).
body(r_fr6_228,fr7_w1).
body(r_fr6_228,fr6_r3).
body(r_fr6_228,fr23_t3).
body(r_fr6_228,fr6_w1).
head(r_fr6_229,fr6_s1).
body(r_fr6_229,fr6_b2).
body(r_fr6_229,fr23_t3).
body(r_fr6_229,fr6_y1).
body(r_fr6_229,fr6_z1).
head(r_fr6_230,fr6_s1).
body(r_fr6_230,fr6_a2).
body(r_fr6_230,fr6_t2).
body(r_fr6_230,fr23_t3).
head(r_fr6_231,fr6_s1).
body(r_fr6_231,fr2_f1).
body(r_fr6_231,fr6_b2).
body(r_fr6_231,fr6_e1).
body(r_fr6_231,fr6_f2).
body(r_fr6_231,fr7_w1).
head(r_fr6_232,fr6_s1).
body(r_fr6_232,fr25_e2).
body(r_fr6_232,fr6_r3).
body(r_fr6_232,fr6_t2).
body(r_fr6_232,fr6_y1).
head(r_fr6_233,fr6_s1).
head(r_fr6_234,fr6_s1).
body(r_fr6_234,fr6_b2).
body(r_fr6_234,fr6_c2).
body(r_fr6_234,fr6_e1).
head(r_fr6_235,fr6_s1).
body(r_fr6_235,fr6_a2).
body(r_fr6_235,fr25_e2).
body(r_fr6_235,fr6_e1).
body(r_fr6_235,fr2_a1).
body(r_fr6_235,fr6_f2).
head(r_fr6_236,fr6_s1).
body(r_fr6_236,fr2_f1).
body(r_fr6_236,fr6_w1).
body(r_fr6_236,fr6_y1).
head(r_fr6_237,fr6_r3).
body(r_fr6_237,fr6_b2).
body(r_fr6_237,fr24_e1).
body(r_fr6_237,fr20_b1).
body(r_fr6_237,fr13_z1).
body(r_fr6_237,fr6_t2).
head(r_fr6_238,fr6_r3).
body(r_fr6_238,fr2_f1).
body(r_fr6_238,fr6_c2).
body(r_fr6_238,fr6_d1).
body(r_fr6_238,fr6_q1).
body(r_fr6_238,fr6_w1).
head(r_fr6_239,fr6_r3).
body(r_fr6_239,fr9_c1).
body(r_fr6_239,fr6_b2).
body(r_fr6_239,fr25_e2).
head(r_fr6_240,fr6_r3).
body(r_fr6_240,fr2_f1).
body(r_fr6_240,fr6_d1).
body(r_fr6_240,fr6_e1).
body(r_fr6_240,fr6_e2).
body(r_fr6_240,fr6_t2).
body(r_fr6_240,fr6_w2).
head(r_fr6_241,fr6_r3).
body(r_fr6_241,fr6_a2).
head(r_fr6_242,fr6_r3).
body(r_fr6_242,fr13_z1).
body(r_fr6_242,fr6_q1).
body(r_fr6_242,fr7_w1).
body(r_fr6_242,fr23_t3).
body(r_fr6_242,fr6_z1).
head(r_fr6_243,fr6_r3).
body(r_fr6_243,fr24_e1).
body(r_fr6_243,fr6_d1).
head(r_fr6_244,fr6_r3).
body(r_fr6_244,fr13_z1).
head(r_fr6_245,fr6_r3).
body(r_fr6_245,fr6_c2).
body(r_fr6_245,fr6_e1).
head(r_fr6_246,fr6_r3).
body(r_fr6_246,fr2_a1).
body(r_fr6_246,fr6_f2).
head(r_fr6_247,fr6_r3).
body(r_fr6_247,fr7_w1).
head(r_fr6_248,fr6_r3).
body(r_fr6_248,fr25_e2).
body(r_fr6_248,fr2_a1).
body(r_fr6_248,fr6_t2).
head(r_fr6_249,fr6_r3).
body(r_fr6_249,fr6_a2).
body(r_fr6_249,fr6_e1).
body(r_fr6_249,fr6_f2).
body(r_fr6_249,fr23_t3).
head(r_fr6_250,fr6_r3).
body(r_fr6_250,fr9_c1).
body(r_fr6_250,fr24_e1).
body(r_fr6_250,fr6_e1).
body(r_fr6_250,fr7_w1).
body(r_fr6_250,fr23_t3).
body(r_fr6_250,fr6_w2).
head(r_fr6_251,fr6_r3).
body(r_fr6_251,fr6_b3).
body(r_fr6_251,fr2_a1).
head(r_fr6_252,fr6_r3).
head(r_fr6_253,fr6_r3).
body(r_fr6_253,fr2_a1).
head(r_fr6_254,fr6_z1).
body(r_fr6_254,fr6_a2).
body(r_fr6_254,fr7_w1).
head(r_fr6_255,fr6_z1).
body(r_fr6_255,fr6_b2).
body(r_fr6_255,fr25_e2).
body(r_fr6_255,fr6_e1).
body(r_fr6_255,fr6_f2).
body(r_fr6_255,fr6_q1).
body(r_fr6_255,fr6_t2).
head(r_fr6_256,fr6_z1).
body(r_fr6_256,fr13_z1).
body(r_fr6_256,fr7_w1).
body(r_fr6_256,fr23_t3).
body(r_fr6_256,fr6_w1).
body(r_fr6_256,fr6_w2).
head(r_fr6_257,fr6_z1).
body(r_fr6_257,fr9_c1).
body(r_fr6_257,fr6_e1).
body(r_fr6_257,fr13_z1).
body(r_fr6_257,fr7_w1).
body(r_fr6_257,fr23_t3).
head(r_fr6_258,fr6_z1).
body(r_fr6_258,fr6_d1).
body(r_fr6_258,fr20_b1).
body(r_fr6_258,fr6_q1).
body(r_fr6_258,fr6_t2).
head(r_fr6_259,fr6_z1).
body(r_fr6_259,fr2_f1).
body(r_fr6_259,fr6_e2).
head(r_fr6_260,fr6_z1).
body(r_fr6_260,fr25_e2).
head(r_fr6_261,fr6_z1).
body(r_fr6_261,fr6_c2).
body(r_fr6_261,fr13_z1).
body(r_fr6_261,fr23_t3).
body(r_fr6_261,fr6_w2).
body(r_fr6_261,fr6_y1).
head(r_fr6_262,fr6_z1).
body(r_fr6_262,fr2_f1).
body(r_fr6_262,fr6_a2).
body(r_fr6_262,fr9_c1).
body(r_fr6_262,fr6_b2).
body(r_fr6_262,fr25_e2).
head(r_fr6_263,fr6_z1).
body(r_fr6_263,fr25_e2).
body(r_fr6_263,fr6_d1).
body(r_fr6_263,fr6_e1).
body(r_fr6_263,fr23_t3).
body(r_fr6_263,fr6_w1).
head(r_fr6_264,fr6_z1).
head(r_fr6_265,fr6_z1).
body(r_fr6_265,fr9_c1).
body(r_fr6_265,fr6_c2).
body(r_fr6_265,fr20_b1).
head(r_fr6_266,fr6_z1).
body(r_fr6_266,fr6_b3).
body(r_fr6_266,fr6_c2).
body(r_fr6_266,fr24_e1).
body(r_fr6_266,fr6_y1).
head(r_fr6_267,fr6_z1).
body(r_fr6_267,fr20_b1).
body(r_fr6_267,fr6_f2).
body(r_fr6_267,fr6_t2).
body(r_fr6_267,fr23_t3).
body(r_fr6_267,fr6_w2).
body(r_fr6_267,fr6_y1).
head(r_fr6_268,fr7_w1).
body(r_fr6_268,fr6_q1).
body(r_fr6_268,fr6_t2).
body(r_fr6_268,fr23_t3).
head(r_fr6_269,fr7_w1).
body(r_fr6_269,fr6_b2).
body(r_fr6_269,fr6_c2).
body(r_fr6_269,fr6_e1).
body(r_fr6_269,fr13_z1).
head(r_fr6_270,fr7_w1).
body(r_fr6_270,fr25_e2).
body(r_fr6_270,fr6_d1).
head(r_fr6_271,fr7_w1).
body(r_fr6_271,fr9_c1).
body(r_fr6_271,fr13_z1).
body(r_fr6_271,fr6_t2).
body(r_fr6_271,fr6_w2).
head(r_fr6_272,fr7_w1).
body(r_fr6_272,fr25_e2).
body(r_fr6_272,fr2_a1).
body(r_fr6_272,fr13_z1).
body(r_fr6_272,fr6_q1).
body(r_fr6_272,fr6_w2).
body(r_fr6_272,fr6_y1).
head(r_fr6_273,fr7_w1).
head(r_fr6_274,fr7_w1).
body(r_fr6_274,fr2_f1).
body(r_fr6_274,fr13_z1).
body(r_fr6_274,fr6_t2).
body(r_fr6_274,fr23_t3).
body(r_fr6_274,fr6_w1).
body(r_fr6_274,fr6_y1).
head(r_fr6_275,fr7_w1).
body(r_fr6_275,fr9_c1).
body(r_fr6_275,fr6_b3).
body(r_fr6_275,fr6_c2).
body(r_fr6_275,fr6_q1).
head(r_fr6_276,fr7_w1).
body(r_fr6_276,fr6_q1).
body(r_fr6_276,fr6_t2).
body(r_fr6_276,fr23_t3).
body(r_fr6_276,fr6_w2).
body(r_fr6_276,fr6_y1).
head(r_fr6_277,fr7_w1).
body(r_fr6_277,fr9_c1).
body(r_fr6_277,fr6_e2).
body(r_fr6_277,fr6_f2).
head(r_fr6_278,fr7_w1).
body(r_fr6_278,fr13_z1).
body(r_fr6_278,fr6_q1).
body(r_fr6_278,fr6_w2).
body(r_fr6_278,fr6_y1).
head(r_fr6_279,fr7_w1).
body(r_fr6_279,fr23_t3).
head(r_fr6_280,fr7_w1).
body(r_fr6_280,fr6_q1).
head(r_fr6_281,fr7_w1).
body(r_fr6_281,fr6_b3).
head(r_fr6_282,fr7_w1).
body(r_fr6_282,fr6_c2).
body(r_fr6_282,fr6_f2).
head(r_fr6_283,fr13_z1).
body(r_fr6_283,fr13_c1).
body(r_fr6_283,fr6_q1).
body(r_fr6_283,fr6_t2).
body(r_fr6_283,fr23_t3).
body(r_fr6_283,fr6_y1).
head(r_fr6_284,fr13_z1).
body(r_fr6_284,fr6_w2).
head(r_fr6_285,fr13_z1).
body(r_fr6_285,fr6_q1).
body(r_fr6_285,fr6_t2).
body(r_fr6_285,fr23_t3).
body(r_fr6_285,fr6_w1).
body(r_fr6_285,fr6_w2).
body(r_fr6_285,fr6_y1).
head(r_fr6_286,fr13_z1).
body(r_fr6_286,fr9_c1).
body(r_fr6_286,fr6_b2).
body(r_fr6_286,fr6_c2).
body(r_fr6_286,fr2_a1).
body(r_fr6_286,fr6_w2).
head(r_fr6_287,fr13_z1).
body(r_fr6_287,fr6_t2).
head(r_fr6_288,fr13_z1).
body(r_fr6_288,fr6_f2).
head(r_fr6_289,fr13_z1).
body(r_fr6_289,fr6_b3).
body(r_fr6_289,fr2_a1).
body(r_fr6_289,fr6_w2).
body(r_fr6_289,fr6_y1).
head(r_fr6_290,fr13_z1).
body(r_fr6_290,fr9_c1).
body(r_fr6_290,fr6_c2).
body(r_fr6_290,fr6_d1).
body(r_fr6_290,fr6_q1).
body(r_fr6_290,fr6_w2).
body(r_fr6_290,fr6_y1).
head(r_fr6_291,fr13_z1).
body(r_fr6_291,fr6_w1).
head(r_fr6_292,fr13_z1).
body(r_fr6_292,fr6_b2).
body(r_fr6_292,fr25_e2).
body(r_fr6_292,fr6_f2).
body(r_fr6_292,fr6_t2).
body(r_fr6_292,fr6_w2).
body(r_fr6_292,fr6_y1).
head(r_fr6_293,fr13_z1).
body(r_fr6_293,fr6_b3).
body(r_fr6_293,fr6_c2).
body(r_fr6_293,fr20_b1).
body(r_fr6_293,fr6_q1).
head(r_fr6_294,fr13_z1).
body(r_fr6_294,fr6_w1).
body(r_fr6_294,fr6_y1).
head(r_fr6_295,fr13_z1).
body(r_fr6_295,fr20_b1).
head(r_fr6_296,fr13_z1).
body(r_fr6_296,fr6_b2).
body(r_fr6_296,fr6_c2).
body(r_fr6_296,fr20_b1).
body(r_fr6_296,fr6_e1).
body(r_fr6_296,fr6_e2).
body(r_fr6_296,fr6_f2).
head(r_fr6_297,fr13_z1).
head(r_fr6_298,fr23_t3).
body(r_fr6_298,fr2_f1).
body(r_fr6_298,fr9_c1).
body(r_fr6_298,fr24_e1).
body(r_fr6_298,fr6_f2).
head(r_fr6_299,fr23_t3).
body(r_fr6_299,fr24_e1).
body(r_fr6_299,fr6_d1).
body(r_fr6_299,fr6_t2).
body(r_fr6_299,fr6_w1).
head(r_fr6_300,fr23_t3).
body(r_fr6_300,fr20_b1).
body(r_fr6_300,fr6_q1).
body(r_fr6_300,fr6_t2).
body(r_fr6_300,fr6_w1).
body(r_fr6_300,fr6_w2).
body(r_fr6_300,fr6_y1).
head(r_fr6_301,fr23_t3).
body(r_fr6_301,fr2_f1).
body(r_fr6_301,fr6_c2).
body(r_fr6_301,fr2_a1).
body(r_fr6_301,fr6_t2).
body(r_fr6_301,fr6_w1).
head(r_fr6_302,fr23_t3).
body(r_fr6_302,fr6_b2).
body(r_fr6_302,fr20_b1).
body(r_fr6_302,fr2_a1).
head(r_fr6_303,fr23_t3).
body(r_fr6_303,fr24_e1).
body(r_fr6_303,fr6_e2).
body(r_fr6_303,fr2_a1).
body(r_fr6_303,fr6_f2).
head(r_fr6_304,fr23_t3).
body(r_fr6_304,fr6_a2).
body(r_fr6_304,fr9_c1).
body(r_fr6_304,fr6_b2).
body(r_fr6_304,fr6_e2).
body(r_fr6_304,fr6_t2).
head(r_fr6_305,fr23_t3).
body(r_fr6_305,fr6_b2).
body(r_fr6_305,fr6_b3).
head(r_fr6_306,fr23_t3).
body(r_fr6_306,fr9_c1).
head(r_fr6_307,fr23_t3).
body(r_fr6_307,fr6_a2).
body(r_fr6_307,fr6_b2).
body(r_fr6_307,fr6_b3).
body(r_fr6_307,fr25_e2).
body(r_fr6_307,fr6_e1).
body(r_fr6_307,fr6_e2).
head(r_fr6_308,fr23_t3).
head(r_fr6_309,fr23_t3).
body(r_fr6_309,fr6_b3).
body(r_fr6_309,fr24_e1).
body(r_fr6_309,fr6_w1).
body(r_fr6_309,fr6_w2).
head(r_fr6_310,fr23_t3).
body(r_fr6_310,fr6_w2).
body(r_fr6_310,fr6_y1).
head(r_fr6_311,fr23_t3).
body(r_fr6_311,fr9_c1).
body(r_fr6_311,fr6_b2).
body(r_fr6_311,fr6_c2).
body(r_fr6_311,fr20_b1).
body(r_fr6_311,fr6_e1).
body(r_fr6_311,fr6_w1).

assumption(fr7_a1).
assumption(fr7_b1).
assumption(fr7_c1).
assumption(fr7_d1).
assumption(fr9_c1).
assumption(fr7_f1).
contrary(fr7_a1,fr22_q5).
contrary(fr7_b1,fr7_q1).
contrary(fr7_c1,fr7_p1).
contrary(fr7_d1,fr7_y1).
contrary(fr9_c1,fr7_b1).
contrary(fr7_f1,fr7_w1).
head(r_fr7_0,fr7_v1).
body(r_fr7_0,fr7_a1).
body(r_fr7_0,fr7_d1).
head(r_fr7_1,fr7_v1).
head(r_fr7_2,fr7_s1).
head(r_fr7_3,fr7_s1).
body(r_fr7_3,fr7_y1).
head(r_fr7_4,fr19_y4).
body(r_fr7_4,fr7_q1).
body(r_fr7_4,fr7_s1).
head(r_fr7_5,fr19_y4).
body(r_fr7_5,fr11_z1).
head(r_fr7_6,fr7_y1).
head(r_fr7_7,fr7_y1).
body(r_fr7_7,fr19_y4).
head(r_fr7_8,fr22_q5).
head(r_fr7_9,fr22_q5).
body(r_fr7_9,fr9_c1).
body(r_fr7_9,fr7_x1).
head(r_fr7_10,fr11_z1).
body(r_fr7_10,fr7_a1).
body(r_fr7_10,fr7_v1).
head(r_fr7_11,fr11_z1).
body(r_fr7_11,fr7_d1).
body(r_fr7_11,fr9_c1).
head(r_fr7_12,fr7_p1).
body(r_fr7_12,fr7_f1).
body(r_fr7_12,fr7_s1).
head(r_fr7_13,fr7_p1).
head(r_fr7_14,fr7_x1).
head(r_fr7_15,fr7_x1).
body(r_fr7_15,fr7_b1).
body(r_fr7_15,fr7_c1).

assumption(fr8_a1).
assumption(fr14_e2).
assumption(fr8_c1).
assumption(fr7_f1).
assumption(fr8_e1).
assumption(fr8_f1).
assumption(fr8_a2).
assumption(fr8_b2).
assumption(fr8_c2).
assumption(fr8_d2).
assumption(fr9_c1).
assumption(fr8_f2).
assumption(fr25_a3).
assumption(fr24_e1).
assumption(fr2_a1).
contrary(fr8_a1,fr8_z2).
contrary(fr8_a2,fr22_u1).
contrary(fr25_a3,fr8_e1).
contrary(fr14_e2,fr8_p1).
contrary(fr8_b2,fr8_f1).
contrary(fr24_e1,fr22_u1).
contrary(fr8_c1,fr8_w2).
contrary(fr8_c2,fr8_z2).
contrary(fr2_a1,fr8_y1).
contrary(fr7_f1,fr8_x1).
contrary(fr8_d2,fr8_s2).
contrary(fr8_e1,fr8_v2).
contrary(fr9_c1,fr24_e1).
contrary(fr8_f1,fr8_b2).
contrary(fr8_f2,fr2_a1).
head(r_fr8_0,fr7_y1).
body(r_fr8_0,fr8_c2).
body(r_fr8_0,fr8_p3).
body(r_fr8_0,fr8_r3).
body(r_fr8_0,fr15_z2).
body(r_fr8_0,fr22_u1).
body(r_fr8_0,fr8_y1).
head(r_fr8_1,fr7_y1).
body(r_fr8_1,fr8_d2).
body(r_fr8_1,fr8_r3).
body(r_fr8_1,fr8_u1).
body(r_fr8_1,fr5_t2).
head(r_fr8_2,fr7_y1).
body(r_fr8_2,fr15_v3).
body(r_fr8_2,fr8_t1).
body(r_fr8_2,fr13_u1).
body(r_fr8_2,fr8_x2).
body(r_fr8_2,fr15_p2).
head(r_fr8_3,fr7_y1).
body(r_fr8_3,fr25_a3).
body(r_fr8_3,fr8_b2).
body(r_fr8_3,fr24_e1).
body(r_fr8_3,fr8_c1).
head(r_fr8_4,fr7_y1).
body(r_fr8_4,fr8_f1).
body(r_fr8_4,fr15_v3).
head(r_fr8_5,fr7_y1).
body(r_fr8_5,fr8_c1).
body(r_fr8_5,fr7_f1).
body(r_fr8_5,fr8_d2).
body(r_fr8_5,fr13_u1).
body(r_fr8_5,fr22_u1).
head(r_fr8_6,fr7_y1).
body(r_fr8_6,fr8_a1).
body(r_fr8_6,fr8_d2).
body(r_fr8_6,fr8_e1).
body(r_fr8_6,fr10_s2).
body(r_fr8_6,fr8_t1).
body(r_fr8_6,fr5_t2).
head(r_fr8_7,fr7_y1).
body(r_fr8_7,fr8_p3).
body(r_fr8_7,fr8_u2).
body(r_fr8_7,fr8_y1).
body(r_fr8_7,fr5_t2).
head(r_fr8_8,fr7_y1).
body(r_fr8_8,fr8_p3).
body(r_fr8_8,fr19_u3).
head(r_fr8_9,fr7_y1).
body(r_fr8_9,fr14_e2).
body(r_fr8_9,fr7_f1).
body(r_fr8_9,fr8_e1).
body(r_fr8_9,fr8_f2).
head(r_fr8_10,fr7_y1).
body(r_fr8_10,fr8_a2).
body(r_fr8_10,fr24_e1).
body(r_fr8_10,fr8_f1).
body(r_fr8_10,fr8_u2).
body(r_fr8_10,fr8_v2).
head(r_fr8_11,fr7_y1).
body(r_fr8_11,fr8_a2).
body(r_fr8_11,fr2_a1).
body(r_fr8_11,fr8_e1).
body(r_fr8_11,fr9_c1).
body(r_fr8_11,fr8_y1).
head(r_fr8_12,fr7_y1).
body(r_fr8_12,fr8_b2).
body(r_fr8_12,fr8_f2).
body(r_fr8_12,fr19_u3).
body(r_fr8_12,fr15_v3).
head(r_fr8_13,fr7_y1).
body(r_fr8_13,fr8_f2).
body(r_fr8_13,fr22_u1).
head(r_fr8_14,fr7_y1).
head(r_fr8_15,fr7_y1).
body(r_fr8_15,fr8_c1).
body(r_fr8_15,fr8_e1).
body(r_fr8_15,fr8_r3).
body(r_fr8_15,fr8_t1).
head(r_fr8_16,fr13_u1).
body(r_fr8_16,fr25_a3).
body(r_fr8_16,fr8_b2).
head(r_fr8_17,fr13_u1).
body(r_fr8_17,fr2_a1).
body(r_fr8_17,fr8_p1).
body(r_fr8_17,fr15_v3).
body(r_fr8_17,fr8_u1).
body(r_fr8_17,fr8_y1).
body(r_fr8_17,fr8_z2).
head(r_fr8_18,fr13_u1).
body(r_fr8_18,fr8_a2).
body(r_fr8_18,fr7_f1).
body(r_fr8_18,fr8_f2).
body(r_fr8_18,fr8_p3).
body(r_fr8_18,fr8_w2).
head(r_fr8_19,fr13_u1).
body(r_fr8_19,fr9_c1).
body(r_fr8_19,fr19_u3).
body(r_fr8_19,fr8_q3).
body(r_fr8_19,fr8_t1).
body(r_fr8_19,fr8_v2).
body(r_fr8_19,fr8_w2).
head(r_fr8_20,fr13_u1).
body(r_fr8_20,fr8_a2).
body(r_fr8_20,fr15_z2).
head(r_fr8_21,fr13_u1).
body(r_fr8_21,fr2_a1).
body(r_fr8_21,fr8_p3).
head(r_fr8_22,fr13_u1).
body(r_fr8_22,fr2_a1).
body(r_fr8_22,fr8_p2).
body(r_fr8_22,fr7_q1).
body(r_fr8_22,fr8_r3).
body(r_fr8_22,fr8_s2).
head(r_fr8_23,fr13_u1).
body(r_fr8_23,fr25_a3).
body(r_fr8_23,fr14_e2).
body(r_fr8_23,fr7_q1).
body(r_fr8_23,fr8_v2).
head(r_fr8_24,fr13_u1).
body(r_fr8_24,fr8_c2).
body(r_fr8_24,fr2_a1).
body(r_fr8_24,fr8_f2).
head(r_fr8_25,fr13_u1).
body(r_fr8_25,fr24_e1).
body(r_fr8_25,fr8_x2).
body(r_fr8_25,fr8_z2).
head(r_fr8_26,fr13_u1).
body(r_fr8_26,fr24_e1).
body(r_fr8_26,fr8_c1).
body(r_fr8_26,fr8_e1).
head(r_fr8_27,fr13_u1).
head(r_fr8_28,fr13_u1).
body(r_fr8_28,fr8_b2).
body(r_fr8_28,fr8_p1).
body(r_fr8_28,fr22_u1).
head(r_fr8_29,fr13_u1).
body(r_fr8_29,fr8_b2).
body(r_fr8_29,fr24_e1).
body(r_fr8_29,fr2_a1).
body(r_fr8_29,fr8_d2).
body(r_fr8_29,fr9_c1).
head(r_fr8_30,fr13_u1).
body(r_fr8_30,fr8_d2).
body(r_fr8_30,fr19_u3).
body(r_fr8_30,fr8_y1).
head(r_fr8_31,fr13_u1).
body(r_fr8_31,fr19_u3).
head(r_fr8_32,fr13_u1).
body(r_fr8_32,fr2_a1).
body(r_fr8_32,fr8_f1).
body(r_fr8_32,fr22_u1).
head(r_fr8_33,fr19_u3).
body(r_fr8_33,fr25_a3).
body(r_fr8_33,fr2_a1).
head(r_fr8_34,fr19_u3).
body(r_fr8_34,fr8_p1).
body(r_fr8_34,fr8_q3).
body(r_fr8_34,fr10_s2).
body(r_fr8_34,fr15_v3).
body(r_fr8_34,fr8_x1).
body(r_fr8_34,fr8_z2).
head(r_fr8_35,fr19_u3).
body(r_fr8_35,fr8_s2).
head(r_fr8_36,fr19_u3).
body(r_fr8_36,fr8_p1).
body(r_fr8_36,fr8_r3).
body(r_fr8_36,fr15_z2).
body(r_fr8_36,fr8_w2).
body(r_fr8_36,fr8_x2).
body(r_fr8_36,fr8_z2).
head(r_fr8_37,fr19_u3).
body(r_fr8_37,fr14_e2).
body(r_fr8_37,fr8_b2).
body(r_fr8_37,fr24_e1).
body(r_fr8_37,fr15_z2).
body(r_fr8_37,fr22_u1).
head(r_fr8_38,fr19_u3).
body(r_fr8_38,fr14_e2).
body(r_fr8_38,fr24_e1).
body(r_fr8_38,fr8_c1).
body(r_fr8_38,fr8_f2).
body(r_fr8_38,fr8_p3).
body(r_fr8_38,fr8_z2).
head(r_fr8_39,fr19_u3).
body(r_fr8_39,fr8_b2).
body(r_fr8_39,fr2_a1).
body(r_fr8_39,fr8_s2).
body(r_fr8_39,fr8_w2).
body(r_fr8_39,fr8_y1).
head(r_fr8_40,fr19_u3).
body(r_fr8_40,fr25_a3).
body(r_fr8_40,fr8_t1).
head(r_fr8_41,fr19_u3).
body(r_fr8_41,fr14_e2).
body(r_fr8_41,fr8_c1).
body(r_fr8_41,fr8_p2).
body(r_fr8_41,fr15_z2).
head(r_fr8_42,fr19_u3).
body(r_fr8_42,fr8_t1).
head(r_fr8_43,fr19_u3).
body(r_fr8_43,fr8_t1).
body(r_fr8_43,fr8_v2).
body(r_fr8_43,fr22_u1).
head(r_fr8_44,fr19_u3).
head(r_fr8_45,fr19_u3).
body(r_fr8_45,fr8_q3).
body(r_fr8_45,fr15_z2).
head(r_fr8_46,fr19_u3).
body(r_fr8_46,fr7_q1).
body(r_fr8_46,fr8_r3).
body(r_fr8_46,fr8_s2).
body(r_fr8_46,fr15_z2).
body(r_fr8_46,fr15_p2).
head(r_fr8_47,fr8_u2).
body(r_fr8_47,fr8_a2).
body(r_fr8_47,fr24_e1).
body(r_fr8_47,fr5_t2).
head(r_fr8_48,fr8_u2).
body(r_fr8_48,fr8_f1).
body(r_fr8_48,fr10_s2).
body(r_fr8_48,fr15_v3).
body(r_fr8_48,fr8_s2).
body(r_fr8_48,fr8_x1).
body(r_fr8_48,fr15_p2).
head(r_fr8_49,fr8_u2).
body(r_fr8_49,fr8_c2).
body(r_fr8_49,fr8_p1).
head(r_fr8_50,fr8_u2).
body(r_fr8_50,fr5_t2).
head(r_fr8_51,fr8_u2).
body(r_fr8_51,fr8_a2).
body(r_fr8_51,fr8_c2).
body(r_fr8_51,fr7_f1).
body(r_fr8_51,fr22_u1).
head(r_fr8_52,fr8_u2).
body(r_fr8_52,fr8_c1).
body(r_fr8_52,fr7_f1).
body(r_fr8_52,fr8_d2).
body(r_fr8_52,fr8_p1).
head(r_fr8_53,fr8_u2).
body(r_fr8_53,fr8_a2).
body(r_fr8_53,fr14_e2).
body(r_fr8_53,fr8_c2).
body(r_fr8_53,fr8_e1).
body(r_fr8_53,fr15_p2).
head(r_fr8_54,fr8_u2).
body(r_fr8_54,fr14_e2).
body(r_fr8_54,fr8_c2).
body(r_fr8_54,fr8_f1).
body(r_fr8_54,fr15_z2).
body(r_fr8_54,fr5_t2).
head(r_fr8_55,fr8_u2).
body(r_fr8_55,fr10_s2).
body(r_fr8_55,fr8_r3).
body(r_fr8_55,fr15_v3).
body(r_fr8_55,fr8_u1).
body(r_fr8_55,fr8_w2).
body(r_fr8_55,fr8_y1).
head(r_fr8_56,fr8_u2).
body(r_fr8_56,fr8_a1).
body(r_fr8_56,fr8_s2).
head(r_fr8_57,fr8_u2).
body(r_fr8_57,fr8_a1).
body(r_fr8_57,fr2_a1).
body(r_fr8_57,fr8_d2).
body(r_fr8_57,fr9_c1).
body(r_fr8_57,fr8_f1).
head(r_fr8_58,fr8_u2).
body(r_fr8_58,fr9_c1).
head(r_fr8_59,fr8_u2).
body(r_fr8_59,fr25_a3).
body(r_fr8_59,fr8_b2).
body(r_fr8_59,fr7_f1).
body(r_fr8_59,fr8_d2).
body(r_fr8_59,fr9_c1).
body(r_fr8_59,fr8_f2).
head(r_fr8_60,fr8_u2).
body(r_fr8_60,fr7_f1).
body(r_fr8_60,fr8_x2).
body(r_fr8_60,fr5_t2).
head(r_fr8_61,fr8_u2).
body(r_fr8_61,fr8_x1).
head(r_fr8_62,fr8_u2).
head(r_fr8_63,fr8_u2).
body(r_fr8_63,fr8_a1).
body(r_fr8_63,fr8_c1).
body(r_fr8_63,fr8_v2).
head(r_fr8_64,fr15_p2).
body(r_fr8_64,fr24_e1).
body(r_fr8_64,fr8_u1).
body(r_fr8_64,fr8_w2).
head(r_fr8_65,fr15_p2).
body(r_fr8_65,fr5_t2).
head(r_fr8_66,fr15_p2).
body(r_fr8_66,fr8_a2).
body(r_fr8_66,fr8_b2).
body(r_fr8_66,fr8_c1).
body(r_fr8_66,fr8_c2).
body(r_fr8_66,fr8_d2).
body(r_fr8_66,fr8_e1).
head(r_fr8_67,fr15_p2).
body(r_fr8_67,fr8_a2).
body(r_fr8_67,fr8_f1).
body(r_fr8_67,fr8_p2).
body(r_fr8_67,fr15_z2).
body(r_fr8_67,fr22_u1).
body(r_fr8_67,fr5_t2).
head(r_fr8_68,fr15_p2).
body(r_fr8_68,fr8_a2).
body(r_fr8_68,fr14_e2).
body(r_fr8_68,fr8_b2).
body(r_fr8_68,fr7_f1).
body(r_fr8_68,fr8_p2).
head(r_fr8_69,fr15_p2).
body(r_fr8_69,fr9_c1).
head(r_fr8_70,fr15_p2).
body(r_fr8_70,fr8_q3).
body(r_fr8_70,fr7_q1).
body(r_fr8_70,fr8_r3).
body(r_fr8_70,fr15_z2).
body(r_fr8_70,fr8_u1).
head(r_fr8_71,fr15_p2).
body(r_fr8_71,fr25_a3).
body(r_fr8_71,fr22_u1).
head(r_fr8_72,fr15_p2).
body(r_fr8_72,fr8_p2).
body(r_fr8_72,fr8_r3).
body(r_fr8_72,fr8_s2).
body(r_fr8_72,fr8_v2).
head(r_fr8_73,fr15_p2).
body(r_fr8_73,fr8_b2).
body(r_fr8_73,fr8_c2).
body(r_fr8_73,fr8_x2).
head(r_fr8_74,fr15_p2).
body(r_fr8_74,fr25_a3).
body(r_fr8_74,fr9_c1).
body(r_fr8_74,fr8_s2).
body(r_fr8_74,fr15_z2).
body(r_fr8_74,fr8_x1).
head(r_fr8_75,fr15_p2).
body(r_fr8_75,fr8_d2).
head(r_fr8_76,fr15_p2).
body(r_fr8_76,fr2_a1).
body(r_fr8_76,fr10_s2).
body(r_fr8_76,fr8_w2).
head(r_fr8_77,fr15_p2).
head(r_fr8_78,fr15_p2).
body(r_fr8_78,fr24_e1).
body(r_fr8_78,fr15_v3).
body(r_fr8_78,fr22_u1).
body(r_fr8_78,fr8_x1).
head(r_fr8_79,fr8_z2).
body(r_fr8_79,fr8_s2).
body(r_fr8_79,fr8_x1).
head(r_fr8_80,fr8_z2).
body(r_fr8_80,fr25_a3).
body(r_fr8_80,fr2_a1).
head(r_fr8_81,fr8_z2).
body(r_fr8_81,fr22_u1).
head(r_fr8_82,fr8_z2).
body(r_fr8_82,fr8_a1).
head(r_fr8_83,fr8_z2).
body(r_fr8_83,fr25_a3).
body(r_fr8_83,fr8_x2).
head(r_fr8_84,fr8_z2).
body(r_fr8_84,fr8_d2).
body(r_fr8_84,fr8_v2).
body(r_fr8_84,fr8_y1).
head(r_fr8_85,fr8_z2).
body(r_fr8_85,fr8_r3).
body(r_fr8_85,fr15_v3).
body(r_fr8_85,fr8_s2).
body(r_fr8_85,fr8_t1).
body(r_fr8_85,fr8_v2).
body(r_fr8_85,fr8_w2).
head(r_fr8_86,fr8_z2).
body(r_fr8_86,fr14_e2).
body(r_fr8_86,fr24_e1).
body(r_fr8_86,fr7_f1).
body(r_fr8_86,fr9_c1).
body(r_fr8_86,fr8_f1).
head(r_fr8_87,fr8_z2).
body(r_fr8_87,fr14_e2).
body(r_fr8_87,fr22_u1).
body(r_fr8_87,fr5_t2).
head(r_fr8_88,fr8_z2).
head(r_fr8_89,fr8_z2).
body(r_fr8_89,fr8_p1).
body(r_fr8_89,fr8_s2).
body(r_fr8_89,fr8_t1).
body(r_fr8_89,fr15_z2).
body(r_fr8_89,fr22_u1).
head(r_fr8_90,fr8_z2).
body(r_fr8_90,fr8_d2).
body(r_fr8_90,fr8_p2).
head(r_fr8_91,fr8_z2).
body(r_fr8_91,fr25_a3).
head(r_fr8_92,fr8_z2).
body(r_fr8_92,fr8_b2).
body(r_fr8_92,fr8_e1).
body(r_fr8_92,fr8_x2).
head(r_fr8_93,fr8_z2).
body(r_fr8_93,fr22_u1).
body(r_fr8_93,fr8_y1).
head(r_fr8_94,fr8_z2).
body(r_fr8_94,fr8_u1).
body(r_fr8_94,fr22_u1).
body(r_fr8_94,fr8_x2).
body(r_fr8_94,fr8_y1).
head(r_fr8_95,fr8_x2).
body(r_fr8_95,fr24_e1).
body(r_fr8_95,fr8_q3).
body(r_fr8_95,fr10_s2).
body(r_fr8_95,fr15_v3).
body(r_fr8_95,fr8_t1).
body(r_fr8_95,fr5_t2).
head(r_fr8_96,fr8_x2).
body(r_fr8_96,fr14_e2).
body(r_fr8_96,fr8_b2).
body(r_fr8_96,fr8_c1).
body(r_fr8_96,fr7_f1).
body(r_fr8_96,fr8_f2).
head(r_fr8_97,fr8_x2).
body(r_fr8_97,fr14_e2).
body(r_fr8_97,fr8_p3).
body(r_fr8_97,fr7_q1).
body(r_fr8_97,fr8_w2).
head(r_fr8_98,fr8_x2).
body(r_fr8_98,fr25_a3).
body(r_fr8_98,fr8_c1).
body(r_fr8_98,fr8_e1).
body(r_fr8_98,fr8_f2).
body(r_fr8_98,fr8_s2).
body(r_fr8_98,fr22_u1).
head(r_fr8_99,fr8_x2).
body(r_fr8_99,fr8_b2).
body(r_fr8_99,fr8_f2).
head(r_fr8_100,fr8_x2).
body(r_fr8_100,fr25_a3).
body(r_fr8_100,fr14_e2).
body(r_fr8_100,fr8_c2).
body(r_fr8_100,fr2_a1).
body(r_fr8_100,fr10_s2).
body(r_fr8_100,fr8_u1).
head(r_fr8_101,fr8_x2).
body(r_fr8_101,fr8_f2).
body(r_fr8_101,fr8_p3).
body(r_fr8_101,fr15_v3).
body(r_fr8_101,fr8_y1).
head(r_fr8_102,fr8_x2).
head(r_fr8_103,fr8_x2).
body(r_fr8_103,fr8_s2).
body(r_fr8_103,fr22_u1).
head(r_fr8_104,fr8_x2).
body(r_fr8_104,fr8_a1).
body(r_fr8_104,fr14_e2).
body(r_fr8_104,fr8_b2).
body(r_fr8_104,fr2_a1).
body(r_fr8_104,fr8_w2).
head(r_fr8_105,fr8_x2).
body(r_fr8_105,fr24_e1).
head(r_fr8_106,fr8_x2).
body(r_fr8_106,fr14_e2).
body(r_fr8_106,fr8_c2).
body(r_fr8_106,fr2_a1).
body(r_fr8_106,fr7_f1).
body(r_fr8_106,fr8_f2).
body(r_fr8_106,fr8_p1).
head(r_fr8_107,fr8_x2).
body(r_fr8_107,fr8_p2).
head(r_fr8_108,fr8_x2).
body(r_fr8_108,fr8_a2).
body(r_fr8_108,fr25_a3).
body(r_fr8_108,fr8_b2).
body(r_fr8_108,fr24_e1).
body(r_fr8_108,fr8_f2).
body(r_fr8_108,fr5_t2).
head(r_fr8_109,fr8_x2).
body(r_fr8_109,fr14_e2).
body(r_fr8_109,fr8_p3).
body(r_fr8_109,fr8_s2).
body(r_fr8_109,fr8_u1).
body(r_fr8_109,fr8_v2).
body(r_fr8_109,fr8_w2).
head(r_fr8_110,fr8_s2).
body(r_fr8_110,fr15_z2).
body(r_fr8_110,fr8_u1).
body(r_fr8_110,fr22_u1).
head(r_fr8_111,fr8_s2).
body(r_fr8_111,fr8_c1).
body(r_fr8_111,fr7_f1).
body(r_fr8_111,fr8_p1).
body(r_fr8_111,fr8_p2).
head(r_fr8_112,fr8_s2).
body(r_fr8_112,fr8_f2).
body(r_fr8_112,fr8_q3).
head(r_fr8_113,fr8_s2).
body(r_fr8_113,fr22_u1).
head(r_fr8_114,fr8_s2).
body(r_fr8_114,fr8_d2).
body(r_fr8_114,fr9_c1).
body(r_fr8_114,fr8_p2).
head(r_fr8_115,fr8_s2).
body(r_fr8_115,fr8_a1).
body(r_fr8_115,fr8_a2).
body(r_fr8_115,fr8_c1).
body(r_fr8_115,fr2_a1).
body(r_fr8_115,fr8_r3).
body(r_fr8_115,fr8_w2).
head(r_fr8_116,fr8_s2).
body(r_fr8_116,fr10_s2).
body(r_fr8_116,fr15_v3).
body(r_fr8_116,fr8_w2).
body(r_fr8_116,fr5_t2).
head(r_fr8_117,fr8_s2).
body(r_fr8_117,fr8_f2).
body(r_fr8_117,fr8_t1).
body(r_fr8_117,fr8_v2).
body(r_fr8_117,fr5_t2).
head(r_fr8_118,fr8_s2).
body(r_fr8_118,fr14_e2).
body(r_fr8_118,fr24_e1).
body(r_fr8_118,fr8_c2).
body(r_fr8_118,fr8_f2).
body(r_fr8_118,fr15_v3).
head(r_fr8_119,fr8_s2).
body(r_fr8_119,fr8_r3).
body(r_fr8_119,fr8_u1).
head(r_fr8_120,fr8_s2).
body(r_fr8_120,fr8_a1).
head(r_fr8_121,fr8_s2).
body(r_fr8_121,fr14_e2).
body(r_fr8_121,fr24_e1).
body(r_fr8_121,fr7_f1).
body(r_fr8_121,fr8_d2).
body(r_fr8_121,fr9_c1).
body(r_fr8_121,fr8_p3).
head(r_fr8_122,fr8_s2).
body(r_fr8_122,fr8_c1).
body(r_fr8_122,fr2_a1).
body(r_fr8_122,fr8_e1).
body(r_fr8_122,fr9_c1).
body(r_fr8_122,fr8_q3).
body(r_fr8_122,fr15_v3).
head(r_fr8_123,fr8_s2).
body(r_fr8_123,fr8_t1).
body(r_fr8_123,fr8_y1).
head(r_fr8_124,fr8_s2).
body(r_fr8_124,fr8_f2).
head(r_fr8_125,fr8_s2).
body(r_fr8_125,fr8_c1).
body(r_fr8_125,fr8_e1).
body(r_fr8_125,fr8_f1).
head(r_fr8_126,fr8_s2).
body(r_fr8_126,fr8_q3).
body(r_fr8_126,fr7_q1).
head(r_fr8_127,fr8_w2).
body(r_fr8_127,fr8_a2).
body(r_fr8_127,fr24_e1).
body(r_fr8_127,fr2_a1).
body(r_fr8_127,fr9_c1).
head(r_fr8_128,fr8_w2).
body(r_fr8_128,fr8_c2).
body(r_fr8_128,fr8_u1).
body(r_fr8_128,fr22_u1).
head(r_fr8_129,fr8_w2).
body(r_fr8_129,fr8_a1).
body(r_fr8_129,fr8_e1).
head(r_fr8_130,fr8_w2).
body(r_fr8_130,fr15_v3).
body(r_fr8_130,fr8_t1).
head(r_fr8_131,fr8_w2).
body(r_fr8_131,fr25_a3).
body(r_fr8_131,fr7_q1).
body(r_fr8_131,fr8_t1).
body(r_fr8_131,fr22_u1).
head(r_fr8_132,fr8_w2).
body(r_fr8_132,fr24_e1).
body(r_fr8_132,fr8_d2).
body(r_fr8_132,fr8_q3).
body(r_fr8_132,fr10_s2).
head(r_fr8_133,fr8_w2).
body(r_fr8_133,fr8_a1).
body(r_fr8_133,fr25_a3).
body(r_fr8_133,fr15_v3).
head(r_fr8_134,fr8_w2).
body(r_fr8_134,fr8_r3).
head(r_fr8_135,fr8_w2).
body(r_fr8_135,fr8_p2).
body(r_fr8_135,fr7_q1).
body(r_fr8_135,fr15_v3).
body(r_fr8_135,fr8_u1).
head(r_fr8_136,fr8_w2).
body(r_fr8_136,fr8_b2).
body(r_fr8_136,fr2_a1).
body(r_fr8_136,fr9_c1).
body(r_fr8_136,fr7_q1).
body(r_fr8_136,fr10_s2).
head(r_fr8_137,fr8_w2).
body(r_fr8_137,fr8_c2).
head(r_fr8_138,fr8_w2).
body(r_fr8_138,fr8_a2).
body(r_fr8_138,fr10_s2).
body(r_fr8_138,fr15_z2).
body(r_fr8_138,fr8_u1).
body(r_fr8_138,fr8_y1).
body(r_fr8_138,fr5_t2).
head(r_fr8_139,fr8_w2).
body(r_fr8_139,fr8_q3).
body(r_fr8_139,fr15_z2).
body(r_fr8_139,fr8_u1).
body(r_fr8_139,fr5_t2).
head(r_fr8_140,fr8_w2).
body(r_fr8_140,fr8_a2).
body(r_fr8_140,fr9_c1).
body(r_fr8_140,fr8_p2).
body(r_fr8_140,fr8_p3).
body(r_fr8_140,fr8_u1).
head(r_fr8_141,fr8_w2).
body(r_fr8_141,fr8_c2).
body(r_fr8_141,fr8_r3).
head(r_fr8_142,fr8_w2).
body(r_fr8_142,fr25_a3).
body(r_fr8_142,fr14_e2).
body(r_fr8_142,fr7_f1).
body(r_fr8_142,fr8_p1).
body(r_fr8_142,fr8_u1).
body(r_fr8_142,fr5_t2).
head(r_fr8_143,fr8_w2).
head(r_fr8_144,fr15_z2).
body(r_fr8_144,fr8_r3).
body(r_fr8_144,fr8_t1).
body(r_fr8_144,fr5_t2).
head(r_fr8_145,fr15_z2).
body(r_fr8_145,fr8_a2).
body(r_fr8_145,fr8_b2).
body(r_fr8_145,fr8_c2).
body(r_fr8_145,fr7_f1).
body(r_fr8_145,fr8_e1).
head(r_fr8_146,fr15_z2).
body(r_fr8_146,fr8_v2).
body(r_fr8_146,fr22_u1).
head(r_fr8_147,fr15_z2).
body(r_fr8_147,fr8_a1).
body(r_fr8_147,fr8_a2).
body(r_fr8_147,fr25_a3).
body(r_fr8_147,fr14_e2).
body(r_fr8_147,fr7_f1).
head(r_fr8_148,fr15_z2).
head(r_fr8_149,fr15_z2).
body(r_fr8_149,fr8_a1).
body(r_fr8_149,fr8_a2).
body(r_fr8_149,fr8_b2).
body(r_fr8_149,fr7_f1).
body(r_fr8_149,fr22_u1).
body(r_fr8_149,fr8_x1).
head(r_fr8_150,fr15_z2).
body(r_fr8_150,fr24_e1).
body(r_fr8_150,fr8_c1).
body(r_fr8_150,fr8_f2).
body(r_fr8_150,fr8_p2).
body(r_fr8_150,fr5_t2).
head(r_fr8_151,fr15_z2).
body(r_fr8_151,fr14_e2).
body(r_fr8_151,fr8_f2).
head(r_fr8_152,fr15_z2).
body(r_fr8_152,fr8_c2).
body(r_fr8_152,fr8_e1).
body(r_fr8_152,fr10_s2).
body(r_fr8_152,fr15_v3).
body(r_fr8_152,fr8_u1).
head(r_fr8_153,fr15_z2).
body(r_fr8_153,fr25_a3).
body(r_fr8_153,fr9_c1).
body(r_fr8_153,fr15_v3).
head(r_fr8_154,fr15_z2).
body(r_fr8_154,fr8_a1).
body(r_fr8_154,fr8_e1).
body(r_fr8_154,fr7_q1).
body(r_fr8_154,fr5_t2).
head(r_fr8_155,fr15_z2).
body(r_fr8_155,fr8_e1).
body(r_fr8_155,fr9_c1).
body(r_fr8_155,fr8_p3).
head(r_fr8_156,fr15_z2).
body(r_fr8_156,fr8_a2).
body(r_fr8_156,fr25_a3).
body(r_fr8_156,fr14_e2).
body(r_fr8_156,fr8_d2).
body(r_fr8_156,fr8_f1).
head(r_fr8_157,fr15_z2).
body(r_fr8_157,fr8_p3).
body(r_fr8_157,fr7_q1).
body(r_fr8_157,fr15_v3).
body(r_fr8_157,fr8_u1).
head(r_fr8_158,fr15_z2).
body(r_fr8_158,fr8_f1).
body(r_fr8_158,fr8_p1).
head(r_fr8_159,fr7_q1).
body(r_fr8_159,fr8_p1).
body(r_fr8_159,fr8_p2).
body(r_fr8_159,fr8_p3).
body(r_fr8_159,fr8_q3).
body(r_fr8_159,fr8_t1).
body(r_fr8_159,fr8_v2).
head(r_fr8_160,fr7_q1).
body(r_fr8_160,fr10_s2).
body(r_fr8_160,fr8_t1).
body(r_fr8_160,fr8_v2).
head(r_fr8_161,fr7_q1).
body(r_fr8_161,fr8_c1).
body(r_fr8_161,fr8_d2).
body(r_fr8_161,fr8_e1).
body(r_fr8_161,fr8_p2).
body(r_fr8_161,fr8_x1).
head(r_fr8_162,fr7_q1).
body(r_fr8_162,fr8_c2).
body(r_fr8_162,fr2_a1).
body(r_fr8_162,fr8_q3).
body(r_fr8_162,fr5_t2).
head(r_fr8_163,fr7_q1).
body(r_fr8_163,fr8_a2).
body(r_fr8_163,fr25_a3).
body(r_fr8_163,fr8_p1).
head(r_fr8_164,fr7_q1).
body(r_fr8_164,fr25_a3).
body(r_fr8_164,fr8_c2).
body(r_fr8_164,fr2_a1).
body(r_fr8_164,fr8_d2).
body(r_fr8_164,fr8_f1).
head(r_fr8_165,fr7_q1).
head(r_fr8_166,fr7_q1).
body(r_fr8_166,fr8_a2).
body(r_fr8_166,fr14_e2).
body(r_fr8_166,fr8_b2).
body(r_fr8_166,fr7_f1).
head(r_fr8_167,fr7_q1).
body(r_fr8_167,fr8_x1).
head(r_fr8_168,fr7_q1).
body(r_fr8_168,fr14_e2).
body(r_fr8_168,fr2_a1).
body(r_fr8_168,fr8_y1).
head(r_fr8_169,fr7_q1).
body(r_fr8_169,fr9_c1).
body(r_fr8_169,fr8_p2).
body(r_fr8_169,fr8_q3).
body(r_fr8_169,fr10_s2).
body(r_fr8_169,fr8_u1).
head(r_fr8_170,fr7_q1).
body(r_fr8_170,fr8_a2).
body(r_fr8_170,fr25_a3).
body(r_fr8_170,fr8_b2).
head(r_fr8_171,fr7_q1).
body(r_fr8_171,fr8_a2).
body(r_fr8_171,fr10_s2).
head(r_fr8_172,fr7_q1).
body(r_fr8_172,fr8_f1).
head(r_fr8_173,fr7_q1).
body(r_fr8_173,fr22_u1).
head(r_fr8_174,fr8_p3).
body(r_fr8_174,fr25_a3).
body(r_fr8_174,fr8_f1).
body(r_fr8_174,fr15_v3).
head(r_fr8_175,fr8_p3).
body(r_fr8_175,fr8_b2).
body(r_fr8_175,fr8_c1).
body(r_fr8_175,fr9_c1).
head(r_fr8_176,fr8_p3).
body(r_fr8_176,fr8_a1).
body(r_fr8_176,fr8_c1).
body(r_fr8_176,fr8_c2).
body(r_fr8_176,fr7_f1).
body(r_fr8_176,fr10_s2).
body(r_fr8_176,fr8_v2).
head(r_fr8_177,fr8_p3).
body(r_fr8_177,fr9_c1).
body(r_fr8_177,fr8_f1).
body(r_fr8_177,fr8_p1).
head(r_fr8_178,fr8_p3).
body(r_fr8_178,fr8_f2).
body(r_fr8_178,fr8_p1).
body(r_fr8_178,fr8_t1).
body(r_fr8_178,fr8_v2).
body(r_fr8_178,fr8_x1).
head(r_fr8_179,fr8_p3).
body(r_fr8_179,fr8_c2).
body(r_fr8_179,fr9_c1).
body(r_fr8_179,fr8_f1).
head(r_fr8_180,fr8_p3).
body(r_fr8_180,fr8_a1).
body(r_fr8_180,fr8_p1).
body(r_fr8_180,fr8_v2).
head(r_fr8_181,fr8_p3).
body(r_fr8_181,fr25_a3).
body(r_fr8_181,fr14_e2).
body(r_fr8_181,fr8_b2).
body(r_fr8_181,fr8_f2).
head(r_fr8_182,fr8_p3).
body(r_fr8_182,fr8_d2).
body(r_fr8_182,fr9_c1).
body(r_fr8_182,fr22_u1).
head(r_fr8_183,fr8_p3).
body(r_fr8_183,fr8_u1).
head(r_fr8_184,fr8_p3).
body(r_fr8_184,fr14_e2).
body(r_fr8_184,fr24_e1).
body(r_fr8_184,fr8_c2).
body(r_fr8_184,fr8_p2).
body(r_fr8_184,fr8_t1).
head(r_fr8_185,fr8_p3).
body(r_fr8_185,fr8_d2).
body(r_fr8_185,fr8_e1).
body(r_fr8_185,fr8_r3).
body(r_fr8_185,fr8_u1).
body(r_fr8_185,fr8_v2).
head(r_fr8_186,fr8_p3).
head(r_fr8_187,fr8_p3).
body(r_fr8_187,fr25_a3).
body(r_fr8_187,fr2_a1).
body(r_fr8_187,fr9_c1).
head(r_fr8_188,fr8_p3).
body(r_fr8_188,fr14_e2).
body(r_fr8_188,fr2_a1).
body(r_fr8_188,fr8_f1).
body(r_fr8_188,fr8_f2).
head(r_fr8_189,fr8_p3).
body(r_fr8_189,fr10_s2).
body(r_fr8_189,fr8_r3).
body(r_fr8_189,fr15_v3).
body(r_fr8_189,fr8_u1).
body(r_fr8_189,fr22_u1).
body(r_fr8_189,fr8_x1).
head(r_fr8_190,fr8_p3).
body(r_fr8_190,fr2_a1).
body(r_fr8_190,fr7_f1).
body(r_fr8_190,fr8_d2).
body(r_fr8_190,fr8_f1).
body(r_fr8_190,fr8_p1).
body(r_fr8_190,fr8_t1).
head(r_fr8_191,fr8_r3).
body(r_fr8_191,fr25_a3).
body(r_fr8_191,fr8_e1).
body(r_fr8_191,fr8_q3).
body(r_fr8_191,fr8_t1).
head(r_fr8_192,fr8_r3).
head(r_fr8_193,fr8_r3).
body(r_fr8_193,fr7_f1).
body(r_fr8_193,fr8_p1).
body(r_fr8_193,fr5_t2).
head(r_fr8_194,fr8_r3).
body(r_fr8_194,fr8_e1).
body(r_fr8_194,fr8_u1).
body(r_fr8_194,fr8_v2).
body(r_fr8_194,fr8_x1).
head(r_fr8_195,fr8_r3).
body(r_fr8_195,fr8_a1).
body(r_fr8_195,fr8_a2).
body(r_fr8_195,fr8_b2).
head(r_fr8_196,fr8_r3).
body(r_fr8_196,fr8_b2).
body(r_fr8_196,fr8_c2).
body(r_fr8_196,fr8_d2).
body(r_fr8_196,fr8_q3).
body(r_fr8_196,fr8_u1).
head(r_fr8_197,fr8_r3).
body(r_fr8_197,fr8_c2).
body(r_fr8_197,fr8_d2).
body(r_fr8_197,fr9_c1).
body(r_fr8_197,fr5_t2).
head(r_fr8_198,fr8_r3).
body(r_fr8_198,fr2_a1).
body(r_fr8_198,fr7_f1).
body(r_fr8_198,fr8_q3).
head(r_fr8_199,fr8_r3).
body(r_fr8_199,fr8_a2).
body(r_fr8_199,fr24_e1).
body(r_fr8_199,fr8_f1).
head(r_fr8_200,fr8_r3).
body(r_fr8_200,fr8_a2).
body(r_fr8_200,fr24_e1).
body(r_fr8_200,fr10_s2).
body(r_fr8_200,fr22_u1).
head(r_fr8_201,fr8_r3).
body(r_fr8_201,fr25_a3).
body(r_fr8_201,fr7_f1).
body(r_fr8_201,fr8_p1).
body(r_fr8_201,fr15_v3).
body(r_fr8_201,fr8_u1).
body(r_fr8_201,fr5_t2).
head(r_fr8_202,fr8_r3).
body(r_fr8_202,fr24_e1).
body(r_fr8_202,fr7_f1).
body(r_fr8_202,fr9_c1).
body(r_fr8_202,fr8_y1).
head(r_fr8_203,fr8_r3).
body(r_fr8_203,fr24_e1).
body(r_fr8_203,fr8_d2).
head(r_fr8_204,fr8_r3).
body(r_fr8_204,fr9_c1).
body(r_fr8_204,fr8_f1).
body(r_fr8_204,fr8_t1).
body(r_fr8_204,fr8_u1).
head(r_fr8_205,fr8_r3).
body(r_fr8_205,fr8_c1).
body(r_fr8_205,fr10_s2).
body(r_fr8_205,fr8_v2).
head(r_fr8_206,fr8_r3).
body(r_fr8_206,fr9_c1).
head(r_fr8_207,fr8_r3).
body(r_fr8_207,fr8_a1).
body(r_fr8_207,fr8_a2).
body(r_fr8_207,fr2_a1).
body(r_fr8_207,fr7_f1).
body(r_fr8_207,fr8_y1).
head(r_fr8_208,fr8_p2).
body(r_fr8_208,fr8_a1).
body(r_fr8_208,fr8_c2).
body(r_fr8_208,fr2_a1).
body(r_fr8_208,fr10_s2).
body(r_fr8_208,fr8_x1).
head(r_fr8_209,fr8_p2).
body(r_fr8_209,fr8_f1).
body(r_fr8_209,fr8_p1).
body(r_fr8_209,fr8_q3).
body(r_fr8_209,fr15_v3).
body(r_fr8_209,fr8_u1).
head(r_fr8_210,fr8_p2).
body(r_fr8_210,fr7_f1).
body(r_fr8_210,fr8_p1).
body(r_fr8_210,fr8_x1).
head(r_fr8_211,fr8_p2).
body(r_fr8_211,fr25_a3).
body(r_fr8_211,fr8_d2).
body(r_fr8_211,fr8_t1).
head(r_fr8_212,fr8_p2).
body(r_fr8_212,fr8_c1).
body(r_fr8_212,fr8_c2).
head(r_fr8_213,fr8_p2).
body(r_fr8_213,fr8_p1).
head(r_fr8_214,fr8_p2).
body(r_fr8_214,fr8_a2).
head(r_fr8_215,fr8_p2).
body(r_fr8_215,fr14_e2).
body(r_fr8_215,fr15_v3).
body(r_fr8_215,fr22_u1).
head(r_fr8_216,fr8_p2).
body(r_fr8_216,fr8_a1).
body(r_fr8_216,fr8_d2).
body(r_fr8_216,fr15_v3).
head(r_fr8_217,fr8_p2).
body(r_fr8_217,fr8_f1).
body(r_fr8_217,fr8_p1).
body(r_fr8_217,fr22_u1).
body(r_fr8_217,fr5_t2).
head(r_fr8_218,fr8_p2).
head(r_fr8_219,fr8_p2).
body(r_fr8_219,fr8_a2).
body(r_fr8_219,fr14_e2).
body(r_fr8_219,fr24_e1).
body(r_fr8_219,fr9_c1).
body(r_fr8_219,fr15_v3).
body(r_fr8_219,fr8_x1).
head(r_fr8_220,fr8_p2).
body(r_fr8_220,fr25_a3).
body(r_fr8_220,fr8_c2).
head(r_fr8_221,fr8_p2).
body(r_fr8_221,fr8_e1).
body(r_fr8_221,fr8_p1).
head(r_fr8_222,fr8_p2).
body(r_fr8_222,fr25_a3).
head(r_fr8_223,fr8_y1).
body(r_fr8_223,fr10_s2).
head(r_fr8_224,fr8_y1).
body(r_fr8_224,fr8_a2).
body(r_fr8_224,fr9_c1).
body(r_fr8_224,fr8_f1).
head(r_fr8_225,fr8_y1).
body(r_fr8_225,fr8_d2).
body(r_fr8_225,fr8_q3).
body(r_fr8_225,fr8_t1).
head(r_fr8_226,fr8_y1).
body(r_fr8_226,fr25_a3).
body(r_fr8_226,fr8_c2).
body(r_fr8_226,fr8_d2).
body(r_fr8_226,fr8_e1).
body(r_fr8_226,fr9_c1).
body(r_fr8_226,fr15_v3).
head(r_fr8_227,fr8_y1).
body(r_fr8_227,fr7_f1).
body(r_fr8_227,fr9_c1).
body(r_fr8_227,fr10_s2).
head(r_fr8_228,fr8_y1).
body(r_fr8_228,fr8_a1).
body(r_fr8_228,fr8_c2).
body(r_fr8_228,fr8_p1).
body(r_fr8_228,fr15_v3).
body(r_fr8_228,fr8_t1).
body(r_fr8_228,fr5_t2).
head(r_fr8_229,fr8_y1).
body(r_fr8_229,fr8_a1).
body(r_fr8_229,fr25_a3).
body(r_fr8_229,fr8_c2).
body(r_fr8_229,fr2_a1).
body(r_fr8_229,fr8_f2).
head(r_fr8_230,fr8_y1).
body(r_fr8_230,fr8_d2).
body(r_fr8_230,fr10_s2).
body(r_fr8_230,fr22_u1).
body(r_fr8_230,fr8_x1).
head(r_fr8_231,fr8_y1).
body(r_fr8_231,fr25_a3).
body(r_fr8_231,fr8_t1).
body(r_fr8_231,fr22_u1).
head(r_fr8_232,fr8_y1).
body(r_fr8_232,fr7_f1).
body(r_fr8_232,fr9_c1).
head(r_fr8_233,fr8_y1).
body(r_fr8_233,fr7_f1).
body(r_fr8_233,fr8_q3).
head(r_fr8_234,fr8_y1).
head(r_fr8_235,fr8_y1).
body(r_fr8_235,fr8_q3).
body(r_fr8_235,fr8_x1).
head(r_fr8_236,fr8_y1).
body(r_fr8_236,fr24_e1).
body(r_fr8_236,fr7_f1).
body(r_fr8_236,fr8_d2).
body(r_fr8_236,fr5_t2).
head(r_fr8_237,fr8_y1).
body(r_fr8_237,fr8_b2).
body(r_fr8_237,fr24_e1).
body(r_fr8_237,fr8_c2).
body(r_fr8_237,fr2_a1).
body(r_fr8_237,fr8_e1).
body(r_fr8_237,fr8_f1).
head(r_fr8_238,fr8_p1).
body(r_fr8_238,fr8_q3).
body(r_fr8_238,fr15_v3).
body(r_fr8_238,fr8_u1).
body(r_fr8_238,fr8_v2).
body(r_fr8_238,fr8_x1).
body(r_fr8_238,fr5_t2).
head(r_fr8_239,fr8_p1).
body(r_fr8_239,fr8_u1).
head(r_fr8_240,fr8_p1).
body(r_fr8_240,fr7_f1).
body(r_fr8_240,fr8_d2).
body(r_fr8_240,fr8_f1).
body(r_fr8_240,fr8_v2).
body(r_fr8_240,fr8_x1).
head(r_fr8_241,fr8_p1).
head(r_fr8_242,fr8_p1).
body(r_fr8_242,fr8_c2).
body(r_fr8_242,fr9_c1).
body(r_fr8_242,fr8_f2).
body(r_fr8_242,fr5_t2).
head(r_fr8_243,fr8_p1).
body(r_fr8_243,fr8_q3).
body(r_fr8_243,fr15_v3).
body(r_fr8_243,fr22_u1).
head(r_fr8_244,fr8_p1).
body(r_fr8_244,fr8_a2).
body(r_fr8_244,fr8_d2).
body(r_fr8_244,fr8_e1).
body(r_fr8_244,fr10_s2).
body(r_fr8_244,fr8_u1).
body(r_fr8_244,fr5_t2).
head(r_fr8_245,fr8_p1).
body(r_fr8_245,fr7_f1).
body(r_fr8_245,fr10_s2).
body(r_fr8_245,fr8_u1).
head(r_fr8_246,fr8_p1).
body(r_fr8_246,fr25_a3).
body(r_fr8_246,fr24_e1).
body(r_fr8_246,fr8_e1).
body(r_fr8_246,fr8_v2).
head(r_fr8_247,fr8_p1).
body(r_fr8_247,fr8_b2).
body(r_fr8_247,fr24_e1).
body(r_fr8_247,fr8_c2).
body(r_fr8_247,fr8_d2).
body(r_fr8_247,fr10_s2).
body(r_fr8_247,fr8_t1).
head(r_fr8_248,fr8_p1).
body(r_fr8_248,fr8_q3).
body(r_fr8_248,fr8_t1).
head(r_fr8_249,fr8_p1).
body(r_fr8_249,fr8_c1).
body(r_fr8_249,fr10_s2).
body(r_fr8_249,fr15_v3).
body(r_fr8_249,fr8_t1).
body(r_fr8_249,fr22_u1).
body(r_fr8_249,fr5_t2).
head(r_fr8_250,fr8_p1).
body(r_fr8_250,fr24_e1).
body(r_fr8_250,fr8_c1).
body(r_fr8_250,fr8_e1).
head(r_fr8_251,fr8_p1).
body(r_fr8_251,fr25_a3).
body(r_fr8_251,fr8_q3).
body(r_fr8_251,fr8_x1).
body(r_fr8_251,fr5_t2).
head(r_fr8_252,fr8_p1).
body(r_fr8_252,fr8_a1).
body(r_fr8_252,fr25_a3).
body(r_fr8_252,fr14_e2).
body(r_fr8_252,fr9_c1).
body(r_fr8_252,fr8_f2).
body(r_fr8_252,fr8_u1).
head(r_fr8_253,fr8_p1).
body(r_fr8_253,fr10_s2).
body(r_fr8_253,fr15_v3).
body(r_fr8_253,fr8_t1).
head(r_fr8_254,fr8_t1).
body(r_fr8_254,fr8_c1).
body(r_fr8_254,fr9_c1).
body(r_fr8_254,fr8_f1).
head(r_fr8_255,fr8_t1).
head(r_fr8_256,fr8_t1).
body(r_fr8_256,fr8_a1).
body(r_fr8_256,fr8_a2).
body(r_fr8_256,fr8_b2).
body(r_fr8_256,fr8_c1).
body(r_fr8_256,fr7_f1).
body(r_fr8_256,fr8_e1).
head(r_fr8_257,fr8_t1).
body(r_fr8_257,fr8_b2).
body(r_fr8_257,fr5_t2).
head(r_fr8_258,fr8_t1).
body(r_fr8_258,fr8_q3).
body(r_fr8_258,fr8_x1).
body(r_fr8_258,fr5_t2).
head(r_fr8_259,fr8_t1).
body(r_fr8_259,fr8_a1).
body(r_fr8_259,fr14_e2).
body(r_fr8_259,fr2_a1).
body(r_fr8_259,fr8_f2).
head(r_fr8_260,fr8_t1).
body(r_fr8_260,fr8_c1).
body(r_fr8_260,fr8_c2).
body(r_fr8_260,fr8_f2).
body(r_fr8_260,fr10_s2).
body(r_fr8_260,fr8_x1).
head(r_fr8_261,fr8_t1).
body(r_fr8_261,fr7_f1).
body(r_fr8_261,fr10_s2).
head(r_fr8_262,fr8_t1).
body(r_fr8_262,fr9_c1).
head(r_fr8_263,fr8_t1).
body(r_fr8_263,fr8_a1).
body(r_fr8_263,fr25_a3).
body(r_fr8_263,fr8_d2).
head(r_fr8_264,fr8_t1).
body(r_fr8_264,fr24_e1).
body(r_fr8_264,fr8_c2).
body(r_fr8_264,fr2_a1).
body(r_fr8_264,fr15_v3).
body(r_fr8_264,fr22_u1).
body(r_fr8_264,fr5_t2).
head(r_fr8_265,fr8_t1).
body(r_fr8_265,fr14_e2).
body(r_fr8_265,fr7_f1).
body(r_fr8_265,fr8_d2).
body(r_fr8_265,fr8_e1).
body(r_fr8_265,fr8_f2).
body(r_fr8_265,fr10_s2).
head(r_fr8_266,fr8_t1).
body(r_fr8_266,fr7_f1).
body(r_fr8_266,fr10_s2).
body(r_fr8_266,fr8_x1).
head(r_fr8_267,fr8_t1).
body(r_fr8_267,fr8_f2).
body(r_fr8_267,fr8_x1).
head(r_fr8_268,fr8_t1).
body(r_fr8_268,fr10_s2).
body(r_fr8_268,fr15_v3).
body(r_fr8_268,fr8_u1).
body(r_fr8_268,fr8_v2).
body(r_fr8_268,fr22_u1).
body(r_fr8_268,fr5_t2).
head(r_fr8_269,fr10_s2).
body(r_fr8_269,fr8_a1).
body(r_fr8_269,fr25_a3).
body(r_fr8_269,fr9_c1).
body(r_fr8_269,fr22_u1).
head(r_fr8_270,fr10_s2).
body(r_fr8_270,fr25_a3).
body(r_fr8_270,fr8_f1).
head(r_fr8_271,fr10_s2).
body(r_fr8_271,fr9_c1).
head(r_fr8_272,fr10_s2).
body(r_fr8_272,fr8_a1).
body(r_fr8_272,fr8_c2).
body(r_fr8_272,fr7_f1).
body(r_fr8_272,fr8_q3).
head(r_fr8_273,fr10_s2).
body(r_fr8_273,fr24_e1).
body(r_fr8_273,fr8_d2).
body(r_fr8_273,fr8_f2).
head(r_fr8_274,fr10_s2).
body(r_fr8_274,fr7_f1).
body(r_fr8_274,fr8_f2).
body(r_fr8_274,fr15_v3).
body(r_fr8_274,fr22_u1).
head(r_fr8_275,fr10_s2).
body(r_fr8_275,fr24_e1).
body(r_fr8_275,fr9_c1).
body(r_fr8_275,fr15_v3).
body(r_fr8_275,fr8_v2).
body(r_fr8_275,fr22_u1).
head(r_fr8_276,fr10_s2).
body(r_fr8_276,fr24_e1).
body(r_fr8_276,fr8_u1).
body(r_fr8_276,fr8_x1).
head(r_fr8_277,fr10_s2).
body(r_fr8_277,fr25_a3).
body(r_fr8_277,fr7_f1).
body(r_fr8_277,fr8_d2).
body(r_fr8_277,fr8_e1).
body(r_fr8_277,fr9_c1).
body(r_fr8_277,fr8_f1).
head(r_fr8_278,fr10_s2).
body(r_fr8_278,fr24_e1).
body(r_fr8_278,fr9_c1).
body(r_fr8_278,fr8_q3).
head(r_fr8_279,fr10_s2).
body(r_fr8_279,fr8_q3).
body(r_fr8_279,fr15_v3).
body(r_fr8_279,fr8_v2).
body(r_fr8_279,fr22_u1).
body(r_fr8_279,fr8_x1).
head(r_fr8_280,fr10_s2).
body(r_fr8_280,fr8_a1).
body(r_fr8_280,fr15_v3).
head(r_fr8_281,fr10_s2).
body(r_fr8_281,fr8_f1).
body(r_fr8_281,fr15_v3).
body(r_fr8_281,fr8_x1).
body(r_fr8_281,fr5_t2).
head(r_fr8_282,fr10_s2).
body(r_fr8_282,fr8_b2).
body(r_fr8_282,fr2_a1).
body(r_fr8_282,fr8_f1).
body(r_fr8_282,fr8_q3).
body(r_fr8_282,fr15_v3).
body(r_fr8_282,fr8_u1).
head(r_fr8_283,fr10_s2).
body(r_fr8_283,fr8_a2).
body(r_fr8_283,fr7_f1).
body(r_fr8_283,fr8_f2).
body(r_fr8_283,fr8_v2).
head(r_fr8_284,fr10_s2).
head(r_fr8_285,fr5_t2).
body(r_fr8_285,fr8_b2).
body(r_fr8_285,fr8_c2).
body(r_fr8_285,fr8_v2).
body(r_fr8_285,fr22_u1).
body(r_fr8_285,fr8_x1).
head(r_fr8_286,fr5_t2).
body(r_fr8_286,fr8_f1).
head(r_fr8_287,fr5_t2).
body(r_fr8_287,fr8_a1).
body(r_fr8_287,fr25_a3).
body(r_fr8_287,fr2_a1).
body(r_fr8_287,fr7_f1).
body(r_fr8_287,fr9_c1).
body(r_fr8_287,fr8_q3).
head(r_fr8_288,fr5_t2).
body(r_fr8_288,fr2_a1).
body(r_fr8_288,fr8_q3).
body(r_fr8_288,fr15_v3).
body(r_fr8_288,fr8_v2).
body(r_fr8_288,fr22_u1).
body(r_fr8_288,fr8_x1).
head(r_fr8_289,fr5_t2).
body(r_fr8_289,fr8_b2).
body(r_fr8_289,fr24_e1).
body(r_fr8_289,fr8_c1).
body(r_fr8_289,fr8_f2).
head(r_fr8_290,fr5_t2).
body(r_fr8_290,fr8_a1).
body(r_fr8_290,fr8_e1).
body(r_fr8_290,fr8_q3).
body(r_fr8_290,fr15_v3).
head(r_fr8_291,fr5_t2).
body(r_fr8_291,fr8_e1).
body(r_fr8_291,fr8_v2).
head(r_fr8_292,fr5_t2).
head(r_fr8_293,fr5_t2).
body(r_fr8_293,fr8_a2).
body(r_fr8_293,fr25_a3).
body(r_fr8_293,fr24_e1).
body(r_fr8_293,fr9_c1).
body(r_fr8_293,fr8_f1).
body(r_fr8_293,fr8_v2).
head(r_fr8_294,fr5_t2).
body(r_fr8_294,fr8_c2).
body(r_fr8_294,fr8_q3).
body(r_fr8_294,fr15_v3).
body(r_fr8_294,fr22_u1).
body(r_fr8_294,fr8_x1).
head(r_fr8_295,fr5_t2).
body(r_fr8_295,fr8_q3).
body(r_fr8_295,fr8_v2).
head(r_fr8_296,fr5_t2).
body(r_fr8_296,fr8_q3).
body(r_fr8_296,fr8_u1).
body(r_fr8_296,fr8_v2).
body(r_fr8_296,fr22_u1).
body(r_fr8_296,fr8_x1).
head(r_fr8_297,fr5_t2).
body(r_fr8_297,fr8_a2).
body(r_fr8_297,fr22_u1).
head(r_fr8_298,fr5_t2).
body(r_fr8_298,fr14_e2).
body(r_fr8_298,fr8_c1).
body(r_fr8_298,fr7_f1).
body(r_fr8_298,fr8_f1).
head(r_fr8_299,fr22_u1).
body(r_fr8_299,fr2_a1).
body(r_fr8_299,fr8_d2).
body(r_fr8_299,fr8_q3).
body(r_fr8_299,fr15_v3).
body(r_fr8_299,fr8_v2).
body(r_fr8_299,fr8_x1).
head(r_fr8_300,fr22_u1).
body(r_fr8_300,fr25_a3).
body(r_fr8_300,fr8_b2).
body(r_fr8_300,fr24_e1).
body(r_fr8_300,fr8_c2).
body(r_fr8_300,fr2_a1).
body(r_fr8_300,fr8_e1).
head(r_fr8_301,fr22_u1).
head(r_fr8_302,fr22_u1).
body(r_fr8_302,fr8_x1).
head(r_fr8_303,fr22_u1).
body(r_fr8_303,fr8_q3).
body(r_fr8_303,fr8_v2).
body(r_fr8_303,fr8_x1).
head(r_fr8_304,fr22_u1).
body(r_fr8_304,fr8_a1).
body(r_fr8_304,fr8_c1).
body(r_fr8_304,fr8_c2).
head(r_fr8_305,fr22_u1).
body(r_fr8_305,fr8_c1).
body(r_fr8_305,fr8_d2).
body(r_fr8_305,fr15_v3).
body(r_fr8_305,fr8_x1).
head(r_fr8_306,fr22_u1).
body(r_fr8_306,fr8_a2).
body(r_fr8_306,fr14_e2).
body(r_fr8_306,fr8_c2).
body(r_fr8_306,fr8_d2).
body(r_fr8_306,fr8_e1).
body(r_fr8_306,fr8_q3).
head(r_fr8_307,fr22_u1).
body(r_fr8_307,fr9_c1).
body(r_fr8_307,fr8_q3).
body(r_fr8_307,fr15_v3).
body(r_fr8_307,fr8_u1).
body(r_fr8_307,fr8_v2).
body(r_fr8_307,fr8_x1).
head(r_fr8_308,fr22_u1).
body(r_fr8_308,fr25_a3).
body(r_fr8_308,fr8_d2).
body(r_fr8_308,fr8_x1).
head(r_fr8_309,fr22_u1).
body(r_fr8_309,fr8_b2).
body(r_fr8_309,fr8_c1).
body(r_fr8_309,fr8_c2).
body(r_fr8_309,fr8_q3).
body(r_fr8_309,fr8_x1).
head(r_fr8_310,fr22_u1).
body(r_fr8_310,fr14_e2).
body(r_fr8_310,fr8_u1).
head(r_fr8_311,fr22_u1).
body(r_fr8_311,fr8_q3).
body(r_fr8_311,fr15_v3).
body(r_fr8_311,fr8_u1).
body(r_fr8_311,fr8_v2).
body(r_fr8_311,fr8_x1).
head(r_fr8_312,fr22_u1).
body(r_fr8_312,fr8_c2).
head(r_fr8_313,fr22_u1).
body(r_fr8_313,fr24_e1).
body(r_fr8_313,fr8_x1).
head(r_fr8_314,fr22_u1).
body(r_fr8_314,fr25_a3).
body(r_fr8_314,fr8_b2).
body(r_fr8_314,fr8_e1).
body(r_fr8_314,fr8_u1).
body(r_fr8_314,fr8_v2).
head(r_fr8_315,fr22_u1).
body(r_fr8_315,fr8_a1).
body(r_fr8_315,fr8_q3).

assumption(fr23_a2).
assumption(fr17_d2).
assumption(fr9_c1).
assumption(fr9_d1).
assumption(fr9_e1).
assumption(fr9_f1).
assumption(fr9_a2).
assumption(fr9_b2).
assumption(fr9_c2).
assumption(fr9_d2).
assumption(fr9_e2).
assumption(fr9_f2).
assumption(fr9_a3).
assumption(fr9_b3).
assumption(fr9_c3).
contrary(fr23_a2,fr9_c2).
contrary(fr9_a2,fr9_e1).
contrary(fr9_a3,fr23_z2).
contrary(fr17_d2,fr23_a2).
contrary(fr9_b2,fr5_q2).
contrary(fr9_b3,fr9_t2).
contrary(fr9_c1,fr9_w1).
contrary(fr9_c2,fr9_t1).
contrary(fr9_c3,fr9_a3).
contrary(fr9_d1,fr9_s2).
contrary(fr9_d2,fr9_a2).
contrary(fr9_e1,fr13_z1).
contrary(fr9_e2,fr9_s1).
contrary(fr9_f1,fr1_q2).
contrary(fr9_f2,fr9_r2).
head(r_fr9_0,fr11_z1).
body(r_fr9_0,fr9_e1).
body(r_fr9_0,fr9_u2).
head(r_fr9_1,fr11_z1).
body(r_fr9_1,fr17_d2).
body(r_fr9_1,fr9_b2).
body(r_fr9_1,fr9_c2).
body(r_fr9_1,fr9_c3).
body(r_fr9_1,fr9_d2).
head(r_fr9_2,fr11_z1).
head(r_fr9_3,fr11_z1).
body(r_fr9_3,fr9_b3).
body(r_fr9_3,fr5_q2).
body(r_fr9_3,fr9_x1).
body(r_fr9_3,fr9_y2).
head(r_fr9_4,fr11_z1).
body(r_fr9_4,fr9_r2).
head(r_fr9_5,fr11_z1).
body(r_fr9_5,fr9_r2).
body(r_fr9_5,fr15_v1).
body(r_fr9_5,fr23_z2).
body(r_fr9_5,fr13_v2).
body(r_fr9_5,fr9_x1).
head(r_fr9_6,fr11_z1).
body(r_fr9_6,fr9_c3).
body(r_fr9_6,fr9_e1).
body(r_fr9_6,fr9_s2).
head(r_fr9_7,fr11_z1).
body(r_fr9_7,fr9_r3).
head(r_fr9_8,fr11_z1).
body(r_fr9_8,fr9_z2).
head(r_fr9_9,fr11_z1).
body(r_fr9_9,fr18_r3).
body(r_fr9_9,fr9_s1).
body(r_fr9_9,fr9_x2).
head(r_fr9_10,fr11_z1).
body(r_fr9_10,fr9_c1).
body(r_fr9_10,fr9_d2).
body(r_fr9_10,fr9_s2).
body(r_fr9_10,fr9_t2).
body(r_fr9_10,fr23_z2).
head(r_fr9_11,fr11_z1).
body(r_fr9_11,fr13_t1).
head(r_fr9_12,fr11_z1).
body(r_fr9_12,fr9_b2).
body(r_fr9_12,fr9_c2).
body(r_fr9_12,fr9_c3).
body(r_fr9_12,fr9_e1).
head(r_fr9_13,fr11_z1).
body(r_fr9_13,fr9_f2).
body(r_fr9_13,fr9_t1).
head(r_fr9_14,fr11_z1).
body(r_fr9_14,fr8_z2).
body(r_fr9_14,fr9_s2).
body(r_fr9_14,fr9_t2).
body(r_fr9_14,fr23_z2).
body(r_fr9_14,fr13_z1).
body(r_fr9_14,fr9_y1).
head(r_fr9_15,fr11_z1).
body(r_fr9_15,fr9_b2).
head(r_fr9_16,fr11_z1).
body(r_fr9_16,fr9_s1).
body(r_fr9_16,fr13_z1).
head(r_fr9_17,fr9_u2).
body(r_fr9_17,fr5_q2).
body(r_fr9_17,fr18_r3).
body(r_fr9_17,fr9_r2).
body(r_fr9_17,fr9_y1).
body(r_fr9_17,fr9_y2).
head(r_fr9_18,fr9_u2).
body(r_fr9_18,fr9_a2).
body(r_fr9_18,fr9_a3).
body(r_fr9_18,fr9_b3).
body(r_fr9_18,fr9_c3).
body(r_fr9_18,fr9_d2).
body(r_fr9_18,fr9_f1).
head(r_fr9_19,fr9_u2).
body(r_fr9_19,fr13_t1).
body(r_fr9_19,fr9_w1).
body(r_fr9_19,fr9_y2).
head(r_fr9_20,fr9_u2).
body(r_fr9_20,fr23_a2).
head(r_fr9_21,fr9_u2).
body(r_fr9_21,fr9_b3).
body(r_fr9_21,fr9_c2).
body(r_fr9_21,fr9_d2).
body(r_fr9_21,fr9_e2).
head(r_fr9_22,fr9_u2).
body(r_fr9_22,fr9_b2).
body(r_fr9_22,fr9_c1).
body(r_fr9_22,fr9_d2).
head(r_fr9_23,fr9_u2).
body(r_fr9_23,fr9_a2).
body(r_fr9_23,fr9_c2).
body(r_fr9_23,fr9_e2).
head(r_fr9_24,fr9_u2).
body(r_fr9_24,fr9_t1).
body(r_fr9_24,fr23_z2).
body(r_fr9_24,fr1_q2).
head(r_fr9_25,fr9_u2).
body(r_fr9_25,fr23_a2).
body(r_fr9_25,fr9_c3).
body(r_fr9_25,fr9_e1).
body(r_fr9_25,fr9_e2).
body(r_fr9_25,fr9_f2).
body(r_fr9_25,fr13_z1).
head(r_fr9_26,fr9_u2).
body(r_fr9_26,fr9_a2).
body(r_fr9_26,fr9_c3).
body(r_fr9_26,fr9_t1).
body(r_fr9_26,fr15_v1).
body(r_fr9_26,fr9_x1).
body(r_fr9_26,fr9_x2).
head(r_fr9_27,fr9_u2).
body(r_fr9_27,fr23_a2).
body(r_fr9_27,fr9_d1).
body(r_fr9_27,fr8_z2).
head(r_fr9_28,fr9_u2).
body(r_fr9_28,fr17_d2).
body(r_fr9_28,fr5_q2).
body(r_fr9_28,fr9_r2).
head(r_fr9_29,fr9_u2).
body(r_fr9_29,fr9_a3).
body(r_fr9_29,fr9_c3).
body(r_fr9_29,fr18_r3).
body(r_fr9_29,fr9_r2).
body(r_fr9_29,fr13_v2).
body(r_fr9_29,fr9_y1).
head(r_fr9_30,fr9_u2).
body(r_fr9_30,fr9_a3).
body(r_fr9_30,fr9_e2).
body(r_fr9_30,fr5_q2).
body(r_fr9_30,fr23_z2).
body(r_fr9_30,fr9_x1).
head(r_fr9_31,fr9_u2).
body(r_fr9_31,fr9_c1).
body(r_fr9_31,fr9_c2).
body(r_fr9_31,fr9_c3).
body(r_fr9_31,fr9_d1).
body(r_fr9_31,fr13_t1).
head(r_fr9_32,fr9_u2).
body(r_fr9_32,fr9_b3).
body(r_fr9_32,fr9_c1).
body(r_fr9_32,fr9_c2).
body(r_fr9_32,fr9_f1).
body(r_fr9_32,fr9_w1).
head(r_fr9_33,fr9_u2).
head(r_fr9_34,fr9_u2).
body(r_fr9_34,fr9_c2).
body(r_fr9_34,fr8_z2).
body(r_fr9_34,fr9_r3).
body(r_fr9_34,fr15_v1).
body(r_fr9_34,fr9_y1).
head(r_fr9_35,fr9_s1).
body(r_fr9_35,fr23_a2).
body(r_fr9_35,fr9_a2).
body(r_fr9_35,fr9_e1).
body(r_fr9_35,fr9_e2).
body(r_fr9_35,fr18_r3).
head(r_fr9_36,fr9_s1).
body(r_fr9_36,fr5_q2).
body(r_fr9_36,fr9_q3).
body(r_fr9_36,fr9_r3).
head(r_fr9_37,fr9_s1).
body(r_fr9_37,fr9_a2).
body(r_fr9_37,fr17_d2).
body(r_fr9_37,fr9_d2).
body(r_fr9_37,fr13_t1).
body(r_fr9_37,fr9_x2).
head(r_fr9_38,fr9_s1).
body(r_fr9_38,fr23_a2).
body(r_fr9_38,fr18_r3).
head(r_fr9_39,fr9_s1).
body(r_fr9_39,fr13_v2).
body(r_fr9_39,fr9_y1).
head(r_fr9_40,fr9_s1).
body(r_fr9_40,fr9_x2).
head(r_fr9_41,fr9_s1).
body(r_fr9_41,fr17_d2).
body(r_fr9_41,fr9_b2).
body(r_fr9_41,fr9_d2).
body(r_fr9_41,fr9_e1).
head(r_fr9_42,fr9_s1).
body(r_fr9_42,fr9_f1).
body(r_fr9_42,fr18_r3).
body(r_fr9_42,fr9_r2).
body(r_fr9_42,fr15_v1).
body(r_fr9_42,fr9_z2).
head(r_fr9_43,fr9_s1).
body(r_fr9_43,fr9_c2).
body(r_fr9_43,fr9_q2).
body(r_fr9_43,fr9_q3).
body(r_fr9_43,fr9_r2).
body(r_fr9_43,fr23_z2).
body(r_fr9_43,fr13_v2).
head(r_fr9_44,fr9_s1).
body(r_fr9_44,fr9_c1).
body(r_fr9_44,fr9_d1).
body(r_fr9_44,fr9_y1).
head(r_fr9_45,fr9_s1).
body(r_fr9_45,fr9_b3).
body(r_fr9_45,fr9_c1).
body(r_fr9_45,fr9_c2).
body(r_fr9_45,fr9_c3).
body(r_fr9_45,fr9_d1).
head(r_fr9_46,fr9_s1).
body(r_fr9_46,fr9_c2).
head(r_fr9_47,fr9_s1).
head(r_fr9_48,fr9_s1).
body(r_fr9_48,fr9_w1).
body(r_fr9_48,fr9_x1).
body(r_fr9_48,fr9_x2).
head(r_fr9_49,fr9_s1).
body(r_fr9_49,fr9_e1).
body(r_fr9_49,fr9_f2).
body(r_fr9_49,fr9_s2).
body(r_fr9_49,fr9_x2).
body(r_fr9_49,fr1_q2).
head(r_fr9_50,fr9_s1).
body(r_fr9_50,fr13_z1).
head(r_fr9_51,fr9_s1).
body(r_fr9_51,fr9_r2).
head(r_fr9_52,fr13_z1).
body(r_fr9_52,fr9_c3).
body(r_fr9_52,fr9_s2).
body(r_fr9_52,fr15_v1).
body(r_fr9_52,fr9_x2).
head(r_fr9_53,fr13_z1).
body(r_fr9_53,fr9_b3).
body(r_fr9_53,fr9_c2).
body(r_fr9_53,fr9_d1).
body(r_fr9_53,fr13_v2).
head(r_fr9_54,fr13_z1).
body(r_fr9_54,fr9_d2).
body(r_fr9_54,fr9_e1).
body(r_fr9_54,fr18_r3).
body(r_fr9_54,fr9_q2).
body(r_fr9_54,fr9_t1).
body(r_fr9_54,fr9_t2).
head(r_fr9_55,fr13_z1).
body(r_fr9_55,fr13_t1).
body(r_fr9_55,fr9_r2).
body(r_fr9_55,fr9_r3).
body(r_fr9_55,fr9_t1).
body(r_fr9_55,fr9_t2).
head(r_fr9_56,fr13_z1).
body(r_fr9_56,fr9_d1).
body(r_fr9_56,fr9_e2).
body(r_fr9_56,fr9_f2).
body(r_fr9_56,fr23_z2).
body(r_fr9_56,fr9_x2).
body(r_fr9_56,fr1_q2).
head(r_fr9_57,fr13_z1).
body(r_fr9_57,fr9_d2).
head(r_fr9_58,fr13_z1).
body(r_fr9_58,fr17_d2).
body(r_fr9_58,fr9_f1).
body(r_fr9_58,fr9_y2).
body(r_fr9_58,fr9_z2).
head(r_fr9_59,fr13_z1).
body(r_fr9_59,fr9_c1).
body(r_fr9_59,fr9_t1).
body(r_fr9_59,fr9_x2).
body(r_fr9_59,fr9_y1).
head(r_fr9_60,fr13_z1).
body(r_fr9_60,fr9_c1).
body(r_fr9_60,fr9_r3).
head(r_fr9_61,fr13_z1).
body(r_fr9_61,fr17_d2).
body(r_fr9_61,fr9_d1).
head(r_fr9_62,fr13_z1).
body(r_fr9_62,fr9_b2).
body(r_fr9_62,fr9_r2).
body(r_fr9_62,fr9_t1).
body(r_fr9_62,fr9_x1).
head(r_fr9_63,fr13_z1).
body(r_fr9_63,fr9_a2).
body(r_fr9_63,fr18_r3).
body(r_fr9_63,fr15_v1).
body(r_fr9_63,fr9_x1).
body(r_fr9_63,fr9_x2).
head(r_fr9_64,fr13_z1).
body(r_fr9_64,fr1_q2).
head(r_fr9_65,fr13_z1).
body(r_fr9_65,fr18_r3).
body(r_fr9_65,fr9_x1).
body(r_fr9_65,fr9_x2).
head(r_fr9_66,fr13_z1).
body(r_fr9_66,fr9_c3).
head(r_fr9_67,fr13_z1).
body(r_fr9_67,fr9_d1).
head(r_fr9_68,fr13_z1).
body(r_fr9_68,fr23_a2).
body(r_fr9_68,fr9_a2).
body(r_fr9_68,fr9_b3).
body(r_fr9_68,fr9_d1).
head(r_fr9_69,fr13_z1).
body(r_fr9_69,fr9_a2).
head(r_fr9_70,fr13_z1).
head(r_fr9_71,fr13_z1).
body(r_fr9_71,fr17_d2).
body(r_fr9_71,fr9_c2).
body(r_fr9_71,fr9_t1).
body(r_fr9_71,fr15_v1).
body(r_fr9_71,fr9_y1).
head(r_fr9_72,fr9_t1).
body(r_fr9_72,fr9_c2).
body(r_fr9_72,fr9_r2).
head(r_fr9_73,fr9_t1).
body(r_fr9_73,fr9_a2).
body(r_fr9_73,fr9_b2).
body(r_fr9_73,fr9_e1).
body(r_fr9_73,fr9_f1).
head(r_fr9_74,fr9_t1).
body(r_fr9_74,fr9_b3).
body(r_fr9_74,fr9_c1).
head(r_fr9_75,fr9_t1).
body(r_fr9_75,fr18_r3).
head(r_fr9_76,fr9_t1).
body(r_fr9_76,fr17_d2).
body(r_fr9_76,fr9_b3).
body(r_fr9_76,fr9_d2).
body(r_fr9_76,fr9_e1).
body(r_fr9_76,fr9_e2).
head(r_fr9_77,fr9_t1).
body(r_fr9_77,fr9_f2).
body(r_fr9_77,fr15_v1).
head(r_fr9_78,fr9_t1).
body(r_fr9_78,fr9_e2).
body(r_fr9_78,fr9_f1).
body(r_fr9_78,fr1_q2).
head(r_fr9_79,fr9_t1).
body(r_fr9_79,fr9_b3).
body(r_fr9_79,fr9_d1).
body(r_fr9_79,fr9_t2).
body(r_fr9_79,fr23_z2).
head(r_fr9_80,fr9_t1).
body(r_fr9_80,fr9_q3).
body(r_fr9_80,fr8_z2).
body(r_fr9_80,fr9_r3).
body(r_fr9_80,fr9_t2).
body(r_fr9_80,fr9_x1).
head(r_fr9_81,fr9_t1).
head(r_fr9_82,fr9_t1).
body(r_fr9_82,fr23_a2).
body(r_fr9_82,fr9_a3).
body(r_fr9_82,fr9_c1).
body(r_fr9_82,fr9_c2).
body(r_fr9_82,fr9_e1).
head(r_fr9_83,fr9_t1).
body(r_fr9_83,fr9_c1).
body(r_fr9_83,fr9_c3).
body(r_fr9_83,fr9_s2).
head(r_fr9_84,fr9_t1).
body(r_fr9_84,fr17_d2).
body(r_fr9_84,fr9_c2).
body(r_fr9_84,fr9_e2).
head(r_fr9_85,fr9_t1).
body(r_fr9_85,fr9_a3).
body(r_fr9_85,fr9_c3).
body(r_fr9_85,fr9_e1).
body(r_fr9_85,fr9_e2).
body(r_fr9_85,fr9_f2).
body(r_fr9_85,fr1_q2).
head(r_fr9_86,fr9_t1).
body(r_fr9_86,fr9_a2).
body(r_fr9_86,fr9_r3).
body(r_fr9_86,fr9_t2).
body(r_fr9_86,fr13_v2).
body(r_fr9_86,fr9_z2).
head(r_fr9_87,fr9_t1).
body(r_fr9_87,fr9_a2).
body(r_fr9_87,fr17_d2).
body(r_fr9_87,fr9_b2).
body(r_fr9_87,fr9_c2).
body(r_fr9_87,fr9_d2).
head(r_fr9_88,fr9_t1).
body(r_fr9_88,fr23_a2).
body(r_fr9_88,fr9_b2).
body(r_fr9_88,fr9_c3).
body(r_fr9_88,fr9_s2).
body(r_fr9_88,fr9_w1).
body(r_fr9_88,fr1_q2).
head(r_fr9_89,fr9_t1).
body(r_fr9_89,fr23_a2).
body(r_fr9_89,fr9_c3).
body(r_fr9_89,fr9_f2).
body(r_fr9_89,fr9_x1).
head(r_fr9_90,fr9_t1).
body(r_fr9_90,fr9_a3).
body(r_fr9_90,fr9_d2).
body(r_fr9_90,fr9_q3).
body(r_fr9_90,fr9_x2).
head(r_fr9_91,fr13_t1).
body(r_fr9_91,fr9_f1).
body(r_fr9_91,fr9_f2).
head(r_fr9_92,fr13_t1).
body(r_fr9_92,fr23_z2).
head(r_fr9_93,fr13_t1).
body(r_fr9_93,fr9_f1).
body(r_fr9_93,fr5_q2).
body(r_fr9_93,fr9_r3).
head(r_fr9_94,fr13_t1).
body(r_fr9_94,fr23_a2).
body(r_fr9_94,fr9_c3).
body(r_fr9_94,fr9_f1).
body(r_fr9_94,fr9_r3).
body(r_fr9_94,fr9_w1).
head(r_fr9_95,fr13_t1).
body(r_fr9_95,fr9_a3).
body(r_fr9_95,fr17_d2).
body(r_fr9_95,fr9_t2).
body(r_fr9_95,fr15_v1).
body(r_fr9_95,fr9_w1).
body(r_fr9_95,fr9_z2).
head(r_fr9_96,fr13_t1).
body(r_fr9_96,fr9_d1).
body(r_fr9_96,fr5_q2).
body(r_fr9_96,fr9_q3).
body(r_fr9_96,fr8_z2).
body(r_fr9_96,fr9_t2).
body(r_fr9_96,fr9_w1).
head(r_fr9_97,fr13_t1).
body(r_fr9_97,fr9_b2).
body(r_fr9_97,fr9_t2).
head(r_fr9_98,fr13_t1).
body(r_fr9_98,fr9_f2).
body(r_fr9_98,fr9_t2).
body(r_fr9_98,fr15_v1).
head(r_fr9_99,fr13_t1).
body(r_fr9_99,fr9_a2).
body(r_fr9_99,fr17_d2).
body(r_fr9_99,fr9_c1).
body(r_fr9_99,fr9_c2).
body(r_fr9_99,fr9_d2).
body(r_fr9_99,fr9_r3).
head(r_fr9_100,fr13_t1).
body(r_fr9_100,fr9_e2).
head(r_fr9_101,fr13_t1).
body(r_fr9_101,fr9_x2).
body(r_fr9_101,fr9_z2).
head(r_fr9_102,fr13_t1).
body(r_fr9_102,fr9_x2).
head(r_fr9_103,fr13_t1).
body(r_fr9_103,fr18_r3).
body(r_fr9_103,fr9_w1).
head(r_fr9_104,fr13_t1).
body(r_fr9_104,fr9_d1).
body(r_fr9_104,fr9_f1).
body(r_fr9_104,fr5_q2).
body(r_fr9_104,fr13_v2).
head(r_fr9_105,fr13_t1).
body(r_fr9_105,fr5_q2).
body(r_fr9_105,fr18_r3).
body(r_fr9_105,fr9_q2).
body(r_fr9_105,fr15_v1).
body(r_fr9_105,fr9_y1).
body(r_fr9_105,fr9_z2).
head(r_fr9_106,fr13_t1).
head(r_fr9_107,fr13_t1).
body(r_fr9_107,fr23_a2).
body(r_fr9_107,fr9_r3).
body(r_fr9_107,fr9_w1).
head(r_fr9_108,fr13_t1).
body(r_fr9_108,fr9_a2).
body(r_fr9_108,fr13_v2).
body(r_fr9_108,fr9_y2).
head(r_fr9_109,fr13_t1).
body(r_fr9_109,fr9_a3).
body(r_fr9_109,fr9_c2).
head(r_fr9_110,fr9_z2).
body(r_fr9_110,fr9_e1).
head(r_fr9_111,fr9_z2).
body(r_fr9_111,fr15_v1).
head(r_fr9_112,fr9_z2).
body(r_fr9_112,fr18_r3).
body(r_fr9_112,fr9_q3).
body(r_fr9_112,fr9_r2).
body(r_fr9_112,fr9_r3).
body(r_fr9_112,fr9_s2).
body(r_fr9_112,fr13_v2).
head(r_fr9_113,fr9_z2).
body(r_fr9_113,fr9_c2).
head(r_fr9_114,fr9_z2).
body(r_fr9_114,fr9_f1).
body(r_fr9_114,fr18_r3).
body(r_fr9_114,fr8_z2).
body(r_fr9_114,fr23_z2).
body(r_fr9_114,fr9_w1).
body(r_fr9_114,fr9_y2).
head(r_fr9_115,fr9_z2).
body(r_fr9_115,fr9_e2).
body(r_fr9_115,fr15_v1).
body(r_fr9_115,fr23_z2).
body(r_fr9_115,fr1_q2).
head(r_fr9_116,fr9_z2).
body(r_fr9_116,fr5_q2).
body(r_fr9_116,fr13_v2).
body(r_fr9_116,fr9_y2).
head(r_fr9_117,fr9_z2).
body(r_fr9_117,fr9_d2).
body(r_fr9_117,fr18_r3).
body(r_fr9_117,fr9_r2).
body(r_fr9_117,fr9_t2).
body(r_fr9_117,fr15_v1).
body(r_fr9_117,fr13_v2).
head(r_fr9_118,fr9_z2).
body(r_fr9_118,fr9_a2).
body(r_fr9_118,fr9_a3).
body(r_fr9_118,fr17_d2).
body(r_fr9_118,fr9_f2).
body(r_fr9_118,fr9_y2).
head(r_fr9_119,fr9_z2).
body(r_fr9_119,fr23_a2).
body(r_fr9_119,fr9_b3).
body(r_fr9_119,fr9_e1).
body(r_fr9_119,fr9_e2).
body(r_fr9_119,fr9_q3).
body(r_fr9_119,fr9_x1).
head(r_fr9_120,fr9_z2).
body(r_fr9_120,fr23_a2).
body(r_fr9_120,fr9_c1).
body(r_fr9_120,fr9_d1).
body(r_fr9_120,fr9_r3).
body(r_fr9_120,fr9_t2).
head(r_fr9_121,fr9_z2).
head(r_fr9_122,fr9_z2).
body(r_fr9_122,fr23_a2).
body(r_fr9_122,fr9_a3).
body(r_fr9_122,fr9_b2).
body(r_fr9_122,fr9_c1).
body(r_fr9_122,fr9_f1).
body(r_fr9_122,fr9_f2).
head(r_fr9_123,fr9_z2).
body(r_fr9_123,fr9_b2).
body(r_fr9_123,fr9_b3).
body(r_fr9_123,fr9_d2).
body(r_fr9_123,fr9_e2).
body(r_fr9_123,fr9_f1).
head(r_fr9_124,fr9_z2).
body(r_fr9_124,fr17_d2).
body(r_fr9_124,fr9_c3).
body(r_fr9_124,fr5_q2).
body(r_fr9_124,fr9_x1).
head(r_fr9_125,fr9_z2).
body(r_fr9_125,fr9_q2).
body(r_fr9_125,fr23_z2).
body(r_fr9_125,fr13_v2).
body(r_fr9_125,fr9_w1).
body(r_fr9_125,fr9_y1).
body(r_fr9_125,fr1_q2).
head(r_fr9_126,fr9_z2).
body(r_fr9_126,fr9_a2).
body(r_fr9_126,fr9_a3).
body(r_fr9_126,fr17_d2).
body(r_fr9_126,fr9_b2).
body(r_fr9_126,fr9_c1).
body(r_fr9_126,fr9_s2).
head(r_fr9_127,fr9_z2).
body(r_fr9_127,fr9_b2).
body(r_fr9_127,fr9_c1).
body(r_fr9_127,fr23_z2).
head(r_fr9_128,fr9_z2).
body(r_fr9_128,fr9_q2).
body(r_fr9_128,fr13_v2).
head(r_fr9_129,fr9_z2).
body(r_fr9_129,fr9_y1).
body(r_fr9_129,fr1_q2).
head(r_fr9_130,fr9_y2).
body(r_fr9_130,fr9_c3).
body(r_fr9_130,fr9_f2).
body(r_fr9_130,fr9_t2).
body(r_fr9_130,fr15_v1).
body(r_fr9_130,fr9_x2).
head(r_fr9_131,fr9_y2).
body(r_fr9_131,fr9_q3).
body(r_fr9_131,fr8_z2).
body(r_fr9_131,fr9_s2).
body(r_fr9_131,fr9_t2).
body(r_fr9_131,fr9_x1).
head(r_fr9_132,fr9_y2).
body(r_fr9_132,fr23_a2).
body(r_fr9_132,fr9_b2).
body(r_fr9_132,fr9_c1).
body(r_fr9_132,fr9_w1).
body(r_fr9_132,fr9_x1).
body(r_fr9_132,fr9_x2).
head(r_fr9_133,fr9_y2).
body(r_fr9_133,fr9_f2).
body(r_fr9_133,fr9_x2).
head(r_fr9_134,fr9_y2).
body(r_fr9_134,fr18_r3).
body(r_fr9_134,fr9_t2).
head(r_fr9_135,fr9_y2).
body(r_fr9_135,fr23_z2).
head(r_fr9_136,fr9_y2).
body(r_fr9_136,fr9_b3).
body(r_fr9_136,fr8_z2).
body(r_fr9_136,fr9_r3).
body(r_fr9_136,fr23_z2).
head(r_fr9_137,fr9_y2).
body(r_fr9_137,fr9_c1).
body(r_fr9_137,fr9_f1).
body(r_fr9_137,fr23_z2).
head(r_fr9_138,fr9_y2).
body(r_fr9_138,fr23_a2).
body(r_fr9_138,fr9_a3).
body(r_fr9_138,fr9_d1).
body(r_fr9_138,fr9_q3).
body(r_fr9_138,fr9_r3).
body(r_fr9_138,fr9_x1).
head(r_fr9_139,fr9_y2).
head(r_fr9_140,fr9_y2).
body(r_fr9_140,fr23_a2).
body(r_fr9_140,fr9_a2).
head(r_fr9_141,fr9_y2).
body(r_fr9_141,fr17_d2).
body(r_fr9_141,fr9_b3).
body(r_fr9_141,fr9_c1).
body(r_fr9_141,fr9_e1).
body(r_fr9_141,fr9_f1).
body(r_fr9_141,fr9_y1).
head(r_fr9_142,fr9_y2).
body(r_fr9_142,fr1_q2).
head(r_fr9_143,fr9_y2).
body(r_fr9_143,fr9_f1).
body(r_fr9_143,fr9_f2).
body(r_fr9_143,fr9_s2).
body(r_fr9_143,fr13_v2).
body(r_fr9_143,fr1_q2).
head(r_fr9_144,fr9_y2).
body(r_fr9_144,fr9_e1).
body(r_fr9_144,fr9_f1).
body(r_fr9_144,fr18_r3).
body(r_fr9_144,fr9_x1).
head(r_fr9_145,fr9_y2).
body(r_fr9_145,fr17_d2).
body(r_fr9_145,fr9_b2).
body(r_fr9_145,fr9_d1).
body(r_fr9_145,fr9_t2).
head(r_fr9_146,fr9_y2).
body(r_fr9_146,fr9_e2).
body(r_fr9_146,fr9_q3).
body(r_fr9_146,fr9_s2).
body(r_fr9_146,fr9_x1).
head(r_fr9_147,fr9_q2).
body(r_fr9_147,fr9_a2).
body(r_fr9_147,fr15_v1).
head(r_fr9_148,fr9_q2).
body(r_fr9_148,fr9_b3).
body(r_fr9_148,fr9_d1).
body(r_fr9_148,fr23_z2).
body(r_fr9_148,fr9_w1).
body(r_fr9_148,fr9_y1).
head(r_fr9_149,fr9_q2).
body(r_fr9_149,fr23_a2).
body(r_fr9_149,fr9_d2).
body(r_fr9_149,fr9_t2).
body(r_fr9_149,fr1_q2).
head(r_fr9_150,fr9_q2).
body(r_fr9_150,fr8_z2).
head(r_fr9_151,fr9_q2).
body(r_fr9_151,fr9_a2).
body(r_fr9_151,fr9_a3).
head(r_fr9_152,fr9_q2).
body(r_fr9_152,fr17_d2).
body(r_fr9_152,fr9_b3).
body(r_fr9_152,fr9_d1).
body(r_fr9_152,fr9_f1).
head(r_fr9_153,fr9_q2).
body(r_fr9_153,fr9_e1).
body(r_fr9_153,fr9_e2).
body(r_fr9_153,fr5_q2).
body(r_fr9_153,fr9_q3).
body(r_fr9_153,fr9_r2).
body(r_fr9_153,fr9_t2).
head(r_fr9_154,fr9_q2).
body(r_fr9_154,fr9_d1).
head(r_fr9_155,fr9_q2).
body(r_fr9_155,fr23_z2).
body(r_fr9_155,fr1_q2).
head(r_fr9_156,fr9_q2).
body(r_fr9_156,fr9_d2).
body(r_fr9_156,fr9_e1).
body(r_fr9_156,fr9_s2).
body(r_fr9_156,fr9_t2).
body(r_fr9_156,fr15_v1).
body(r_fr9_156,fr9_y1).
head(r_fr9_157,fr9_q2).
body(r_fr9_157,fr9_c1).
body(r_fr9_157,fr9_d1).
head(r_fr9_158,fr9_q2).
body(r_fr9_158,fr9_a2).
body(r_fr9_158,fr9_d2).
body(r_fr9_158,fr9_f1).
head(r_fr9_159,fr9_q2).
body(r_fr9_159,fr23_a2).
body(r_fr9_159,fr9_e2).
body(r_fr9_159,fr9_s2).
head(r_fr9_160,fr9_q2).
body(r_fr9_160,fr17_d2).
body(r_fr9_160,fr9_d1).
head(r_fr9_161,fr9_q2).
body(r_fr9_161,fr9_a3).
body(r_fr9_161,fr9_c1).
body(r_fr9_161,fr9_e2).
head(r_fr9_162,fr9_q2).
head(r_fr9_163,fr9_q2).
body(r_fr9_163,fr23_z2).
body(r_fr9_163,fr13_v2).
body(r_fr9_163,fr9_y1).
head(r_fr9_164,fr5_q2).
body(r_fr9_164,fr15_v1).
head(r_fr9_165,fr5_q2).
body(r_fr9_165,fr9_b2).
body(r_fr9_165,fr9_d1).
body(r_fr9_165,fr18_r3).
body(r_fr9_165,fr9_r2).
body(r_fr9_165,fr23_z2).
head(r_fr9_166,fr5_q2).
body(r_fr9_166,fr9_a3).
body(r_fr9_166,fr9_c1).
body(r_fr9_166,fr9_d2).
body(r_fr9_166,fr9_e2).
body(r_fr9_166,fr9_f1).
body(r_fr9_166,fr9_x2).
head(r_fr9_167,fr5_q2).
body(r_fr9_167,fr9_b3).
body(r_fr9_167,fr9_r2).
head(r_fr9_168,fr5_q2).
body(r_fr9_168,fr9_a2).
body(r_fr9_168,fr9_e2).
body(r_fr9_168,fr15_v1).
body(r_fr9_168,fr9_w1).
body(r_fr9_168,fr9_y1).
head(r_fr9_169,fr5_q2).
body(r_fr9_169,fr9_b3).
body(r_fr9_169,fr9_c1).
body(r_fr9_169,fr9_r2).
body(r_fr9_169,fr9_s2).
body(r_fr9_169,fr9_t2).
head(r_fr9_170,fr5_q2).
body(r_fr9_170,fr9_b3).
body(r_fr9_170,fr9_c2).
head(r_fr9_171,fr5_q2).
body(r_fr9_171,fr9_a2).
body(r_fr9_171,fr9_a3).
body(r_fr9_171,fr9_f2).
body(r_fr9_171,fr9_r2).
body(r_fr9_171,fr9_r3).
head(r_fr9_172,fr5_q2).
body(r_fr9_172,fr9_r3).
head(r_fr9_173,fr5_q2).
body(r_fr9_173,fr9_d1).
body(r_fr9_173,fr9_e1).
body(r_fr9_173,fr9_e2).
head(r_fr9_174,fr5_q2).
body(r_fr9_174,fr9_e2).
head(r_fr9_175,fr5_q2).
head(r_fr9_176,fr5_q2).
body(r_fr9_176,fr9_b3).
body(r_fr9_176,fr9_f2).
head(r_fr9_177,fr5_q2).
body(r_fr9_177,fr9_d2).
body(r_fr9_177,fr9_e2).
body(r_fr9_177,fr9_t2).
body(r_fr9_177,fr9_x2).
body(r_fr9_177,fr9_y1).
head(r_fr9_178,fr5_q2).
body(r_fr9_178,fr9_a3).
head(r_fr9_179,fr5_q2).
body(r_fr9_179,fr9_a3).
body(r_fr9_179,fr9_e1).
body(r_fr9_179,fr9_e2).
body(r_fr9_179,fr18_r3).
body(r_fr9_179,fr13_v2).
body(r_fr9_179,fr9_x1).
head(r_fr9_180,fr5_q2).
body(r_fr9_180,fr13_v2).
head(r_fr9_181,fr9_q3).
body(r_fr9_181,fr9_a2).
body(r_fr9_181,fr18_r3).
body(r_fr9_181,fr13_v2).
body(r_fr9_181,fr9_x2).
head(r_fr9_182,fr9_q3).
body(r_fr9_182,fr9_d1).
body(r_fr9_182,fr9_d2).
body(r_fr9_182,fr18_r3).
head(r_fr9_183,fr9_q3).
body(r_fr9_183,fr9_r2).
body(r_fr9_183,fr15_v1).
body(r_fr9_183,fr23_z2).
head(r_fr9_184,fr9_q3).
body(r_fr9_184,fr9_d1).
head(r_fr9_185,fr9_q3).
body(r_fr9_185,fr18_r3).
body(r_fr9_185,fr9_r3).
body(r_fr9_185,fr9_s2).
body(r_fr9_185,fr13_v2).
body(r_fr9_185,fr9_x1).
body(r_fr9_185,fr9_y1).
head(r_fr9_186,fr9_q3).
body(r_fr9_186,fr9_e2).
body(r_fr9_186,fr13_v2).
head(r_fr9_187,fr9_q3).
body(r_fr9_187,fr9_d1).
body(r_fr9_187,fr9_e2).
body(r_fr9_187,fr9_r3).
body(r_fr9_187,fr9_t2).
body(r_fr9_187,fr15_v1).
body(r_fr9_187,fr13_v2).
head(r_fr9_188,fr9_q3).
body(r_fr9_188,fr9_a3).
head(r_fr9_189,fr9_q3).
body(r_fr9_189,fr9_f2).
body(r_fr9_189,fr9_t2).
body(r_fr9_189,fr13_v2).
body(r_fr9_189,fr9_w1).
body(r_fr9_189,fr9_x1).
body(r_fr9_189,fr9_x2).
head(r_fr9_190,fr9_q3).
body(r_fr9_190,fr9_w1).
head(r_fr9_191,fr9_q3).
body(r_fr9_191,fr9_a3).
body(r_fr9_191,fr9_c1).
body(r_fr9_191,fr9_c2).
body(r_fr9_191,fr9_e1).
body(r_fr9_191,fr9_f1).
body(r_fr9_191,fr9_f2).
head(r_fr9_192,fr9_q3).
body(r_fr9_192,fr8_z2).
body(r_fr9_192,fr9_t2).
body(r_fr9_192,fr15_v1).
head(r_fr9_193,fr9_q3).
body(r_fr9_193,fr17_d2).
body(r_fr9_193,fr9_e1).
body(r_fr9_193,fr9_r2).
body(r_fr9_193,fr9_s2).
head(r_fr9_194,fr9_q3).
body(r_fr9_194,fr23_a2).
body(r_fr9_194,fr9_d2).
body(r_fr9_194,fr9_f2).
head(r_fr9_195,fr9_q3).
head(r_fr9_196,fr9_q3).
body(r_fr9_196,fr9_c2).
body(r_fr9_196,fr9_r3).
body(r_fr9_196,fr1_q2).
head(r_fr9_197,fr9_q3).
body(r_fr9_197,fr9_x2).
head(r_fr9_198,fr9_q3).
body(r_fr9_198,fr9_f1).
body(r_fr9_198,fr8_z2).
body(r_fr9_198,fr13_v2).
head(r_fr9_199,fr9_q3).
body(r_fr9_199,fr9_c1).
body(r_fr9_199,fr9_c3).
body(r_fr9_199,fr9_d1).
head(r_fr9_200,fr23_z2).
body(r_fr9_200,fr17_d2).
body(r_fr9_200,fr9_b3).
body(r_fr9_200,fr9_d2).
body(r_fr9_200,fr9_e1).
body(r_fr9_200,fr9_f1).
head(r_fr9_201,fr23_z2).
body(r_fr9_201,fr9_f2).
head(r_fr9_202,fr23_z2).
body(r_fr9_202,fr17_d2).
body(r_fr9_202,fr8_z2).
body(r_fr9_202,fr9_t2).
body(r_fr9_202,fr13_v2).
body(r_fr9_202,fr9_x1).
body(r_fr9_202,fr9_y1).
head(r_fr9_203,fr23_z2).
body(r_fr9_203,fr9_b2).
head(r_fr9_204,fr23_z2).
body(r_fr9_204,fr9_d1).
body(r_fr9_204,fr8_z2).
body(r_fr9_204,fr15_v1).
head(r_fr9_205,fr23_z2).
body(r_fr9_205,fr17_d2).
head(r_fr9_206,fr23_z2).
head(r_fr9_207,fr23_z2).
body(r_fr9_207,fr23_a2).
body(r_fr9_207,fr9_s2).
head(r_fr9_208,fr23_z2).
body(r_fr9_208,fr9_b3).
body(r_fr9_208,fr9_c2).
body(r_fr9_208,fr9_d1).
body(r_fr9_208,fr8_z2).
body(r_fr9_208,fr13_v2).
body(r_fr9_208,fr9_y1).
head(r_fr9_209,fr23_z2).
body(r_fr9_209,fr9_a3).
body(r_fr9_209,fr9_c2).
body(r_fr9_209,fr9_c3).
body(r_fr9_209,fr9_d2).
body(r_fr9_209,fr8_z2).
body(r_fr9_209,fr9_r3).
head(r_fr9_210,fr23_z2).
body(r_fr9_210,fr9_s2).
head(r_fr9_211,fr23_z2).
body(r_fr9_211,fr17_d2).
body(r_fr9_211,fr9_c2).
body(r_fr9_211,fr9_c3).
body(r_fr9_211,fr9_e2).
body(r_fr9_211,fr9_f1).
head(r_fr9_212,fr23_z2).
body(r_fr9_212,fr9_x1).
head(r_fr9_213,fr23_z2).
body(r_fr9_213,fr17_d2).
body(r_fr9_213,fr9_c2).
body(r_fr9_213,fr9_d1).
body(r_fr9_213,fr9_d2).
body(r_fr9_213,fr9_e2).
body(r_fr9_213,fr9_f2).
head(r_fr9_214,fr23_z2).
body(r_fr9_214,fr9_a3).
body(r_fr9_214,fr9_e2).
body(r_fr9_214,fr9_f2).
head(r_fr9_215,fr23_z2).
body(r_fr9_215,fr9_a3).
body(r_fr9_215,fr9_f1).
body(r_fr9_215,fr9_f2).
body(r_fr9_215,fr9_s2).
head(r_fr9_216,fr23_z2).
body(r_fr9_216,fr9_a2).
body(r_fr9_216,fr9_a3).
body(r_fr9_216,fr17_d2).
body(r_fr9_216,fr9_e2).
body(r_fr9_216,fr9_w1).
body(r_fr9_216,fr9_x2).
head(r_fr9_217,fr23_z2).
body(r_fr9_217,fr9_b3).
body(r_fr9_217,fr9_c2).
body(r_fr9_217,fr9_d1).
body(r_fr9_217,fr9_d2).
body(r_fr9_217,fr9_f1).
head(r_fr9_218,fr8_z2).
body(r_fr9_218,fr9_r3).
body(r_fr9_218,fr1_q2).
head(r_fr9_219,fr8_z2).
body(r_fr9_219,fr9_x2).
head(r_fr9_220,fr8_z2).
body(r_fr9_220,fr9_d2).
body(r_fr9_220,fr9_e2).
body(r_fr9_220,fr9_t2).
head(r_fr9_221,fr8_z2).
body(r_fr9_221,fr9_c3).
body(r_fr9_221,fr9_d2).
body(r_fr9_221,fr9_f2).
body(r_fr9_221,fr9_r2).
body(r_fr9_221,fr9_x1).
body(r_fr9_221,fr9_y1).
head(r_fr9_222,fr8_z2).
body(r_fr9_222,fr9_w1).
head(r_fr9_223,fr8_z2).
body(r_fr9_223,fr9_a2).
body(r_fr9_223,fr9_b2).
body(r_fr9_223,fr9_e1).
body(r_fr9_223,fr9_f1).
head(r_fr9_224,fr8_z2).
body(r_fr9_224,fr18_r3).
body(r_fr9_224,fr9_t2).
body(r_fr9_224,fr9_x1).
body(r_fr9_224,fr1_q2).
head(r_fr9_225,fr8_z2).
body(r_fr9_225,fr15_v1).
body(r_fr9_225,fr13_v2).
head(r_fr9_226,fr8_z2).
body(r_fr9_226,fr9_c2).
body(r_fr9_226,fr9_e1).
body(r_fr9_226,fr9_e2).
body(r_fr9_226,fr18_r3).
head(r_fr9_227,fr8_z2).
body(r_fr9_227,fr9_t2).
body(r_fr9_227,fr15_v1).
body(r_fr9_227,fr13_v2).
body(r_fr9_227,fr9_w1).
body(r_fr9_227,fr9_y1).
head(r_fr9_228,fr8_z2).
body(r_fr9_228,fr9_a2).
body(r_fr9_228,fr9_e2).
head(r_fr9_229,fr8_z2).
body(r_fr9_229,fr15_v1).
body(r_fr9_229,fr13_v2).
body(r_fr9_229,fr9_y1).
head(r_fr9_230,fr8_z2).
head(r_fr9_231,fr8_z2).
body(r_fr9_231,fr9_a3).
head(r_fr9_232,fr8_z2).
body(r_fr9_232,fr9_a3).
body(r_fr9_232,fr9_b2).
body(r_fr9_232,fr9_s2).
body(r_fr9_232,fr9_w1).
body(r_fr9_232,fr9_x2).
head(r_fr9_233,fr8_z2).
body(r_fr9_233,fr15_v1).
body(r_fr9_233,fr9_x2).
head(r_fr9_234,fr8_z2).
body(r_fr9_234,fr9_b2).
body(r_fr9_234,fr9_e2).
body(r_fr9_234,fr9_r3).
body(r_fr9_234,fr9_t2).
body(r_fr9_234,fr9_w1).
body(r_fr9_234,fr9_x2).
head(r_fr9_235,fr9_w1).
body(r_fr9_235,fr9_s2).
body(r_fr9_235,fr15_v1).
head(r_fr9_236,fr9_w1).
body(r_fr9_236,fr23_a2).
body(r_fr9_236,fr9_a2).
body(r_fr9_236,fr9_b3).
body(r_fr9_236,fr9_c1).
body(r_fr9_236,fr9_d2).
head(r_fr9_237,fr9_w1).
body(r_fr9_237,fr18_r3).
body(r_fr9_237,fr9_r2).
body(r_fr9_237,fr9_t2).
body(r_fr9_237,fr9_y1).
head(r_fr9_238,fr9_w1).
body(r_fr9_238,fr9_c3).
body(r_fr9_238,fr9_e2).
body(r_fr9_238,fr9_x2).
body(r_fr9_238,fr9_y1).
head(r_fr9_239,fr9_w1).
body(r_fr9_239,fr9_r2).
body(r_fr9_239,fr9_y1).
head(r_fr9_240,fr9_w1).
body(r_fr9_240,fr9_r2).
body(r_fr9_240,fr9_x1).
body(r_fr9_240,fr9_x2).
body(r_fr9_240,fr9_y1).
head(r_fr9_241,fr9_w1).
body(r_fr9_241,fr23_a2).
body(r_fr9_241,fr17_d2).
body(r_fr9_241,fr9_f1).
body(r_fr9_241,fr9_t2).
body(r_fr9_241,fr13_v2).
head(r_fr9_242,fr9_w1).
body(r_fr9_242,fr9_a2).
body(r_fr9_242,fr9_b2).
body(r_fr9_242,fr9_d1).
body(r_fr9_242,fr9_e2).
body(r_fr9_242,fr15_v1).
head(r_fr9_243,fr9_w1).
body(r_fr9_243,fr9_s2).
body(r_fr9_243,fr13_v2).
head(r_fr9_244,fr9_w1).
body(r_fr9_244,fr17_d2).
head(r_fr9_245,fr9_w1).
body(r_fr9_245,fr18_r3).
body(r_fr9_245,fr13_v2).
body(r_fr9_245,fr9_y1).
head(r_fr9_246,fr9_w1).
body(r_fr9_246,fr23_a2).
body(r_fr9_246,fr9_a2).
body(r_fr9_246,fr9_b2).
body(r_fr9_246,fr9_t2).
body(r_fr9_246,fr9_x1).
head(r_fr9_247,fr9_w1).
body(r_fr9_247,fr23_a2).
body(r_fr9_247,fr9_b2).
body(r_fr9_247,fr9_f1).
head(r_fr9_248,fr9_w1).
body(r_fr9_248,fr9_a3).
body(r_fr9_248,fr9_d1).
body(r_fr9_248,fr9_r3).
body(r_fr9_248,fr13_v2).
head(r_fr9_249,fr9_w1).
body(r_fr9_249,fr9_c2).
body(r_fr9_249,fr9_c3).
body(r_fr9_249,fr9_e2).
body(r_fr9_249,fr9_r2).
body(r_fr9_249,fr9_y1).
head(r_fr9_250,fr9_w1).
head(r_fr9_251,fr9_w1).
body(r_fr9_251,fr18_r3).
body(r_fr9_251,fr9_y1).
head(r_fr9_252,fr9_w1).
body(r_fr9_252,fr23_a2).
body(r_fr9_252,fr9_b3).
body(r_fr9_252,fr9_d1).
body(r_fr9_252,fr9_e1).
head(r_fr9_253,fr15_v1).
body(r_fr9_253,fr9_b2).
body(r_fr9_253,fr13_v2).
body(r_fr9_253,fr9_x1).
head(r_fr9_254,fr15_v1).
body(r_fr9_254,fr18_r3).
body(r_fr9_254,fr9_r3).
body(r_fr9_254,fr9_s2).
body(r_fr9_254,fr13_v2).
body(r_fr9_254,fr9_x2).
head(r_fr9_255,fr15_v1).
body(r_fr9_255,fr17_d2).
body(r_fr9_255,fr9_d2).
head(r_fr9_256,fr15_v1).
body(r_fr9_256,fr9_r2).
body(r_fr9_256,fr9_t2).
body(r_fr9_256,fr9_x2).
body(r_fr9_256,fr9_y1).
head(r_fr9_257,fr15_v1).
body(r_fr9_257,fr17_d2).
body(r_fr9_257,fr1_q2).
head(r_fr9_258,fr15_v1).
body(r_fr9_258,fr17_d2).
body(r_fr9_258,fr9_b2).
body(r_fr9_258,fr9_d2).
body(r_fr9_258,fr9_e1).
body(r_fr9_258,fr9_e2).
body(r_fr9_258,fr9_f1).
head(r_fr9_259,fr15_v1).
body(r_fr9_259,fr9_c3).
body(r_fr9_259,fr9_r3).
body(r_fr9_259,fr9_s2).
body(r_fr9_259,fr9_x2).
head(r_fr9_260,fr15_v1).
body(r_fr9_260,fr9_c3).
body(r_fr9_260,fr9_d2).
body(r_fr9_260,fr9_f2).
head(r_fr9_261,fr15_v1).
body(r_fr9_261,fr9_r2).
head(r_fr9_262,fr15_v1).
body(r_fr9_262,fr17_d2).
body(r_fr9_262,fr9_b2).
body(r_fr9_262,fr9_c1).
body(r_fr9_262,fr9_x2).
body(r_fr9_262,fr9_y1).
head(r_fr9_263,fr15_v1).
body(r_fr9_263,fr9_d1).
body(r_fr9_263,fr9_f1).
body(r_fr9_263,fr9_y1).
head(r_fr9_264,fr15_v1).
body(r_fr9_264,fr9_a3).
body(r_fr9_264,fr9_b3).
head(r_fr9_265,fr15_v1).
head(r_fr9_266,fr15_v1).
body(r_fr9_266,fr9_r2).
body(r_fr9_266,fr9_r3).
body(r_fr9_266,fr9_y1).
head(r_fr9_267,fr15_v1).
body(r_fr9_267,fr9_t2).
head(r_fr9_268,fr15_v1).
body(r_fr9_268,fr9_r3).
body(r_fr9_268,fr9_x1).
body(r_fr9_268,fr9_x2).
head(r_fr9_269,fr15_v1).
body(r_fr9_269,fr18_r3).
body(r_fr9_269,fr9_x2).
head(r_fr9_270,fr15_v1).
body(r_fr9_270,fr9_c2).
body(r_fr9_270,fr9_d2).
head(r_fr9_271,fr15_v1).
body(r_fr9_271,fr18_r3).
body(r_fr9_271,fr9_r2).
body(r_fr9_271,fr9_r3).
body(r_fr9_271,fr9_t2).
body(r_fr9_271,fr13_v2).
head(r_fr9_272,fr15_v1).
body(r_fr9_272,fr9_b3).
head(r_fr9_273,fr1_q2).
body(r_fr9_273,fr9_b2).
body(r_fr9_273,fr13_v2).
head(r_fr9_274,fr1_q2).
body(r_fr9_274,fr9_a3).
body(r_fr9_274,fr9_f1).
body(r_fr9_274,fr9_x1).
head(r_fr9_275,fr1_q2).
body(r_fr9_275,fr9_c1).
body(r_fr9_275,fr9_d2).
head(r_fr9_276,fr1_q2).
body(r_fr9_276,fr9_e1).
body(r_fr9_276,fr9_x2).
head(r_fr9_277,fr1_q2).
body(r_fr9_277,fr9_c2).
body(r_fr9_277,fr9_f2).
body(r_fr9_277,fr9_y1).
head(r_fr9_278,fr1_q2).
body(r_fr9_278,fr9_s2).
body(r_fr9_278,fr9_x1).
body(r_fr9_278,fr9_y1).
head(r_fr9_279,fr1_q2).
head(r_fr9_280,fr1_q2).
body(r_fr9_280,fr9_r2).
body(r_fr9_280,fr9_s2).
head(r_fr9_281,fr1_q2).
body(r_fr9_281,fr9_c3).
head(r_fr9_282,fr1_q2).
body(r_fr9_282,fr13_v2).
head(r_fr9_283,fr1_q2).
body(r_fr9_283,fr9_r2).
body(r_fr9_283,fr9_r3).
body(r_fr9_283,fr9_s2).
body(r_fr9_283,fr9_y1).
head(r_fr9_284,fr1_q2).
body(r_fr9_284,fr23_a2).
body(r_fr9_284,fr17_d2).
body(r_fr9_284,fr9_d1).
body(r_fr9_284,fr9_r3).
head(r_fr9_285,fr1_q2).
body(r_fr9_285,fr23_a2).
body(r_fr9_285,fr9_c3).
body(r_fr9_285,fr9_d1).
body(r_fr9_285,fr9_e2).
head(r_fr9_286,fr1_q2).
body(r_fr9_286,fr9_b2).
body(r_fr9_286,fr9_c3).
body(r_fr9_286,fr18_r3).
body(r_fr9_286,fr9_s2).
head(r_fr9_287,fr1_q2).
body(r_fr9_287,fr9_e1).
body(r_fr9_287,fr9_e2).
head(r_fr9_288,fr1_q2).
body(r_fr9_288,fr9_a2).
body(r_fr9_288,fr9_c2).
body(r_fr9_288,fr9_r3).
body(r_fr9_288,fr9_t2).
body(r_fr9_288,fr9_x2).
head(r_fr9_289,fr1_q2).
body(r_fr9_289,fr9_d2).
head(r_fr9_290,fr18_r3).
body(r_fr9_290,fr17_d2).
body(r_fr9_290,fr9_f2).
body(r_fr9_290,fr9_s2).
head(r_fr9_291,fr18_r3).
body(r_fr9_291,fr9_s2).
body(r_fr9_291,fr9_t2).
body(r_fr9_291,fr9_x1).
body(r_fr9_291,fr9_y1).
head(r_fr9_292,fr18_r3).
body(r_fr9_292,fr9_d2).
body(r_fr9_292,fr9_r2).
body(r_fr9_292,fr13_v2).
body(r_fr9_292,fr9_x1).
body(r_fr9_292,fr9_y1).
head(r_fr9_293,fr18_r3).
body(r_fr9_293,fr9_e2).
body(r_fr9_293,fr9_r3).
body(r_fr9_293,fr9_s2).
body(r_fr9_293,fr13_v2).
body(r_fr9_293,fr9_x1).
body(r_fr9_293,fr9_y1).
head(r_fr9_294,fr18_r3).
body(r_fr9_294,fr9_c3).
body(r_fr9_294,fr9_x2).
body(r_fr9_294,fr9_y1).
head(r_fr9_295,fr18_r3).
body(r_fr9_295,fr9_a2).
body(r_fr9_295,fr9_r3).
body(r_fr9_295,fr9_s2).
body(r_fr9_295,fr13_v2).
body(r_fr9_295,fr9_x1).
body(r_fr9_295,fr9_x2).
head(r_fr9_296,fr18_r3).
body(r_fr9_296,fr23_a2).
body(r_fr9_296,fr9_b2).
body(r_fr9_296,fr9_b3).
body(r_fr9_296,fr9_t2).
head(r_fr9_297,fr18_r3).
body(r_fr9_297,fr9_x1).
head(r_fr9_298,fr18_r3).
body(r_fr9_298,fr9_b3).
body(r_fr9_298,fr9_d1).
body(r_fr9_298,fr9_s2).
head(r_fr9_299,fr18_r3).
body(r_fr9_299,fr23_a2).
body(r_fr9_299,fr9_a2).
body(r_fr9_299,fr9_s2).
head(r_fr9_300,fr18_r3).
body(r_fr9_300,fr9_a3).
body(r_fr9_300,fr17_d2).
head(r_fr9_301,fr18_r3).
body(r_fr9_301,fr23_a2).
body(r_fr9_301,fr9_a3).
body(r_fr9_301,fr9_b3).
body(r_fr9_301,fr9_c1).
body(r_fr9_301,fr9_e1).
head(r_fr9_302,fr18_r3).
body(r_fr9_302,fr9_b2).
body(r_fr9_302,fr9_c2).
body(r_fr9_302,fr9_d1).
body(r_fr9_302,fr9_d2).
head(r_fr9_303,fr18_r3).
body(r_fr9_303,fr9_a2).
body(r_fr9_303,fr9_c2).
body(r_fr9_303,fr9_c3).
body(r_fr9_303,fr13_v2).
head(r_fr9_304,fr18_r3).
body(r_fr9_304,fr23_a2).
body(r_fr9_304,fr9_a3).
body(r_fr9_304,fr17_d2).
body(r_fr9_304,fr9_c1).
body(r_fr9_304,fr9_c2).
head(r_fr9_305,fr18_r3).
body(r_fr9_305,fr9_c2).
body(r_fr9_305,fr9_c3).
body(r_fr9_305,fr9_f1).
head(r_fr9_306,fr18_r3).
body(r_fr9_306,fr9_a2).
body(r_fr9_306,fr9_b2).
body(r_fr9_306,fr9_e2).
body(r_fr9_306,fr9_f2).
body(r_fr9_306,fr9_r3).
head(r_fr9_307,fr18_r3).
body(r_fr9_307,fr9_a2).
body(r_fr9_307,fr9_r3).
body(r_fr9_307,fr9_s2).
body(r_fr9_307,fr9_x2).
body(r_fr9_307,fr9_y1).
head(r_fr9_308,fr18_r3).
body(r_fr9_308,fr17_d2).
body(r_fr9_308,fr9_c1).
body(r_fr9_308,fr9_e1).
body(r_fr9_308,fr9_f1).
head(r_fr9_309,fr18_r3).
head(r_fr9_310,fr9_r3).
body(r_fr9_310,fr9_c1).
body(r_fr9_310,fr9_x2).
head(r_fr9_311,fr9_r3).
body(r_fr9_311,fr9_e2).
body(r_fr9_311,fr9_t2).
body(r_fr9_311,fr13_v2).
body(r_fr9_311,fr9_x1).
head(r_fr9_312,fr9_r3).
body(r_fr9_312,fr9_d1).
body(r_fr9_312,fr9_e2).
head(r_fr9_313,fr9_r3).
body(r_fr9_313,fr9_r2).
body(r_fr9_313,fr9_x2).
head(r_fr9_314,fr9_r3).
body(r_fr9_314,fr9_s2).
body(r_fr9_314,fr9_t2).
body(r_fr9_314,fr13_v2).
body(r_fr9_314,fr9_x1).
body(r_fr9_314,fr9_y1).
head(r_fr9_315,fr9_r3).
body(r_fr9_315,fr9_d1).
body(r_fr9_315,fr9_d2).
body(r_fr9_315,fr9_t2).
head(r_fr9_316,fr9_r3).
body(r_fr9_316,fr17_d2).
head(r_fr9_317,fr9_r3).
body(r_fr9_317,fr9_r2).
body(r_fr9_317,fr9_s2).
body(r_fr9_317,fr13_v2).
head(r_fr9_318,fr9_r3).
body(r_fr9_318,fr17_d2).
body(r_fr9_318,fr9_b3).
body(r_fr9_318,fr9_f2).
body(r_fr9_318,fr9_t2).
body(r_fr9_318,fr9_x2).
head(r_fr9_319,fr9_r3).
body(r_fr9_319,fr9_s2).
body(r_fr9_319,fr9_t2).
body(r_fr9_319,fr13_v2).
body(r_fr9_319,fr9_x1).
body(r_fr9_319,fr9_x2).
head(r_fr9_320,fr9_r3).
head(r_fr9_321,fr9_r3).
body(r_fr9_321,fr9_d2).
head(r_fr9_322,fr9_r3).
body(r_fr9_322,fr9_c3).
body(r_fr9_322,fr9_e1).
body(r_fr9_322,fr9_e2).
body(r_fr9_322,fr9_y1).
head(r_fr9_323,fr9_r3).
body(r_fr9_323,fr9_a3).
body(r_fr9_323,fr9_b2).
body(r_fr9_323,fr9_b3).
body(r_fr9_323,fr9_c1).
body(r_fr9_323,fr9_e2).
head(r_fr9_324,fr9_r3).
body(r_fr9_324,fr23_a2).
body(r_fr9_324,fr9_a2).
body(r_fr9_324,fr9_c2).
body(r_fr9_324,fr9_f1).
head(r_fr9_325,fr9_r3).
body(r_fr9_325,fr9_a2).
body(r_fr9_325,fr9_d1).
body(r_fr9_325,fr9_f1).
body(r_fr9_325,fr9_s2).
body(r_fr9_325,fr9_t2).
head(r_fr9_326,fr9_r3).
body(r_fr9_326,fr23_a2).
body(r_fr9_326,fr9_a2).
body(r_fr9_326,fr9_a3).
body(r_fr9_326,fr9_c2).
body(r_fr9_326,fr9_f1).
head(r_fr9_327,fr9_s2).
body(r_fr9_327,fr9_t2).
body(r_fr9_327,fr9_x1).
body(r_fr9_327,fr9_y1).
head(r_fr9_328,fr9_s2).
body(r_fr9_328,fr9_t2).
body(r_fr9_328,fr13_v2).
body(r_fr9_328,fr9_x1).
body(r_fr9_328,fr9_x2).
body(r_fr9_328,fr9_y1).
head(r_fr9_329,fr9_s2).
body(r_fr9_329,fr9_r2).
body(r_fr9_329,fr13_v2).
body(r_fr9_329,fr9_x1).
body(r_fr9_329,fr9_y1).
head(r_fr9_330,fr9_s2).
body(r_fr9_330,fr9_a3).
body(r_fr9_330,fr9_b3).
body(r_fr9_330,fr9_d1).
body(r_fr9_330,fr9_r2).
body(r_fr9_330,fr9_x1).
head(r_fr9_331,fr9_s2).
body(r_fr9_331,fr9_a2).
body(r_fr9_331,fr9_r2).
body(r_fr9_331,fr9_t2).
head(r_fr9_332,fr9_s2).
body(r_fr9_332,fr9_t2).
body(r_fr9_332,fr9_x2).
head(r_fr9_333,fr9_s2).
body(r_fr9_333,fr9_r2).
body(r_fr9_333,fr9_t2).
body(r_fr9_333,fr9_x1).
body(r_fr9_333,fr9_y1).
head(r_fr9_334,fr9_s2).
body(r_fr9_334,fr23_a2).
body(r_fr9_334,fr9_c1).
body(r_fr9_334,fr9_c2).
body(r_fr9_334,fr9_f1).
body(r_fr9_334,fr9_r2).
body(r_fr9_334,fr9_x2).
head(r_fr9_335,fr9_s2).
body(r_fr9_335,fr9_b2).
body(r_fr9_335,fr9_d1).
body(r_fr9_335,fr9_f1).
body(r_fr9_335,fr9_r2).
head(r_fr9_336,fr9_s2).
body(r_fr9_336,fr9_c2).
body(r_fr9_336,fr9_y1).
head(r_fr9_337,fr9_s2).
body(r_fr9_337,fr9_r2).
body(r_fr9_337,fr9_t2).
body(r_fr9_337,fr13_v2).
body(r_fr9_337,fr9_x1).
body(r_fr9_337,fr9_x2).
body(r_fr9_337,fr9_y1).
head(r_fr9_338,fr9_s2).
body(r_fr9_338,fr23_a2).
body(r_fr9_338,fr9_t2).
body(r_fr9_338,fr13_v2).
body(r_fr9_338,fr9_y1).
head(r_fr9_339,fr9_s2).
body(r_fr9_339,fr23_a2).
body(r_fr9_339,fr9_a3).
body(r_fr9_339,fr17_d2).
body(r_fr9_339,fr9_c3).
body(r_fr9_339,fr9_f1).
head(r_fr9_340,fr9_s2).
body(r_fr9_340,fr9_d1).
body(r_fr9_340,fr9_r2).
head(r_fr9_341,fr9_s2).
body(r_fr9_341,fr9_c2).
body(r_fr9_341,fr9_c3).
head(r_fr9_342,fr9_s2).
body(r_fr9_342,fr9_a3).
body(r_fr9_342,fr9_d2).
body(r_fr9_342,fr9_r2).
body(r_fr9_342,fr13_v2).
body(r_fr9_342,fr9_x1).
body(r_fr9_342,fr9_y1).
head(r_fr9_343,fr9_s2).
body(r_fr9_343,fr9_e2).
body(r_fr9_343,fr9_t2).
body(r_fr9_343,fr9_x2).
head(r_fr9_344,fr9_s2).
head(r_fr9_345,fr9_y1).
body(r_fr9_345,fr17_d2).
body(r_fr9_345,fr9_c2).
body(r_fr9_345,fr9_t2).
head(r_fr9_346,fr9_y1).
body(r_fr9_346,fr23_a2).
body(r_fr9_346,fr17_d2).
body(r_fr9_346,fr9_e2).
body(r_fr9_346,fr9_f1).
body(r_fr9_346,fr9_r2).
body(r_fr9_346,fr13_v2).
head(r_fr9_347,fr9_y1).
body(r_fr9_347,fr9_b3).
body(r_fr9_347,fr9_c1).
body(r_fr9_347,fr9_r2).
body(r_fr9_347,fr13_v2).
body(r_fr9_347,fr9_x1).
body(r_fr9_347,fr9_x2).
head(r_fr9_348,fr9_y1).
body(r_fr9_348,fr9_a2).
body(r_fr9_348,fr9_b2).
body(r_fr9_348,fr9_c1).
body(r_fr9_348,fr9_c3).
body(r_fr9_348,fr9_d2).
body(r_fr9_348,fr9_f2).
head(r_fr9_349,fr9_y1).
body(r_fr9_349,fr23_a2).
body(r_fr9_349,fr9_c3).
body(r_fr9_349,fr9_r2).
body(r_fr9_349,fr9_t2).
body(r_fr9_349,fr9_x1).
body(r_fr9_349,fr9_x2).
head(r_fr9_350,fr9_y1).
body(r_fr9_350,fr9_x1).
head(r_fr9_351,fr9_y1).
body(r_fr9_351,fr9_r2).
body(r_fr9_351,fr9_t2).
body(r_fr9_351,fr13_v2).
body(r_fr9_351,fr9_x2).
head(r_fr9_352,fr9_y1).
body(r_fr9_352,fr23_a2).
body(r_fr9_352,fr17_d2).
body(r_fr9_352,fr9_e2).
body(r_fr9_352,fr9_t2).
body(r_fr9_352,fr13_v2).
body(r_fr9_352,fr9_x1).
head(r_fr9_353,fr9_y1).
body(r_fr9_353,fr9_b2).
body(r_fr9_353,fr9_b3).
body(r_fr9_353,fr9_d1).
body(r_fr9_353,fr9_t2).
body(r_fr9_353,fr9_x2).
head(r_fr9_354,fr9_y1).
body(r_fr9_354,fr9_a3).
body(r_fr9_354,fr9_b2).
body(r_fr9_354,fr9_f2).
body(r_fr9_354,fr9_x2).
head(r_fr9_355,fr9_y1).
body(r_fr9_355,fr9_r2).
body(r_fr9_355,fr9_t2).
body(r_fr9_355,fr9_x1).
body(r_fr9_355,fr9_x2).
head(r_fr9_356,fr9_y1).
body(r_fr9_356,fr9_a2).
head(r_fr9_357,fr9_y1).
body(r_fr9_357,fr23_a2).
body(r_fr9_357,fr9_c3).
body(r_fr9_357,fr9_d2).
head(r_fr9_358,fr9_y1).
body(r_fr9_358,fr17_d2).
body(r_fr9_358,fr13_v2).
head(r_fr9_359,fr9_y1).
body(r_fr9_359,fr9_t2).
body(r_fr9_359,fr13_v2).
head(r_fr9_360,fr9_y1).
body(r_fr9_360,fr9_r2).
body(r_fr9_360,fr9_x1).
body(r_fr9_360,fr9_x2).
head(r_fr9_361,fr9_y1).
body(r_fr9_361,fr9_d1).
head(r_fr9_362,fr9_y1).
body(r_fr9_362,fr9_r2).
body(r_fr9_362,fr13_v2).
body(r_fr9_362,fr9_x1).
body(r_fr9_362,fr9_x2).

assumption(fr24_f1).
assumption(fr10_b1).
assumption(fr24_c2).
assumption(fr10_d1).
assumption(fr10_e1).
assumption(fr10_f1).
assumption(fr10_a2).
assumption(fr9_c1).
assumption(fr10_c2).
assumption(fr10_d2).
assumption(fr10_e2).
assumption(fr10_f2).
assumption(fr10_a3).
assumption(fr25_e2).
assumption(fr7_c1).
contrary(fr24_f1,fr10_z2).
contrary(fr10_a2,fr10_s2).
contrary(fr10_a3,fr10_w1).
contrary(fr10_b1,fr10_z2).
contrary(fr9_c1,fr10_t2).
contrary(fr25_e2,fr10_p1).
contrary(fr24_c2,fr10_q1).
contrary(fr10_c2,fr10_e1).
contrary(fr7_c1,fr10_y1).
contrary(fr10_d1,fr6_y1).
contrary(fr10_d2,fr24_c2).
contrary(fr10_e1,fr10_c2).
contrary(fr10_e2,fr10_a3).
contrary(fr10_f1,fr10_q2).
contrary(fr10_f2,fr10_r1).
head(r_fr10_0,fr10_x1).
body(r_fr10_0,fr10_a2).
body(r_fr10_0,fr9_c1).
body(r_fr10_0,fr10_q2).
body(r_fr10_0,fr10_t1).
head(r_fr10_1,fr10_x1).
body(r_fr10_1,fr24_c2).
body(r_fr10_1,fr10_f1).
body(r_fr10_1,fr10_p1).
body(r_fr10_1,fr10_q2).
body(r_fr10_1,fr6_y1).
body(r_fr10_1,fr10_t2).
head(r_fr10_2,fr10_x1).
body(r_fr10_2,fr10_p2).
body(r_fr10_2,fr10_r1).
body(r_fr10_2,fr10_r2).
body(r_fr10_2,fr10_y1).
head(r_fr10_3,fr10_x1).
body(r_fr10_3,fr10_v1).
body(r_fr10_3,fr13_y2).
head(r_fr10_4,fr10_x1).
body(r_fr10_4,fr25_e2).
body(r_fr10_4,fr10_r2).
head(r_fr10_5,fr10_x1).
body(r_fr10_5,fr10_p2).
body(r_fr10_5,fr10_t1).
body(r_fr10_5,fr10_t2).
body(r_fr10_5,fr20_y5).
head(r_fr10_6,fr10_x1).
head(r_fr10_7,fr10_x1).
body(r_fr10_7,fr10_b1).
body(r_fr10_7,fr10_y2).
body(r_fr10_7,fr10_z2).
head(r_fr10_8,fr10_x1).
body(r_fr10_8,fr10_a2).
body(r_fr10_8,fr25_e2).
head(r_fr10_9,fr13_y2).
body(r_fr10_9,fr10_d2).
body(r_fr10_9,fr10_q2).
body(r_fr10_9,fr10_t1).
body(r_fr10_9,fr11_p1).
body(r_fr10_9,fr10_w1).
head(r_fr10_10,fr13_y2).
body(r_fr10_10,fr24_f1).
body(r_fr10_10,fr25_e2).
body(r_fr10_10,fr10_e2).
head(r_fr10_11,fr13_y2).
body(r_fr10_11,fr10_q3).
head(r_fr10_12,fr13_y2).
body(r_fr10_12,fr10_t2).
head(r_fr10_13,fr13_y2).
body(r_fr10_13,fr10_d2).
body(r_fr10_13,fr10_p3).
body(r_fr10_13,fr10_r2).
body(r_fr10_13,fr10_s1).
body(r_fr10_13,fr7_q1).
head(r_fr10_14,fr13_y2).
body(r_fr10_14,fr10_t1).
body(r_fr10_14,fr10_t2).
head(r_fr10_15,fr13_y2).
head(r_fr10_16,fr13_y2).
body(r_fr10_16,fr10_a2).
body(r_fr10_16,fr10_t2).
head(r_fr10_17,fr13_y2).
body(r_fr10_17,fr10_a2).
body(r_fr10_17,fr10_d1).
body(r_fr10_17,fr10_e2).
body(r_fr10_17,fr10_f1).
head(r_fr10_18,fr13_y2).
body(r_fr10_18,fr10_e1).
body(r_fr10_18,fr10_p1).
body(r_fr10_18,fr10_p3).
body(r_fr10_18,fr10_t1).
body(r_fr10_18,fr7_q1).
body(r_fr10_18,fr10_y2).
head(r_fr10_19,fr10_q3).
body(r_fr10_19,fr7_c1).
head(r_fr10_20,fr10_q3).
body(r_fr10_20,fr24_c2).
body(r_fr10_20,fr10_d2).
body(r_fr10_20,fr10_f2).
body(r_fr10_20,fr10_p2).
body(r_fr10_20,fr10_q2).
head(r_fr10_21,fr10_q3).
body(r_fr10_21,fr25_e2).
body(r_fr10_21,fr10_d1).
body(r_fr10_21,fr10_d2).
head(r_fr10_22,fr10_q3).
body(r_fr10_22,fr25_e2).
body(r_fr10_22,fr11_p1).
body(r_fr10_22,fr10_y1).
head(r_fr10_23,fr10_q3).
body(r_fr10_23,fr25_e2).
body(r_fr10_23,fr10_p1).
body(r_fr10_23,fr10_q1).
body(r_fr10_23,fr7_q1).
head(r_fr10_24,fr10_q3).
head(r_fr10_25,fr10_q3).
body(r_fr10_25,fr10_p3).
head(r_fr10_26,fr10_q3).
body(r_fr10_26,fr24_f1).
body(r_fr10_26,fr10_b1).
body(r_fr10_26,fr10_d1).
body(r_fr10_26,fr10_f1).
body(r_fr10_26,fr10_f2).
head(r_fr10_27,fr10_q3).
body(r_fr10_27,fr10_d1).
body(r_fr10_27,fr10_z2).
head(r_fr10_28,fr10_q3).
body(r_fr10_28,fr10_q1).
head(r_fr10_29,fr10_q3).
body(r_fr10_29,fr10_a2).
body(r_fr10_29,fr10_c2).
body(r_fr10_29,fr10_p2).
head(r_fr10_30,fr10_p2).
body(r_fr10_30,fr24_c2).
body(r_fr10_30,fr10_d2).
body(r_fr10_30,fr10_s2).
body(r_fr10_30,fr15_v1).
head(r_fr10_31,fr10_p2).
body(r_fr10_31,fr25_e2).
body(r_fr10_31,fr24_c2).
body(r_fr10_31,fr10_c2).
body(r_fr10_31,fr10_q2).
body(r_fr10_31,fr10_q3).
body(r_fr10_31,fr10_s1).
head(r_fr10_32,fr10_p2).
body(r_fr10_32,fr10_a2).
body(r_fr10_32,fr9_c1).
body(r_fr10_32,fr24_c2).
body(r_fr10_32,fr10_d2).
body(r_fr10_32,fr10_p3).
body(r_fr10_32,fr10_y2).
head(r_fr10_33,fr10_p2).
body(r_fr10_33,fr10_e1).
body(r_fr10_33,fr11_p1).
head(r_fr10_34,fr10_p2).
body(r_fr10_34,fr10_p1).
head(r_fr10_35,fr10_p2).
body(r_fr10_35,fr10_a2).
body(r_fr10_35,fr10_c2).
body(r_fr10_35,fr10_d2).
body(r_fr10_35,fr10_s2).
head(r_fr10_36,fr10_p2).
body(r_fr10_36,fr11_p1).
head(r_fr10_37,fr10_p2).
head(r_fr10_38,fr10_p2).
body(r_fr10_38,fr7_c1).
body(r_fr10_38,fr10_t1).
head(r_fr10_39,fr10_s1).
body(r_fr10_39,fr10_a3).
body(r_fr10_39,fr25_e2).
body(r_fr10_39,fr10_p1).
body(r_fr10_39,fr10_u1).
head(r_fr10_40,fr10_s1).
body(r_fr10_40,fr10_a2).
body(r_fr10_40,fr10_a3).
body(r_fr10_40,fr24_c2).
body(r_fr10_40,fr10_t1).
head(r_fr10_41,fr10_s1).
body(r_fr10_41,fr25_e2).
body(r_fr10_41,fr24_c2).
body(r_fr10_41,fr10_c2).
body(r_fr10_41,fr10_r1).
head(r_fr10_42,fr10_s1).
head(r_fr10_43,fr10_s1).
body(r_fr10_43,fr10_p3).
body(r_fr10_43,fr10_q1).
body(r_fr10_43,fr10_r1).
body(r_fr10_43,fr10_y2).
body(r_fr10_43,fr10_z2).
head(r_fr10_44,fr10_s1).
body(r_fr10_44,fr10_t1).
body(r_fr10_44,fr10_y2).
head(r_fr10_45,fr10_s1).
body(r_fr10_45,fr10_b1).
head(r_fr10_46,fr10_s1).
body(r_fr10_46,fr10_f2).
head(r_fr10_47,fr10_s1).
body(r_fr10_47,fr6_y1).
body(r_fr10_47,fr10_u1).
body(r_fr10_47,fr10_y2).
head(r_fr10_48,fr10_z2).
body(r_fr10_48,fr10_a2).
body(r_fr10_48,fr10_d1).
body(r_fr10_48,fr10_t1).
head(r_fr10_49,fr10_z2).
body(r_fr10_49,fr10_b1).
body(r_fr10_49,fr25_e2).
body(r_fr10_49,fr10_f2).
body(r_fr10_49,fr10_y1).
head(r_fr10_50,fr10_z2).
body(r_fr10_50,fr24_c2).
body(r_fr10_50,fr7_c1).
body(r_fr10_50,fr10_d1).
body(r_fr10_50,fr10_d2).
body(r_fr10_50,fr10_f1).
body(r_fr10_50,fr10_q2).
head(r_fr10_51,fr10_z2).
body(r_fr10_51,fr10_d2).
body(r_fr10_51,fr10_p1).
body(r_fr10_51,fr10_q3).
body(r_fr10_51,fr10_r1).
body(r_fr10_51,fr11_p1).
body(r_fr10_51,fr7_q1).
head(r_fr10_52,fr10_z2).
body(r_fr10_52,fr10_b1).
body(r_fr10_52,fr24_c2).
body(r_fr10_52,fr10_c2).
body(r_fr10_52,fr10_f2).
head(r_fr10_53,fr10_z2).
head(r_fr10_54,fr10_z2).
body(r_fr10_54,fr25_e2).
body(r_fr10_54,fr10_y1).
head(r_fr10_55,fr10_z2).
body(r_fr10_55,fr10_t1).
head(r_fr10_56,fr10_z2).
body(r_fr10_56,fr10_a3).
body(r_fr10_56,fr10_p3).
head(r_fr10_57,fr10_z2).
body(r_fr10_57,fr10_a3).
body(r_fr10_57,fr25_e2).
body(r_fr10_57,fr10_d2).
body(r_fr10_57,fr10_s1).
head(r_fr10_58,fr10_y1).
body(r_fr10_58,fr10_a2).
body(r_fr10_58,fr10_t1).
body(r_fr10_58,fr10_x1).
head(r_fr10_59,fr10_y1).
body(r_fr10_59,fr10_f1).
body(r_fr10_59,fr10_p1).
body(r_fr10_59,fr10_q3).
body(r_fr10_59,fr6_y1).
body(r_fr10_59,fr10_w1).
head(r_fr10_60,fr10_y1).
head(r_fr10_61,fr10_y1).
body(r_fr10_61,fr10_e2).
body(r_fr10_61,fr10_f2).
body(r_fr10_61,fr13_y2).
head(r_fr10_62,fr10_y1).
body(r_fr10_62,fr10_e1).
body(r_fr10_62,fr10_f2).
body(r_fr10_62,fr10_q1).
body(r_fr10_62,fr10_r2).
body(r_fr10_62,fr6_y1).
body(r_fr10_62,fr10_w1).
head(r_fr10_63,fr10_y1).
body(r_fr10_63,fr10_a3).
body(r_fr10_63,fr25_e2).
body(r_fr10_63,fr10_e2).
body(r_fr10_63,fr10_f1).
body(r_fr10_63,fr10_r1).
head(r_fr10_64,fr10_y1).
body(r_fr10_64,fr10_a2).
body(r_fr10_64,fr10_b1).
body(r_fr10_64,fr9_c1).
body(r_fr10_64,fr7_c1).
head(r_fr10_65,fr10_y1).
body(r_fr10_65,fr10_d2).
body(r_fr10_65,fr10_e2).
body(r_fr10_65,fr10_p1).
body(r_fr10_65,fr7_q1).
head(r_fr10_66,fr10_y1).
body(r_fr10_66,fr10_p3).
body(r_fr10_66,fr10_s1).
body(r_fr10_66,fr13_y2).
body(r_fr10_66,fr10_y2).
body(r_fr10_66,fr10_z2).
head(r_fr10_67,fr10_y1).
body(r_fr10_67,fr10_u1).
body(r_fr10_67,fr10_z2).
head(r_fr10_68,fr10_q2).
body(r_fr10_68,fr10_a2).
body(r_fr10_68,fr10_a3).
body(r_fr10_68,fr9_c1).
body(r_fr10_68,fr24_c2).
body(r_fr10_68,fr10_f1).
head(r_fr10_69,fr10_q2).
body(r_fr10_69,fr24_f1).
head(r_fr10_70,fr10_q2).
body(r_fr10_70,fr10_a2).
body(r_fr10_70,fr25_e2).
body(r_fr10_70,fr10_d1).
body(r_fr10_70,fr10_e2).
head(r_fr10_71,fr10_q2).
body(r_fr10_71,fr9_c1).
body(r_fr10_71,fr10_d2).
body(r_fr10_71,fr10_r2).
body(r_fr10_71,fr10_v1).
body(r_fr10_71,fr13_y2).
head(r_fr10_72,fr10_q2).
body(r_fr10_72,fr10_f2).
head(r_fr10_73,fr10_q2).
body(r_fr10_73,fr10_a3).
body(r_fr10_73,fr10_b1).
body(r_fr10_73,fr24_c2).
body(r_fr10_73,fr10_c2).
body(r_fr10_73,fr10_f1).
body(r_fr10_73,fr10_r2).
head(r_fr10_74,fr10_q2).
body(r_fr10_74,fr10_a3).
body(r_fr10_74,fr10_b1).
body(r_fr10_74,fr10_f2).
head(r_fr10_75,fr10_q2).
head(r_fr10_76,fr10_q2).
body(r_fr10_76,fr10_c2).
body(r_fr10_76,fr10_q1).
body(r_fr10_76,fr10_u1).
body(r_fr10_76,fr7_q1).
body(r_fr10_76,fr10_y2).
body(r_fr10_76,fr20_y5).
head(r_fr10_77,fr6_y1).
body(r_fr10_77,fr24_f1).
body(r_fr10_77,fr10_s1).
body(r_fr10_77,fr10_y2).
head(r_fr10_78,fr6_y1).
body(r_fr10_78,fr9_c1).
head(r_fr10_79,fr6_y1).
body(r_fr10_79,fr9_c1).
body(r_fr10_79,fr10_p2).
body(r_fr10_79,fr10_r2).
body(r_fr10_79,fr7_q1).
body(r_fr10_79,fr10_z2).
head(r_fr10_80,fr6_y1).
body(r_fr10_80,fr10_p1).
body(r_fr10_80,fr10_t1).
body(r_fr10_80,fr10_w1).
body(r_fr10_80,fr20_y5).
head(r_fr10_81,fr6_y1).
body(r_fr10_81,fr9_c1).
body(r_fr10_81,fr24_c2).
body(r_fr10_81,fr10_e1).
body(r_fr10_81,fr10_f1).
head(r_fr10_82,fr6_y1).
body(r_fr10_82,fr10_a3).
body(r_fr10_82,fr10_b1).
body(r_fr10_82,fr25_e2).
body(r_fr10_82,fr24_c2).
body(r_fr10_82,fr7_c1).
head(r_fr10_83,fr6_y1).
body(r_fr10_83,fr24_f1).
body(r_fr10_83,fr10_a3).
body(r_fr10_83,fr24_c2).
head(r_fr10_84,fr6_y1).
body(r_fr10_84,fr10_b1).
body(r_fr10_84,fr10_e2).
head(r_fr10_85,fr6_y1).
body(r_fr10_85,fr24_f1).
body(r_fr10_85,fr10_a3).
body(r_fr10_85,fr10_f1).
body(r_fr10_85,fr10_q3).
body(r_fr10_85,fr10_y1).
head(r_fr10_86,fr6_y1).
body(r_fr10_86,fr9_c1).
body(r_fr10_86,fr10_p2).
body(r_fr10_86,fr10_q3).
body(r_fr10_86,fr7_q1).
body(r_fr10_86,fr10_y2).
head(r_fr10_87,fr10_p3).
body(r_fr10_87,fr10_a3).
body(r_fr10_87,fr10_d2).
body(r_fr10_87,fr10_e1).
body(r_fr10_87,fr10_p1).
body(r_fr10_87,fr10_x1).
head(r_fr10_88,fr10_p3).
body(r_fr10_88,fr10_t1).
body(r_fr10_88,fr10_x1).
body(r_fr10_88,fr7_q1).
head(r_fr10_89,fr10_p3).
body(r_fr10_89,fr10_q3).
head(r_fr10_90,fr10_p3).
head(r_fr10_91,fr10_p3).
body(r_fr10_91,fr10_a3).
body(r_fr10_91,fr24_c2).
body(r_fr10_91,fr10_e2).
body(r_fr10_91,fr10_r2).
body(r_fr10_91,fr10_u1).
head(r_fr10_92,fr10_p3).
body(r_fr10_92,fr10_a3).
body(r_fr10_92,fr9_c1).
body(r_fr10_92,fr25_e2).
body(r_fr10_92,fr10_e1).
body(r_fr10_92,fr10_f1).
body(r_fr10_92,fr10_z2).
head(r_fr10_93,fr10_p3).
body(r_fr10_93,fr10_s1).
body(r_fr10_93,fr10_v1).
body(r_fr10_93,fr10_y2).
head(r_fr10_94,fr10_p3).
body(r_fr10_94,fr10_a2).
body(r_fr10_94,fr10_b1).
body(r_fr10_94,fr25_e2).
body(r_fr10_94,fr10_c2).
body(r_fr10_94,fr10_d2).
body(r_fr10_94,fr10_f1).
head(r_fr10_95,fr10_p3).
body(r_fr10_95,fr10_e2).
body(r_fr10_95,fr10_p1).
body(r_fr10_95,fr10_s1).
body(r_fr10_95,fr10_y1).
head(r_fr10_96,fr10_p3).
body(r_fr10_96,fr10_c2).
body(r_fr10_96,fr10_p2).
body(r_fr10_96,fr10_r1).
body(r_fr10_96,fr10_r2).
body(r_fr10_96,fr10_u1).
body(r_fr10_96,fr10_z2).
head(r_fr10_97,fr10_w1).
body(r_fr10_97,fr10_p1).
body(r_fr10_97,fr10_p3).
body(r_fr10_97,fr10_q1).
body(r_fr10_97,fr15_v1).
body(r_fr10_97,fr10_x1).
head(r_fr10_98,fr10_w1).
body(r_fr10_98,fr10_q3).
body(r_fr10_98,fr10_s2).
body(r_fr10_98,fr10_t2).
body(r_fr10_98,fr11_p1).
body(r_fr10_98,fr13_y2).
head(r_fr10_99,fr10_w1).
body(r_fr10_99,fr10_r2).
body(r_fr10_99,fr13_y2).
head(r_fr10_100,fr10_w1).
body(r_fr10_100,fr10_b1).
body(r_fr10_100,fr10_f2).
body(r_fr10_100,fr10_r2).
body(r_fr10_100,fr6_y1).
head(r_fr10_101,fr10_w1).
head(r_fr10_102,fr10_w1).
body(r_fr10_102,fr10_r1).
head(r_fr10_103,fr10_w1).
body(r_fr10_103,fr10_s1).
body(r_fr10_103,fr10_t1).
body(r_fr10_103,fr10_u1).
head(r_fr10_104,fr10_w1).
body(r_fr10_104,fr24_f1).
body(r_fr10_104,fr6_y1).
head(r_fr10_105,fr10_w1).
body(r_fr10_105,fr10_a3).
body(r_fr10_105,fr10_b1).
body(r_fr10_105,fr7_c1).
body(r_fr10_105,fr10_q2).
body(r_fr10_105,fr10_v1).
body(r_fr10_105,fr13_y2).
head(r_fr10_106,fr10_w1).
body(r_fr10_106,fr10_q3).
head(r_fr10_107,fr10_w1).
body(r_fr10_107,fr10_a3).
body(r_fr10_107,fr10_c2).
body(r_fr10_107,fr10_d1).
head(r_fr10_108,fr10_t2).
body(r_fr10_108,fr9_c1).
body(r_fr10_108,fr25_e2).
body(r_fr10_108,fr7_c1).
body(r_fr10_108,fr10_e2).
head(r_fr10_109,fr10_t2).
body(r_fr10_109,fr9_c1).
body(r_fr10_109,fr24_c2).
body(r_fr10_109,fr10_q2).
body(r_fr10_109,fr10_q3).
body(r_fr10_109,fr10_s2).
body(r_fr10_109,fr10_y1).
head(r_fr10_110,fr10_t2).
body(r_fr10_110,fr7_c1).
body(r_fr10_110,fr10_d1).
body(r_fr10_110,fr10_r2).
body(r_fr10_110,fr10_s1).
body(r_fr10_110,fr10_u1).
body(r_fr10_110,fr10_y1).
head(r_fr10_111,fr10_t2).
body(r_fr10_111,fr10_p2).
body(r_fr10_111,fr10_q1).
body(r_fr10_111,fr20_y5).
head(r_fr10_112,fr10_t2).
body(r_fr10_112,fr10_q3).
body(r_fr10_112,fr10_s1).
body(r_fr10_112,fr20_y5).
body(r_fr10_112,fr10_z2).
head(r_fr10_113,fr10_t2).
body(r_fr10_113,fr10_e1).
body(r_fr10_113,fr10_f2).
body(r_fr10_113,fr10_r1).
head(r_fr10_114,fr10_t2).
body(r_fr10_114,fr24_f1).
head(r_fr10_115,fr10_t2).
body(r_fr10_115,fr10_a3).
body(r_fr10_115,fr10_b1).
body(r_fr10_115,fr9_c1).
body(r_fr10_115,fr10_c2).
body(r_fr10_115,fr10_x1).
head(r_fr10_116,fr10_t2).
body(r_fr10_116,fr24_f1).
body(r_fr10_116,fr25_e2).
body(r_fr10_116,fr10_d1).
body(r_fr10_116,fr10_d2).
body(r_fr10_116,fr10_f2).
body(r_fr10_116,fr10_p2).
head(r_fr10_117,fr10_t2).
body(r_fr10_117,fr10_q1).
body(r_fr10_117,fr20_y5).
head(r_fr10_118,fr10_r1).
body(r_fr10_118,fr24_c2).
head(r_fr10_119,fr10_r1).
body(r_fr10_119,fr10_c2).
body(r_fr10_119,fr10_p3).
body(r_fr10_119,fr6_y1).
body(r_fr10_119,fr10_t1).
body(r_fr10_119,fr20_y5).
head(r_fr10_120,fr10_r1).
body(r_fr10_120,fr9_c1).
body(r_fr10_120,fr24_c2).
head(r_fr10_121,fr10_r1).
body(r_fr10_121,fr10_a2).
body(r_fr10_121,fr10_a3).
body(r_fr10_121,fr7_c1).
head(r_fr10_122,fr10_r1).
body(r_fr10_122,fr10_a2).
body(r_fr10_122,fr10_p2).
body(r_fr10_122,fr10_q2).
body(r_fr10_122,fr13_y2).
head(r_fr10_123,fr10_r1).
body(r_fr10_123,fr9_c1).
head(r_fr10_124,fr10_r1).
body(r_fr10_124,fr10_b1).
body(r_fr10_124,fr10_e1).
body(r_fr10_124,fr10_f1).
body(r_fr10_124,fr10_f2).
body(r_fr10_124,fr10_q3).
body(r_fr10_124,fr10_r2).
head(r_fr10_125,fr10_r1).
body(r_fr10_125,fr10_a3).
body(r_fr10_125,fr7_c1).
body(r_fr10_125,fr10_d2).
body(r_fr10_125,fr10_f1).
body(r_fr10_125,fr10_f2).
body(r_fr10_125,fr15_v1).
head(r_fr10_126,fr10_r1).
body(r_fr10_126,fr9_c1).
body(r_fr10_126,fr24_c2).
body(r_fr10_126,fr6_y1).
body(r_fr10_126,fr15_v1).
body(r_fr10_126,fr10_v1).
head(r_fr10_127,fr10_r1).
body(r_fr10_127,fr10_t2).
head(r_fr10_128,fr11_p1).
body(r_fr10_128,fr10_a2).
body(r_fr10_128,fr25_e2).
body(r_fr10_128,fr10_e2).
body(r_fr10_128,fr10_q3).
body(r_fr10_128,fr10_u1).
head(r_fr10_129,fr11_p1).
body(r_fr10_129,fr24_c2).
body(r_fr10_129,fr10_p2).
body(r_fr10_129,fr10_q1).
body(r_fr10_129,fr10_s1).
body(r_fr10_129,fr10_t2).
body(r_fr10_129,fr13_y2).
head(r_fr10_130,fr11_p1).
body(r_fr10_130,fr10_t1).
body(r_fr10_130,fr10_y1).
head(r_fr10_131,fr11_p1).
body(r_fr10_131,fr10_r1).
head(r_fr10_132,fr11_p1).
body(r_fr10_132,fr10_a2).
body(r_fr10_132,fr10_a3).
body(r_fr10_132,fr10_d1).
body(r_fr10_132,fr10_d2).
body(r_fr10_132,fr10_e2).
head(r_fr10_133,fr11_p1).
body(r_fr10_133,fr7_c1).
head(r_fr10_134,fr11_p1).
body(r_fr10_134,fr10_r2).
body(r_fr10_134,fr10_s1).
body(r_fr10_134,fr10_s2).
body(r_fr10_134,fr10_t2).
head(r_fr10_135,fr11_p1).
body(r_fr10_135,fr10_f2).
body(r_fr10_135,fr10_r1).
body(r_fr10_135,fr10_v1).
head(r_fr10_136,fr11_p1).
body(r_fr10_136,fr10_f2).
body(r_fr10_136,fr10_p1).
body(r_fr10_136,fr10_r2).
body(r_fr10_136,fr6_y1).
head(r_fr10_137,fr11_p1).
head(r_fr10_138,fr11_p1).
body(r_fr10_138,fr24_c2).
head(r_fr10_139,fr10_r2).
body(r_fr10_139,fr9_c1).
body(r_fr10_139,fr10_d1).
body(r_fr10_139,fr10_e1).
body(r_fr10_139,fr10_f1).
body(r_fr10_139,fr10_q3).
head(r_fr10_140,fr10_r2).
body(r_fr10_140,fr10_z2).
head(r_fr10_141,fr10_r2).
body(r_fr10_141,fr25_e2).
body(r_fr10_141,fr7_c1).
body(r_fr10_141,fr10_f2).
head(r_fr10_142,fr10_r2).
head(r_fr10_143,fr10_r2).
body(r_fr10_143,fr9_c1).
head(r_fr10_144,fr10_r2).
body(r_fr10_144,fr10_a2).
head(r_fr10_145,fr10_r2).
body(r_fr10_145,fr10_q1).
body(r_fr10_145,fr10_q2).
body(r_fr10_145,fr11_p1).
body(r_fr10_145,fr10_x1).
body(r_fr10_145,fr10_y1).
body(r_fr10_145,fr10_y2).
head(r_fr10_146,fr10_r2).
body(r_fr10_146,fr10_e1).
body(r_fr10_146,fr10_e2).
head(r_fr10_147,fr10_r2).
body(r_fr10_147,fr25_e2).
body(r_fr10_147,fr24_c2).
body(r_fr10_147,fr10_f2).
body(r_fr10_147,fr10_u1).
body(r_fr10_147,fr10_w1).
head(r_fr10_148,fr10_q1).
head(r_fr10_149,fr10_q1).
body(r_fr10_149,fr10_b1).
head(r_fr10_150,fr10_q1).
body(r_fr10_150,fr10_a2).
body(r_fr10_150,fr10_p3).
body(r_fr10_150,fr10_q3).
body(r_fr10_150,fr10_y1).
head(r_fr10_151,fr10_q1).
body(r_fr10_151,fr10_d2).
body(r_fr10_151,fr10_q3).
body(r_fr10_151,fr10_u1).
body(r_fr10_151,fr10_w1).
body(r_fr10_151,fr10_x1).
body(r_fr10_151,fr10_y1).
head(r_fr10_152,fr10_q1).
body(r_fr10_152,fr10_a3).
body(r_fr10_152,fr25_e2).
body(r_fr10_152,fr10_c2).
body(r_fr10_152,fr10_d1).
body(r_fr10_152,fr10_u1).
head(r_fr10_153,fr10_q1).
body(r_fr10_153,fr10_a3).
body(r_fr10_153,fr10_p3).
head(r_fr10_154,fr10_q1).
body(r_fr10_154,fr10_q3).
body(r_fr10_154,fr10_s2).
body(r_fr10_154,fr20_y5).
head(r_fr10_155,fr10_q1).
body(r_fr10_155,fr7_c1).
body(r_fr10_155,fr10_d1).
body(r_fr10_155,fr10_e2).
body(r_fr10_155,fr6_y1).
head(r_fr10_156,fr10_q1).
body(r_fr10_156,fr24_c2).
head(r_fr10_157,fr10_q1).
body(r_fr10_157,fr25_e2).
body(r_fr10_157,fr24_c2).
body(r_fr10_157,fr10_c2).
body(r_fr10_157,fr10_e1).
body(r_fr10_157,fr10_f1).
head(r_fr10_158,fr10_s2).
body(r_fr10_158,fr10_a2).
head(r_fr10_159,fr10_s2).
head(r_fr10_160,fr10_s2).
body(r_fr10_160,fr10_c2).
body(r_fr10_160,fr10_d1).
body(r_fr10_160,fr10_q1).
body(r_fr10_160,fr10_x1).
body(r_fr10_160,fr10_y2).
head(r_fr10_161,fr10_s2).
body(r_fr10_161,fr10_e1).
body(r_fr10_161,fr10_f1).
body(r_fr10_161,fr6_y1).
body(r_fr10_161,fr10_s1).
body(r_fr10_161,fr10_t1).
body(r_fr10_161,fr7_q1).
head(r_fr10_162,fr10_s2).
body(r_fr10_162,fr10_q1).
body(r_fr10_162,fr10_r2).
body(r_fr10_162,fr11_p1).
head(r_fr10_163,fr10_s2).
body(r_fr10_163,fr25_e2).
body(r_fr10_163,fr10_f1).
head(r_fr10_164,fr10_s2).
body(r_fr10_164,fr10_b1).
head(r_fr10_165,fr10_s2).
body(r_fr10_165,fr10_b1).
body(r_fr10_165,fr24_c2).
body(r_fr10_165,fr10_f2).
head(r_fr10_166,fr10_s2).
body(r_fr10_166,fr10_b1).
body(r_fr10_166,fr24_c2).
body(r_fr10_166,fr10_d2).
body(r_fr10_166,fr10_q2).
body(r_fr10_166,fr20_y5).
body(r_fr10_166,fr10_z2).
head(r_fr10_167,fr10_s2).
body(r_fr10_167,fr10_p1).
body(r_fr10_167,fr10_q2).
body(r_fr10_167,fr10_r2).
body(r_fr10_167,fr10_w1).
body(r_fr10_167,fr10_z2).
head(r_fr10_168,fr10_s2).
body(r_fr10_168,fr9_c1).
body(r_fr10_168,fr10_q3).
body(r_fr10_168,fr10_r2).
body(r_fr10_168,fr10_t2).
body(r_fr10_168,fr10_y2).
head(r_fr10_169,fr10_v1).
body(r_fr10_169,fr10_t1).
body(r_fr10_169,fr10_y2).
body(r_fr10_169,fr10_z2).
head(r_fr10_170,fr10_v1).
body(r_fr10_170,fr9_c1).
body(r_fr10_170,fr10_d2).
body(r_fr10_170,fr10_w1).
head(r_fr10_171,fr10_v1).
body(r_fr10_171,fr6_y1).
head(r_fr10_172,fr10_v1).
head(r_fr10_173,fr10_v1).
body(r_fr10_173,fr25_e2).
head(r_fr10_174,fr10_v1).
body(r_fr10_174,fr10_d2).
body(r_fr10_174,fr10_p1).
body(r_fr10_174,fr10_t1).
body(r_fr10_174,fr10_x1).
body(r_fr10_174,fr20_y5).
head(r_fr10_175,fr10_v1).
body(r_fr10_175,fr10_q1).
body(r_fr10_175,fr13_y2).
head(r_fr10_176,fr10_v1).
body(r_fr10_176,fr10_r1).
body(r_fr10_176,fr10_s1).
body(r_fr10_176,fr10_t2).
body(r_fr10_176,fr11_p1).
head(r_fr10_177,fr10_v1).
body(r_fr10_177,fr7_c1).
head(r_fr10_178,fr10_u1).
body(r_fr10_178,fr24_f1).
body(r_fr10_178,fr10_b1).
body(r_fr10_178,fr10_q3).
body(r_fr10_178,fr10_x1).
head(r_fr10_179,fr10_u1).
body(r_fr10_179,fr6_y1).
body(r_fr10_179,fr10_y1).
head(r_fr10_180,fr10_u1).
body(r_fr10_180,fr10_q2).
body(r_fr10_180,fr10_q3).
body(r_fr10_180,fr10_s2).
body(r_fr10_180,fr11_p1).
head(r_fr10_181,fr10_u1).
body(r_fr10_181,fr25_e2).
body(r_fr10_181,fr7_c1).
body(r_fr10_181,fr10_f2).
body(r_fr10_181,fr6_y1).
body(r_fr10_181,fr10_z2).
head(r_fr10_182,fr10_u1).
body(r_fr10_182,fr10_d1).
body(r_fr10_182,fr10_f1).
body(r_fr10_182,fr10_p2).
body(r_fr10_182,fr10_p3).
body(r_fr10_182,fr15_v1).
body(r_fr10_182,fr10_w1).
head(r_fr10_183,fr10_u1).
body(r_fr10_183,fr10_f2).
body(r_fr10_183,fr11_p1).
head(r_fr10_184,fr10_u1).
head(r_fr10_185,fr10_u1).
body(r_fr10_185,fr10_a3).
body(r_fr10_185,fr25_e2).
body(r_fr10_185,fr10_f2).
body(r_fr10_185,fr10_t1).
head(r_fr10_186,fr20_y5).
body(r_fr10_186,fr10_e1).
body(r_fr10_186,fr10_q1).
body(r_fr10_186,fr10_r1).
head(r_fr10_187,fr20_y5).
body(r_fr10_187,fr10_a2).
body(r_fr10_187,fr9_c1).
body(r_fr10_187,fr10_c2).
body(r_fr10_187,fr6_y1).
head(r_fr10_188,fr20_y5).
body(r_fr10_188,fr6_y1).
body(r_fr10_188,fr15_v1).
body(r_fr10_188,fr10_y1).
head(r_fr10_189,fr20_y5).
body(r_fr10_189,fr24_c2).
body(r_fr10_189,fr10_c2).
body(r_fr10_189,fr10_d1).
body(r_fr10_189,fr10_e2).
body(r_fr10_189,fr10_r2).
body(r_fr10_189,fr10_z2).
head(r_fr10_190,fr20_y5).
body(r_fr10_190,fr10_s1).
body(r_fr10_190,fr10_t2).
body(r_fr10_190,fr10_v1).
body(r_fr10_190,fr10_z2).
head(r_fr10_191,fr20_y5).
body(r_fr10_191,fr9_c1).
body(r_fr10_191,fr10_r1).
body(r_fr10_191,fr10_u1).
body(r_fr10_191,fr15_v1).
body(r_fr10_191,fr10_z2).
head(r_fr10_192,fr20_y5).
body(r_fr10_192,fr10_w1).
head(r_fr10_193,fr20_y5).
body(r_fr10_193,fr10_a2).
body(r_fr10_193,fr9_c1).
body(r_fr10_193,fr10_p2).
body(r_fr10_193,fr10_q3).
body(r_fr10_193,fr10_t2).
head(r_fr10_194,fr20_y5).
head(r_fr10_195,fr20_y5).
body(r_fr10_195,fr10_s1).
head(r_fr10_196,fr20_y5).
body(r_fr10_196,fr10_a2).
body(r_fr10_196,fr25_e2).
body(r_fr10_196,fr10_e2).
body(r_fr10_196,fr10_f1).
body(r_fr10_196,fr10_f2).

assumption(fr25_a3).
assumption(fr13_e1).
assumption(fr25_a3).
assumption(fr11_d1).
assumption(fr11_e1).
assumption(fr11_f1).
assumption(fr11_a2).
assumption(fr22_f2).
assumption(fr25_a3).
assumption(fr11_d2).
assumption(fr11_e2).
assumption(fr17_d2).
assumption(fr17_e4).
assumption(fr18_a1).
assumption(fr11_c3).
contrary(fr25_a3,fr11_p1).
contrary(fr11_a2,fr11_y1).
contrary(fr17_e4,fr11_e2).
contrary(fr13_e1,fr11_p2).
contrary(fr22_f2,fr11_f1).
contrary(fr18_a1,fr25_a3).
contrary(fr25_a3,fr11_w2).
contrary(fr25_a3,fr22_v6).
contrary(fr11_c3,fr11_y2).
contrary(fr11_d1,fr11_x2).
contrary(fr11_d2,fr7_q1).
contrary(fr11_e1,fr11_p1).
contrary(fr11_e2,fr11_p1).
contrary(fr11_f1,fr11_r2).
contrary(fr17_d2,fr22_v6).
head(r_fr11_0,fr23_r1).
body(r_fr11_0,fr11_s1).
body(r_fr11_0,fr7_y1).
body(r_fr11_0,fr11_x2).
body(r_fr11_0,fr7_q1).
head(r_fr11_1,fr23_r1).
body(r_fr11_1,fr13_e1).
head(r_fr11_2,fr23_r1).
body(r_fr11_2,fr11_a2).
body(r_fr11_2,fr22_f2).
head(r_fr11_3,fr23_r1).
body(r_fr11_3,fr11_q1).
body(r_fr11_3,fr11_t2).
body(r_fr11_3,fr11_w2).
body(r_fr11_3,fr11_z1).
head(r_fr11_4,fr23_r1).
body(r_fr11_4,fr11_d1).
body(r_fr11_4,fr22_v6).
body(r_fr11_4,fr11_w1).
head(r_fr11_5,fr23_r1).
head(r_fr11_6,fr23_r1).
body(r_fr11_6,fr18_a1).
body(r_fr11_6,fr25_r3).
body(r_fr11_6,fr15_r3).
body(r_fr11_6,fr11_v1).
body(r_fr11_6,fr11_y1).
head(r_fr11_7,fr23_r1).
body(r_fr11_7,fr25_a3).
body(r_fr11_7,fr11_c3).
body(r_fr11_7,fr11_d1).
body(r_fr11_7,fr11_e2).
head(r_fr11_8,fr23_r1).
body(r_fr11_8,fr11_f1).
body(r_fr11_8,fr11_x2).
head(r_fr11_9,fr23_r1).
body(r_fr11_9,fr11_v1).
head(r_fr11_10,fr23_r1).
body(r_fr11_10,fr11_c3).
body(r_fr11_10,fr25_r3).
body(r_fr11_10,fr11_w2).
body(r_fr11_10,fr11_x1).
head(r_fr11_11,fr23_r1).
body(r_fr11_11,fr11_p3).
body(r_fr11_11,fr11_x1).
body(r_fr11_11,fr11_y1).
head(r_fr11_12,fr23_r1).
body(r_fr11_12,fr13_e1).
body(r_fr11_12,fr11_c3).
body(r_fr11_12,fr11_d1).
body(r_fr11_12,fr11_e1).
body(r_fr11_12,fr11_e2).
body(r_fr11_12,fr11_f1).
head(r_fr11_13,fr23_r1).
body(r_fr11_13,fr11_e2).
body(r_fr11_13,fr22_u1).
body(r_fr11_13,fr11_w2).
head(r_fr11_14,fr23_r1).
body(r_fr11_14,fr13_e1).
body(r_fr11_14,fr25_a3).
body(r_fr11_14,fr11_d2).
body(r_fr11_14,fr11_f1).
body(r_fr11_14,fr11_w1).
head(r_fr11_15,fr23_r1).
body(r_fr11_15,fr17_e4).
body(r_fr11_15,fr11_d2).
body(r_fr11_15,fr11_w1).
head(r_fr11_16,fr23_r1).
body(r_fr11_16,fr11_e1).
body(r_fr11_16,fr11_x1).
body(r_fr11_16,fr7_q1).
head(r_fr11_17,fr11_w2).
body(r_fr11_17,fr11_q1).
body(r_fr11_17,fr11_r2).
body(r_fr11_17,fr7_y1).
body(r_fr11_17,fr11_t2).
body(r_fr11_17,fr11_v2).
head(r_fr11_18,fr11_w2).
body(r_fr11_18,fr25_a3).
body(r_fr11_18,fr11_a2).
body(r_fr11_18,fr17_d2).
body(r_fr11_18,fr11_t1).
head(r_fr11_19,fr11_w2).
body(r_fr11_19,fr17_e4).
body(r_fr11_19,fr13_e1).
body(r_fr11_19,fr18_a1).
body(r_fr11_19,fr11_d1).
body(r_fr11_19,fr11_d2).
head(r_fr11_20,fr11_w2).
body(r_fr11_20,fr11_a2).
body(r_fr11_20,fr17_e4).
body(r_fr11_20,fr11_e2).
body(r_fr11_20,fr11_f1).
body(r_fr11_20,fr11_t2).
head(r_fr11_21,fr11_w2).
body(r_fr11_21,fr11_e2).
body(r_fr11_21,fr11_f1).
body(r_fr11_21,fr11_w1).
body(r_fr11_21,fr7_q1).
head(r_fr11_22,fr11_w2).
body(r_fr11_22,fr11_p2).
body(r_fr11_22,fr11_v1).
body(r_fr11_22,fr11_x1).
body(r_fr11_22,fr11_y2).
body(r_fr11_22,fr11_z1).
body(r_fr11_22,fr7_q1).
head(r_fr11_23,fr11_w2).
body(r_fr11_23,fr13_e1).
body(r_fr11_23,fr11_e1).
body(r_fr11_23,fr11_f1).
body(r_fr11_23,fr11_s1).
body(r_fr11_23,fr11_t1).
body(r_fr11_23,fr7_q1).
head(r_fr11_24,fr11_w2).
body(r_fr11_24,fr17_e4).
body(r_fr11_24,fr11_c3).
body(r_fr11_24,fr11_d2).
body(r_fr11_24,fr17_d2).
body(r_fr11_24,fr11_r2).
body(r_fr11_24,fr11_t1).
head(r_fr11_25,fr11_w2).
head(r_fr11_26,fr11_w2).
body(r_fr11_26,fr25_a3).
body(r_fr11_26,fr11_q1).
body(r_fr11_26,fr11_t1).
body(r_fr11_26,fr11_t2).
body(r_fr11_26,fr11_y1).
head(r_fr11_27,fr11_w2).
body(r_fr11_27,fr25_a3).
body(r_fr11_27,fr11_p3).
body(r_fr11_27,fr11_x2).
body(r_fr11_27,fr11_y2).
head(r_fr11_28,fr11_w2).
body(r_fr11_28,fr11_e2).
body(r_fr11_28,fr11_f1).
body(r_fr11_28,fr25_r3).
body(r_fr11_28,fr11_w1).
body(r_fr11_28,fr11_y2).
head(r_fr11_29,fr11_w2).
body(r_fr11_29,fr11_d2).
body(r_fr11_29,fr7_y1).
body(r_fr11_29,fr11_t2).
head(r_fr11_30,fr11_w2).
body(r_fr11_30,fr22_f2).
head(r_fr11_31,fr11_w2).
body(r_fr11_31,fr25_a3).
body(r_fr11_31,fr22_f2).
body(r_fr11_31,fr11_d1).
body(r_fr11_31,fr11_d2).
body(r_fr11_31,fr11_e1).
body(r_fr11_31,fr11_p1).
head(r_fr11_32,fr11_w2).
body(r_fr11_32,fr25_a3).
body(r_fr11_32,fr11_s1).
head(r_fr11_33,fr11_w2).
body(r_fr11_33,fr11_e2).
body(r_fr11_33,fr22_u1).
body(r_fr11_33,fr11_y2).
head(r_fr11_34,fr11_y1).
body(r_fr11_34,fr17_e4).
head(r_fr11_35,fr11_y1).
body(r_fr11_35,fr17_d2).
head(r_fr11_36,fr11_y1).
body(r_fr11_36,fr22_f2).
body(r_fr11_36,fr25_a3).
body(r_fr11_36,fr11_p2).
body(r_fr11_36,fr11_v2).
body(r_fr11_36,fr11_w1).
body(r_fr11_36,fr7_q1).
head(r_fr11_37,fr11_y1).
body(r_fr11_37,fr25_a3).
body(r_fr11_37,fr17_d2).
head(r_fr11_38,fr11_y1).
body(r_fr11_38,fr13_e1).
head(r_fr11_39,fr11_y1).
body(r_fr11_39,fr22_v6).
body(r_fr11_39,fr11_w1).
body(r_fr11_39,fr11_y2).
head(r_fr11_40,fr11_y1).
body(r_fr11_40,fr11_d1).
body(r_fr11_40,fr11_d2).
body(r_fr11_40,fr11_p2).
head(r_fr11_41,fr11_y1).
body(r_fr11_41,fr17_e4).
body(r_fr11_41,fr11_e2).
body(r_fr11_41,fr11_f1).
body(r_fr11_41,fr15_r3).
body(r_fr11_41,fr11_w1).
head(r_fr11_42,fr11_y1).
body(r_fr11_42,fr11_s1).
body(r_fr11_42,fr11_u1).
body(r_fr11_42,fr11_w2).
body(r_fr11_42,fr11_x1).
body(r_fr11_42,fr11_y2).
head(r_fr11_43,fr11_y1).
body(r_fr11_43,fr25_a3).
body(r_fr11_43,fr11_a2).
body(r_fr11_43,fr17_e4).
body(r_fr11_43,fr13_e1).
body(r_fr11_43,fr11_c3).
body(r_fr11_43,fr11_z1).
head(r_fr11_44,fr11_y1).
body(r_fr11_44,fr13_e1).
body(r_fr11_44,fr11_v2).
body(r_fr11_44,fr11_x1).
head(r_fr11_45,fr11_y1).
body(r_fr11_45,fr22_v6).
body(r_fr11_45,fr11_w2).
head(r_fr11_46,fr11_y1).
body(r_fr11_46,fr11_u1).
body(r_fr11_46,fr11_y2).
head(r_fr11_47,fr11_y1).
body(r_fr11_47,fr11_a2).
body(r_fr11_47,fr17_e4).
body(r_fr11_47,fr25_a3).
body(r_fr11_47,fr11_w1).
head(r_fr11_48,fr11_y1).
body(r_fr11_48,fr11_y2).
head(r_fr11_49,fr11_u1).
body(r_fr11_49,fr11_a2).
body(r_fr11_49,fr18_a1).
body(r_fr11_49,fr11_t1).
body(r_fr11_49,fr11_t2).
head(r_fr11_50,fr11_u1).
body(r_fr11_50,fr13_e1).
body(r_fr11_50,fr22_f2).
body(r_fr11_50,fr11_c3).
body(r_fr11_50,fr11_t1).
head(r_fr11_51,fr11_u1).
body(r_fr11_51,fr13_e1).
body(r_fr11_51,fr11_d1).
body(r_fr11_51,fr11_f1).
body(r_fr11_51,fr11_v1).
head(r_fr11_52,fr11_u1).
body(r_fr11_52,fr18_a1).
body(r_fr11_52,fr11_d1).
body(r_fr11_52,fr11_e2).
body(r_fr11_52,fr11_p1).
body(r_fr11_52,fr11_x1).
body(r_fr11_52,fr11_x2).
head(r_fr11_53,fr11_u1).
body(r_fr11_53,fr22_v6).
body(r_fr11_53,fr11_x1).
head(r_fr11_54,fr11_u1).
body(r_fr11_54,fr18_a1).
body(r_fr11_54,fr25_a3).
body(r_fr11_54,fr11_r2).
body(r_fr11_54,fr11_v1).
body(r_fr11_54,fr11_w1).
body(r_fr11_54,fr11_x1).
head(r_fr11_55,fr11_u1).
body(r_fr11_55,fr11_e1).
body(r_fr11_55,fr7_y1).
body(r_fr11_55,fr22_v6).
body(r_fr11_55,fr11_w2).
head(r_fr11_56,fr11_u1).
body(r_fr11_56,fr25_a3).
body(r_fr11_56,fr22_f2).
body(r_fr11_56,fr11_t2).
body(r_fr11_56,fr11_v1).
body(r_fr11_56,fr11_w2).
body(r_fr11_56,fr11_z1).
head(r_fr11_57,fr11_u1).
body(r_fr11_57,fr25_a3).
body(r_fr11_57,fr17_e4).
body(r_fr11_57,fr22_f2).
body(r_fr11_57,fr18_a1).
body(r_fr11_57,fr25_a3).
body(r_fr11_57,fr25_a3).
head(r_fr11_58,fr11_u1).
body(r_fr11_58,fr25_a3).
body(r_fr11_58,fr11_e1).
body(r_fr11_58,fr11_f1).
body(r_fr11_58,fr11_q1).
body(r_fr11_58,fr11_s1).
head(r_fr11_59,fr11_u1).
body(r_fr11_59,fr25_a3).
head(r_fr11_60,fr11_u1).
head(r_fr11_61,fr11_u1).
body(r_fr11_61,fr13_e1).
body(r_fr11_61,fr22_f2).
body(r_fr11_61,fr11_d2).
body(r_fr11_61,fr11_q1).
body(r_fr11_61,fr11_x2).
head(r_fr11_62,fr11_u1).
body(r_fr11_62,fr11_p2).
body(r_fr11_62,fr23_r1).
body(r_fr11_62,fr7_y1).
body(r_fr11_62,fr11_t2).
body(r_fr11_62,fr11_w1).
head(r_fr11_63,fr11_u1).
body(r_fr11_63,fr11_e2).
body(r_fr11_63,fr11_w2).
body(r_fr11_63,fr7_q1).
head(r_fr11_64,fr11_u1).
body(r_fr11_64,fr11_f1).
head(r_fr11_65,fr11_q1).
body(r_fr11_65,fr11_a2).
body(r_fr11_65,fr11_p2).
body(r_fr11_65,fr7_y1).
body(r_fr11_65,fr11_z1).
head(r_fr11_66,fr11_q1).
body(r_fr11_66,fr13_e1).
body(r_fr11_66,fr22_f2).
body(r_fr11_66,fr11_e1).
body(r_fr11_66,fr11_f1).
body(r_fr11_66,fr11_x1).
head(r_fr11_67,fr11_q1).
body(r_fr11_67,fr17_e4).
body(r_fr11_67,fr25_a3).
head(r_fr11_68,fr11_q1).
body(r_fr11_68,fr13_e1).
body(r_fr11_68,fr25_a3).
body(r_fr11_68,fr11_f1).
body(r_fr11_68,fr17_d2).
body(r_fr11_68,fr23_r1).
head(r_fr11_69,fr11_q1).
body(r_fr11_69,fr23_r1).
body(r_fr11_69,fr11_w1).
head(r_fr11_70,fr11_q1).
body(r_fr11_70,fr13_e1).
body(r_fr11_70,fr11_e1).
body(r_fr11_70,fr11_v1).
body(r_fr11_70,fr11_w1).
body(r_fr11_70,fr11_z1).
head(r_fr11_71,fr11_q1).
body(r_fr11_71,fr11_e2).
body(r_fr11_71,fr11_z1).
head(r_fr11_72,fr11_q1).
body(r_fr11_72,fr13_e1).
body(r_fr11_72,fr25_a3).
body(r_fr11_72,fr25_a3).
body(r_fr11_72,fr11_v2).
body(r_fr11_72,fr11_y2).
head(r_fr11_73,fr11_q1).
body(r_fr11_73,fr11_e2).
body(r_fr11_73,fr22_v6).
body(r_fr11_73,fr11_v1).
body(r_fr11_73,fr11_w2).
body(r_fr11_73,fr11_y1).
body(r_fr11_73,fr7_q1).
head(r_fr11_74,fr11_q1).
body(r_fr11_74,fr18_a1).
body(r_fr11_74,fr25_a3).
body(r_fr11_74,fr11_d2).
head(r_fr11_75,fr11_q1).
body(r_fr11_75,fr11_a2).
body(r_fr11_75,fr13_e1).
body(r_fr11_75,fr11_c3).
body(r_fr11_75,fr17_d2).
head(r_fr11_76,fr11_q1).
body(r_fr11_76,fr25_a3).
body(r_fr11_76,fr11_a2).
body(r_fr11_76,fr25_a3).
body(r_fr11_76,fr11_c3).
head(r_fr11_77,fr11_q1).
body(r_fr11_77,fr25_a3).
body(r_fr11_77,fr11_a2).
body(r_fr11_77,fr11_c3).
body(r_fr11_77,fr11_d1).
body(r_fr11_77,fr11_v2).
head(r_fr11_78,fr11_q1).
head(r_fr11_79,fr11_q1).
body(r_fr11_79,fr22_u1).
head(r_fr11_80,fr11_q1).
body(r_fr11_80,fr25_a3).
body(r_fr11_80,fr17_e4).
body(r_fr11_80,fr22_f2).
body(r_fr11_80,fr22_v6).
body(r_fr11_80,fr11_z1).
head(r_fr11_81,fr22_v6).
body(r_fr11_81,fr11_p1).
body(r_fr11_81,fr25_r3).
body(r_fr11_81,fr23_r1).
body(r_fr11_81,fr11_x2).
body(r_fr11_81,fr11_y1).
body(r_fr11_81,fr11_z1).
head(r_fr11_82,fr22_v6).
body(r_fr11_82,fr25_a3).
body(r_fr11_82,fr11_e1).
body(r_fr11_82,fr11_r2).
body(r_fr11_82,fr11_t2).
head(r_fr11_83,fr22_v6).
body(r_fr11_83,fr11_a2).
body(r_fr11_83,fr17_e4).
body(r_fr11_83,fr13_e1).
body(r_fr11_83,fr17_d2).
head(r_fr11_84,fr22_v6).
body(r_fr11_84,fr17_e4).
body(r_fr11_84,fr13_e1).
body(r_fr11_84,fr25_a3).
body(r_fr11_84,fr11_e1).
body(r_fr11_84,fr11_v1).
head(r_fr11_85,fr22_v6).
body(r_fr11_85,fr17_e4).
body(r_fr11_85,fr25_a3).
body(r_fr11_85,fr25_a3).
head(r_fr11_86,fr22_v6).
body(r_fr11_86,fr11_u1).
head(r_fr11_87,fr22_v6).
body(r_fr11_87,fr25_a3).
body(r_fr11_87,fr11_d2).
body(r_fr11_87,fr11_p2).
head(r_fr11_88,fr22_v6).
body(r_fr11_88,fr23_r1).
body(r_fr11_88,fr11_u1).
head(r_fr11_89,fr22_v6).
body(r_fr11_89,fr23_r1).
body(r_fr11_89,fr11_r2).
body(r_fr11_89,fr11_s1).
body(r_fr11_89,fr11_w2).
body(r_fr11_89,fr11_y2).
body(r_fr11_89,fr11_z1).
head(r_fr11_90,fr22_v6).
head(r_fr11_91,fr22_v6).
body(r_fr11_91,fr13_e1).
body(r_fr11_91,fr11_f1).
head(r_fr11_92,fr22_v6).
body(r_fr11_92,fr11_p2).
head(r_fr11_93,fr22_v6).
body(r_fr11_93,fr15_r3).
body(r_fr11_93,fr11_t2).
body(r_fr11_93,fr11_u1).
body(r_fr11_93,fr11_v1).
body(r_fr11_93,fr11_v2).
body(r_fr11_93,fr11_x2).
head(r_fr11_94,fr22_v6).
body(r_fr11_94,fr25_r3).
head(r_fr11_95,fr11_t2).
head(r_fr11_96,fr11_t2).
body(r_fr11_96,fr11_a2).
body(r_fr11_96,fr17_e4).
body(r_fr11_96,fr18_a1).
body(r_fr11_96,fr23_r1).
body(r_fr11_96,fr11_w2).
head(r_fr11_97,fr11_t2).
body(r_fr11_97,fr25_a3).
body(r_fr11_97,fr11_e1).
body(r_fr11_97,fr11_f1).
body(r_fr11_97,fr11_s1).
body(r_fr11_97,fr11_u1).
body(r_fr11_97,fr11_v1).
head(r_fr11_98,fr11_t2).
body(r_fr11_98,fr13_e1).
body(r_fr11_98,fr11_d1).
body(r_fr11_98,fr11_f1).
body(r_fr11_98,fr25_r3).
head(r_fr11_99,fr11_t2).
body(r_fr11_99,fr17_e4).
body(r_fr11_99,fr18_a1).
body(r_fr11_99,fr25_a3).
body(r_fr11_99,fr11_d1).
body(r_fr11_99,fr11_f1).
body(r_fr11_99,fr11_v2).
head(r_fr11_100,fr11_t2).
body(r_fr11_100,fr22_f2).
body(r_fr11_100,fr25_a3).
body(r_fr11_100,fr11_t1).
body(r_fr11_100,fr11_v2).
head(r_fr11_101,fr11_t2).
body(r_fr11_101,fr22_f2).
body(r_fr11_101,fr22_v6).
head(r_fr11_102,fr11_t2).
body(r_fr11_102,fr11_e1).
body(r_fr11_102,fr7_y1).
head(r_fr11_103,fr11_t2).
body(r_fr11_103,fr13_e1).
body(r_fr11_103,fr11_e2).
head(r_fr11_104,fr11_t2).
body(r_fr11_104,fr11_s1).
body(r_fr11_104,fr11_v2).
head(r_fr11_105,fr11_t2).
body(r_fr11_105,fr11_c3).
body(r_fr11_105,fr11_f1).
body(r_fr11_105,fr25_r3).
body(r_fr11_105,fr11_s1).
body(r_fr11_105,fr11_y2).
body(r_fr11_105,fr7_q1).
head(r_fr11_106,fr11_t2).
body(r_fr11_106,fr11_e2).
body(r_fr11_106,fr11_p3).
body(r_fr11_106,fr22_v6).
body(r_fr11_106,fr11_x2).
head(r_fr11_107,fr11_t2).
body(r_fr11_107,fr25_a3).
body(r_fr11_107,fr11_a2).
body(r_fr11_107,fr17_e4).
head(r_fr11_108,fr11_t2).
body(r_fr11_108,fr22_u1).
body(r_fr11_108,fr11_y1).
head(r_fr11_109,fr11_t2).
body(r_fr11_109,fr25_a3).
body(r_fr11_109,fr17_e4).
body(r_fr11_109,fr25_a3).
body(r_fr11_109,fr25_a3).
body(r_fr11_109,fr11_c3).
body(r_fr11_109,fr11_e1).
head(r_fr11_110,fr11_t2).
body(r_fr11_110,fr11_d1).
body(r_fr11_110,fr25_r3).
body(r_fr11_110,fr23_r1).
body(r_fr11_110,fr11_w2).
body(r_fr11_110,fr11_y2).
body(r_fr11_110,fr7_q1).
head(r_fr11_111,fr11_t2).
body(r_fr11_111,fr25_a3).
body(r_fr11_111,fr25_a3).
body(r_fr11_111,fr25_r3).
body(r_fr11_111,fr22_u1).
body(r_fr11_111,fr7_y1).
body(r_fr11_111,fr11_v2).
head(r_fr11_112,fr11_s1).
body(r_fr11_112,fr22_f2).
body(r_fr11_112,fr11_d2).
body(r_fr11_112,fr11_e1).
body(r_fr11_112,fr11_f1).
head(r_fr11_113,fr11_s1).
body(r_fr11_113,fr18_a1).
body(r_fr11_113,fr11_c3).
body(r_fr11_113,fr11_e1).
body(r_fr11_113,fr11_f1).
body(r_fr11_113,fr22_v6).
head(r_fr11_114,fr11_s1).
body(r_fr11_114,fr18_a1).
body(r_fr11_114,fr17_d2).
head(r_fr11_115,fr11_s1).
body(r_fr11_115,fr17_e4).
head(r_fr11_116,fr11_s1).
body(r_fr11_116,fr25_a3).
body(r_fr11_116,fr11_a2).
body(r_fr11_116,fr13_e1).
body(r_fr11_116,fr25_a3).
body(r_fr11_116,fr11_c3).
head(r_fr11_117,fr11_s1).
body(r_fr11_117,fr22_f2).
head(r_fr11_118,fr11_s1).
body(r_fr11_118,fr17_e4).
body(r_fr11_118,fr11_w1).
body(r_fr11_118,fr11_y1).
head(r_fr11_119,fr11_s1).
body(r_fr11_119,fr11_t1).
head(r_fr11_120,fr11_s1).
body(r_fr11_120,fr11_r2).
head(r_fr11_121,fr11_s1).
body(r_fr11_121,fr11_c3).
body(r_fr11_121,fr11_p2).
body(r_fr11_121,fr11_t2).
body(r_fr11_121,fr11_y1).
body(r_fr11_121,fr7_q1).
head(r_fr11_122,fr11_s1).
body(r_fr11_122,fr11_p3).
body(r_fr11_122,fr11_r2).
body(r_fr11_122,fr22_u1).
body(r_fr11_122,fr11_w2).
body(r_fr11_122,fr11_y2).
body(r_fr11_122,fr11_z1).
head(r_fr11_123,fr11_s1).
body(r_fr11_123,fr17_e4).
body(r_fr11_123,fr22_f2).
body(r_fr11_123,fr25_a3).
body(r_fr11_123,fr11_f1).
body(r_fr11_123,fr11_y1).
head(r_fr11_124,fr11_s1).
body(r_fr11_124,fr11_a2).
body(r_fr11_124,fr17_e4).
body(r_fr11_124,fr11_c3).
body(r_fr11_124,fr11_e1).
body(r_fr11_124,fr11_p1).
body(r_fr11_124,fr11_x2).
head(r_fr11_125,fr11_s1).
head(r_fr11_126,fr11_s1).
body(r_fr11_126,fr11_p3).
body(r_fr11_126,fr11_x2).
head(r_fr11_127,fr11_p1).
body(r_fr11_127,fr11_d2).
body(r_fr11_127,fr7_y1).
head(r_fr11_128,fr11_p1).
body(r_fr11_128,fr11_a2).
body(r_fr11_128,fr18_a1).
body(r_fr11_128,fr25_a3).
body(r_fr11_128,fr11_d1).
body(r_fr11_128,fr11_x1).
body(r_fr11_128,fr7_q1).
head(r_fr11_129,fr11_p1).
body(r_fr11_129,fr25_r3).
body(r_fr11_129,fr11_t1).
body(r_fr11_129,fr22_v6).
head(r_fr11_130,fr11_p1).
body(r_fr11_130,fr11_f1).
body(r_fr11_130,fr11_t2).
body(r_fr11_130,fr11_v1).
head(r_fr11_131,fr11_p1).
body(r_fr11_131,fr11_q1).
body(r_fr11_131,fr11_w1).
body(r_fr11_131,fr11_x1).
body(r_fr11_131,fr11_z1).
head(r_fr11_132,fr11_p1).
body(r_fr11_132,fr25_a3).
body(r_fr11_132,fr11_e2).
body(r_fr11_132,fr11_f1).
body(r_fr11_132,fr11_s1).
body(r_fr11_132,fr11_x1).
body(r_fr11_132,fr11_z1).
head(r_fr11_133,fr11_p1).
head(r_fr11_134,fr11_p1).
body(r_fr11_134,fr22_f2).
body(r_fr11_134,fr15_r3).
body(r_fr11_134,fr11_x2).
head(r_fr11_135,fr11_p1).
body(r_fr11_135,fr13_e1).
body(r_fr11_135,fr18_a1).
body(r_fr11_135,fr25_a3).
body(r_fr11_135,fr11_d2).
body(r_fr11_135,fr11_f1).
head(r_fr11_136,fr11_p1).
body(r_fr11_136,fr11_d2).
body(r_fr11_136,fr11_e1).
head(r_fr11_137,fr11_p1).
body(r_fr11_137,fr11_p2).
head(r_fr11_138,fr11_p1).
body(r_fr11_138,fr25_a3).
body(r_fr11_138,fr11_a2).
body(r_fr11_138,fr13_e1).
body(r_fr11_138,fr11_p3).
body(r_fr11_138,fr15_r3).
body(r_fr11_138,fr11_v2).
head(r_fr11_139,fr11_p1).
body(r_fr11_139,fr22_f2).
body(r_fr11_139,fr25_r3).
body(r_fr11_139,fr11_r2).
body(r_fr11_139,fr22_u1).
body(r_fr11_139,fr11_t2).
body(r_fr11_139,fr11_v1).
head(r_fr11_140,fr11_p1).
body(r_fr11_140,fr11_d1).
body(r_fr11_140,fr25_r3).
body(r_fr11_140,fr23_r1).
body(r_fr11_140,fr11_x1).
head(r_fr11_141,fr11_p1).
body(r_fr11_141,fr17_e4).
body(r_fr11_141,fr22_f2).
body(r_fr11_141,fr17_d2).
body(r_fr11_141,fr11_p3).
body(r_fr11_141,fr11_w1).
head(r_fr11_142,fr11_p1).
body(r_fr11_142,fr11_a2).
body(r_fr11_142,fr13_e1).
body(r_fr11_142,fr11_p2).
body(r_fr11_142,fr11_t1).
head(r_fr11_143,fr7_y1).
body(r_fr11_143,fr17_e4).
body(r_fr11_143,fr11_d1).
body(r_fr11_143,fr11_p3).
head(r_fr11_144,fr7_y1).
body(r_fr11_144,fr13_e1).
body(r_fr11_144,fr18_a1).
body(r_fr11_144,fr11_e2).
body(r_fr11_144,fr11_p1).
body(r_fr11_144,fr11_y1).
body(r_fr11_144,fr7_q1).
head(r_fr11_145,fr7_y1).
body(r_fr11_145,fr11_y1).
head(r_fr11_146,fr7_y1).
body(r_fr11_146,fr25_r3).
body(r_fr11_146,fr11_y2).
body(r_fr11_146,fr11_z1).
head(r_fr11_147,fr7_y1).
body(r_fr11_147,fr25_a3).
body(r_fr11_147,fr11_d2).
body(r_fr11_147,fr11_p2).
body(r_fr11_147,fr25_r3).
body(r_fr11_147,fr11_x1).
body(r_fr11_147,fr11_z1).
head(r_fr11_148,fr7_y1).
body(r_fr11_148,fr13_e1).
body(r_fr11_148,fr11_q1).
body(r_fr11_148,fr11_v1).
head(r_fr11_149,fr7_y1).
body(r_fr11_149,fr11_d1).
body(r_fr11_149,fr11_p2).
body(r_fr11_149,fr25_r3).
body(r_fr11_149,fr11_v1).
body(r_fr11_149,fr11_x2).
body(r_fr11_149,fr11_z1).
head(r_fr11_150,fr7_y1).
body(r_fr11_150,fr23_r1).
body(r_fr11_150,fr11_t2).
body(r_fr11_150,fr11_v1).
body(r_fr11_150,fr11_v2).
body(r_fr11_150,fr11_x2).
body(r_fr11_150,fr11_y1).
head(r_fr11_151,fr7_y1).
body(r_fr11_151,fr17_e4).
body(r_fr11_151,fr11_d1).
body(r_fr11_151,fr11_e2).
head(r_fr11_152,fr7_y1).
head(r_fr11_153,fr7_y1).
body(r_fr11_153,fr22_f2).
body(r_fr11_153,fr18_a1).
body(r_fr11_153,fr25_a3).
body(r_fr11_153,fr11_c3).
head(r_fr11_154,fr7_y1).
body(r_fr11_154,fr11_r2).
head(r_fr11_155,fr7_y1).
body(r_fr11_155,fr13_e1).
body(r_fr11_155,fr18_a1).
body(r_fr11_155,fr25_a3).
body(r_fr11_155,fr11_d1).
body(r_fr11_155,fr11_e1).
body(r_fr11_155,fr11_f1).
head(r_fr11_156,fr7_y1).
body(r_fr11_156,fr17_e4).
body(r_fr11_156,fr13_e1).
head(r_fr11_157,fr7_y1).
body(r_fr11_157,fr25_a3).
body(r_fr11_157,fr11_a2).
body(r_fr11_157,fr25_a3).
body(r_fr11_157,fr25_a3).
body(r_fr11_157,fr11_r2).
body(r_fr11_157,fr11_x1).
head(r_fr11_158,fr7_y1).
body(r_fr11_158,fr11_x2).
head(r_fr11_159,fr22_u1).
body(r_fr11_159,fr18_a1).
head(r_fr11_160,fr22_u1).
body(r_fr11_160,fr17_e4).
body(r_fr11_160,fr11_d1).
body(r_fr11_160,fr11_e1).
body(r_fr11_160,fr11_x1).
head(r_fr11_161,fr22_u1).
body(r_fr11_161,fr13_e1).
body(r_fr11_161,fr11_e2).
body(r_fr11_161,fr11_p1).
head(r_fr11_162,fr22_u1).
body(r_fr11_162,fr11_p1).
head(r_fr11_163,fr22_u1).
body(r_fr11_163,fr25_a3).
body(r_fr11_163,fr11_p1).
body(r_fr11_163,fr11_v1).
head(r_fr11_164,fr22_u1).
body(r_fr11_164,fr11_f1).
body(r_fr11_164,fr11_t1).
head(r_fr11_165,fr22_u1).
body(r_fr11_165,fr11_d2).
body(r_fr11_165,fr11_s1).
head(r_fr11_166,fr22_u1).
head(r_fr11_167,fr22_u1).
body(r_fr11_167,fr11_p1).
body(r_fr11_167,fr11_s1).
body(r_fr11_167,fr22_v6).
body(r_fr11_167,fr11_w1).
body(r_fr11_167,fr11_w2).
head(r_fr11_168,fr22_u1).
body(r_fr11_168,fr17_e4).
body(r_fr11_168,fr13_e1).
body(r_fr11_168,fr25_a3).
body(r_fr11_168,fr11_c3).
body(r_fr11_168,fr11_d2).
body(r_fr11_168,fr7_y1).
head(r_fr11_169,fr22_u1).
body(r_fr11_169,fr17_e4).
body(r_fr11_169,fr25_a3).
body(r_fr11_169,fr11_d1).
body(r_fr11_169,fr11_e2).
head(r_fr11_170,fr22_u1).
body(r_fr11_170,fr11_s1).
body(r_fr11_170,fr11_u1).
body(r_fr11_170,fr11_y2).
head(r_fr11_171,fr22_u1).
body(r_fr11_171,fr17_e4).
body(r_fr11_171,fr11_d1).
body(r_fr11_171,fr11_d2).
body(r_fr11_171,fr17_d2).
head(r_fr11_172,fr22_u1).
body(r_fr11_172,fr11_d1).
body(r_fr11_172,fr11_s1).
body(r_fr11_172,fr11_v1).
head(r_fr11_173,fr22_u1).
body(r_fr11_173,fr11_e1).
body(r_fr11_173,fr11_q1).
body(r_fr11_173,fr25_r3).
body(r_fr11_173,fr23_r1).
body(r_fr11_173,fr11_t1).
body(r_fr11_173,fr11_u1).
head(r_fr11_174,fr11_v2).
body(r_fr11_174,fr13_e1).
body(r_fr11_174,fr11_c3).
body(r_fr11_174,fr23_r1).
body(r_fr11_174,fr11_t1).
body(r_fr11_174,fr22_v6).
body(r_fr11_174,fr11_x1).
head(r_fr11_175,fr11_v2).
body(r_fr11_175,fr11_v1).
head(r_fr11_176,fr11_v2).
body(r_fr11_176,fr11_r2).
body(r_fr11_176,fr22_u1).
body(r_fr11_176,fr11_u1).
body(r_fr11_176,fr22_v6).
body(r_fr11_176,fr11_w1).
body(r_fr11_176,fr11_y2).
head(r_fr11_177,fr11_v2).
body(r_fr11_177,fr11_f1).
head(r_fr11_178,fr11_v2).
body(r_fr11_178,fr11_p3).
head(r_fr11_179,fr11_v2).
body(r_fr11_179,fr23_r1).
body(r_fr11_179,fr7_y1).
body(r_fr11_179,fr11_u1).
body(r_fr11_179,fr22_v6).
body(r_fr11_179,fr11_x1).
head(r_fr11_180,fr11_v2).
body(r_fr11_180,fr11_a2).
body(r_fr11_180,fr11_e2).
body(r_fr11_180,fr11_u1).
head(r_fr11_181,fr11_v2).
body(r_fr11_181,fr15_r3).
body(r_fr11_181,fr11_t1).
head(r_fr11_182,fr11_v2).
body(r_fr11_182,fr25_a3).
body(r_fr11_182,fr11_x2).
head(r_fr11_183,fr11_v2).
body(r_fr11_183,fr25_a3).
body(r_fr11_183,fr11_y1).
head(r_fr11_184,fr11_v2).
head(r_fr11_185,fr11_v2).
body(r_fr11_185,fr22_v6).
body(r_fr11_185,fr11_z1).
head(r_fr11_186,fr11_v2).
body(r_fr11_186,fr11_e2).
head(r_fr11_187,fr11_v2).
body(r_fr11_187,fr11_d2).
body(r_fr11_187,fr11_p2).
body(r_fr11_187,fr23_r1).
body(r_fr11_187,fr11_t2).
body(r_fr11_187,fr11_u1).
body(r_fr11_187,fr11_x1).
head(r_fr11_188,fr11_v2).
body(r_fr11_188,fr25_a3).
body(r_fr11_188,fr13_e1).
body(r_fr11_188,fr18_a1).
body(r_fr11_188,fr11_c3).
head(r_fr11_189,fr11_v1).
body(r_fr11_189,fr11_q1).
body(r_fr11_189,fr22_v6).
head(r_fr11_190,fr11_v1).
body(r_fr11_190,fr18_a1).
body(r_fr11_190,fr11_e2).
head(r_fr11_191,fr11_v1).
body(r_fr11_191,fr22_f2).
body(r_fr11_191,fr25_a3).
body(r_fr11_191,fr11_u1).
head(r_fr11_192,fr11_v1).
body(r_fr11_192,fr17_e4).
body(r_fr11_192,fr11_t1).
head(r_fr11_193,fr11_v1).
body(r_fr11_193,fr11_a2).
head(r_fr11_194,fr11_v1).
body(r_fr11_194,fr25_a3).
head(r_fr11_195,fr11_v1).
body(r_fr11_195,fr11_t2).
body(r_fr11_195,fr11_w2).
body(r_fr11_195,fr11_y1).
head(r_fr11_196,fr11_v1).
body(r_fr11_196,fr11_p1).
body(r_fr11_196,fr23_r1).
body(r_fr11_196,fr11_v2).
body(r_fr11_196,fr11_w1).
head(r_fr11_197,fr11_v1).
body(r_fr11_197,fr18_a1).
body(r_fr11_197,fr11_f1).
body(r_fr11_197,fr23_r1).
head(r_fr11_198,fr11_v1).
body(r_fr11_198,fr17_e4).
body(r_fr11_198,fr18_a1).
body(r_fr11_198,fr25_a3).
body(r_fr11_198,fr11_d1).
body(r_fr11_198,fr11_f1).
body(r_fr11_198,fr17_d2).
head(r_fr11_199,fr11_v1).
body(r_fr11_199,fr11_t1).
head(r_fr11_200,fr11_v1).
body(r_fr11_200,fr11_e1).
body(r_fr11_200,fr11_p3).
head(r_fr11_201,fr11_v1).
head(r_fr11_202,fr11_v1).
body(r_fr11_202,fr7_y1).
head(r_fr11_203,fr11_v1).
body(r_fr11_203,fr25_a3).
body(r_fr11_203,fr11_f1).
body(r_fr11_203,fr23_r1).
body(r_fr11_203,fr11_w2).
body(r_fr11_203,fr11_y2).
head(r_fr11_204,fr15_r3).
body(r_fr11_204,fr25_r3).
body(r_fr11_204,fr11_w1).
body(r_fr11_204,fr11_w2).
head(r_fr11_205,fr15_r3).
body(r_fr11_205,fr25_a3).
body(r_fr11_205,fr18_a1).
body(r_fr11_205,fr25_a3).
body(r_fr11_205,fr11_f1).
head(r_fr11_206,fr15_r3).
body(r_fr11_206,fr11_d1).
body(r_fr11_206,fr7_q1).
head(r_fr11_207,fr15_r3).
body(r_fr11_207,fr25_a3).
body(r_fr11_207,fr11_c3).
body(r_fr11_207,fr11_d2).
body(r_fr11_207,fr11_e1).
head(r_fr11_208,fr15_r3).
body(r_fr11_208,fr11_p1).
body(r_fr11_208,fr11_q1).
body(r_fr11_208,fr11_t1).
body(r_fr11_208,fr11_w1).
body(r_fr11_208,fr7_q1).
head(r_fr11_209,fr15_r3).
body(r_fr11_209,fr11_a2).
body(r_fr11_209,fr17_e4).
body(r_fr11_209,fr25_a3).
body(r_fr11_209,fr11_e1).
body(r_fr11_209,fr23_r1).
body(r_fr11_209,fr11_x2).
head(r_fr11_210,fr15_r3).
body(r_fr11_210,fr11_p3).
body(r_fr11_210,fr23_r1).
body(r_fr11_210,fr22_v6).
head(r_fr11_211,fr15_r3).
body(r_fr11_211,fr11_q1).
body(r_fr11_211,fr23_r1).
head(r_fr11_212,fr15_r3).
head(r_fr11_213,fr15_r3).
body(r_fr11_213,fr25_a3).
body(r_fr11_213,fr13_e1).
body(r_fr11_213,fr11_f1).
body(r_fr11_213,fr17_d2).
body(r_fr11_213,fr11_x1).
head(r_fr11_214,fr15_r3).
body(r_fr11_214,fr18_a1).
body(r_fr11_214,fr11_c3).
body(r_fr11_214,fr11_d1).
body(r_fr11_214,fr25_r3).
head(r_fr11_215,fr15_r3).
body(r_fr11_215,fr11_c3).
head(r_fr11_216,fr15_r3).
body(r_fr11_216,fr7_y1).
body(r_fr11_216,fr11_z1).
head(r_fr11_217,fr15_r3).
body(r_fr11_217,fr25_a3).
body(r_fr11_217,fr25_a3).
body(r_fr11_217,fr11_p2).
body(r_fr11_217,fr22_u1).
body(r_fr11_217,fr11_x2).
body(r_fr11_217,fr11_y1).
head(r_fr11_218,fr11_y2).
body(r_fr11_218,fr13_e1).
body(r_fr11_218,fr15_r3).
body(r_fr11_218,fr11_r2).
body(r_fr11_218,fr7_q1).
head(r_fr11_219,fr11_y2).
body(r_fr11_219,fr11_d2).
body(r_fr11_219,fr11_p1).
head(r_fr11_220,fr11_y2).
body(r_fr11_220,fr11_d2).
body(r_fr11_220,fr17_d2).
body(r_fr11_220,fr23_r1).
body(r_fr11_220,fr11_u1).
head(r_fr11_221,fr11_y2).
body(r_fr11_221,fr25_a3).
body(r_fr11_221,fr11_d2).
body(r_fr11_221,fr11_f1).
body(r_fr11_221,fr17_d2).
head(r_fr11_222,fr11_y2).
body(r_fr11_222,fr25_a3).
body(r_fr11_222,fr22_f2).
body(r_fr11_222,fr18_a1).
body(r_fr11_222,fr25_a3).
body(r_fr11_222,fr11_d2).
body(r_fr11_222,fr11_p2).
head(r_fr11_223,fr11_y2).
body(r_fr11_223,fr22_f2).
head(r_fr11_224,fr11_y2).
body(r_fr11_224,fr11_c3).
body(r_fr11_224,fr11_t1).
body(r_fr11_224,fr11_x2).
head(r_fr11_225,fr11_y2).
body(r_fr11_225,fr18_a1).
head(r_fr11_226,fr11_y2).
body(r_fr11_226,fr11_u1).
body(r_fr11_226,fr11_x2).
head(r_fr11_227,fr11_y2).
body(r_fr11_227,fr11_x1).
head(r_fr11_228,fr11_y2).
body(r_fr11_228,fr25_a3).
body(r_fr11_228,fr11_x2).
body(r_fr11_228,fr11_y1).
body(r_fr11_228,fr11_z1).
head(r_fr11_229,fr11_y2).
body(r_fr11_229,fr25_a3).
body(r_fr11_229,fr25_a3).
body(r_fr11_229,fr11_d1).
body(r_fr11_229,fr17_d2).
head(r_fr11_230,fr11_y2).
body(r_fr11_230,fr11_a2).
body(r_fr11_230,fr22_f2).
body(r_fr11_230,fr25_a3).
body(r_fr11_230,fr11_t1).
head(r_fr11_231,fr11_y2).
body(r_fr11_231,fr11_p1).
body(r_fr11_231,fr15_r3).
body(r_fr11_231,fr11_r2).
body(r_fr11_231,fr7_y1).
body(r_fr11_231,fr11_x2).
head(r_fr11_232,fr11_y2).
head(r_fr11_233,fr11_y2).
body(r_fr11_233,fr13_e1).
body(r_fr11_233,fr18_a1).
body(r_fr11_233,fr25_a3).
body(r_fr11_233,fr11_p1).
head(r_fr11_234,fr11_y2).
body(r_fr11_234,fr25_a3).
body(r_fr11_234,fr11_f1).
body(r_fr11_234,fr11_r2).
body(r_fr11_234,fr22_u1).
body(r_fr11_234,fr11_v1).
body(r_fr11_234,fr7_q1).
head(r_fr11_235,fr11_w1).
body(r_fr11_235,fr11_p3).
body(r_fr11_235,fr23_r1).
body(r_fr11_235,fr11_v2).
head(r_fr11_236,fr11_w1).
body(r_fr11_236,fr11_a2).
body(r_fr11_236,fr13_e1).
body(r_fr11_236,fr25_a3).
body(r_fr11_236,fr11_d1).
body(r_fr11_236,fr11_e2).
head(r_fr11_237,fr11_w1).
body(r_fr11_237,fr17_e4).
body(r_fr11_237,fr25_a3).
body(r_fr11_237,fr25_a3).
body(r_fr11_237,fr11_d1).
body(r_fr11_237,fr11_e2).
head(r_fr11_238,fr11_w1).
body(r_fr11_238,fr22_u1).
body(r_fr11_238,fr11_v2).
head(r_fr11_239,fr11_w1).
body(r_fr11_239,fr13_e1).
body(r_fr11_239,fr25_a3).
head(r_fr11_240,fr11_w1).
body(r_fr11_240,fr25_a3).
body(r_fr11_240,fr25_a3).
body(r_fr11_240,fr25_a3).
body(r_fr11_240,fr11_d1).
body(r_fr11_240,fr11_e2).
body(r_fr11_240,fr17_d2).
head(r_fr11_241,fr11_w1).
body(r_fr11_241,fr15_r3).
body(r_fr11_241,fr11_u1).
body(r_fr11_241,fr11_y1).
body(r_fr11_241,fr11_y2).
head(r_fr11_242,fr11_w1).
body(r_fr11_242,fr15_r3).
body(r_fr11_242,fr22_v6).
head(r_fr11_243,fr11_w1).
head(r_fr11_244,fr11_w1).
body(r_fr11_244,fr11_d2).
body(r_fr11_244,fr11_t2).
head(r_fr11_245,fr11_w1).
body(r_fr11_245,fr11_e2).
body(r_fr11_245,fr11_u1).
body(r_fr11_245,fr11_x2).
body(r_fr11_245,fr11_y1).
body(r_fr11_245,fr11_y2).
head(r_fr11_246,fr11_w1).
body(r_fr11_246,fr18_a1).
body(r_fr11_246,fr11_e1).
body(r_fr11_246,fr11_p3).
head(r_fr11_247,fr11_w1).
body(r_fr11_247,fr17_e4).
body(r_fr11_247,fr13_e1).
body(r_fr11_247,fr11_v1).
head(r_fr11_248,fr11_w1).
body(r_fr11_248,fr11_a2).
body(r_fr11_248,fr11_d1).
body(r_fr11_248,fr11_q1).
body(r_fr11_248,fr7_y1).
body(r_fr11_248,fr11_v2).
body(r_fr11_248,fr7_q1).
head(r_fr11_249,fr11_w1).
body(r_fr11_249,fr13_e1).
body(r_fr11_249,fr25_a3).
body(r_fr11_249,fr11_d1).
body(r_fr11_249,fr11_f1).
head(r_fr11_250,fr11_w1).
body(r_fr11_250,fr22_f2).
body(r_fr11_250,fr18_a1).
body(r_fr11_250,fr11_f1).
body(r_fr11_250,fr11_u1).
body(r_fr11_250,fr11_v1).
body(r_fr11_250,fr11_y2).
head(r_fr11_251,fr11_w1).
body(r_fr11_251,fr25_a3).
body(r_fr11_251,fr11_f1).
body(r_fr11_251,fr25_r3).
body(r_fr11_251,fr15_r3).
body(r_fr11_251,fr11_t2).
head(r_fr11_252,fr11_p3).
body(r_fr11_252,fr11_p2).
head(r_fr11_253,fr11_p3).
body(r_fr11_253,fr18_a1).
head(r_fr11_254,fr11_p3).
body(r_fr11_254,fr11_c3).
body(r_fr11_254,fr22_v6).
head(r_fr11_255,fr11_p3).
body(r_fr11_255,fr11_c3).
body(r_fr11_255,fr11_p2).
body(r_fr11_255,fr11_r2).
head(r_fr11_256,fr11_p3).
body(r_fr11_256,fr11_c3).
body(r_fr11_256,fr7_y1).
body(r_fr11_256,fr11_t1).
body(r_fr11_256,fr11_v1).
body(r_fr11_256,fr11_y1).
body(r_fr11_256,fr11_z1).
head(r_fr11_257,fr11_p3).
body(r_fr11_257,fr13_e1).
body(r_fr11_257,fr11_d1).
body(r_fr11_257,fr7_q1).
head(r_fr11_258,fr11_p3).
body(r_fr11_258,fr11_s1).
head(r_fr11_259,fr11_p3).
body(r_fr11_259,fr15_r3).
body(r_fr11_259,fr11_s1).
body(r_fr11_259,fr11_y1).
body(r_fr11_259,fr11_y2).
head(r_fr11_260,fr11_p3).
body(r_fr11_260,fr17_e4).
body(r_fr11_260,fr11_u1).
body(r_fr11_260,fr11_v1).
body(r_fr11_260,fr11_v2).
body(r_fr11_260,fr11_y1).
head(r_fr11_261,fr11_p3).
body(r_fr11_261,fr25_a3).
head(r_fr11_262,fr11_p3).
body(r_fr11_262,fr11_a2).
body(r_fr11_262,fr17_e4).
body(r_fr11_262,fr25_a3).
body(r_fr11_262,fr7_y1).
head(r_fr11_263,fr11_p3).
body(r_fr11_263,fr22_f2).
body(r_fr11_263,fr11_c3).
body(r_fr11_263,fr11_f1).
body(r_fr11_263,fr11_q1).
body(r_fr11_263,fr7_y1).
head(r_fr11_264,fr11_p3).
body(r_fr11_264,fr11_a2).
body(r_fr11_264,fr11_d2).
body(r_fr11_264,fr11_e2).
body(r_fr11_264,fr11_f1).
head(r_fr11_265,fr11_p3).
body(r_fr11_265,fr11_s1).
body(r_fr11_265,fr11_v1).
body(r_fr11_265,fr11_x1).
body(r_fr11_265,fr11_y1).
head(r_fr11_266,fr11_p3).
head(r_fr11_267,fr7_q1).
body(r_fr11_267,fr25_a3).
body(r_fr11_267,fr11_e1).
head(r_fr11_268,fr7_q1).
body(r_fr11_268,fr25_a3).
body(r_fr11_268,fr11_y2).
head(r_fr11_269,fr7_q1).
head(r_fr11_270,fr7_q1).
body(r_fr11_270,fr25_a3).
body(r_fr11_270,fr11_c3).
body(r_fr11_270,fr11_e1).
body(r_fr11_270,fr17_d2).
body(r_fr11_270,fr11_p2).
body(r_fr11_270,fr11_u1).
head(r_fr11_271,fr7_q1).
body(r_fr11_271,fr13_e1).
body(r_fr11_271,fr11_d1).
body(r_fr11_271,fr11_e1).
body(r_fr11_271,fr15_r3).
body(r_fr11_271,fr11_t2).
head(r_fr11_272,fr7_q1).
body(r_fr11_272,fr11_d2).
body(r_fr11_272,fr23_r1).
body(r_fr11_272,fr11_x2).
head(r_fr11_273,fr7_q1).
body(r_fr11_273,fr7_y1).
body(r_fr11_273,fr11_t2).
head(r_fr11_274,fr7_q1).
body(r_fr11_274,fr11_f1).
body(r_fr11_274,fr11_r2).
body(r_fr11_274,fr11_s1).
body(r_fr11_274,fr7_y1).
body(r_fr11_274,fr11_t2).
body(r_fr11_274,fr11_z1).
head(r_fr11_275,fr7_q1).
body(r_fr11_275,fr11_a2).
body(r_fr11_275,fr25_a3).
body(r_fr11_275,fr7_y1).
head(r_fr11_276,fr7_q1).
body(r_fr11_276,fr11_e1).
body(r_fr11_276,fr25_r3).
body(r_fr11_276,fr22_u1).
body(r_fr11_276,fr11_u1).
body(r_fr11_276,fr11_w1).
body(r_fr11_276,fr11_y2).
head(r_fr11_277,fr7_q1).
body(r_fr11_277,fr18_a1).
body(r_fr11_277,fr25_a3).
body(r_fr11_277,fr25_a3).
body(r_fr11_277,fr11_d2).
body(r_fr11_277,fr11_e1).
body(r_fr11_277,fr23_r1).
head(r_fr11_278,fr7_q1).
body(r_fr11_278,fr11_c3).
body(r_fr11_278,fr11_e1).
body(r_fr11_278,fr17_d2).
body(r_fr11_278,fr11_p1).
body(r_fr11_278,fr11_s1).
body(r_fr11_278,fr11_u1).
head(r_fr11_279,fr7_q1).
body(r_fr11_279,fr11_z1).
head(r_fr11_280,fr7_q1).
body(r_fr11_280,fr11_e2).
head(r_fr11_281,fr7_q1).
body(r_fr11_281,fr11_x2).
head(r_fr11_282,fr7_q1).
body(r_fr11_282,fr11_c3).
body(r_fr11_282,fr11_d1).
head(r_fr11_283,fr11_t1).
body(r_fr11_283,fr11_e2).
head(r_fr11_284,fr11_t1).
body(r_fr11_284,fr25_a3).
body(r_fr11_284,fr11_c3).
body(r_fr11_284,fr11_d2).
body(r_fr11_284,fr11_q1).
head(r_fr11_285,fr11_t1).
body(r_fr11_285,fr11_a2).
body(r_fr11_285,fr22_f2).
body(r_fr11_285,fr25_a3).
body(r_fr11_285,fr11_f1).
body(r_fr11_285,fr11_p1).
head(r_fr11_286,fr11_t1).
body(r_fr11_286,fr15_r3).
body(r_fr11_286,fr11_v1).
body(r_fr11_286,fr11_x1).
body(r_fr11_286,fr11_x2).
head(r_fr11_287,fr11_t1).
body(r_fr11_287,fr11_f1).
body(r_fr11_287,fr11_r2).
head(r_fr11_288,fr11_t1).
body(r_fr11_288,fr11_e1).
body(r_fr11_288,fr11_f1).
head(r_fr11_289,fr11_t1).
body(r_fr11_289,fr11_d1).
head(r_fr11_290,fr11_t1).
body(r_fr11_290,fr11_c3).
body(r_fr11_290,fr11_e2).
head(r_fr11_291,fr11_t1).
body(r_fr11_291,fr11_a2).
body(r_fr11_291,fr11_r2).
body(r_fr11_291,fr11_x2).
body(r_fr11_291,fr11_y2).
head(r_fr11_292,fr11_t1).
body(r_fr11_292,fr18_a1).
body(r_fr11_292,fr11_p2).
body(r_fr11_292,fr15_r3).
body(r_fr11_292,fr11_y2).
head(r_fr11_293,fr11_t1).
body(r_fr11_293,fr17_e4).
body(r_fr11_293,fr13_e1).
body(r_fr11_293,fr11_c3).
body(r_fr11_293,fr11_d1).
body(r_fr11_293,fr11_e2).
body(r_fr11_293,fr11_f1).
head(r_fr11_294,fr11_t1).
body(r_fr11_294,fr17_e4).
body(r_fr11_294,fr11_f1).
body(r_fr11_294,fr11_q1).
body(r_fr11_294,fr11_x1).
head(r_fr11_295,fr11_t1).
body(r_fr11_295,fr13_e1).
body(r_fr11_295,fr11_d1).
body(r_fr11_295,fr11_d2).
body(r_fr11_295,fr11_u1).
body(r_fr11_295,fr11_y1).
body(r_fr11_295,fr11_y2).
head(r_fr11_296,fr11_t1).
body(r_fr11_296,fr11_p1).
body(r_fr11_296,fr11_r2).
head(r_fr11_297,fr11_t1).
head(r_fr11_298,fr11_t1).
body(r_fr11_298,fr25_a3).
body(r_fr11_298,fr11_q1).
head(r_fr11_299,fr11_p2).
body(r_fr11_299,fr17_e4).
body(r_fr11_299,fr25_a3).
body(r_fr11_299,fr11_d1).
body(r_fr11_299,fr11_e1).
body(r_fr11_299,fr17_d2).
body(r_fr11_299,fr23_r1).
head(r_fr11_300,fr11_p2).
body(r_fr11_300,fr22_f2).
body(r_fr11_300,fr11_q1).
body(r_fr11_300,fr11_t2).
head(r_fr11_301,fr11_p2).
body(r_fr11_301,fr11_a2).
body(r_fr11_301,fr17_e4).
body(r_fr11_301,fr11_d1).
body(r_fr11_301,fr11_e2).
body(r_fr11_301,fr7_y1).
head(r_fr11_302,fr11_p2).
body(r_fr11_302,fr25_a3).
body(r_fr11_302,fr22_v6).
head(r_fr11_303,fr11_p2).
body(r_fr11_303,fr25_a3).
body(r_fr11_303,fr22_v6).
body(r_fr11_303,fr11_v1).
body(r_fr11_303,fr11_w2).
body(r_fr11_303,fr11_x1).
head(r_fr11_304,fr11_p2).
body(r_fr11_304,fr11_p3).
head(r_fr11_305,fr11_p2).
body(r_fr11_305,fr17_e4).
body(r_fr11_305,fr13_e1).
body(r_fr11_305,fr11_p1).
body(r_fr11_305,fr23_r1).
body(r_fr11_305,fr11_v1).
body(r_fr11_305,fr7_q1).
head(r_fr11_306,fr11_p2).
body(r_fr11_306,fr22_f2).
head(r_fr11_307,fr11_p2).
body(r_fr11_307,fr15_r3).
body(r_fr11_307,fr22_v6).
body(r_fr11_307,fr11_y1).
body(r_fr11_307,fr11_z1).
head(r_fr11_308,fr11_p2).
body(r_fr11_308,fr25_r3).
body(r_fr11_308,fr11_t1).
body(r_fr11_308,fr11_x2).
body(r_fr11_308,fr11_y2).
head(r_fr11_309,fr11_p2).
body(r_fr11_309,fr18_a1).
body(r_fr11_309,fr25_a3).
body(r_fr11_309,fr11_c3).
body(r_fr11_309,fr11_e1).
body(r_fr11_309,fr11_p1).
body(r_fr11_309,fr11_q1).
head(r_fr11_310,fr11_p2).
body(r_fr11_310,fr11_q1).
body(r_fr11_310,fr11_r2).
body(r_fr11_310,fr11_s1).
body(r_fr11_310,fr11_v2).
body(r_fr11_310,fr11_z1).
head(r_fr11_311,fr11_p2).
body(r_fr11_311,fr18_a1).
body(r_fr11_311,fr25_a3).
body(r_fr11_311,fr11_v1).
head(r_fr11_312,fr11_p2).
body(r_fr11_312,fr18_a1).
body(r_fr11_312,fr11_d2).
body(r_fr11_312,fr11_e2).
body(r_fr11_312,fr25_r3).
body(r_fr11_312,fr11_t1).
body(r_fr11_312,fr11_v1).
head(r_fr11_313,fr11_p2).
body(r_fr11_313,fr25_a3).
body(r_fr11_313,fr11_e2).
body(r_fr11_313,fr11_f1).
head(r_fr11_314,fr11_p2).

assumption(fr12_a1).
assumption(fr12_b1).
assumption(fr12_c1).
assumption(fr25_a3).
assumption(fr12_e1).
assumption(fr25_a3).
assumption(fr12_a2).
assumption(fr12_b2).
assumption(fr12_c2).
assumption(fr12_d2).
assumption(fr12_e2).
assumption(fr12_f2).
assumption(fr12_a3).
assumption(fr12_b3).
assumption(fr12_c3).
contrary(fr12_a1,fr12_t1).
contrary(fr12_a2,fr12_s2).
contrary(fr12_a3,fr12_y2).
contrary(fr12_b1,fr12_c2).
contrary(fr12_b2,fr12_u2).
contrary(fr12_b3,fr12_b2).
contrary(fr12_c1,fr12_b2).
contrary(fr12_c2,fr12_u2).
contrary(fr12_c3,fr12_d2).
contrary(fr25_a3,fr12_c3).
contrary(fr12_d2,fr12_a3).
contrary(fr12_e1,fr12_r2).
contrary(fr12_e2,fr12_p1).
contrary(fr25_a3,fr12_x2).
contrary(fr12_f2,fr20_y5).
head(r_fr12_0,fr24_w1).
body(r_fr12_0,fr12_a3).
body(r_fr12_0,fr12_b2).
body(r_fr12_0,fr12_z2).
head(r_fr12_1,fr24_w1).
head(r_fr12_2,fr12_r2).
body(r_fr12_2,fr12_c2).
body(r_fr12_2,fr12_e1).
head(r_fr12_3,fr12_r2).
body(r_fr12_3,fr12_e1).
head(r_fr12_4,fr12_r2).
body(r_fr12_4,fr12_r1).
body(r_fr12_4,fr12_z3).
head(r_fr12_5,fr12_r2).
body(r_fr12_5,fr12_a1).
body(r_fr12_5,fr24_w1).
body(r_fr12_5,fr12_r1).
head(r_fr12_6,fr23_w1).
body(r_fr12_6,fr12_c2).
head(r_fr12_7,fr23_w1).
head(r_fr12_8,fr12_t3).
body(r_fr12_8,fr12_c2).
body(r_fr12_8,fr25_a3).
body(r_fr12_8,fr12_e1).
head(r_fr12_9,fr12_t3).
body(r_fr12_9,fr12_b2).
body(r_fr12_9,fr12_c1).
body(r_fr12_9,fr12_c2).
head(r_fr12_10,fr12_t3).
body(r_fr12_10,fr10_s2).
head(r_fr12_11,fr12_t3).
body(r_fr12_11,fr12_a1).
body(r_fr12_11,fr12_w3).
head(r_fr12_12,fr12_t3).
head(r_fr12_13,fr12_q1).
body(r_fr12_13,fr12_c3).
body(r_fr12_13,fr12_u2).
body(r_fr12_13,fr12_w2).
head(r_fr12_14,fr12_q1).
body(r_fr12_14,fr12_b2).
head(r_fr12_15,fr12_w3).
body(r_fr12_15,fr12_d2).
body(r_fr12_15,fr9_z2).
head(r_fr12_16,fr12_w3).
body(r_fr12_16,fr12_c3).
body(r_fr12_16,fr12_u2).
body(r_fr12_16,fr12_v1).
head(r_fr12_17,fr12_y2).
body(r_fr12_17,fr12_s1).
body(r_fr12_17,fr12_x1).
body(r_fr12_17,fr6_z2).
head(r_fr12_18,fr12_y2).
body(r_fr12_18,fr12_w3).
head(r_fr12_19,fr12_y2).
body(r_fr12_19,fr12_a2).
body(r_fr12_19,fr12_d2).
body(r_fr12_19,fr25_a3).
head(r_fr12_20,fr12_y2).
body(r_fr12_20,fr12_a2).
body(r_fr12_20,fr12_e1).
head(r_fr12_21,fr12_y2).
body(r_fr12_21,fr12_d2).
body(r_fr12_21,fr12_u2).
head(r_fr12_22,fr12_p1).
body(r_fr12_22,fr12_t3).
body(r_fr12_22,fr13_u1).
body(r_fr12_22,fr12_z2).
head(r_fr12_23,fr12_p1).
head(r_fr12_24,fr12_p1).
body(r_fr12_24,fr12_c3).
head(r_fr12_25,fr12_p1).
body(r_fr12_25,fr12_c2).
body(r_fr12_25,fr12_f2).
body(r_fr12_25,fr12_x2).
head(r_fr12_26,fr12_p1).
body(r_fr12_26,fr12_b2).
body(r_fr12_26,fr12_c3).
body(r_fr12_26,fr24_w1).
head(r_fr12_27,fr12_z1).
body(r_fr12_27,fr12_y2).
body(r_fr12_27,fr13_u1).
head(r_fr12_28,fr12_z1).
body(r_fr12_28,fr12_a2).
body(r_fr12_28,fr12_c1).
head(r_fr12_29,fr12_z1).
head(r_fr12_30,fr12_z1).
body(r_fr12_30,fr12_a3).
body(r_fr12_30,fr25_a3).
body(r_fr12_30,fr12_w3).
head(r_fr12_31,fr12_z1).
body(r_fr12_31,fr12_a3).
body(r_fr12_31,fr12_f2).
body(r_fr12_31,fr12_p2).
head(r_fr12_32,fr12_r3).
body(r_fr12_32,fr12_u1).
head(r_fr12_33,fr12_r3).
body(r_fr12_33,fr12_a1).
body(r_fr12_33,fr12_b3).
body(r_fr12_33,fr12_c3).
head(r_fr12_34,fr12_r3).
head(r_fr12_35,fr12_v3).
body(r_fr12_35,fr12_a3).
body(r_fr12_35,fr12_e2).
body(r_fr12_35,fr20_y5).
head(r_fr12_36,fr12_v3).
body(r_fr12_36,fr12_d2).
body(r_fr12_36,fr12_f2).
head(r_fr12_37,fr12_v3).
body(r_fr12_37,fr25_a3).
body(r_fr12_37,fr12_e1).
head(r_fr12_38,fr12_v3).
body(r_fr12_38,fr25_r3).
body(r_fr12_38,fr12_x2).
head(r_fr12_39,fr18_x1).
body(r_fr12_39,fr12_s2).
body(r_fr12_39,fr12_u1).
body(r_fr12_39,fr12_z3).
head(r_fr12_40,fr18_x1).
body(r_fr12_40,fr20_y5).
head(r_fr12_41,fr18_x1).
body(r_fr12_41,fr12_r3).
head(r_fr12_42,fr18_x1).
head(r_fr12_43,fr18_x1).
body(r_fr12_43,fr25_a3).
body(r_fr12_43,fr12_e2).
body(r_fr12_43,fr12_t1).
head(r_fr12_44,fr13_u1).
head(r_fr12_45,fr13_u1).
body(r_fr12_45,fr12_r1).
body(r_fr12_45,fr12_s1).
body(r_fr12_45,fr12_s2).
head(r_fr12_46,fr13_u1).
body(r_fr12_46,fr12_c1).
body(r_fr12_46,fr12_c2).
body(r_fr12_46,fr12_c3).
head(r_fr12_47,fr12_z2).
body(r_fr12_47,fr12_b3).
body(r_fr12_47,fr25_a3).
body(r_fr12_47,fr12_t1).
head(r_fr12_48,fr12_z2).
body(r_fr12_48,fr12_c2).
body(r_fr12_48,fr12_t3).
head(r_fr12_49,fr12_z2).
head(r_fr12_50,fr12_x1).
body(r_fr12_50,fr12_e2).
head(r_fr12_51,fr12_x1).
body(r_fr12_51,fr25_a3).
body(r_fr12_51,fr12_f2).
head(r_fr12_52,fr12_x1).
body(r_fr12_52,fr12_a1).
body(r_fr12_52,fr12_a3).
head(r_fr12_53,fr12_x1).
body(r_fr12_53,fr12_a3).
body(r_fr12_53,fr12_b3).
head(r_fr12_54,fr12_x1).
head(r_fr12_55,fr12_u2).
body(r_fr12_55,fr12_d2).
body(r_fr12_55,fr12_e1).
body(r_fr12_55,fr24_w1).
head(r_fr12_56,fr12_u2).
body(r_fr12_56,fr12_q4).
body(r_fr12_56,fr12_u1).
body(r_fr12_56,fr12_v3).
head(r_fr12_57,fr12_u2).
body(r_fr12_57,fr12_q4).
head(r_fr12_58,fr12_u2).
head(r_fr12_59,fr12_r1).
body(r_fr12_59,fr12_c1).
body(r_fr12_59,fr25_a3).
head(r_fr12_60,fr12_r1).
body(r_fr12_60,fr12_c2).
body(r_fr12_60,fr12_d2).
body(r_fr12_60,fr12_p2).
head(r_fr12_61,fr12_r1).
body(r_fr12_61,fr12_a3).
body(r_fr12_61,fr12_v3).
head(r_fr12_62,fr12_r1).
head(r_fr12_63,fr12_t1).
body(r_fr12_63,fr12_e2).
body(r_fr12_63,fr12_u1).
body(r_fr12_63,fr10_s2).
head(r_fr12_64,fr12_t1).
body(r_fr12_64,fr12_a2).
head(r_fr12_65,fr12_t1).
head(r_fr12_66,fr12_t1).
body(r_fr12_66,fr12_c2).
body(r_fr12_66,fr12_c3).
body(r_fr12_66,fr12_f2).
head(r_fr12_67,fr12_t1).
body(r_fr12_67,fr12_b3).
body(r_fr12_67,fr25_a3).
body(r_fr12_67,fr12_f2).
head(r_fr12_68,fr20_y5).
head(r_fr12_69,fr20_y5).
body(r_fr12_69,fr12_b2).
body(r_fr12_69,fr25_a3).
head(r_fr12_70,fr20_y5).
body(r_fr12_70,fr25_a3).
body(r_fr12_70,fr12_w2).
head(r_fr12_71,fr12_w2).
head(r_fr12_72,fr12_w2).
body(r_fr12_72,fr12_e1).
head(r_fr12_73,fr12_w2).
body(r_fr12_73,fr12_a2).
body(r_fr12_73,fr12_b1).

assumption(fr13_a1).
assumption(fr13_b1).
assumption(fr13_c1).
assumption(fr13_d1).
assumption(fr13_e1).
assumption(fr13_f1).
assumption(fr13_a2).
assumption(fr13_b2).
assumption(fr13_c2).
assumption(fr10_f2).
assumption(fr13_e2).
assumption(fr24_e1).
assumption(fr14_b2).
assumption(fr13_b3).
assumption(fr21_d3).
contrary(fr13_a1,fr10_f2).
contrary(fr13_a2,fr12_p2).
contrary(fr14_b2,fr13_y2).
contrary(fr13_b1,fr13_a2).
contrary(fr13_b2,fr22_r2).
contrary(fr13_b3,fr13_u1).
contrary(fr13_c1,fr14_b2).
contrary(fr13_c2,fr13_q2).
contrary(fr21_d3,fr13_w2).
contrary(fr13_d1,fr13_r2).
contrary(fr10_f2,fr13_v1).
contrary(fr13_e1,fr13_r2).
contrary(fr13_e2,fr13_w1).
contrary(fr13_f1,fr13_q3).
contrary(fr24_e1,fr13_x1).
head(r_fr13_0,fr13_r1).
body(r_fr13_0,fr13_y2).
body(r_fr13_0,fr13_z1).
body(r_fr13_0,fr13_z2).
head(r_fr13_1,fr13_r1).
body(r_fr13_1,fr21_d3).
body(r_fr13_1,fr13_d1).
body(r_fr13_1,fr13_f1).
body(r_fr13_1,fr24_e1).
head(r_fr13_2,fr13_r1).
body(r_fr13_2,fr13_f1).
body(r_fr13_2,fr22_r2).
body(r_fr13_2,fr13_t1).
body(r_fr13_2,fr13_u1).
body(r_fr13_2,fr12_p2).
body(r_fr13_2,fr13_z1).
head(r_fr13_3,fr13_r1).
body(r_fr13_3,fr13_a2).
body(r_fr13_3,fr14_b2).
body(r_fr13_3,fr21_d3).
body(r_fr13_3,fr13_e1).
body(r_fr13_3,fr24_e1).
body(r_fr13_3,fr13_t2).
head(r_fr13_4,fr13_r1).
body(r_fr13_4,fr13_b3).
body(r_fr13_4,fr13_e2).
body(r_fr13_4,fr24_e1).
head(r_fr13_5,fr13_r1).
body(r_fr13_5,fr13_e2).
body(r_fr13_5,fr13_r2).
body(r_fr13_5,fr13_v1).
body(r_fr13_5,fr13_x2).
body(r_fr13_5,fr13_z1).
head(r_fr13_6,fr13_r1).
body(r_fr13_6,fr13_r2).
body(r_fr13_6,fr13_r3).
body(r_fr13_6,fr13_z2).
head(r_fr13_7,fr13_r1).
body(r_fr13_7,fr13_c2).
body(r_fr13_7,fr10_f2).
head(r_fr13_8,fr13_r1).
body(r_fr13_8,fr13_c1).
head(r_fr13_9,fr13_r1).
body(r_fr13_9,fr12_p2).
head(r_fr13_10,fr13_r1).
body(r_fr13_10,fr13_e1).
body(r_fr13_10,fr19_p1).
head(r_fr13_11,fr13_r1).
body(r_fr13_11,fr13_b1).
body(r_fr13_11,fr13_b2).
body(r_fr13_11,fr13_b3).
body(r_fr13_11,fr21_d3).
body(r_fr13_11,fr10_f2).
head(r_fr13_12,fr13_r1).
body(r_fr13_12,fr10_f2).
body(r_fr13_12,fr24_e1).
body(r_fr13_12,fr24_s2).
body(r_fr13_12,fr13_t1).
body(r_fr13_12,fr13_w2).
head(r_fr13_13,fr13_r1).
body(r_fr13_13,fr24_s2).
body(r_fr13_13,fr13_q1).
body(r_fr13_13,fr13_r3).
body(r_fr13_13,fr13_x1).
body(r_fr13_13,fr13_z1).
head(r_fr13_14,fr13_r1).
body(r_fr13_14,fr13_c2).
body(r_fr13_14,fr13_e1).
head(r_fr13_15,fr13_r1).
body(r_fr13_15,fr13_b1).
body(r_fr13_15,fr12_p2).
head(r_fr13_16,fr13_r1).
body(r_fr13_16,fr13_e2).
body(r_fr13_16,fr22_r2).
body(r_fr13_16,fr13_w1).
body(r_fr13_16,fr13_w2).
body(r_fr13_16,fr13_x1).
head(r_fr13_17,fr13_r1).
body(r_fr13_17,fr24_e1).
body(r_fr13_17,fr22_r2).
body(r_fr13_17,fr13_w1).
head(r_fr13_18,fr13_r1).
body(r_fr13_18,fr24_s2).
body(r_fr13_18,fr5_r3).
body(r_fr13_18,fr13_t1).
body(r_fr13_18,fr13_v1).
body(r_fr13_18,fr13_x1).
body(r_fr13_18,fr13_y1).
head(r_fr13_19,fr13_r1).
head(r_fr13_20,fr13_r1).
body(r_fr13_20,fr13_r3).
body(r_fr13_20,fr13_u1).
body(r_fr13_20,fr13_v1).
head(r_fr13_21,fr13_r1).
body(r_fr13_21,fr13_b3).
body(r_fr13_21,fr13_c2).
body(r_fr13_21,fr13_e1).
body(r_fr13_21,fr24_e1).
body(r_fr13_21,fr13_s2).
head(r_fr13_22,fr13_r1).
body(r_fr13_22,fr13_e1).
head(r_fr13_23,fr13_w1).
body(r_fr13_23,fr14_b2).
body(r_fr13_23,fr13_b2).
body(r_fr13_23,fr13_e2).
body(r_fr13_23,fr13_u1).
head(r_fr13_24,fr13_w1).
body(r_fr13_24,fr13_d1).
body(r_fr13_24,fr12_p2).
body(r_fr13_24,fr13_z2).
head(r_fr13_25,fr13_w1).
body(r_fr13_25,fr19_p1).
body(r_fr13_25,fr13_r1).
body(r_fr13_25,fr13_x2).
body(r_fr13_25,fr13_y2).
head(r_fr13_26,fr13_w1).
body(r_fr13_26,fr21_d3).
body(r_fr13_26,fr24_s2).
body(r_fr13_26,fr13_q3).
body(r_fr13_26,fr13_r2).
body(r_fr13_26,fr12_p2).
body(r_fr13_26,fr13_x1).
head(r_fr13_27,fr13_w1).
body(r_fr13_27,fr13_e2).
body(r_fr13_27,fr13_f1).
body(r_fr13_27,fr24_s2).
body(r_fr13_27,fr22_r2).
body(r_fr13_27,fr13_y1).
head(r_fr13_28,fr13_w1).
body(r_fr13_28,fr13_a1).
body(r_fr13_28,fr14_b2).
body(r_fr13_28,fr13_b2).
body(r_fr13_28,fr13_b3).
body(r_fr13_28,fr13_c2).
body(r_fr13_28,fr10_f2).
head(r_fr13_29,fr13_w1).
body(r_fr13_29,fr10_f2).
head(r_fr13_30,fr13_w1).
body(r_fr13_30,fr13_r1).
body(r_fr13_30,fr13_r2).
body(r_fr13_30,fr22_r2).
body(r_fr13_30,fr13_t2).
body(r_fr13_30,fr13_y1).
body(r_fr13_30,fr13_y2).
head(r_fr13_31,fr13_w1).
body(r_fr13_31,fr13_r3).
head(r_fr13_32,fr13_w1).
head(r_fr13_33,fr13_w1).
body(r_fr13_33,fr13_t2).
body(r_fr13_33,fr13_u1).
body(r_fr13_33,fr13_v2).
body(r_fr13_33,fr13_y1).
body(r_fr13_33,fr13_y2).
head(r_fr13_34,fr13_w1).
body(r_fr13_34,fr19_p1).
body(r_fr13_34,fr13_v1).
head(r_fr13_35,fr13_w1).
body(r_fr13_35,fr13_b1).
body(r_fr13_35,fr13_b2).
body(r_fr13_35,fr13_c2).
body(r_fr13_35,fr10_f2).
body(r_fr13_35,fr13_r3).
head(r_fr13_36,fr13_w1).
body(r_fr13_36,fr13_q1).
body(r_fr13_36,fr13_y2).
head(r_fr13_37,fr13_w1).
body(r_fr13_37,fr13_a2).
body(r_fr13_37,fr5_r3).
body(r_fr13_37,fr13_q3).
body(r_fr13_37,fr13_u1).
body(r_fr13_37,fr13_y1).
head(r_fr13_38,fr13_w1).
body(r_fr13_38,fr13_d1).
body(r_fr13_38,fr13_q3).
body(r_fr13_38,fr13_r1).
body(r_fr13_38,fr13_r2).
body(r_fr13_38,fr22_r2).
body(r_fr13_38,fr13_s2).
head(r_fr13_39,fr13_w1).
body(r_fr13_39,fr13_a1).
body(r_fr13_39,fr13_d1).
body(r_fr13_39,fr13_e1).
body(r_fr13_39,fr13_f1).
head(r_fr13_40,fr13_w1).
body(r_fr13_40,fr13_v2).
head(r_fr13_41,fr13_w1).
body(r_fr13_41,fr14_b2).
body(r_fr13_41,fr13_b2).
body(r_fr13_41,fr13_e1).
body(r_fr13_41,fr13_f1).
body(r_fr13_41,fr13_r2).
head(r_fr13_42,fr13_w1).
body(r_fr13_42,fr14_b2).
body(r_fr13_42,fr13_b1).
body(r_fr13_42,fr13_c2).
body(r_fr13_42,fr13_e2).
body(r_fr13_42,fr19_p1).
body(r_fr13_42,fr13_v1).
head(r_fr13_43,fr13_w1).
body(r_fr13_43,fr13_b2).
body(r_fr13_43,fr13_e1).
body(r_fr13_43,fr13_f1).
body(r_fr13_43,fr13_r3).
head(r_fr13_44,fr13_w1).
body(r_fr13_44,fr12_p2).
head(r_fr13_45,fr13_w1).
body(r_fr13_45,fr13_c2).
body(r_fr13_45,fr10_f2).
body(r_fr13_45,fr13_e1).
body(r_fr13_45,fr13_e2).
body(r_fr13_45,fr13_q1).
body(r_fr13_45,fr13_t2).
head(r_fr13_46,fr13_r3).
body(r_fr13_46,fr13_c1).
body(r_fr13_46,fr13_t2).
head(r_fr13_47,fr13_r3).
body(r_fr13_47,fr13_a1).
body(r_fr13_47,fr21_d3).
body(r_fr13_47,fr13_f1).
body(r_fr13_47,fr13_r1).
body(r_fr13_47,fr13_x1).
head(r_fr13_48,fr13_r3).
body(r_fr13_48,fr13_d1).
body(r_fr13_48,fr13_e1).
body(r_fr13_48,fr13_t2).
head(r_fr13_49,fr13_r3).
body(r_fr13_49,fr13_q1).
body(r_fr13_49,fr22_r2).
body(r_fr13_49,fr13_s2).
body(r_fr13_49,fr12_p2).
body(r_fr13_49,fr13_v2).
body(r_fr13_49,fr13_z1).
head(r_fr13_50,fr13_r3).
body(r_fr13_50,fr14_b2).
body(r_fr13_50,fr21_d3).
body(r_fr13_50,fr24_e1).
body(r_fr13_50,fr12_p2).
body(r_fr13_50,fr13_z2).
head(r_fr13_51,fr13_r3).
body(r_fr13_51,fr13_x1).
body(r_fr13_51,fr13_x2).
body(r_fr13_51,fr13_y2).
head(r_fr13_52,fr13_r3).
body(r_fr13_52,fr13_a2).
body(r_fr13_52,fr13_b2).
body(r_fr13_52,fr10_f2).
body(r_fr13_52,fr24_e1).
body(r_fr13_52,fr19_p1).
body(r_fr13_52,fr13_u1).
head(r_fr13_53,fr13_r3).
body(r_fr13_53,fr14_b2).
body(r_fr13_53,fr13_r2).
body(r_fr13_53,fr12_p2).
body(r_fr13_53,fr13_y1).
body(r_fr13_53,fr13_y2).
body(r_fr13_53,fr13_z2).
head(r_fr13_54,fr13_r3).
body(r_fr13_54,fr13_b2).
body(r_fr13_54,fr21_d3).
body(r_fr13_54,fr13_d1).
body(r_fr13_54,fr10_f2).
body(r_fr13_54,fr13_e1).
body(r_fr13_54,fr13_f1).
head(r_fr13_55,fr13_r3).
body(r_fr13_55,fr13_c1).
body(r_fr13_55,fr13_c2).
body(r_fr13_55,fr21_d3).
body(r_fr13_55,fr22_r2).
body(r_fr13_55,fr13_v2).
body(r_fr13_55,fr13_x1).
head(r_fr13_56,fr13_r3).
body(r_fr13_56,fr13_t1).
body(r_fr13_56,fr13_x2).
body(r_fr13_56,fr13_z1).
head(r_fr13_57,fr13_r3).
body(r_fr13_57,fr13_b1).
body(r_fr13_57,fr13_b3).
body(r_fr13_57,fr13_c2).
body(r_fr13_57,fr21_d3).
body(r_fr13_57,fr13_y1).
head(r_fr13_58,fr13_r3).
body(r_fr13_58,fr19_p1).
body(r_fr13_58,fr5_r3).
body(r_fr13_58,fr13_s2).
body(r_fr13_58,fr13_u1).
body(r_fr13_58,fr13_z2).
head(r_fr13_59,fr13_r3).
body(r_fr13_59,fr21_d3).
body(r_fr13_59,fr13_d1).
body(r_fr13_59,fr13_q1).
head(r_fr13_60,fr13_r3).
body(r_fr13_60,fr14_b2).
head(r_fr13_61,fr13_r3).
body(r_fr13_61,fr5_r3).
head(r_fr13_62,fr13_r3).
body(r_fr13_62,fr13_b1).
body(r_fr13_62,fr13_b3).
body(r_fr13_62,fr13_e2).
body(r_fr13_62,fr24_e1).
body(r_fr13_62,fr13_q3).
head(r_fr13_63,fr13_r3).
body(r_fr13_63,fr13_e2).
body(r_fr13_63,fr13_q3).
body(r_fr13_63,fr13_r2).
body(r_fr13_63,fr13_s2).
head(r_fr13_64,fr13_r3).
body(r_fr13_64,fr13_b3).
body(r_fr13_64,fr10_f2).
body(r_fr13_64,fr13_f1).
body(r_fr13_64,fr13_q1).
body(r_fr13_64,fr13_t2).
body(r_fr13_64,fr12_p2).
head(r_fr13_65,fr13_r3).
body(r_fr13_65,fr13_b2).
body(r_fr13_65,fr10_f2).
body(r_fr13_65,fr5_r3).
body(r_fr13_65,fr13_u1).
body(r_fr13_65,fr13_v1).
body(r_fr13_65,fr13_y1).
head(r_fr13_66,fr13_r3).
body(r_fr13_66,fr13_b3).
body(r_fr13_66,fr19_p1).
head(r_fr13_67,fr13_x1).
body(r_fr13_67,fr13_e2).
head(r_fr13_68,fr13_x1).
body(r_fr13_68,fr13_d1).
body(r_fr13_68,fr13_q3).
body(r_fr13_68,fr13_z2).
head(r_fr13_69,fr13_x1).
body(r_fr13_69,fr13_d1).
body(r_fr13_69,fr10_f2).
body(r_fr13_69,fr13_e1).
body(r_fr13_69,fr13_r2).
body(r_fr13_69,fr12_p2).
body(r_fr13_69,fr13_v1).
head(r_fr13_70,fr13_x1).
body(r_fr13_70,fr13_b1).
body(r_fr13_70,fr24_s2).
body(r_fr13_70,fr13_q2).
body(r_fr13_70,fr13_q3).
head(r_fr13_71,fr13_x1).
body(r_fr13_71,fr13_w1).
head(r_fr13_72,fr13_x1).
body(r_fr13_72,fr21_d3).
head(r_fr13_73,fr13_x1).
body(r_fr13_73,fr13_d1).
body(r_fr13_73,fr13_q3).
head(r_fr13_74,fr13_x1).
body(r_fr13_74,fr13_b1).
body(r_fr13_74,fr13_f1).
body(r_fr13_74,fr5_r3).
head(r_fr13_75,fr13_x1).
body(r_fr13_75,fr10_f2).
body(r_fr13_75,fr13_w1).
head(r_fr13_76,fr13_x1).
body(r_fr13_76,fr13_r2).
body(r_fr13_76,fr13_s2).
body(r_fr13_76,fr13_u1).
body(r_fr13_76,fr13_v2).
head(r_fr13_77,fr13_x1).
body(r_fr13_77,fr24_s2).
body(r_fr13_77,fr13_r3).
body(r_fr13_77,fr13_v2).
head(r_fr13_78,fr13_x1).
body(r_fr13_78,fr13_f1).
body(r_fr13_78,fr13_r2).
body(r_fr13_78,fr13_s2).
body(r_fr13_78,fr13_v1).
body(r_fr13_78,fr13_y1).
head(r_fr13_79,fr13_x1).
body(r_fr13_79,fr19_p1).
body(r_fr13_79,fr13_q1).
body(r_fr13_79,fr13_r3).
body(r_fr13_79,fr13_u1).
head(r_fr13_80,fr13_x1).
body(r_fr13_80,fr13_a1).
body(r_fr13_80,fr13_b1).
head(r_fr13_81,fr13_x1).
body(r_fr13_81,fr13_b2).
body(r_fr13_81,fr10_f2).
body(r_fr13_81,fr13_f1).
body(r_fr13_81,fr24_e1).
head(r_fr13_82,fr13_x1).
body(r_fr13_82,fr13_d1).
body(r_fr13_82,fr13_e1).
body(r_fr13_82,fr13_f1).
body(r_fr13_82,fr13_r1).
body(r_fr13_82,fr22_r2).
body(r_fr13_82,fr13_x2).
head(r_fr13_83,fr13_x1).
body(r_fr13_83,fr19_p1).
body(r_fr13_83,fr24_s2).
body(r_fr13_83,fr13_v2).
body(r_fr13_83,fr13_w1).
head(r_fr13_84,fr13_x1).
head(r_fr13_85,fr13_x1).
body(r_fr13_85,fr24_s2).
body(r_fr13_85,fr13_r2).
body(r_fr13_85,fr13_t1).
body(r_fr13_85,fr13_t2).
body(r_fr13_85,fr13_w2).
head(r_fr13_86,fr13_x1).
body(r_fr13_86,fr13_e1).
body(r_fr13_86,fr13_r2).
body(r_fr13_86,fr13_v2).
body(r_fr13_86,fr13_y1).
head(r_fr13_87,fr13_z1).
body(r_fr13_87,fr13_a1).
body(r_fr13_87,fr13_b3).
body(r_fr13_87,fr13_c2).
body(r_fr13_87,fr13_q2).
body(r_fr13_87,fr13_w2).
head(r_fr13_88,fr13_z1).
body(r_fr13_88,fr13_b1).
body(r_fr13_88,fr24_e1).
head(r_fr13_89,fr13_z1).
body(r_fr13_89,fr13_a2).
body(r_fr13_89,fr13_b2).
body(r_fr13_89,fr13_b3).
body(r_fr13_89,fr13_d1).
body(r_fr13_89,fr13_y1).
head(r_fr13_90,fr13_z1).
body(r_fr13_90,fr13_q3).
body(r_fr13_90,fr13_v1).
body(r_fr13_90,fr13_w1).
body(r_fr13_90,fr13_y1).
body(r_fr13_90,fr13_z2).
head(r_fr13_91,fr13_z1).
body(r_fr13_91,fr13_c1).
body(r_fr13_91,fr13_d1).
body(r_fr13_91,fr13_e2).
body(r_fr13_91,fr13_q3).
body(r_fr13_91,fr13_x1).
head(r_fr13_92,fr13_z1).
body(r_fr13_92,fr13_s2).
head(r_fr13_93,fr13_z1).
body(r_fr13_93,fr13_r3).
body(r_fr13_93,fr13_t1).
head(r_fr13_94,fr13_z1).
body(r_fr13_94,fr13_z2).
head(r_fr13_95,fr13_z1).
body(r_fr13_95,fr13_a1).
body(r_fr13_95,fr13_b1).
body(r_fr13_95,fr13_c1).
body(r_fr13_95,fr21_d3).
body(r_fr13_95,fr13_r3).
body(r_fr13_95,fr13_t2).
head(r_fr13_96,fr13_z1).
body(r_fr13_96,fr19_p1).
body(r_fr13_96,fr24_s2).
body(r_fr13_96,fr13_q3).
body(r_fr13_96,fr13_v2).
body(r_fr13_96,fr13_x1).
head(r_fr13_97,fr13_z1).
body(r_fr13_97,fr13_b3).
head(r_fr13_98,fr13_z1).
body(r_fr13_98,fr13_a2).
body(r_fr13_98,fr13_b2).
body(r_fr13_98,fr13_c2).
body(r_fr13_98,fr13_t2).
body(r_fr13_98,fr13_w1).
body(r_fr13_98,fr13_z2).
head(r_fr13_99,fr13_z1).
body(r_fr13_99,fr19_p1).
body(r_fr13_99,fr13_q1).
body(r_fr13_99,fr13_q3).
body(r_fr13_99,fr13_x1).
body(r_fr13_99,fr13_x2).
head(r_fr13_100,fr13_z1).
body(r_fr13_100,fr13_a1).
body(r_fr13_100,fr22_r2).
body(r_fr13_100,fr13_t2).
head(r_fr13_101,fr13_z1).
body(r_fr13_101,fr13_q3).
body(r_fr13_101,fr13_r1).
body(r_fr13_101,fr13_r3).
body(r_fr13_101,fr13_t2).
body(r_fr13_101,fr13_w1).
head(r_fr13_102,fr13_z1).
body(r_fr13_102,fr14_b2).
body(r_fr13_102,fr13_b3).
body(r_fr13_102,fr21_d3).
body(r_fr13_102,fr13_w2).
body(r_fr13_102,fr13_y1).
head(r_fr13_103,fr13_z1).
body(r_fr13_103,fr13_a2).
body(r_fr13_103,fr14_b2).
body(r_fr13_103,fr13_b3).
body(r_fr13_103,fr13_c1).
body(r_fr13_103,fr21_d3).
head(r_fr13_104,fr13_z1).
head(r_fr13_105,fr13_z1).
body(r_fr13_105,fr13_b2).
body(r_fr13_105,fr13_f1).
head(r_fr13_106,fr13_z1).
body(r_fr13_106,fr13_c2).
body(r_fr13_106,fr13_e1).
body(r_fr13_106,fr13_f1).
body(r_fr13_106,fr24_e1).
body(r_fr13_106,fr13_q1).
body(r_fr13_106,fr13_q2).
head(r_fr13_107,fr13_r2).
body(r_fr13_107,fr5_r3).
head(r_fr13_108,fr13_r2).
body(r_fr13_108,fr13_a2).
head(r_fr13_109,fr13_r2).
body(r_fr13_109,fr13_q1).
body(r_fr13_109,fr13_q3).
body(r_fr13_109,fr13_s2).
head(r_fr13_110,fr13_r2).
body(r_fr13_110,fr13_a2).
body(r_fr13_110,fr14_b2).
body(r_fr13_110,fr13_b2).
head(r_fr13_111,fr13_r2).
body(r_fr13_111,fr24_s2).
body(r_fr13_111,fr13_y2).
body(r_fr13_111,fr13_z2).
head(r_fr13_112,fr13_r2).
body(r_fr13_112,fr14_b2).
body(r_fr13_112,fr13_b2).
body(r_fr13_112,fr10_f2).
body(r_fr13_112,fr5_r3).
head(r_fr13_113,fr13_r2).
body(r_fr13_113,fr13_a2).
body(r_fr13_113,fr21_d3).
body(r_fr13_113,fr10_f2).
body(r_fr13_113,fr13_f1).
head(r_fr13_114,fr13_r2).
body(r_fr13_114,fr24_e1).
body(r_fr13_114,fr13_x1).
head(r_fr13_115,fr13_r2).
body(r_fr13_115,fr22_r2).
body(r_fr13_115,fr13_u1).
body(r_fr13_115,fr13_w2).
head(r_fr13_116,fr13_r2).
head(r_fr13_117,fr13_r2).
body(r_fr13_117,fr13_f1).
body(r_fr13_117,fr24_e1).
body(r_fr13_117,fr13_y2).
head(r_fr13_118,fr13_r2).
body(r_fr13_118,fr14_b2).
body(r_fr13_118,fr13_b2).
body(r_fr13_118,fr5_r3).
body(r_fr13_118,fr13_q2).
body(r_fr13_118,fr13_q3).
body(r_fr13_118,fr13_v1).
head(r_fr13_119,fr13_r2).
body(r_fr13_119,fr13_c1).
body(r_fr13_119,fr13_d1).
body(r_fr13_119,fr13_q1).
head(r_fr13_120,fr13_r2).
body(r_fr13_120,fr13_a1).
body(r_fr13_120,fr13_e2).
body(r_fr13_120,fr13_f1).
head(r_fr13_121,fr13_r2).
body(r_fr13_121,fr10_f2).
body(r_fr13_121,fr13_q2).
body(r_fr13_121,fr13_r3).
body(r_fr13_121,fr13_u1).
head(r_fr13_122,fr13_r2).
body(r_fr13_122,fr13_a2).
body(r_fr13_122,fr13_e1).
body(r_fr13_122,fr13_e2).
body(r_fr13_122,fr24_e1).
body(r_fr13_122,fr13_r1).
head(r_fr13_123,fr13_r2).
body(r_fr13_123,fr13_b1).
body(r_fr13_123,fr10_f2).
head(r_fr13_124,fr13_r2).
body(r_fr13_124,fr13_q2).
body(r_fr13_124,fr13_r3).
body(r_fr13_124,fr13_v1).
body(r_fr13_124,fr13_v2).
body(r_fr13_124,fr13_y2).
head(r_fr13_125,fr13_r2).
body(r_fr13_125,fr13_a1).
head(r_fr13_126,fr13_r2).
body(r_fr13_126,fr13_b1).
body(r_fr13_126,fr13_c1).
body(r_fr13_126,fr13_c2).
body(r_fr13_126,fr13_d1).
head(r_fr13_127,fr13_r2).
body(r_fr13_127,fr13_b2).
body(r_fr13_127,fr13_c2).
body(r_fr13_127,fr21_d3).
body(r_fr13_127,fr13_u1).
head(r_fr13_128,fr13_r2).
body(r_fr13_128,fr22_r2).
body(r_fr13_128,fr13_w2).
body(r_fr13_128,fr13_x1).
body(r_fr13_128,fr13_z2).
head(r_fr13_129,fr13_r2).
body(r_fr13_129,fr13_b2).
body(r_fr13_129,fr21_d3).
body(r_fr13_129,fr13_e1).
body(r_fr13_129,fr24_e1).
body(r_fr13_129,fr13_s2).
head(r_fr13_130,fr22_r2).
body(r_fr13_130,fr13_a2).
body(r_fr13_130,fr13_r1).
body(r_fr13_130,fr13_y1).
body(r_fr13_130,fr13_y2).
head(r_fr13_131,fr22_r2).
body(r_fr13_131,fr13_q1).
body(r_fr13_131,fr13_r2).
body(r_fr13_131,fr13_s2).
body(r_fr13_131,fr13_z1).
head(r_fr13_132,fr22_r2).
body(r_fr13_132,fr14_b2).
body(r_fr13_132,fr13_d1).
body(r_fr13_132,fr24_e1).
body(r_fr13_132,fr13_r3).
head(r_fr13_133,fr22_r2).
body(r_fr13_133,fr13_b2).
body(r_fr13_133,fr24_s2).
body(r_fr13_133,fr13_r2).
body(r_fr13_133,fr13_r3).
body(r_fr13_133,fr13_v1).
head(r_fr13_134,fr22_r2).
body(r_fr13_134,fr13_r2).
head(r_fr13_135,fr22_r2).
body(r_fr13_135,fr19_p1).
body(r_fr13_135,fr5_r3).
body(r_fr13_135,fr13_t2).
body(r_fr13_135,fr13_v2).
body(r_fr13_135,fr13_w1).
head(r_fr13_136,fr22_r2).
body(r_fr13_136,fr5_r3).
body(r_fr13_136,fr13_r1).
body(r_fr13_136,fr13_y1).
head(r_fr13_137,fr22_r2).
body(r_fr13_137,fr19_p1).
body(r_fr13_137,fr13_r3).
body(r_fr13_137,fr13_s2).
body(r_fr13_137,fr13_v1).
body(r_fr13_137,fr13_z1).
head(r_fr13_138,fr22_r2).
body(r_fr13_138,fr13_q2).
body(r_fr13_138,fr13_r2).
body(r_fr13_138,fr13_r3).
body(r_fr13_138,fr13_v2).
body(r_fr13_138,fr13_x2).
head(r_fr13_139,fr22_r2).
body(r_fr13_139,fr13_t1).
body(r_fr13_139,fr13_w1).
body(r_fr13_139,fr13_x1).
head(r_fr13_140,fr22_r2).
body(r_fr13_140,fr13_r1).
head(r_fr13_141,fr22_r2).
body(r_fr13_141,fr13_q2).
body(r_fr13_141,fr13_q3).
body(r_fr13_141,fr13_s2).
body(r_fr13_141,fr13_v1).
body(r_fr13_141,fr13_z1).
head(r_fr13_142,fr22_r2).
body(r_fr13_142,fr13_b3).
body(r_fr13_142,fr10_f2).
body(r_fr13_142,fr13_f1).
body(r_fr13_142,fr13_y1).
body(r_fr13_142,fr13_y2).
head(r_fr13_143,fr22_r2).
body(r_fr13_143,fr13_a1).
body(r_fr13_143,fr13_a2).
head(r_fr13_144,fr22_r2).
head(r_fr13_145,fr22_r2).
body(r_fr13_145,fr13_a1).
body(r_fr13_145,fr13_b1).
body(r_fr13_145,fr13_b3).
body(r_fr13_145,fr13_c1).
body(r_fr13_145,fr21_d3).
body(r_fr13_145,fr13_y2).
head(r_fr13_146,fr22_r2).
body(r_fr13_146,fr14_b2).
body(r_fr13_146,fr5_r3).
head(r_fr13_147,fr22_r2).
body(r_fr13_147,fr13_c1).
body(r_fr13_147,fr21_d3).
body(r_fr13_147,fr13_e1).
body(r_fr13_147,fr13_q1).
body(r_fr13_147,fr13_s2).
body(r_fr13_147,fr13_x2).
head(r_fr13_148,fr22_r2).
body(r_fr13_148,fr13_c1).
head(r_fr13_149,fr22_r2).
body(r_fr13_149,fr13_c1).
body(r_fr13_149,fr13_e1).
body(r_fr13_149,fr24_s2).
body(r_fr13_149,fr13_q3).
body(r_fr13_149,fr13_s2).
body(r_fr13_149,fr13_t1).
head(r_fr13_150,fr22_r2).
body(r_fr13_150,fr24_s2).
body(r_fr13_150,fr13_q1).
body(r_fr13_150,fr13_s2).
body(r_fr13_150,fr13_z1).
head(r_fr13_151,fr24_s2).
body(r_fr13_151,fr13_a2).
body(r_fr13_151,fr13_c2).
body(r_fr13_151,fr19_p1).
body(r_fr13_151,fr13_y1).
body(r_fr13_151,fr13_z2).
head(r_fr13_152,fr24_s2).
body(r_fr13_152,fr13_c1).
head(r_fr13_153,fr24_s2).
body(r_fr13_153,fr13_a2).
head(r_fr13_154,fr24_s2).
body(r_fr13_154,fr13_e1).
head(r_fr13_155,fr24_s2).
body(r_fr13_155,fr13_q3).
body(r_fr13_155,fr13_r1).
body(r_fr13_155,fr13_r2).
body(r_fr13_155,fr12_p2).
body(r_fr13_155,fr13_x1).
head(r_fr13_156,fr24_s2).
body(r_fr13_156,fr13_x2).
head(r_fr13_157,fr24_s2).
body(r_fr13_157,fr13_y2).
head(r_fr13_158,fr24_s2).
body(r_fr13_158,fr10_f2).
body(r_fr13_158,fr22_r2).
head(r_fr13_159,fr24_s2).
body(r_fr13_159,fr19_p1).
body(r_fr13_159,fr5_r3).
body(r_fr13_159,fr13_s2).
body(r_fr13_159,fr13_t2).
head(r_fr13_160,fr24_s2).
body(r_fr13_160,fr13_b2).
head(r_fr13_161,fr24_s2).
body(r_fr13_161,fr13_w2).
head(r_fr13_162,fr24_s2).
body(r_fr13_162,fr10_f2).
body(r_fr13_162,fr13_f1).
head(r_fr13_163,fr24_s2).
body(r_fr13_163,fr13_b3).
body(r_fr13_163,fr19_p1).
body(r_fr13_163,fr13_r1).
body(r_fr13_163,fr13_r2).
body(r_fr13_163,fr13_t1).
body(r_fr13_163,fr13_z1).
head(r_fr13_164,fr24_s2).
body(r_fr13_164,fr5_r3).
body(r_fr13_164,fr13_v2).
body(r_fr13_164,fr13_w1).
head(r_fr13_165,fr24_s2).
body(r_fr13_165,fr21_d3).
body(r_fr13_165,fr13_e1).
head(r_fr13_166,fr24_s2).
body(r_fr13_166,fr13_b2).
body(r_fr13_166,fr13_c1).
body(r_fr13_166,fr24_e1).
head(r_fr13_167,fr24_s2).
body(r_fr13_167,fr19_p1).
head(r_fr13_168,fr24_s2).
body(r_fr13_168,fr14_b2).
body(r_fr13_168,fr13_d1).
body(r_fr13_168,fr13_f1).
body(r_fr13_168,fr24_e1).
body(r_fr13_168,fr13_s2).
body(r_fr13_168,fr13_w1).
head(r_fr13_169,fr24_s2).
body(r_fr13_169,fr13_d1).
head(r_fr13_170,fr24_s2).
body(r_fr13_170,fr13_a1).
body(r_fr13_170,fr13_a2).
body(r_fr13_170,fr13_b1).
body(r_fr13_170,fr13_f1).
body(r_fr13_170,fr24_e1).
body(r_fr13_170,fr5_r3).
head(r_fr13_171,fr24_s2).
head(r_fr13_172,fr24_s2).
body(r_fr13_172,fr13_b2).
body(r_fr13_172,fr13_t1).
body(r_fr13_172,fr13_u1).
body(r_fr13_172,fr12_p2).
body(r_fr13_172,fr13_v1).
body(r_fr13_172,fr13_v2).
head(r_fr13_173,fr24_s2).
body(r_fr13_173,fr13_b3).
body(r_fr13_173,fr13_d1).
head(r_fr13_174,fr13_s2).
body(r_fr13_174,fr13_b1).
body(r_fr13_174,fr13_c1).
body(r_fr13_174,fr13_d1).
head(r_fr13_175,fr13_s2).
body(r_fr13_175,fr13_c2).
body(r_fr13_175,fr10_f2).
body(r_fr13_175,fr13_v1).
head(r_fr13_176,fr13_s2).
body(r_fr13_176,fr13_c2).
body(r_fr13_176,fr13_q1).
body(r_fr13_176,fr13_t2).
body(r_fr13_176,fr13_u1).
body(r_fr13_176,fr13_w1).
head(r_fr13_177,fr13_s2).
body(r_fr13_177,fr13_a2).
body(r_fr13_177,fr14_b2).
body(r_fr13_177,fr13_b3).
body(r_fr13_177,fr13_d1).
body(r_fr13_177,fr10_f2).
body(r_fr13_177,fr5_r3).
head(r_fr13_178,fr13_s2).
body(r_fr13_178,fr13_a1).
body(r_fr13_178,fr13_a2).
body(r_fr13_178,fr13_b3).
body(r_fr13_178,fr13_c2).
body(r_fr13_178,fr13_e2).
head(r_fr13_179,fr13_s2).
body(r_fr13_179,fr13_b2).
body(r_fr13_179,fr13_f1).
body(r_fr13_179,fr13_q1).
body(r_fr13_179,fr13_t2).
head(r_fr13_180,fr13_s2).
body(r_fr13_180,fr12_p2).
body(r_fr13_180,fr13_x1).
head(r_fr13_181,fr13_s2).
body(r_fr13_181,fr13_a1).
body(r_fr13_181,fr13_e2).
head(r_fr13_182,fr13_s2).
body(r_fr13_182,fr13_b2).
body(r_fr13_182,fr21_d3).
body(r_fr13_182,fr19_p1).
body(r_fr13_182,fr13_q2).
body(r_fr13_182,fr13_x2).
head(r_fr13_183,fr13_s2).
body(r_fr13_183,fr13_t2).
body(r_fr13_183,fr13_v1).
head(r_fr13_184,fr13_s2).
body(r_fr13_184,fr13_a2).
body(r_fr13_184,fr13_b2).
body(r_fr13_184,fr13_b3).
head(r_fr13_185,fr13_s2).
body(r_fr13_185,fr13_a1).
body(r_fr13_185,fr13_b1).
body(r_fr13_185,fr13_c1).
body(r_fr13_185,fr24_e1).
head(r_fr13_186,fr13_s2).
body(r_fr13_186,fr24_s2).
body(r_fr13_186,fr13_r1).
body(r_fr13_186,fr13_x2).
head(r_fr13_187,fr13_s2).
body(r_fr13_187,fr13_b2).
head(r_fr13_188,fr13_s2).
body(r_fr13_188,fr14_b2).
body(r_fr13_188,fr19_p1).
body(r_fr13_188,fr13_q1).
body(r_fr13_188,fr13_r1).
body(r_fr13_188,fr13_t2).
head(r_fr13_189,fr13_s2).
body(r_fr13_189,fr13_r3).
body(r_fr13_189,fr12_p2).
body(r_fr13_189,fr13_w1).
body(r_fr13_189,fr13_x2).
head(r_fr13_190,fr13_s2).
body(r_fr13_190,fr13_a1).
body(r_fr13_190,fr13_b1).
body(r_fr13_190,fr21_d3).
body(r_fr13_190,fr24_e1).
head(r_fr13_191,fr13_s2).
body(r_fr13_191,fr13_q2).
body(r_fr13_191,fr13_x1).
head(r_fr13_192,fr13_s2).
head(r_fr13_193,fr13_s2).
body(r_fr13_193,fr13_e2).
body(r_fr13_193,fr13_q3).
body(r_fr13_193,fr12_p2).
body(r_fr13_193,fr13_w2).
head(r_fr13_194,fr13_s2).
body(r_fr13_194,fr5_r3).
head(r_fr13_195,fr13_s2).
body(r_fr13_195,fr13_b1).
body(r_fr13_195,fr13_q1).
body(r_fr13_195,fr13_r1).
body(r_fr13_195,fr13_r2).
body(r_fr13_195,fr13_w1).
head(r_fr13_196,fr13_q1).
body(r_fr13_196,fr21_d3).
body(r_fr13_196,fr13_r2).
body(r_fr13_196,fr13_s2).
head(r_fr13_197,fr13_q1).
body(r_fr13_197,fr13_a1).
body(r_fr13_197,fr13_w1).
body(r_fr13_197,fr13_x1).
body(r_fr13_197,fr13_x2).
body(r_fr13_197,fr13_y1).
body(r_fr13_197,fr13_z1).
head(r_fr13_198,fr13_q1).
body(r_fr13_198,fr13_c2).
body(r_fr13_198,fr13_x1).
head(r_fr13_199,fr13_q1).
body(r_fr13_199,fr13_a2).
body(r_fr13_199,fr14_b2).
body(r_fr13_199,fr13_d1).
body(r_fr13_199,fr13_s2).
body(r_fr13_199,fr13_w1).
body(r_fr13_199,fr13_y2).
head(r_fr13_200,fr13_q1).
body(r_fr13_200,fr13_b1).
body(r_fr13_200,fr13_b2).
body(r_fr13_200,fr13_c2).
body(r_fr13_200,fr21_d3).
body(r_fr13_200,fr13_d1).
body(r_fr13_200,fr13_e1).
head(r_fr13_201,fr13_q1).
body(r_fr13_201,fr13_a1).
body(r_fr13_201,fr13_b2).
body(r_fr13_201,fr13_d1).
body(r_fr13_201,fr10_f2).
body(r_fr13_201,fr13_e1).
body(r_fr13_201,fr24_e1).
head(r_fr13_202,fr13_q1).
body(r_fr13_202,fr13_f1).
body(r_fr13_202,fr13_q2).
head(r_fr13_203,fr13_q1).
body(r_fr13_203,fr13_b2).
body(r_fr13_203,fr13_c2).
body(r_fr13_203,fr24_e1).
body(r_fr13_203,fr13_x2).
head(r_fr13_204,fr13_q1).
body(r_fr13_204,fr12_p2).
body(r_fr13_204,fr13_w1).
head(r_fr13_205,fr13_q1).
body(r_fr13_205,fr21_d3).
head(r_fr13_206,fr13_q1).
body(r_fr13_206,fr19_p1).
body(r_fr13_206,fr5_r3).
body(r_fr13_206,fr22_r2).
body(r_fr13_206,fr13_t2).
body(r_fr13_206,fr13_u1).
body(r_fr13_206,fr13_y2).
head(r_fr13_207,fr13_q1).
body(r_fr13_207,fr13_a1).
body(r_fr13_207,fr13_b2).
body(r_fr13_207,fr24_e1).
body(r_fr13_207,fr13_q3).
body(r_fr13_207,fr13_x2).
body(r_fr13_207,fr13_y1).
head(r_fr13_208,fr13_q1).
body(r_fr13_208,fr13_a1).
body(r_fr13_208,fr14_b2).
body(r_fr13_208,fr13_b1).
body(r_fr13_208,fr13_b2).
body(r_fr13_208,fr13_b3).
body(r_fr13_208,fr13_c2).
head(r_fr13_209,fr13_q1).
body(r_fr13_209,fr13_c2).
body(r_fr13_209,fr13_q3).
body(r_fr13_209,fr13_r1).
body(r_fr13_209,fr13_s2).
body(r_fr13_209,fr13_v1).
body(r_fr13_209,fr13_w1).
head(r_fr13_210,fr13_q1).
body(r_fr13_210,fr13_d1).
head(r_fr13_211,fr13_q1).
body(r_fr13_211,fr13_b3).
body(r_fr13_211,fr13_v2).
body(r_fr13_211,fr13_x1).
head(r_fr13_212,fr13_q1).
body(r_fr13_212,fr14_b2).
body(r_fr13_212,fr13_v1).
head(r_fr13_213,fr13_q1).
body(r_fr13_213,fr13_a1).
body(r_fr13_213,fr13_s2).
body(r_fr13_213,fr13_y2).
head(r_fr13_214,fr13_q1).
body(r_fr13_214,fr13_q2).
body(r_fr13_214,fr13_r1).
body(r_fr13_214,fr13_r2).
body(r_fr13_214,fr22_r2).
body(r_fr13_214,fr13_x1).
body(r_fr13_214,fr13_x2).
head(r_fr13_215,fr13_q1).
body(r_fr13_215,fr13_r3).
head(r_fr13_216,fr13_q1).
body(r_fr13_216,fr10_f2).
body(r_fr13_216,fr13_u1).
head(r_fr13_217,fr13_q1).
head(r_fr13_218,fr13_y1).
body(r_fr13_218,fr13_u1).
head(r_fr13_219,fr13_y1).
body(r_fr13_219,fr13_e2).
head(r_fr13_220,fr13_y1).
body(r_fr13_220,fr13_q1).
body(r_fr13_220,fr13_q3).
body(r_fr13_220,fr13_u1).
body(r_fr13_220,fr13_v2).
head(r_fr13_221,fr13_y1).
body(r_fr13_221,fr13_b3).
body(r_fr13_221,fr21_d3).
body(r_fr13_221,fr13_e1).
body(r_fr13_221,fr13_q1).
head(r_fr13_222,fr13_y1).
body(r_fr13_222,fr13_c1).
body(r_fr13_222,fr13_x1).
head(r_fr13_223,fr13_y1).
body(r_fr13_223,fr13_c2).
body(r_fr13_223,fr21_d3).
body(r_fr13_223,fr13_z2).
head(r_fr13_224,fr13_y1).
body(r_fr13_224,fr13_q2).
body(r_fr13_224,fr13_r3).
body(r_fr13_224,fr13_x1).
body(r_fr13_224,fr13_x2).
head(r_fr13_225,fr13_y1).
head(r_fr13_226,fr13_y1).
body(r_fr13_226,fr12_p2).
head(r_fr13_227,fr13_y1).
body(r_fr13_227,fr13_a2).
body(r_fr13_227,fr13_b2).
body(r_fr13_227,fr24_s2).
body(r_fr13_227,fr5_r3).
body(r_fr13_227,fr13_q2).
head(r_fr13_228,fr13_y1).
body(r_fr13_228,fr13_a2).
body(r_fr13_228,fr13_d1).
head(r_fr13_229,fr13_y1).
body(r_fr13_229,fr13_a2).
body(r_fr13_229,fr13_b3).
body(r_fr13_229,fr13_c1).
body(r_fr13_229,fr21_d3).
body(r_fr13_229,fr13_v1).
body(r_fr13_229,fr13_w1).
head(r_fr13_230,fr13_y1).
body(r_fr13_230,fr13_e1).
body(r_fr13_230,fr5_r3).
body(r_fr13_230,fr22_r2).
body(r_fr13_230,fr13_s2).
body(r_fr13_230,fr13_w1).
body(r_fr13_230,fr13_z1).
head(r_fr13_231,fr13_y1).
body(r_fr13_231,fr13_b3).
body(r_fr13_231,fr13_e2).
body(r_fr13_231,fr13_q1).
body(r_fr13_231,fr13_q3).
body(r_fr13_231,fr13_z1).
head(r_fr13_232,fr13_y1).
body(r_fr13_232,fr13_x1).
head(r_fr13_233,fr13_y1).
body(r_fr13_233,fr13_d1).
body(r_fr13_233,fr13_r2).
head(r_fr13_234,fr13_y1).
body(r_fr13_234,fr13_z2).
head(r_fr13_235,fr13_y1).
body(r_fr13_235,fr13_a1).
body(r_fr13_235,fr19_p1).
body(r_fr13_235,fr24_s2).
body(r_fr13_235,fr13_r3).
body(r_fr13_235,fr13_w2).
body(r_fr13_235,fr13_x1).
head(r_fr13_236,fr13_y1).
body(r_fr13_236,fr13_b1).
body(r_fr13_236,fr13_e1).
body(r_fr13_236,fr24_e1).
head(r_fr13_237,fr13_y1).
body(r_fr13_237,fr13_c1).
body(r_fr13_237,fr21_d3).
body(r_fr13_237,fr13_d1).
body(r_fr13_237,fr13_x2).
head(r_fr13_238,fr13_y1).
body(r_fr13_238,fr13_a1).
body(r_fr13_238,fr13_a2).
body(r_fr13_238,fr14_b2).
body(r_fr13_238,fr13_b1).
body(r_fr13_238,fr13_e2).
body(r_fr13_238,fr13_t1).
head(r_fr13_239,fr13_q2).
body(r_fr13_239,fr13_c2).
body(r_fr13_239,fr13_s2).
head(r_fr13_240,fr13_q2).
body(r_fr13_240,fr13_q3).
body(r_fr13_240,fr13_r1).
body(r_fr13_240,fr13_r3).
body(r_fr13_240,fr13_s2).
body(r_fr13_240,fr13_t2).
head(r_fr13_241,fr13_q2).
body(r_fr13_241,fr13_r2).
body(r_fr13_241,fr13_r3).
body(r_fr13_241,fr13_y2).
body(r_fr13_241,fr13_z2).
head(r_fr13_242,fr13_q2).
body(r_fr13_242,fr13_b2).
body(r_fr13_242,fr13_e1).
body(r_fr13_242,fr13_y2).
head(r_fr13_243,fr13_q2).
body(r_fr13_243,fr13_e2).
body(r_fr13_243,fr13_f1).
body(r_fr13_243,fr24_e1).
body(r_fr13_243,fr13_r1).
body(r_fr13_243,fr12_p2).
body(r_fr13_243,fr13_x1).
head(r_fr13_244,fr13_q2).
body(r_fr13_244,fr13_t1).
body(r_fr13_244,fr13_u1).
body(r_fr13_244,fr13_y2).
body(r_fr13_244,fr13_z1).
head(r_fr13_245,fr13_q2).
body(r_fr13_245,fr13_a2).
body(r_fr13_245,fr13_c1).
head(r_fr13_246,fr13_q2).
body(r_fr13_246,fr14_b2).
body(r_fr13_246,fr13_b2).
body(r_fr13_246,fr13_c1).
body(r_fr13_246,fr13_c2).
head(r_fr13_247,fr13_q2).
body(r_fr13_247,fr13_c2).
head(r_fr13_248,fr13_q2).
body(r_fr13_248,fr24_s2).
body(r_fr13_248,fr22_r2).
body(r_fr13_248,fr13_x1).
head(r_fr13_249,fr13_q2).
body(r_fr13_249,fr14_b2).
body(r_fr13_249,fr13_b1).
body(r_fr13_249,fr13_b2).
body(r_fr13_249,fr13_c1).
body(r_fr13_249,fr10_f2).
body(r_fr13_249,fr13_e1).
head(r_fr13_250,fr13_q2).
body(r_fr13_250,fr19_p1).
body(r_fr13_250,fr24_s2).
body(r_fr13_250,fr13_q1).
body(r_fr13_250,fr13_q3).
body(r_fr13_250,fr13_v1).
body(r_fr13_250,fr13_w1).
head(r_fr13_251,fr13_q2).
body(r_fr13_251,fr13_a2).
body(r_fr13_251,fr13_d1).
head(r_fr13_252,fr13_q2).
body(r_fr13_252,fr14_b2).
head(r_fr13_253,fr13_q2).
body(r_fr13_253,fr13_d1).
body(r_fr13_253,fr13_e2).
body(r_fr13_253,fr13_v2).
body(r_fr13_253,fr13_x1).
head(r_fr13_254,fr13_q2).
body(r_fr13_254,fr13_e1).
body(r_fr13_254,fr13_e2).
body(r_fr13_254,fr13_f1).
head(r_fr13_255,fr13_q2).
body(r_fr13_255,fr14_b2).
body(r_fr13_255,fr13_b1).
body(r_fr13_255,fr13_r3).
body(r_fr13_255,fr13_x2).
head(r_fr13_256,fr13_q2).
body(r_fr13_256,fr13_d1).
body(r_fr13_256,fr24_e1).
body(r_fr13_256,fr13_t1).
body(r_fr13_256,fr12_p2).
body(r_fr13_256,fr13_x1).
body(r_fr13_256,fr13_y2).
head(r_fr13_257,fr13_q2).
body(r_fr13_257,fr13_a2).
body(r_fr13_257,fr24_s2).
body(r_fr13_257,fr13_w1).
body(r_fr13_257,fr13_x2).
head(r_fr13_258,fr13_q2).
head(r_fr13_259,fr13_q2).
body(r_fr13_259,fr13_a2).
body(r_fr13_259,fr21_d3).
head(r_fr13_260,fr13_q2).
body(r_fr13_260,fr13_e1).
body(r_fr13_260,fr24_e1).
body(r_fr13_260,fr13_q1).
body(r_fr13_260,fr13_u1).
head(r_fr13_261,fr19_p1).
body(r_fr13_261,fr13_b3).
body(r_fr13_261,fr13_c2).
body(r_fr13_261,fr13_d1).
body(r_fr13_261,fr10_f2).
body(r_fr13_261,fr13_e1).
body(r_fr13_261,fr13_e2).
head(r_fr13_262,fr19_p1).
body(r_fr13_262,fr13_b1).
body(r_fr13_262,fr13_t1).
body(r_fr13_262,fr12_p2).
head(r_fr13_263,fr19_p1).
body(r_fr13_263,fr13_b3).
body(r_fr13_263,fr21_d3).
body(r_fr13_263,fr13_d1).
body(r_fr13_263,fr24_e1).
head(r_fr13_264,fr19_p1).
body(r_fr13_264,fr13_a2).
body(r_fr13_264,fr10_f2).
body(r_fr13_264,fr13_r2).
body(r_fr13_264,fr13_y2).
body(r_fr13_264,fr13_z2).
head(r_fr13_265,fr19_p1).
body(r_fr13_265,fr13_r3).
body(r_fr13_265,fr13_t2).
head(r_fr13_266,fr19_p1).
body(r_fr13_266,fr13_q3).
body(r_fr13_266,fr13_s2).
body(r_fr13_266,fr13_x1).
body(r_fr13_266,fr13_y1).
body(r_fr13_266,fr13_z1).
head(r_fr13_267,fr19_p1).
body(r_fr13_267,fr13_b2).
body(r_fr13_267,fr13_r2).
body(r_fr13_267,fr13_v1).
head(r_fr13_268,fr19_p1).
body(r_fr13_268,fr13_c1).
body(r_fr13_268,fr13_d1).
body(r_fr13_268,fr13_x2).
head(r_fr13_269,fr19_p1).
body(r_fr13_269,fr13_e1).
head(r_fr13_270,fr19_p1).
body(r_fr13_270,fr13_a1).
body(r_fr13_270,fr13_b1).
body(r_fr13_270,fr13_e1).
head(r_fr13_271,fr19_p1).
body(r_fr13_271,fr13_a1).
body(r_fr13_271,fr13_a2).
body(r_fr13_271,fr13_b2).
body(r_fr13_271,fr21_d3).
body(r_fr13_271,fr13_d1).
body(r_fr13_271,fr13_e1).
head(r_fr13_272,fr19_p1).
body(r_fr13_272,fr13_t1).
head(r_fr13_273,fr19_p1).
body(r_fr13_273,fr13_b3).
head(r_fr13_274,fr19_p1).
body(r_fr13_274,fr13_a1).
body(r_fr13_274,fr14_b2).
body(r_fr13_274,fr13_e2).
body(r_fr13_274,fr13_q2).
head(r_fr13_275,fr19_p1).
body(r_fr13_275,fr13_e2).
body(r_fr13_275,fr13_q2).
body(r_fr13_275,fr13_q3).
body(r_fr13_275,fr13_s2).
body(r_fr13_275,fr13_z2).
head(r_fr13_276,fr19_p1).
body(r_fr13_276,fr13_q2).
body(r_fr13_276,fr13_s2).
body(r_fr13_276,fr12_p2).
head(r_fr13_277,fr19_p1).
body(r_fr13_277,fr13_b3).
body(r_fr13_277,fr10_f2).
body(r_fr13_277,fr13_e2).
head(r_fr13_278,fr19_p1).
body(r_fr13_278,fr21_d3).
head(r_fr13_279,fr19_p1).
body(r_fr13_279,fr13_z1).
head(r_fr13_280,fr19_p1).
body(r_fr13_280,fr13_a1).
body(r_fr13_280,fr13_a2).
body(r_fr13_280,fr13_b1).
body(r_fr13_280,fr10_f2).
body(r_fr13_280,fr13_e1).
head(r_fr13_281,fr19_p1).
head(r_fr13_282,fr13_u1).
body(r_fr13_282,fr14_b2).
body(r_fr13_282,fr13_b3).
body(r_fr13_282,fr10_f2).
body(r_fr13_282,fr13_e1).
head(r_fr13_283,fr13_u1).
body(r_fr13_283,fr13_c1).
body(r_fr13_283,fr21_d3).
head(r_fr13_284,fr13_u1).
body(r_fr13_284,fr13_a1).
body(r_fr13_284,fr13_b1).
body(r_fr13_284,fr13_b3).
body(r_fr13_284,fr21_d3).
body(r_fr13_284,fr13_f1).
body(r_fr13_284,fr24_e1).
head(r_fr13_285,fr13_u1).
body(r_fr13_285,fr13_c1).
body(r_fr13_285,fr22_r2).
body(r_fr13_285,fr13_t1).
body(r_fr13_285,fr12_p2).
body(r_fr13_285,fr13_y1).
head(r_fr13_286,fr13_u1).
body(r_fr13_286,fr13_a1).
head(r_fr13_287,fr13_u1).
body(r_fr13_287,fr13_a1).
body(r_fr13_287,fr13_c2).
body(r_fr13_287,fr13_t1).
body(r_fr13_287,fr13_v1).
body(r_fr13_287,fr13_v2).
body(r_fr13_287,fr13_z2).
head(r_fr13_288,fr13_u1).
body(r_fr13_288,fr13_r2).
body(r_fr13_288,fr22_r2).
body(r_fr13_288,fr13_t2).
body(r_fr13_288,fr13_v2).
body(r_fr13_288,fr13_y2).
head(r_fr13_289,fr13_u1).
body(r_fr13_289,fr13_r2).
body(r_fr13_289,fr13_s2).
body(r_fr13_289,fr12_p2).
body(r_fr13_289,fr13_w2).
body(r_fr13_289,fr13_z1).
head(r_fr13_290,fr13_u1).
body(r_fr13_290,fr22_r2).
body(r_fr13_290,fr13_s2).
body(r_fr13_290,fr12_p2).
body(r_fr13_290,fr13_x1).
head(r_fr13_291,fr13_u1).
body(r_fr13_291,fr13_q1).
body(r_fr13_291,fr13_q2).
body(r_fr13_291,fr13_w1).
body(r_fr13_291,fr13_x1).
body(r_fr13_291,fr13_y1).
head(r_fr13_292,fr13_u1).
body(r_fr13_292,fr13_v2).
head(r_fr13_293,fr13_u1).
body(r_fr13_293,fr13_a2).
body(r_fr13_293,fr13_b2).
body(r_fr13_293,fr13_c2).
body(r_fr13_293,fr13_d1).
body(r_fr13_293,fr13_e1).
body(r_fr13_293,fr24_e1).
head(r_fr13_294,fr13_u1).
body(r_fr13_294,fr24_s2).
body(r_fr13_294,fr13_s2).
body(r_fr13_294,fr13_v2).
body(r_fr13_294,fr13_w2).
body(r_fr13_294,fr13_y2).
head(r_fr13_295,fr13_u1).
body(r_fr13_295,fr19_p1).
body(r_fr13_295,fr13_v1).
body(r_fr13_295,fr13_x2).
head(r_fr13_296,fr13_u1).
body(r_fr13_296,fr13_a1).
body(r_fr13_296,fr13_t1).
head(r_fr13_297,fr13_u1).
body(r_fr13_297,fr14_b2).
body(r_fr13_297,fr13_d1).
head(r_fr13_298,fr13_u1).
body(r_fr13_298,fr13_z1).
head(r_fr13_299,fr13_u1).
head(r_fr13_300,fr13_u1).
body(r_fr13_300,fr13_b1).
body(r_fr13_300,fr13_b2).
body(r_fr13_300,fr21_d3).
body(r_fr13_300,fr13_d1).
body(r_fr13_300,fr10_f2).
body(r_fr13_300,fr13_e2).
head(r_fr13_301,fr13_u1).
body(r_fr13_301,fr13_y1).
body(r_fr13_301,fr13_y2).
head(r_fr13_302,fr13_u1).
body(r_fr13_302,fr13_a2).
body(r_fr13_302,fr13_c1).
body(r_fr13_302,fr21_d3).
body(r_fr13_302,fr13_e1).
body(r_fr13_302,fr24_e1).
head(r_fr13_303,fr13_t1).
body(r_fr13_303,fr13_f1).
head(r_fr13_304,fr13_t1).
body(r_fr13_304,fr13_z2).
head(r_fr13_305,fr13_t1).
body(r_fr13_305,fr14_b2).
body(r_fr13_305,fr13_b2).
body(r_fr13_305,fr13_f1).
body(r_fr13_305,fr13_r1).
head(r_fr13_306,fr13_t1).
body(r_fr13_306,fr13_c2).
body(r_fr13_306,fr21_d3).
body(r_fr13_306,fr13_r2).
body(r_fr13_306,fr22_r2).
head(r_fr13_307,fr13_t1).
body(r_fr13_307,fr13_r1).
head(r_fr13_308,fr13_t1).
body(r_fr13_308,fr13_d1).
body(r_fr13_308,fr22_r2).
head(r_fr13_309,fr13_t1).
body(r_fr13_309,fr13_a1).
body(r_fr13_309,fr13_b1).
body(r_fr13_309,fr13_b2).
body(r_fr13_309,fr13_c1).
body(r_fr13_309,fr13_v1).
head(r_fr13_310,fr13_t1).
body(r_fr13_310,fr13_a2).
body(r_fr13_310,fr13_q2).
body(r_fr13_310,fr12_p2).
head(r_fr13_311,fr13_t1).
body(r_fr13_311,fr24_s2).
body(r_fr13_311,fr13_r1).
head(r_fr13_312,fr13_t1).
body(r_fr13_312,fr13_r1).
body(r_fr13_312,fr13_y1).
head(r_fr13_313,fr13_t1).
body(r_fr13_313,fr13_v1).
body(r_fr13_313,fr13_x1).
body(r_fr13_313,fr13_x2).
head(r_fr13_314,fr13_t1).
body(r_fr13_314,fr14_b2).
body(r_fr13_314,fr13_c2).
body(r_fr13_314,fr13_e2).
body(r_fr13_314,fr13_w2).
body(r_fr13_314,fr13_x1).
head(r_fr13_315,fr13_t1).
body(r_fr13_315,fr19_p1).
head(r_fr13_316,fr13_t1).
body(r_fr13_316,fr13_d1).
body(r_fr13_316,fr13_f1).
body(r_fr13_316,fr19_p1).
body(r_fr13_316,fr13_r3).
body(r_fr13_316,fr13_s2).
body(r_fr13_316,fr13_z2).
head(r_fr13_317,fr13_t1).
body(r_fr13_317,fr24_e1).
head(r_fr13_318,fr13_t1).
body(r_fr13_318,fr13_d1).
body(r_fr13_318,fr10_f2).
body(r_fr13_318,fr13_f1).
head(r_fr13_319,fr13_t1).
head(r_fr13_320,fr13_t1).
body(r_fr13_320,fr13_a2).
body(r_fr13_320,fr13_b1).
body(r_fr13_320,fr13_f1).
body(r_fr13_320,fr13_v1).
head(r_fr13_321,fr13_t1).
body(r_fr13_321,fr13_b1).
body(r_fr13_321,fr13_c1).
body(r_fr13_321,fr24_e1).
body(r_fr13_321,fr13_q1).
body(r_fr13_321,fr13_r1).
body(r_fr13_321,fr13_r2).
head(r_fr13_322,fr13_t1).
body(r_fr13_322,fr13_b1).
body(r_fr13_322,fr13_b3).
body(r_fr13_322,fr13_c1).
body(r_fr13_322,fr10_f2).
body(r_fr13_322,fr13_e1).
body(r_fr13_322,fr13_e2).
head(r_fr13_323,fr13_t1).
body(r_fr13_323,fr13_a2).
body(r_fr13_323,fr13_f1).
head(r_fr13_324,fr13_t2).
body(r_fr13_324,fr13_e2).
body(r_fr13_324,fr13_q3).
head(r_fr13_325,fr13_t2).
body(r_fr13_325,fr13_a1).
body(r_fr13_325,fr14_b2).
body(r_fr13_325,fr13_e2).
body(r_fr13_325,fr13_f1).
body(r_fr13_325,fr24_e1).
head(r_fr13_326,fr13_t2).
body(r_fr13_326,fr10_f2).
body(r_fr13_326,fr13_f1).
head(r_fr13_327,fr13_t2).
body(r_fr13_327,fr14_b2).
body(r_fr13_327,fr13_b3).
body(r_fr13_327,fr5_r3).
body(r_fr13_327,fr13_q2).
body(r_fr13_327,fr13_t1).
head(r_fr13_328,fr13_t2).
body(r_fr13_328,fr19_p1).
body(r_fr13_328,fr13_r1).
body(r_fr13_328,fr13_r2).
body(r_fr13_328,fr13_u1).
body(r_fr13_328,fr13_v2).
body(r_fr13_328,fr13_x1).
head(r_fr13_329,fr13_t2).
head(r_fr13_330,fr13_t2).
body(r_fr13_330,fr13_b1).
body(r_fr13_330,fr13_c2).
body(r_fr13_330,fr21_d3).
body(r_fr13_330,fr13_d1).
body(r_fr13_330,fr10_f2).
body(r_fr13_330,fr24_s2).
head(r_fr13_331,fr13_t2).
body(r_fr13_331,fr13_q1).
head(r_fr13_332,fr13_t2).
body(r_fr13_332,fr13_b2).
body(r_fr13_332,fr13_e1).
body(r_fr13_332,fr13_q1).
body(r_fr13_332,fr22_r2).
head(r_fr13_333,fr13_t2).
body(r_fr13_333,fr13_r2).
body(r_fr13_333,fr13_v1).
head(r_fr13_334,fr13_t2).
body(r_fr13_334,fr13_b1).
head(r_fr13_335,fr13_t2).
body(r_fr13_335,fr13_b3).
body(r_fr13_335,fr22_r2).
head(r_fr13_336,fr13_t2).
body(r_fr13_336,fr13_q2).
body(r_fr13_336,fr13_u1).
head(r_fr13_337,fr13_t2).
body(r_fr13_337,fr13_b3).
body(r_fr13_337,fr13_c1).
body(r_fr13_337,fr13_r2).
body(r_fr13_337,fr13_x1).
body(r_fr13_337,fr13_z2).
head(r_fr13_338,fr13_t2).
body(r_fr13_338,fr10_f2).
body(r_fr13_338,fr13_e2).
body(r_fr13_338,fr13_u1).
body(r_fr13_338,fr13_x2).
head(r_fr13_339,fr13_t2).
body(r_fr13_339,fr10_f2).
body(r_fr13_339,fr13_q1).
body(r_fr13_339,fr13_s2).
body(r_fr13_339,fr13_t1).
head(r_fr13_340,fr13_t2).
body(r_fr13_340,fr13_a2).
body(r_fr13_340,fr14_b2).
body(r_fr13_340,fr21_d3).
body(r_fr13_340,fr13_d1).
body(r_fr13_340,fr13_y2).
head(r_fr13_341,fr13_t2).
body(r_fr13_341,fr13_c1).
body(r_fr13_341,fr21_d3).
body(r_fr13_341,fr13_e2).
body(r_fr13_341,fr5_r3).
head(r_fr13_342,fr13_t2).
body(r_fr13_342,fr13_f1).
head(r_fr13_343,fr13_t2).
body(r_fr13_343,fr24_e1).
body(r_fr13_343,fr13_q2).
head(r_fr13_344,fr13_z2).
body(r_fr13_344,fr13_e1).
body(r_fr13_344,fr19_p1).
body(r_fr13_344,fr12_p2).
body(r_fr13_344,fr13_v2).
body(r_fr13_344,fr13_w2).
body(r_fr13_344,fr13_x2).
head(r_fr13_345,fr13_z2).
body(r_fr13_345,fr13_a2).
body(r_fr13_345,fr13_b1).
body(r_fr13_345,fr21_d3).
body(r_fr13_345,fr10_f2).
body(r_fr13_345,fr12_p2).
head(r_fr13_346,fr13_z2).
body(r_fr13_346,fr13_b2).
body(r_fr13_346,fr13_b3).
body(r_fr13_346,fr13_c1).
body(r_fr13_346,fr21_d3).
head(r_fr13_347,fr13_z2).
body(r_fr13_347,fr5_r3).
body(r_fr13_347,fr13_w2).
body(r_fr13_347,fr13_z1).
head(r_fr13_348,fr13_z2).
body(r_fr13_348,fr21_d3).
body(r_fr13_348,fr19_p1).
body(r_fr13_348,fr13_u1).
body(r_fr13_348,fr13_x2).
head(r_fr13_349,fr13_z2).
body(r_fr13_349,fr13_a1).
body(r_fr13_349,fr24_s2).
body(r_fr13_349,fr13_q2).
head(r_fr13_350,fr13_z2).
body(r_fr13_350,fr13_c2).
body(r_fr13_350,fr13_f1).
head(r_fr13_351,fr13_z2).
body(r_fr13_351,fr13_a1).
body(r_fr13_351,fr13_v1).
body(r_fr13_351,fr13_z1).
head(r_fr13_352,fr13_z2).
body(r_fr13_352,fr13_a1).
body(r_fr13_352,fr14_b2).
body(r_fr13_352,fr13_b1).
body(r_fr13_352,fr19_p1).
head(r_fr13_353,fr13_z2).
body(r_fr13_353,fr13_q3).
body(r_fr13_353,fr13_w1).
body(r_fr13_353,fr13_w2).
head(r_fr13_354,fr13_z2).
body(r_fr13_354,fr22_r2).
body(r_fr13_354,fr13_u1).
body(r_fr13_354,fr13_z1).
head(r_fr13_355,fr13_z2).
body(r_fr13_355,fr14_b2).
body(r_fr13_355,fr13_s2).
body(r_fr13_355,fr13_x1).
head(r_fr13_356,fr13_z2).
body(r_fr13_356,fr13_c2).
body(r_fr13_356,fr21_d3).
body(r_fr13_356,fr13_d1).
body(r_fr13_356,fr10_f2).
head(r_fr13_357,fr13_z2).
body(r_fr13_357,fr22_r2).
body(r_fr13_357,fr13_v1).
body(r_fr13_357,fr13_v2).
head(r_fr13_358,fr13_z2).
body(r_fr13_358,fr13_b2).
body(r_fr13_358,fr13_c2).
body(r_fr13_358,fr24_e1).
head(r_fr13_359,fr13_z2).
body(r_fr13_359,fr13_b2).
body(r_fr13_359,fr13_e1).
head(r_fr13_360,fr13_z2).
body(r_fr13_360,fr24_e1).
body(r_fr13_360,fr13_q1).
body(r_fr13_360,fr13_t1).
body(r_fr13_360,fr12_p2).
body(r_fr13_360,fr13_y1).
head(r_fr13_361,fr13_z2).
body(r_fr13_361,fr14_b2).
body(r_fr13_361,fr13_b2).
body(r_fr13_361,fr13_b3).
body(r_fr13_361,fr13_c1).
body(r_fr13_361,fr13_d1).
head(r_fr13_362,fr13_z2).
body(r_fr13_362,fr13_a2).
body(r_fr13_362,fr13_b3).
body(r_fr13_362,fr13_c1).
body(r_fr13_362,fr10_f2).
body(r_fr13_362,fr13_e1).
body(r_fr13_362,fr13_e2).
head(r_fr13_363,fr13_z2).
body(r_fr13_363,fr13_f1).
body(r_fr13_363,fr13_z1).
head(r_fr13_364,fr13_z2).
body(r_fr13_364,fr13_q2).
body(r_fr13_364,fr13_t2).
body(r_fr13_364,fr13_y1).
body(r_fr13_364,fr13_y2).
head(r_fr13_365,fr13_z2).
body(r_fr13_365,fr21_d3).
body(r_fr13_365,fr13_d1).
body(r_fr13_365,fr10_f2).
head(r_fr13_366,fr13_z2).
body(r_fr13_366,fr14_b2).
body(r_fr13_366,fr19_p1).
body(r_fr13_366,fr24_s2).
body(r_fr13_366,fr13_q3).
body(r_fr13_366,fr13_r3).
body(r_fr13_366,fr22_r2).
head(r_fr13_367,fr13_x2).
body(r_fr13_367,fr13_z1).
head(r_fr13_368,fr13_x2).
body(r_fr13_368,fr13_b3).
body(r_fr13_368,fr13_c2).
body(r_fr13_368,fr21_d3).
body(r_fr13_368,fr13_d1).
body(r_fr13_368,fr13_e1).
head(r_fr13_369,fr13_x2).
body(r_fr13_369,fr19_p1).
body(r_fr13_369,fr13_q2).
body(r_fr13_369,fr22_r2).
body(r_fr13_369,fr13_t1).
body(r_fr13_369,fr13_y1).
body(r_fr13_369,fr13_z2).
head(r_fr13_370,fr13_x2).
body(r_fr13_370,fr14_b2).
body(r_fr13_370,fr10_f2).
body(r_fr13_370,fr13_e2).
head(r_fr13_371,fr13_x2).
body(r_fr13_371,fr24_s2).
head(r_fr13_372,fr13_x2).
body(r_fr13_372,fr13_a2).
body(r_fr13_372,fr5_r3).
body(r_fr13_372,fr13_w2).
body(r_fr13_372,fr13_x1).
body(r_fr13_372,fr13_y2).
body(r_fr13_372,fr13_z1).
head(r_fr13_373,fr13_x2).
body(r_fr13_373,fr13_a1).
body(r_fr13_373,fr13_c2).
head(r_fr13_374,fr13_x2).
body(r_fr13_374,fr13_a2).
body(r_fr13_374,fr14_b2).
body(r_fr13_374,fr13_c2).
body(r_fr13_374,fr21_d3).
body(r_fr13_374,fr10_f2).
body(r_fr13_374,fr13_e2).
head(r_fr13_375,fr13_x2).
body(r_fr13_375,fr24_s2).
body(r_fr13_375,fr13_t2).
body(r_fr13_375,fr13_y2).
head(r_fr13_376,fr13_x2).
body(r_fr13_376,fr13_a1).
body(r_fr13_376,fr13_a2).
body(r_fr13_376,fr13_b1).
body(r_fr13_376,fr13_b3).
body(r_fr13_376,fr13_c1).
body(r_fr13_376,fr13_z2).
head(r_fr13_377,fr13_x2).
body(r_fr13_377,fr13_t1).
body(r_fr13_377,fr13_x1).
head(r_fr13_378,fr13_x2).
body(r_fr13_378,fr13_a1).
body(r_fr13_378,fr24_e1).
body(r_fr13_378,fr13_q1).
body(r_fr13_378,fr13_t2).
head(r_fr13_379,fr13_x2).
body(r_fr13_379,fr13_r2).
body(r_fr13_379,fr12_p2).
body(r_fr13_379,fr13_w2).
body(r_fr13_379,fr13_x1).
body(r_fr13_379,fr13_y1).
head(r_fr13_380,fr13_x2).
body(r_fr13_380,fr19_p1).
body(r_fr13_380,fr13_r1).
body(r_fr13_380,fr13_s2).
head(r_fr13_381,fr13_x2).
body(r_fr13_381,fr13_s2).
head(r_fr13_382,fr13_x2).
body(r_fr13_382,fr14_b2).
body(r_fr13_382,fr13_b3).
body(r_fr13_382,fr24_e1).
head(r_fr13_383,fr13_x2).
body(r_fr13_383,fr13_a2).
body(r_fr13_383,fr14_b2).
body(r_fr13_383,fr13_c1).
head(r_fr13_384,fr13_x2).
body(r_fr13_384,fr22_r2).
body(r_fr13_384,fr13_z1).
head(r_fr13_385,fr13_x2).
body(r_fr13_385,fr13_c1).
body(r_fr13_385,fr21_d3).
body(r_fr13_385,fr10_f2).
body(r_fr13_385,fr24_e1).
body(r_fr13_385,fr13_y1).
body(r_fr13_385,fr13_y2).
head(r_fr13_386,fr13_x2).
body(r_fr13_386,fr13_r2).
head(r_fr13_387,fr13_x2).
body(r_fr13_387,fr13_c1).
head(r_fr13_388,fr13_x2).
head(r_fr13_389,fr13_y2).
body(r_fr13_389,fr13_b1).
body(r_fr13_389,fr13_z1).
head(r_fr13_390,fr13_y2).
body(r_fr13_390,fr13_a1).
body(r_fr13_390,fr13_a2).
body(r_fr13_390,fr13_e1).
body(r_fr13_390,fr13_r2).
body(r_fr13_390,fr13_t2).
head(r_fr13_391,fr13_y2).
body(r_fr13_391,fr13_y1).
head(r_fr13_392,fr13_y2).
body(r_fr13_392,fr13_d1).
body(r_fr13_392,fr5_r3).
body(r_fr13_392,fr13_r2).
head(r_fr13_393,fr13_y2).
body(r_fr13_393,fr13_x2).
head(r_fr13_394,fr13_y2).
body(r_fr13_394,fr13_a2).
body(r_fr13_394,fr24_e1).
body(r_fr13_394,fr13_r2).
body(r_fr13_394,fr13_t1).
head(r_fr13_395,fr13_y2).
body(r_fr13_395,fr13_a2).
body(r_fr13_395,fr13_d1).
body(r_fr13_395,fr13_q3).
body(r_fr13_395,fr13_t1).
body(r_fr13_395,fr13_t2).
head(r_fr13_396,fr13_y2).
body(r_fr13_396,fr13_b2).
body(r_fr13_396,fr21_d3).
body(r_fr13_396,fr13_e1).
body(r_fr13_396,fr22_r2).
head(r_fr13_397,fr13_y2).
body(r_fr13_397,fr13_w2).
head(r_fr13_398,fr13_y2).
body(r_fr13_398,fr13_c2).
body(r_fr13_398,fr5_r3).
head(r_fr13_399,fr13_y2).
body(r_fr13_399,fr13_b2).
body(r_fr13_399,fr13_b3).
body(r_fr13_399,fr5_r3).
body(r_fr13_399,fr13_q2).
body(r_fr13_399,fr13_r2).
body(r_fr13_399,fr22_r2).
head(r_fr13_400,fr13_y2).
body(r_fr13_400,fr13_t2).
head(r_fr13_401,fr13_y2).
body(r_fr13_401,fr13_q3).
body(r_fr13_401,fr22_r2).
body(r_fr13_401,fr13_x2).
body(r_fr13_401,fr13_z1).
head(r_fr13_402,fr13_y2).
body(r_fr13_402,fr13_u1).
head(r_fr13_403,fr13_y2).
body(r_fr13_403,fr13_a1).
body(r_fr13_403,fr13_b1).
body(r_fr13_403,fr13_b3).
body(r_fr13_403,fr13_c1).
body(r_fr13_403,fr13_e2).
head(r_fr13_404,fr13_y2).
body(r_fr13_404,fr21_d3).
head(r_fr13_405,fr13_y2).
body(r_fr13_405,fr13_b1).
body(r_fr13_405,fr13_f1).
body(r_fr13_405,fr12_p2).
head(r_fr13_406,fr13_y2).
body(r_fr13_406,fr13_a2).
body(r_fr13_406,fr13_c2).
body(r_fr13_406,fr24_e1).
body(r_fr13_406,fr13_u1).
body(r_fr13_406,fr13_z2).
head(r_fr13_407,fr13_y2).
head(r_fr13_408,fr13_y2).
body(r_fr13_408,fr13_d1).
body(r_fr13_408,fr13_e1).
body(r_fr13_408,fr24_e1).
body(r_fr13_408,fr13_u1).
head(r_fr13_409,fr13_y2).
body(r_fr13_409,fr13_b2).
body(r_fr13_409,fr13_f1).
body(r_fr13_409,fr24_e1).
body(r_fr13_409,fr13_s2).
body(r_fr13_409,fr13_x1).
body(r_fr13_409,fr13_y1).
head(r_fr13_410,fr13_y2).
body(r_fr13_410,fr13_b3).
body(r_fr13_410,fr13_c1).
body(r_fr13_410,fr21_d3).
head(r_fr13_411,fr13_y2).
body(r_fr13_411,fr21_d3).
body(r_fr13_411,fr13_r2).
head(r_fr13_412,fr12_p2).
body(r_fr13_412,fr13_d1).
body(r_fr13_412,fr13_f1).
body(r_fr13_412,fr24_e1).
body(r_fr13_412,fr13_q3).
body(r_fr13_412,fr22_r2).
body(r_fr13_412,fr13_w1).
head(r_fr13_413,fr12_p2).
body(r_fr13_413,fr13_a2).
body(r_fr13_413,fr13_c2).
body(r_fr13_413,fr21_d3).
body(r_fr13_413,fr13_e1).
body(r_fr13_413,fr13_r1).
body(r_fr13_413,fr13_u1).
head(r_fr13_414,fr12_p2).
body(r_fr13_414,fr13_w1).
body(r_fr13_414,fr13_x2).
body(r_fr13_414,fr13_z2).
head(r_fr13_415,fr12_p2).
body(r_fr13_415,fr13_r3).
body(r_fr13_415,fr13_y1).
body(r_fr13_415,fr13_z1).
head(r_fr13_416,fr12_p2).
body(r_fr13_416,fr5_r3).
head(r_fr13_417,fr12_p2).
body(r_fr13_417,fr13_a1).
body(r_fr13_417,fr13_b1).
body(r_fr13_417,fr13_b3).
body(r_fr13_417,fr13_d1).
body(r_fr13_417,fr13_z1).
head(r_fr13_418,fr12_p2).
body(r_fr13_418,fr21_d3).
body(r_fr13_418,fr13_d1).
body(r_fr13_418,fr10_f2).
body(r_fr13_418,fr13_f1).
body(r_fr13_418,fr24_e1).
head(r_fr13_419,fr12_p2).
body(r_fr13_419,fr13_q2).
body(r_fr13_419,fr13_r3).
body(r_fr13_419,fr13_y2).
head(r_fr13_420,fr12_p2).
body(r_fr13_420,fr13_q2).
body(r_fr13_420,fr22_r2).
body(r_fr13_420,fr13_w2).
head(r_fr13_421,fr12_p2).
body(r_fr13_421,fr13_a2).
body(r_fr13_421,fr13_b1).
body(r_fr13_421,fr13_e1).
body(r_fr13_421,fr13_q2).
body(r_fr13_421,fr13_y1).
head(r_fr13_422,fr12_p2).
body(r_fr13_422,fr14_b2).
body(r_fr13_422,fr13_t1).
body(r_fr13_422,fr13_w2).
head(r_fr13_423,fr12_p2).
body(r_fr13_423,fr22_r2).
body(r_fr13_423,fr13_z2).
head(r_fr13_424,fr12_p2).
head(r_fr13_425,fr12_p2).
body(r_fr13_425,fr13_r2).
body(r_fr13_425,fr13_s2).
head(r_fr13_426,fr12_p2).
body(r_fr13_426,fr13_c2).
body(r_fr13_426,fr21_d3).
body(r_fr13_426,fr13_d1).
body(r_fr13_426,fr13_e1).
body(r_fr13_426,fr24_e1).
body(r_fr13_426,fr13_w2).
head(r_fr13_427,fr12_p2).
body(r_fr13_427,fr21_d3).
body(r_fr13_427,fr13_d1).
body(r_fr13_427,fr24_e1).
body(r_fr13_427,fr5_r3).
body(r_fr13_427,fr13_r1).
body(r_fr13_427,fr13_v1).
head(r_fr13_428,fr12_p2).
body(r_fr13_428,fr13_a2).
body(r_fr13_428,fr13_c2).
body(r_fr13_428,fr13_f1).
body(r_fr13_428,fr13_r3).
head(r_fr13_429,fr12_p2).
body(r_fr13_429,fr19_p1).
body(r_fr13_429,fr24_s2).
body(r_fr13_429,fr13_q3).
body(r_fr13_429,fr22_r2).
body(r_fr13_429,fr13_u1).
head(r_fr13_430,fr12_p2).
body(r_fr13_430,fr13_c1).
head(r_fr13_431,fr12_p2).
body(r_fr13_431,fr14_b2).
body(r_fr13_431,fr13_b1).
body(r_fr13_431,fr10_f2).
body(r_fr13_431,fr13_e2).
body(r_fr13_431,fr13_v1).
head(r_fr13_432,fr12_p2).
body(r_fr13_432,fr14_b2).
body(r_fr13_432,fr21_d3).
body(r_fr13_432,fr24_e1).
head(r_fr13_433,fr12_p2).
body(r_fr13_433,fr14_b2).
body(r_fr13_433,fr13_e1).
body(r_fr13_433,fr13_e2).
body(r_fr13_433,fr13_f1).
body(r_fr13_433,fr13_r1).

assumption(fr5_b3).
assumption(fr14_b1).
assumption(fr14_c1).
assumption(fr14_d1).
assumption(fr2_e2).
assumption(fr14_f1).
assumption(fr7_f1).
assumption(fr14_b2).
assumption(fr14_c2).
assumption(fr25_e2).
assumption(fr14_e2).
assumption(fr13_c1).
assumption(fr10_f2).
assumption(fr14_b3).
assumption(fr14_c3).
contrary(fr5_b3,fr14_q1).
contrary(fr7_f1,fr14_c1).
contrary(fr10_f2,fr14_s3).
contrary(fr14_b1,fr14_z3).
contrary(fr14_b2,fr14_c1).
contrary(fr14_b3,fr10_f2).
contrary(fr14_c1,fr15_x3).
contrary(fr14_c2,fr14_s2).
contrary(fr14_c3,fr14_z3).
contrary(fr14_d1,fr14_z1).
contrary(fr25_e2,fr14_t1).
contrary(fr2_e2,fr14_s1).
contrary(fr14_e2,fr22_w6).
contrary(fr14_f1,fr14_c1).
contrary(fr13_c1,fr14_q4).
head(r_fr14_0,fr14_x3).
body(r_fr14_0,fr5_b3).
body(r_fr14_0,fr2_e2).
body(r_fr14_0,fr14_f1).
body(r_fr14_0,fr14_r1).
body(r_fr14_0,fr14_t1).
body(r_fr14_0,fr14_p1).
body(r_fr14_0,fr14_w3).
body(r_fr14_0,fr10_q1).
body(r_fr14_0,fr14_y3).
head(r_fr14_1,fr14_x3).
body(r_fr14_1,fr14_c1).
body(r_fr14_1,fr14_r1).
body(r_fr14_1,fr14_r3).
body(r_fr14_1,fr14_t2).
body(r_fr14_1,fr14_u3).
body(r_fr14_1,fr25_r3).
body(r_fr14_1,fr14_x2).
body(r_fr14_1,fr14_z1).
body(r_fr14_1,fr14_z3).
head(r_fr14_2,fr14_x3).
body(r_fr14_2,fr22_w6).
body(r_fr14_2,fr14_r2).
body(r_fr14_2,fr14_t2).
body(r_fr14_2,fr14_u2).
body(r_fr14_2,fr14_v3).
body(r_fr14_2,fr14_w2).
body(r_fr14_2,fr10_q1).
body(r_fr14_2,fr14_x2).
body(r_fr14_2,fr14_z2).
body(r_fr14_2,fr14_z3).
head(r_fr14_3,fr14_x3).
body(r_fr14_3,fr14_p1).
body(r_fr14_3,fr14_t1).
body(r_fr14_3,fr14_u2).
body(r_fr14_3,fr14_u3).
body(r_fr14_3,fr14_w1).
body(r_fr14_3,fr9_x1).
body(r_fr14_3,fr14_z1).
body(r_fr14_3,fr14_z2).
body(r_fr14_3,fr14_z3).
head(r_fr14_4,fr14_x3).
body(r_fr14_4,fr14_b3).
body(r_fr14_4,fr14_p1).
body(r_fr14_4,fr13_v2).
body(r_fr14_4,fr14_s2).
body(r_fr14_4,fr14_t1).
body(r_fr14_4,fr14_t2).
body(r_fr14_4,fr14_u2).
body(r_fr14_4,fr14_u3).
body(r_fr14_4,fr10_q1).
body(r_fr14_4,fr9_x1).
body(r_fr14_4,fr5_r2).
body(r_fr14_4,fr14_z2).
head(r_fr14_5,fr14_x2).
body(r_fr14_5,fr25_e2).
body(r_fr14_5,fr14_q1).
body(r_fr14_5,fr14_q3).
body(r_fr14_5,fr14_r1).
body(r_fr14_5,fr14_s2).
body(r_fr14_5,fr14_s3).
body(r_fr14_5,fr14_u2).
body(r_fr14_5,fr14_u3).
body(r_fr14_5,fr25_r3).
body(r_fr14_5,fr14_y3).
body(r_fr14_5,fr14_z2).
head(r_fr14_6,fr14_x2).
body(r_fr14_6,fr7_f1).
body(r_fr14_6,fr14_f1).
body(r_fr14_6,fr15_x3).
body(r_fr14_6,fr13_v2).
body(r_fr14_6,fr14_r3).
body(r_fr14_6,fr14_s2).
body(r_fr14_6,fr14_s3).
body(r_fr14_6,fr14_p1).
body(r_fr14_6,fr22_v6).
body(r_fr14_6,fr14_u3).
body(r_fr14_6,fr10_q1).
body(r_fr14_6,fr14_z2).
head(r_fr14_7,fr14_x2).
body(r_fr14_7,fr14_d1).
body(r_fr14_7,fr25_e2).
body(r_fr14_7,fr14_q1).
body(r_fr14_7,fr14_r2).
body(r_fr14_7,fr14_r3).
body(r_fr14_7,fr14_s1).
body(r_fr14_7,fr14_p1).
body(r_fr14_7,fr14_u2).
body(r_fr14_7,fr14_v3).
body(r_fr14_7,fr14_w3).
body(r_fr14_7,fr5_r2).
body(r_fr14_7,fr14_z2).
head(r_fr14_8,fr14_p3).
body(r_fr14_8,fr5_b3).
body(r_fr14_8,fr7_f1).
body(r_fr14_8,fr14_c3).
body(r_fr14_8,fr14_d1).
body(r_fr14_8,fr25_e2).
body(r_fr14_8,fr14_f1).
body(r_fr14_8,fr14_p1).
body(r_fr14_8,fr14_r3).
body(r_fr14_8,fr14_t2).
head(r_fr14_9,fr14_p3).
body(r_fr14_9,fr14_f1).
body(r_fr14_9,fr14_p1).
body(r_fr14_9,fr15_x3).
body(r_fr14_9,fr14_r3).
body(r_fr14_9,fr14_t1).
body(r_fr14_9,fr14_w1).
body(r_fr14_9,fr14_w2).
body(r_fr14_9,fr10_q1).
body(r_fr14_9,fr5_r2).
body(r_fr14_9,fr14_z1).
head(r_fr14_10,fr14_p3).
body(r_fr14_10,fr5_b3).
body(r_fr14_10,fr14_b2).
body(r_fr14_10,fr14_c2).
body(r_fr14_10,fr14_q3).
body(r_fr14_10,fr14_t1).
body(r_fr14_10,fr22_v6).
body(r_fr14_10,fr14_u2).
body(r_fr14_10,fr12_q1).
body(r_fr14_10,fr14_w1).
body(r_fr14_10,fr10_q1).
body(r_fr14_10,fr5_r2).
head(r_fr14_11,fr14_p3).
body(r_fr14_11,fr14_b2).
body(r_fr14_11,fr14_b3).
body(r_fr14_11,fr14_d1).
body(r_fr14_11,fr25_e2).
body(r_fr14_11,fr2_e2).
body(r_fr14_11,fr14_e2).
body(r_fr14_11,fr22_w6).
body(r_fr14_11,fr14_u3).
body(r_fr14_11,fr10_q1).
body(r_fr14_11,fr5_r2).
head(r_fr14_12,fr14_p1).
body(r_fr14_12,fr7_f1).
body(r_fr14_12,fr14_b2).
body(r_fr14_12,fr14_c1).
body(r_fr14_12,fr14_q3).
body(r_fr14_12,fr14_r2).
body(r_fr14_12,fr14_s3).
body(r_fr14_12,fr14_p1).
body(r_fr14_12,fr22_v6).
body(r_fr14_12,fr12_q1).
body(r_fr14_12,fr14_v3).
head(r_fr14_13,fr14_p1).
body(r_fr14_13,fr10_f2).
body(r_fr14_13,fr14_b1).
body(r_fr14_13,fr14_e2).
body(r_fr14_13,fr15_x3).
body(r_fr14_13,fr13_v2).
body(r_fr14_13,fr14_q3).
body(r_fr14_13,fr14_s1).
body(r_fr14_13,fr14_s3).
body(r_fr14_13,fr22_v6).
body(r_fr14_13,fr14_w3).
body(r_fr14_13,fr10_q1).
head(r_fr14_14,fr14_u2).
body(r_fr14_14,fr10_f2).
body(r_fr14_14,fr14_b2).
body(r_fr14_14,fr15_x3).
body(r_fr14_14,fr13_v2).
body(r_fr14_14,fr14_q4).
body(r_fr14_14,fr14_r1).
body(r_fr14_14,fr14_s2).
body(r_fr14_14,fr14_s3).
body(r_fr14_14,fr14_p1).
body(r_fr14_14,fr10_q1).
body(r_fr14_14,fr9_x1).
body(r_fr14_14,fr5_r2).
head(r_fr14_15,fr14_u2).
body(r_fr14_15,fr14_b1).
body(r_fr14_15,fr14_b2).
body(r_fr14_15,fr22_w6).
body(r_fr14_15,fr13_v2).
body(r_fr14_15,fr14_q3).
body(r_fr14_15,fr14_r3).
body(r_fr14_15,fr14_s2).
body(r_fr14_15,fr14_u3).
body(r_fr14_15,fr14_w3).
body(r_fr14_15,fr9_x1).
body(r_fr14_15,fr14_z2).
head(r_fr14_16,fr14_u2).
body(r_fr14_16,fr14_q1).
body(r_fr14_16,fr13_v2).
body(r_fr14_16,fr14_r2).
body(r_fr14_16,fr14_s2).
body(r_fr14_16,fr14_v3).
body(r_fr14_16,fr14_w3).
body(r_fr14_16,fr10_q1).
body(r_fr14_16,fr5_r2).
body(r_fr14_16,fr14_y3).
head(r_fr14_17,fr14_v3).
body(r_fr14_17,fr5_b3).
body(r_fr14_17,fr14_b2).
body(r_fr14_17,fr14_c2).
body(r_fr14_17,fr14_f1).
body(r_fr14_17,fr22_w6).
body(r_fr14_17,fr14_q1).
body(r_fr14_17,fr14_q3).
body(r_fr14_17,fr14_r3).
body(r_fr14_17,fr14_u3).
body(r_fr14_17,fr5_r2).
body(r_fr14_17,fr14_z2).
body(r_fr14_17,fr14_z3).
head(r_fr14_18,fr14_v3).
body(r_fr14_18,fr10_f2).
body(r_fr14_18,fr14_s3).
body(r_fr14_18,fr14_t1).
body(r_fr14_18,fr22_v6).
body(r_fr14_18,fr12_q1).
body(r_fr14_18,fr14_w2).
body(r_fr14_18,fr5_r2).
body(r_fr14_18,fr14_y3).
body(r_fr14_18,fr14_z1).
head(r_fr14_19,fr12_q1).
body(r_fr14_19,fr15_x3).
body(r_fr14_19,fr14_q1).
body(r_fr14_19,fr14_q4).
body(r_fr14_19,fr14_r2).
body(r_fr14_19,fr14_s2).
body(r_fr14_19,fr14_t1).
body(r_fr14_19,fr14_t2).
body(r_fr14_19,fr14_u3).
body(r_fr14_19,fr25_r3).
body(r_fr14_19,fr14_w1).
body(r_fr14_19,fr14_w3).
body(r_fr14_19,fr9_x1).
head(r_fr14_20,fr12_q1).
body(r_fr14_20,fr5_b3).
body(r_fr14_20,fr14_c1).
body(r_fr14_20,fr2_e2).
body(r_fr14_20,fr14_e2).
body(r_fr14_20,fr13_c1).
body(r_fr14_20,fr14_r1).
body(r_fr14_20,fr14_t2).
body(r_fr14_20,fr22_v6).
body(r_fr14_20,fr25_r3).
head(r_fr14_21,fr14_t2).
body(r_fr14_21,fr5_b3).
body(r_fr14_21,fr7_f1).
body(r_fr14_21,fr10_f2).
body(r_fr14_21,fr14_b1).
body(r_fr14_21,fr14_q1).
body(r_fr14_21,fr14_q3).
body(r_fr14_21,fr14_r3).
body(r_fr14_21,fr14_u3).
body(r_fr14_21,fr14_w3).
body(r_fr14_21,fr10_q1).
body(r_fr14_21,fr14_z1).
body(r_fr14_21,fr14_z3).
head(r_fr14_22,fr14_t2).
body(r_fr14_22,fr14_c2).
body(r_fr14_22,fr14_r1).
body(r_fr14_22,fr14_s2).
body(r_fr14_22,fr14_t1).
body(r_fr14_22,fr14_p1).
body(r_fr14_22,fr14_u3).
body(r_fr14_22,fr10_q1).
body(r_fr14_22,fr5_r2).
body(r_fr14_22,fr14_z1).
body(r_fr14_22,fr14_z2).
head(r_fr14_23,fr14_t2).
body(r_fr14_23,fr10_f2).
body(r_fr14_23,fr14_b2).
body(r_fr14_23,fr2_e2).
body(r_fr14_23,fr14_e2).
body(r_fr14_23,fr22_w6).
body(r_fr14_23,fr14_r3).
body(r_fr14_23,fr14_p1).
body(r_fr14_23,fr25_r3).
body(r_fr14_23,fr14_w3).
head(r_fr14_24,fr14_t2).
body(r_fr14_24,fr15_x3).
body(r_fr14_24,fr22_w6).
body(r_fr14_24,fr13_v2).
body(r_fr14_24,fr14_q3).
body(r_fr14_24,fr22_v6).
body(r_fr14_24,fr14_w3).
body(r_fr14_24,fr10_q1).
body(r_fr14_24,fr5_r2).
body(r_fr14_24,fr14_y3).
body(r_fr14_24,fr14_z1).
head(r_fr14_25,fr14_t2).
body(r_fr14_25,fr15_x3).
body(r_fr14_25,fr22_w6).
body(r_fr14_25,fr13_v2).
body(r_fr14_25,fr14_q3).
body(r_fr14_25,fr14_q4).
body(r_fr14_25,fr14_r1).
body(r_fr14_25,fr14_s1).
body(r_fr14_25,fr14_s3).
body(r_fr14_25,fr14_t1).
body(r_fr14_25,fr14_u3).
body(r_fr14_25,fr10_q1).
body(r_fr14_25,fr14_y3).
head(r_fr14_26,fr14_r2).
body(r_fr14_26,fr14_b1).
body(r_fr14_26,fr25_e2).
body(r_fr14_26,fr13_c1).
body(r_fr14_26,fr14_q1).
body(r_fr14_26,fr13_v2).
body(r_fr14_26,fr14_t1).
body(r_fr14_26,fr22_v6).
body(r_fr14_26,fr25_r3).
body(r_fr14_26,fr14_w2).
body(r_fr14_26,fr10_q1).
body(r_fr14_26,fr14_z3).
head(r_fr14_27,fr14_r2).
body(r_fr14_27,fr14_b3).
body(r_fr14_27,fr14_c1).
body(r_fr14_27,fr14_q4).
body(r_fr14_27,fr14_s3).
body(r_fr14_27,fr14_p1).
body(r_fr14_27,fr14_u3).
body(r_fr14_27,fr25_r3).
body(r_fr14_27,fr14_w1).
body(r_fr14_27,fr10_q1).
body(r_fr14_27,fr14_z2).
head(r_fr14_28,fr14_r2).
body(r_fr14_28,fr10_f2).
body(r_fr14_28,fr14_c1).
body(r_fr14_28,fr13_c1).
body(r_fr14_28,fr15_x3).
body(r_fr14_28,fr14_q3).
body(r_fr14_28,fr14_q4).
body(r_fr14_28,fr14_r1).
body(r_fr14_28,fr14_s1).
body(r_fr14_28,fr14_t1).
body(r_fr14_28,fr25_r3).
body(r_fr14_28,fr14_w1).
body(r_fr14_28,fr14_z3).
head(r_fr14_29,fr14_w1).
body(r_fr14_29,fr5_b3).
body(r_fr14_29,fr10_f2).
body(r_fr14_29,fr14_c1).
body(r_fr14_29,fr2_e2).
body(r_fr14_29,fr15_x3).
body(r_fr14_29,fr14_q1).
body(r_fr14_29,fr13_v2).
body(r_fr14_29,fr14_r3).
body(r_fr14_29,fr14_w3).
body(r_fr14_29,fr14_z1).
head(r_fr14_30,fr14_w1).
body(r_fr14_30,fr5_b3).
body(r_fr14_30,fr14_c3).
body(r_fr14_30,fr14_q1).
body(r_fr14_30,fr14_q3).
body(r_fr14_30,fr25_r3).
body(r_fr14_30,fr14_w3).
body(r_fr14_30,fr10_q1).
body(r_fr14_30,fr9_x1).
body(r_fr14_30,fr5_r2).
body(r_fr14_30,fr14_z1).
body(r_fr14_30,fr14_z3).
head(r_fr14_31,fr14_w1).
body(r_fr14_31,fr14_c1).
body(r_fr14_31,fr13_v2).
body(r_fr14_31,fr14_q4).
body(r_fr14_31,fr14_s2).
body(r_fr14_31,fr14_p1).
body(r_fr14_31,fr22_v6).
body(r_fr14_31,fr25_r3).
body(r_fr14_31,fr9_x1).
body(r_fr14_31,fr5_r2).
body(r_fr14_31,fr14_y3).
body(r_fr14_31,fr14_z2).
body(r_fr14_31,fr14_z3).
head(r_fr14_32,fr14_w1).
body(r_fr14_32,fr15_x3).
body(r_fr14_32,fr14_q1).
body(r_fr14_32,fr14_r1).
body(r_fr14_32,fr14_r3).
body(r_fr14_32,fr14_s1).
body(r_fr14_32,fr14_s2).
body(r_fr14_32,fr14_s3).
body(r_fr14_32,fr14_t1).
body(r_fr14_32,fr14_u3).
body(r_fr14_32,fr25_r3).
body(r_fr14_32,fr10_q1).
body(r_fr14_32,fr14_z1).
head(r_fr14_33,fr14_w1).
body(r_fr14_33,fr5_b3).
body(r_fr14_33,fr10_f2).
body(r_fr14_33,fr14_b1).
body(r_fr14_33,fr14_c1).
body(r_fr14_33,fr2_e2).
body(r_fr14_33,fr14_e2).
body(r_fr14_33,fr22_w6).
body(r_fr14_33,fr14_q1).
body(r_fr14_33,fr13_v2).
body(r_fr14_33,fr14_q4).
body(r_fr14_33,fr14_s2).
body(r_fr14_33,fr14_s3).
head(r_fr14_34,fr14_q1).
body(r_fr14_34,fr14_c1).
body(r_fr14_34,fr14_c2).
body(r_fr14_34,fr14_c3).
body(r_fr14_34,fr13_v2).
body(r_fr14_34,fr14_s1).
body(r_fr14_34,fr14_s2).
body(r_fr14_34,fr14_s3).
body(r_fr14_34,fr22_v6).
body(r_fr14_34,fr5_r2).
head(r_fr14_35,fr14_q1).
body(r_fr14_35,fr7_f1).
body(r_fr14_35,fr14_b1).
body(r_fr14_35,fr13_c1).
body(r_fr14_35,fr13_v2).
body(r_fr14_35,fr14_s3).
body(r_fr14_35,fr14_t1).
body(r_fr14_35,fr14_p1).
body(r_fr14_35,fr14_u3).
body(r_fr14_35,fr9_x1).
body(r_fr14_35,fr5_r2).
body(r_fr14_35,fr14_y3).
body(r_fr14_35,fr14_z2).
head(r_fr14_36,fr14_q1).
body(r_fr14_36,fr5_b3).
body(r_fr14_36,fr7_f1).
body(r_fr14_36,fr14_b1).
body(r_fr14_36,fr14_c1).
body(r_fr14_36,fr2_e2).
body(r_fr14_36,fr22_w6).
body(r_fr14_36,fr14_r3).
body(r_fr14_36,fr14_s3).
body(r_fr14_36,fr14_t1).
body(r_fr14_36,fr22_v6).
head(r_fr14_37,fr14_q4).
body(r_fr14_37,fr22_w6).
body(r_fr14_37,fr13_v2).
body(r_fr14_37,fr14_r3).
body(r_fr14_37,fr14_s1).
body(r_fr14_37,fr14_t1).
body(r_fr14_37,fr14_p1).
body(r_fr14_37,fr14_u3).
body(r_fr14_37,fr14_w3).
body(r_fr14_37,fr10_q1).
body(r_fr14_37,fr5_r2).
body(r_fr14_37,fr14_z3).
head(r_fr14_38,fr14_q4).
body(r_fr14_38,fr14_b3).
body(r_fr14_38,fr14_c3).
body(r_fr14_38,fr14_d1).
body(r_fr14_38,fr14_e2).
body(r_fr14_38,fr14_f1).
body(r_fr14_38,fr15_x3).
body(r_fr14_38,fr14_r1).
body(r_fr14_38,fr14_p1).
body(r_fr14_38,fr10_q1).
body(r_fr14_38,fr9_x1).
head(r_fr14_39,fr14_r1).
body(r_fr14_39,fr5_b3).
body(r_fr14_39,fr14_b2).
body(r_fr14_39,fr14_d1).
body(r_fr14_39,fr22_w6).
body(r_fr14_39,fr13_v2).
body(r_fr14_39,fr14_r3).
body(r_fr14_39,fr14_s3).
body(r_fr14_39,fr22_v6).
body(r_fr14_39,fr14_u3).
body(r_fr14_39,fr25_r3).
body(r_fr14_39,fr14_w3).
body(r_fr14_39,fr14_y3).
head(r_fr14_40,fr14_r1).
body(r_fr14_40,fr7_f1).
body(r_fr14_40,fr14_c3).
body(r_fr14_40,fr14_r3).
body(r_fr14_40,fr14_s2).
body(r_fr14_40,fr14_s3).
body(r_fr14_40,fr14_w3).
body(r_fr14_40,fr10_q1).
body(r_fr14_40,fr9_x1).
body(r_fr14_40,fr14_z3).
head(r_fr14_41,fr14_r1).
body(r_fr14_41,fr25_e2).
body(r_fr14_41,fr14_r3).
body(r_fr14_41,fr14_s2).
body(r_fr14_41,fr14_s3).
body(r_fr14_41,fr14_t1).
body(r_fr14_41,fr14_p1).
body(r_fr14_41,fr14_w2).
body(r_fr14_41,fr9_x1).
body(r_fr14_41,fr5_r2).
body(r_fr14_41,fr14_y3).
head(r_fr14_42,fr14_s1).
body(r_fr14_42,fr22_w6).
body(r_fr14_42,fr13_v2).
body(r_fr14_42,fr14_r3).
body(r_fr14_42,fr14_s3).
body(r_fr14_42,fr14_p1).
body(r_fr14_42,fr22_v6).
body(r_fr14_42,fr14_u3).
body(r_fr14_42,fr14_w3).
body(r_fr14_42,fr9_x1).
body(r_fr14_42,fr5_r2).
body(r_fr14_42,fr14_z2).
body(r_fr14_42,fr14_z3).
head(r_fr14_43,fr14_s1).
body(r_fr14_43,fr14_c3).
body(r_fr14_43,fr2_e2).
body(r_fr14_43,fr14_e2).
body(r_fr14_43,fr14_t1).
body(r_fr14_43,fr14_p1).
body(r_fr14_43,fr22_v6).
body(r_fr14_43,fr14_u3).
body(r_fr14_43,fr14_y3).
body(r_fr14_43,fr14_z2).
head(r_fr14_44,fr14_s1).
body(r_fr14_44,fr14_c3).
body(r_fr14_44,fr14_e2).
body(r_fr14_44,fr14_f1).
body(r_fr14_44,fr13_c1).
body(r_fr14_44,fr15_x3).
body(r_fr14_44,fr22_w6).
body(r_fr14_44,fr14_q3).
body(r_fr14_44,fr14_t1).
body(r_fr14_44,fr22_v6).
body(r_fr14_44,fr14_u3).
body(r_fr14_44,fr14_y3).
body(r_fr14_44,fr14_z2).
head(r_fr14_45,fr14_s1).
body(r_fr14_45,fr15_x3).
body(r_fr14_45,fr22_w6).
body(r_fr14_45,fr14_s2).
body(r_fr14_45,fr14_p1).
body(r_fr14_45,fr14_w2).
body(r_fr14_45,fr14_w3).
body(r_fr14_45,fr5_r2).
body(r_fr14_45,fr14_z1).
body(r_fr14_45,fr14_z2).
head(r_fr14_46,fr14_s1).
body(r_fr14_46,fr5_b3).
body(r_fr14_46,fr14_c3).
body(r_fr14_46,fr14_d1).
body(r_fr14_46,fr2_e2).
body(r_fr14_46,fr14_e2).
body(r_fr14_46,fr13_c1).
body(r_fr14_46,fr14_r3).
body(r_fr14_46,fr22_v6).
body(r_fr14_46,fr14_z2).
head(r_fr14_47,fr14_z2).
body(r_fr14_47,fr14_b2).
body(r_fr14_47,fr14_c1).
body(r_fr14_47,fr25_e2).
body(r_fr14_47,fr15_x3).
body(r_fr14_47,fr14_p1).
body(r_fr14_47,fr22_v6).
body(r_fr14_47,fr25_r3).
body(r_fr14_47,fr14_w2).
body(r_fr14_47,fr5_r2).
body(r_fr14_47,fr14_y3).
body(r_fr14_47,fr14_z1).
body(r_fr14_47,fr14_z3).
head(r_fr14_48,fr14_z2).
body(r_fr14_48,fr7_f1).
body(r_fr14_48,fr10_f2).
body(r_fr14_48,fr14_b2).
body(r_fr14_48,fr14_f1).
body(r_fr14_48,fr13_c1).
body(r_fr14_48,fr22_w6).
body(r_fr14_48,fr14_q3).
body(r_fr14_48,fr14_p1).
body(r_fr14_48,fr22_v6).
body(r_fr14_48,fr25_r3).
body(r_fr14_48,fr14_z1).
head(r_fr14_49,fr14_z2).
body(r_fr14_49,fr10_f2).
body(r_fr14_49,fr14_c2).
body(r_fr14_49,fr2_e2).
body(r_fr14_49,fr22_w6).
body(r_fr14_49,fr13_v2).
body(r_fr14_49,fr14_t1).
body(r_fr14_49,fr14_p1).
body(r_fr14_49,fr22_v6).
body(r_fr14_49,fr14_w3).
body(r_fr14_49,fr14_y3).
body(r_fr14_49,fr14_z1).
head(r_fr14_50,fr25_r3).
body(r_fr14_50,fr14_b2).
body(r_fr14_50,fr2_e2).
body(r_fr14_50,fr14_e2).
body(r_fr14_50,fr13_c1).
body(r_fr14_50,fr14_s3).
body(r_fr14_50,fr14_t1).
body(r_fr14_50,fr14_w2).
body(r_fr14_50,fr5_r2).
body(r_fr14_50,fr14_y3).
body(r_fr14_50,fr14_z3).
head(r_fr14_51,fr25_r3).
body(r_fr14_51,fr14_b1).
body(r_fr14_51,fr14_c1).
body(r_fr14_51,fr14_d1).
body(r_fr14_51,fr14_e2).
body(r_fr14_51,fr22_w6).
body(r_fr14_51,fr13_v2).
body(r_fr14_51,fr22_v6).
body(r_fr14_51,fr14_u3).
body(r_fr14_51,fr14_w2).
body(r_fr14_51,fr5_r2).
body(r_fr14_51,fr14_z1).
head(r_fr14_52,fr25_r3).
body(r_fr14_52,fr7_f1).
body(r_fr14_52,fr14_b1).
body(r_fr14_52,fr14_b2).
body(r_fr14_52,fr14_c1).
body(r_fr14_52,fr14_c2).
body(r_fr14_52,fr13_c1).
body(r_fr14_52,fr10_q1).
body(r_fr14_52,fr9_x1).
body(r_fr14_52,fr14_y3).
body(r_fr14_52,fr14_z1).
head(r_fr14_53,fr14_w2).
body(r_fr14_53,fr2_e2).
body(r_fr14_53,fr14_q3).
body(r_fr14_53,fr14_r3).
body(r_fr14_53,fr14_t1).
body(r_fr14_53,fr14_p1).
body(r_fr14_53,fr14_u3).
body(r_fr14_53,fr14_w3).
body(r_fr14_53,fr14_z1).
body(r_fr14_53,fr14_z3).
head(r_fr14_54,fr14_w2).
body(r_fr14_54,fr14_b3).
body(r_fr14_54,fr14_c3).
body(r_fr14_54,fr15_x3).
body(r_fr14_54,fr22_w6).
body(r_fr14_54,fr14_r3).
body(r_fr14_54,fr14_s3).
body(r_fr14_54,fr14_p1).
body(r_fr14_54,fr22_v6).
body(r_fr14_54,fr14_u3).
body(r_fr14_54,fr9_x1).
body(r_fr14_54,fr5_r2).
body(r_fr14_54,fr14_z3).
head(r_fr14_55,fr14_w3).
body(r_fr14_55,fr14_b1).
body(r_fr14_55,fr15_x3).
body(r_fr14_55,fr22_w6).
body(r_fr14_55,fr13_v2).
body(r_fr14_55,fr14_r3).
body(r_fr14_55,fr14_s2).
body(r_fr14_55,fr14_s3).
body(r_fr14_55,fr14_p1).
body(r_fr14_55,fr14_u3).
body(r_fr14_55,fr9_x1).
head(r_fr14_56,fr14_w3).
body(r_fr14_56,fr14_b1).
body(r_fr14_56,fr14_c1).
body(r_fr14_56,fr14_c2).
body(r_fr14_56,fr25_e2).
body(r_fr14_56,fr13_v2).
body(r_fr14_56,fr14_q3).
body(r_fr14_56,fr14_s2).
body(r_fr14_56,fr14_s3).
body(r_fr14_56,fr14_t1).
body(r_fr14_56,fr14_p1).
body(r_fr14_56,fr14_z1).
body(r_fr14_56,fr14_z3).
head(r_fr14_57,fr14_w3).
body(r_fr14_57,fr14_b1).
body(r_fr14_57,fr13_c1).
body(r_fr14_57,fr14_r3).
body(r_fr14_57,fr14_s2).
body(r_fr14_57,fr14_t1).
body(r_fr14_57,fr14_p1).
body(r_fr14_57,fr14_u3).
body(r_fr14_57,fr10_q1).
body(r_fr14_57,fr9_x1).
body(r_fr14_57,fr5_r2).
head(r_fr14_58,fr14_w3).
body(r_fr14_58,fr14_c2).
body(r_fr14_58,fr2_e2).
body(r_fr14_58,fr14_e2).
body(r_fr14_58,fr13_v2).
body(r_fr14_58,fr14_q3).
body(r_fr14_58,fr14_s2).
body(r_fr14_58,fr14_t1).
body(r_fr14_58,fr10_q1).
body(r_fr14_58,fr14_z3).
head(r_fr14_59,fr14_w3).
body(r_fr14_59,fr22_w6).
body(r_fr14_59,fr14_q3).
body(r_fr14_59,fr14_r3).
body(r_fr14_59,fr14_s2).
body(r_fr14_59,fr14_s3).
body(r_fr14_59,fr14_p1).
body(r_fr14_59,fr10_q1).
body(r_fr14_59,fr9_x1).
body(r_fr14_59,fr5_r2).
body(r_fr14_59,fr14_y3).
body(r_fr14_59,fr14_z3).
head(r_fr14_60,fr9_x1).
body(r_fr14_60,fr15_x3).
body(r_fr14_60,fr22_w6).
body(r_fr14_60,fr13_v2).
body(r_fr14_60,fr14_s2).
body(r_fr14_60,fr14_s3).
body(r_fr14_60,fr14_t1).
body(r_fr14_60,fr14_p1).
body(r_fr14_60,fr22_v6).
body(r_fr14_60,fr14_u3).
body(r_fr14_60,fr10_q1).
body(r_fr14_60,fr14_z1).
body(r_fr14_60,fr14_z3).
head(r_fr14_61,fr9_x1).
body(r_fr14_61,fr7_f1).
body(r_fr14_61,fr14_d1).
body(r_fr14_61,fr14_f1).
body(r_fr14_61,fr14_q3).
body(r_fr14_61,fr14_s2).
body(r_fr14_61,fr14_s3).
body(r_fr14_61,fr14_p1).
body(r_fr14_61,fr22_v6).
body(r_fr14_61,fr14_u3).
body(r_fr14_61,fr10_q1).
body(r_fr14_61,fr5_r2).
body(r_fr14_61,fr14_z3).
head(r_fr14_62,fr9_x1).
body(r_fr14_62,fr7_f1).
body(r_fr14_62,fr10_f2).
body(r_fr14_62,fr14_b3).
body(r_fr14_62,fr14_c1).
body(r_fr14_62,fr14_c2).
body(r_fr14_62,fr13_v2).
body(r_fr14_62,fr14_r3).
body(r_fr14_62,fr14_s2).
body(r_fr14_62,fr14_t1).
body(r_fr14_62,fr14_p1).
body(r_fr14_62,fr10_q1).
body(r_fr14_62,fr14_y3).
head(r_fr14_63,fr13_v2).
body(r_fr14_63,fr14_b1).
body(r_fr14_63,fr14_d1).
body(r_fr14_63,fr2_e2).
body(r_fr14_63,fr15_x3).
body(r_fr14_63,fr14_q3).
body(r_fr14_63,fr14_s3).
body(r_fr14_63,fr14_u3).
body(r_fr14_63,fr14_y3).
body(r_fr14_63,fr14_z1).
head(r_fr14_64,fr13_v2).
body(r_fr14_64,fr14_b1).
body(r_fr14_64,fr14_b2).
body(r_fr14_64,fr14_c1).
body(r_fr14_64,fr25_e2).
body(r_fr14_64,fr2_e2).
body(r_fr14_64,fr14_q3).
body(r_fr14_64,fr22_v6).
body(r_fr14_64,fr14_u3).
body(r_fr14_64,fr14_y3).
body(r_fr14_64,fr14_z1).
head(r_fr14_65,fr13_v2).
body(r_fr14_65,fr7_f1).
body(r_fr14_65,fr10_f2).
body(r_fr14_65,fr14_c3).
body(r_fr14_65,fr14_d1).
body(r_fr14_65,fr2_e2).
body(r_fr14_65,fr13_c1).
body(r_fr14_65,fr15_x3).
body(r_fr14_65,fr22_w6).
body(r_fr14_65,fr14_q3).
body(r_fr14_65,fr14_s2).
body(r_fr14_65,fr14_s3).
body(r_fr14_65,fr22_v6).
head(r_fr14_66,fr13_v2).
body(r_fr14_66,fr10_f2).
body(r_fr14_66,fr14_b3).
body(r_fr14_66,fr25_e2).
body(r_fr14_66,fr2_e2).
body(r_fr14_66,fr14_q3).
body(r_fr14_66,fr14_r3).
body(r_fr14_66,fr14_s3).
body(r_fr14_66,fr14_t1).
body(r_fr14_66,fr14_p1).
body(r_fr14_66,fr14_u3).
body(r_fr14_66,fr14_y3).
body(r_fr14_66,fr14_z1).

assumption(fr15_a1).
assumption(fr15_b1).
assumption(fr15_c1).
assumption(fr25_a3).
assumption(fr1_c1).
assumption(fr15_f1).
assumption(fr25_c2).
assumption(fr15_b2).
assumption(fr18_a1).
assumption(fr15_d2).
assumption(fr2_a1).
assumption(fr15_f2).
assumption(fr18_e1).
assumption(fr17_e4).
assumption(fr15_c3).
contrary(fr15_a1,fr15_v1).
contrary(fr25_c2,fr15_c1).
contrary(fr18_e1,fr15_r3).
contrary(fr15_b1,fr17_e4).
contrary(fr15_b2,fr1_c1).
contrary(fr17_e4,fr15_p1).
contrary(fr15_c1,fr15_x3).
contrary(fr18_a1,fr25_c2).
contrary(fr15_c3,fr17_e4).
contrary(fr25_a3,fr15_z3).
contrary(fr15_d2,fr25_c2).
contrary(fr1_c1,fr15_p3).
contrary(fr2_a1,fr25_r2).
contrary(fr15_f1,fr15_q4).
contrary(fr15_f2,fr25_r2).
head(r_fr15_0,fr15_u3).
body(r_fr15_0,fr15_a1).
body(r_fr15_0,fr25_c2).
body(r_fr15_0,fr15_b1).
body(r_fr15_0,fr15_p1).
body(r_fr15_0,fr15_p2).
body(r_fr15_0,fr15_q1).
body(r_fr15_0,fr15_q2).
body(r_fr15_0,fr17_s2).
body(r_fr15_0,fr15_r2).
body(r_fr15_0,fr15_r3).
body(r_fr15_0,fr15_u2).
body(r_fr15_0,fr15_x3).
head(r_fr15_1,fr15_u3).
body(r_fr15_1,fr15_a1).
body(r_fr15_1,fr25_c2).
body(r_fr15_1,fr15_c1).
body(r_fr15_1,fr1_c1).
body(r_fr15_1,fr15_p1).
body(r_fr15_1,fr17_s2).
body(r_fr15_1,fr25_r2).
body(r_fr15_1,fr15_r3).
body(r_fr15_1,fr25_p2).
body(r_fr15_1,fr15_v3).
body(r_fr15_1,fr15_y3).
body(r_fr15_1,fr15_z1).
head(r_fr15_2,fr15_s2).
body(r_fr15_2,fr15_p2).
body(r_fr15_2,fr15_p3).
body(r_fr15_2,fr15_p4).
body(r_fr15_2,fr17_s2).
body(r_fr15_2,fr15_q4).
body(r_fr15_2,fr15_r3).
body(r_fr15_2,fr15_u2).
body(r_fr15_2,fr15_v1).
body(r_fr15_2,fr15_x3).
body(r_fr15_2,fr15_y3).
body(r_fr15_2,fr15_z1).
head(r_fr15_3,fr15_s2).
body(r_fr15_3,fr15_a1).
body(r_fr15_3,fr15_b1).
body(r_fr15_3,fr1_c1).
body(r_fr15_3,fr15_q2).
body(r_fr15_3,fr17_s2).
body(r_fr15_3,fr15_s1).
body(r_fr15_3,fr25_p2).
body(r_fr15_3,fr3_s2).
body(r_fr15_3,fr15_x1).
body(r_fr15_3,fr15_y2).
body(r_fr15_3,fr15_z2).
head(r_fr15_4,fr15_s2).
body(r_fr15_4,fr15_p1).
body(r_fr15_4,fr17_s2).
body(r_fr15_4,fr15_s1).
body(r_fr15_4,fr25_p2).
body(r_fr15_4,fr15_u1).
body(r_fr15_4,fr15_u2).
body(r_fr15_4,fr15_v1).
body(r_fr15_4,fr15_v2).
body(r_fr15_4,fr15_w3).
body(r_fr15_4,fr15_x1).
body(r_fr15_4,fr15_y2).
body(r_fr15_4,fr15_z1).
head(r_fr15_5,fr15_s2).
body(r_fr15_5,fr25_c2).
body(r_fr15_5,fr15_b2).
body(r_fr15_5,fr15_c1).
body(r_fr15_5,fr15_p1).
body(r_fr15_5,fr15_p4).
body(r_fr15_5,fr15_q2).
body(r_fr15_5,fr15_q4).
body(r_fr15_5,fr15_r2).
body(r_fr15_5,fr15_w2).
body(r_fr15_5,fr15_y3).
head(r_fr15_6,fr15_x2).
body(r_fr15_6,fr25_c2).
body(r_fr15_6,fr15_b2).
body(r_fr15_6,fr2_a1).
body(r_fr15_6,fr15_f1).
body(r_fr15_6,fr15_f2).
body(r_fr15_6,fr15_p4).
body(r_fr15_6,fr15_q4).
body(r_fr15_6,fr15_r3).
body(r_fr15_6,fr15_v1).
body(r_fr15_6,fr15_v2).
body(r_fr15_6,fr15_w1).
head(r_fr15_7,fr15_x2).
body(r_fr15_7,fr15_p2).
body(r_fr15_7,fr15_q2).
body(r_fr15_7,fr17_s2).
body(r_fr15_7,fr15_s3).
body(r_fr15_7,fr15_v2).
body(r_fr15_7,fr15_v3).
body(r_fr15_7,fr15_w2).
body(r_fr15_7,fr15_x3).
body(r_fr15_7,fr15_y1).
body(r_fr15_7,fr15_y3).
body(r_fr15_7,fr15_z1).
head(r_fr15_8,fr15_v1).
body(r_fr15_8,fr15_p3).
body(r_fr15_8,fr17_s2).
body(r_fr15_8,fr15_q4).
body(r_fr15_8,fr15_s3).
body(r_fr15_8,fr15_u1).
body(r_fr15_8,fr15_v3).
body(r_fr15_8,fr15_w1).
body(r_fr15_8,fr15_w2).
body(r_fr15_8,fr15_w3).
body(r_fr15_8,fr15_y2).
body(r_fr15_8,fr15_y3).
body(r_fr15_8,fr15_z1).
head(r_fr15_9,fr15_v1).
body(r_fr15_9,fr25_c2).
body(r_fr15_9,fr17_e4).
body(r_fr15_9,fr15_c1).
body(r_fr15_9,fr15_c3).
body(r_fr15_9,fr15_q1).
body(r_fr15_9,fr15_q2).
body(r_fr15_9,fr15_q4).
body(r_fr15_9,fr25_p2).
body(r_fr15_9,fr15_t2).
body(r_fr15_9,fr15_y2).
body(r_fr15_9,fr15_z1).
head(r_fr15_10,fr15_r3).
body(r_fr15_10,fr25_c2).
body(r_fr15_10,fr15_b1).
body(r_fr15_10,fr15_c3).
body(r_fr15_10,fr15_d2).
body(r_fr15_10,fr15_p3).
body(r_fr15_10,fr15_q1).
body(r_fr15_10,fr15_s1).
body(r_fr15_10,fr25_p2).
body(r_fr15_10,fr3_s2).
body(r_fr15_10,fr15_u2).
body(r_fr15_10,fr15_v2).
body(r_fr15_10,fr15_x1).
head(r_fr15_11,fr15_r3).
body(r_fr15_11,fr1_c1).
body(r_fr15_11,fr15_f2).
body(r_fr15_11,fr15_p1).
body(r_fr15_11,fr15_p3).
body(r_fr15_11,fr15_q2).
body(r_fr15_11,fr25_r2).
body(r_fr15_11,fr15_r2).
body(r_fr15_11,fr3_s2).
body(r_fr15_11,fr15_v3).
head(r_fr15_12,fr15_r3).
body(r_fr15_12,fr15_a1).
body(r_fr15_12,fr18_e1).
body(r_fr15_12,fr1_c1).
body(r_fr15_12,fr17_s2).
body(r_fr15_12,fr25_r2).
body(r_fr15_12,fr25_p2).
body(r_fr15_12,fr15_w1).
body(r_fr15_12,fr15_w3).
body(r_fr15_12,fr15_y1).
body(r_fr15_12,fr15_z3).
head(r_fr15_13,fr15_x3).
body(r_fr15_13,fr15_p4).
body(r_fr15_13,fr15_s1).
body(r_fr15_13,fr3_s2).
body(r_fr15_13,fr15_u1).
body(r_fr15_13,fr15_v3).
body(r_fr15_13,fr15_w1).
body(r_fr15_13,fr15_w2).
body(r_fr15_13,fr15_y1).
body(r_fr15_13,fr15_y2).
body(r_fr15_13,fr15_y3).
body(r_fr15_13,fr15_z1).
head(r_fr15_14,fr15_x3).
body(r_fr15_14,fr25_c2).
body(r_fr15_14,fr25_a3).
body(r_fr15_14,fr1_c1).
body(r_fr15_14,fr15_p1).
body(r_fr15_14,fr15_p3).
body(r_fr15_14,fr15_s3).
body(r_fr15_14,fr15_t2).
body(r_fr15_14,fr3_s2).
body(r_fr15_14,fr15_u2).
body(r_fr15_14,fr15_w2).
body(r_fr15_14,fr15_z1).
body(r_fr15_14,fr15_z2).
head(r_fr15_15,fr15_x3).
body(r_fr15_15,fr18_a1).
body(r_fr15_15,fr25_a3).
body(r_fr15_15,fr1_c1).
body(r_fr15_15,fr15_f1).
body(r_fr15_15,fr15_q1).
body(r_fr15_15,fr17_s2).
body(r_fr15_15,fr25_r2).
body(r_fr15_15,fr25_p2).
body(r_fr15_15,fr15_u2).
body(r_fr15_15,fr15_v2).
body(r_fr15_15,fr15_w3).
body(r_fr15_15,fr15_y1).
head(r_fr15_16,fr15_x3).
body(r_fr15_16,fr15_a1).
body(r_fr15_16,fr25_c2).
body(r_fr15_16,fr15_d2).
body(r_fr15_16,fr2_a1).
body(r_fr15_16,fr15_f2).
body(r_fr15_16,fr15_p3).
body(r_fr15_16,fr15_q2).
body(r_fr15_16,fr25_r2).
body(r_fr15_16,fr15_u1).
body(r_fr15_16,fr15_x1).
body(r_fr15_16,fr15_z2).
head(r_fr15_17,fr15_y1).
body(r_fr15_17,fr15_p4).
body(r_fr15_17,fr15_q4).
body(r_fr15_17,fr25_r2).
body(r_fr15_17,fr15_s3).
body(r_fr15_17,fr15_t2).
body(r_fr15_17,fr3_s2).
body(r_fr15_17,fr15_v2).
body(r_fr15_17,fr15_w2).
body(r_fr15_17,fr15_y2).
body(r_fr15_17,fr15_z3).
head(r_fr15_18,fr15_y1).
body(r_fr15_18,fr15_a1).
body(r_fr15_18,fr18_a1).
body(r_fr15_18,fr15_c3).
body(r_fr15_18,fr15_f1).
body(r_fr15_18,fr15_f2).
body(r_fr15_18,fr15_p1).
body(r_fr15_18,fr15_w3).
body(r_fr15_18,fr15_y3).
body(r_fr15_18,fr15_z2).
head(r_fr15_19,fr15_y1).
body(r_fr15_19,fr15_a1).
body(r_fr15_19,fr25_c2).
body(r_fr15_19,fr15_c1).
body(r_fr15_19,fr15_f1).
body(r_fr15_19,fr15_p1).
body(r_fr15_19,fr15_r2).
body(r_fr15_19,fr25_p2).
body(r_fr15_19,fr15_w1).
body(r_fr15_19,fr15_z3).
head(r_fr15_20,fr15_y1).
body(r_fr15_20,fr18_e1).
body(r_fr15_20,fr15_b2).
body(r_fr15_20,fr18_a1).
body(r_fr15_20,fr15_c3).
body(r_fr15_20,fr1_c1).
body(r_fr15_20,fr2_a1).
body(r_fr15_20,fr15_q2).
body(r_fr15_20,fr17_s2).
body(r_fr15_20,fr25_r2).
body(r_fr15_20,fr15_r2).
body(r_fr15_20,fr15_u1).
head(r_fr15_21,fr15_p2).
body(r_fr15_21,fr18_e1).
body(r_fr15_21,fr15_p1).
body(r_fr15_21,fr15_q4).
body(r_fr15_21,fr15_r2).
body(r_fr15_21,fr15_s1).
body(r_fr15_21,fr25_p2).
body(r_fr15_21,fr15_t2).
body(r_fr15_21,fr15_w2).
body(r_fr15_21,fr15_y2).
body(r_fr15_21,fr15_y3).
head(r_fr15_22,fr15_p2).
body(r_fr15_22,fr25_c2).
body(r_fr15_22,fr17_e4).
body(r_fr15_22,fr18_a1).
body(r_fr15_22,fr15_c3).
body(r_fr15_22,fr1_c1).
body(r_fr15_22,fr25_r2).
body(r_fr15_22,fr15_t2).
body(r_fr15_22,fr15_x1).
body(r_fr15_22,fr15_y2).
head(r_fr15_23,fr15_p2).
body(r_fr15_23,fr15_p4).
body(r_fr15_23,fr15_q1).
body(r_fr15_23,fr17_s2).
body(r_fr15_23,fr25_p2).
body(r_fr15_23,fr15_t2).
body(r_fr15_23,fr15_u1).
body(r_fr15_23,fr15_u2).
body(r_fr15_23,fr15_w3).
body(r_fr15_23,fr15_x1).
body(r_fr15_23,fr15_y3).
body(r_fr15_23,fr15_z1).
body(r_fr15_23,fr15_z3).
head(r_fr15_24,fr15_p2).
body(r_fr15_24,fr15_p3).
body(r_fr15_24,fr15_p4).
body(r_fr15_24,fr25_r2).
body(r_fr15_24,fr25_p2).
body(r_fr15_24,fr15_t2).
body(r_fr15_24,fr15_v3).
body(r_fr15_24,fr15_w1).
body(r_fr15_24,fr15_w2).
body(r_fr15_24,fr15_y2).
body(r_fr15_24,fr15_z3).
head(r_fr15_25,fr15_p2).
body(r_fr15_25,fr15_b1).
body(r_fr15_25,fr18_a1).
body(r_fr15_25,fr15_c3).
body(r_fr15_25,fr2_a1).
body(r_fr15_25,fr15_p1).
body(r_fr15_25,fr15_q4).
body(r_fr15_25,fr15_s3).
body(r_fr15_25,fr15_t2).
body(r_fr15_25,fr15_w3).
body(r_fr15_25,fr15_z3).
head(r_fr15_26,fr15_p3).
body(r_fr15_26,fr25_c2).
body(r_fr15_26,fr17_e4).
body(r_fr15_26,fr15_c3).
body(r_fr15_26,fr15_d2).
body(r_fr15_26,fr15_f1).
body(r_fr15_26,fr15_f2).
body(r_fr15_26,fr15_p4).
body(r_fr15_26,fr17_s2).
body(r_fr15_26,fr15_r2).
body(r_fr15_26,fr15_t2).
head(r_fr15_27,fr15_p3).
body(r_fr15_27,fr15_b1).
body(r_fr15_27,fr17_e4).
body(r_fr15_27,fr25_a3).
body(r_fr15_27,fr17_s2).
body(r_fr15_27,fr3_s2).
body(r_fr15_27,fr15_u1).
body(r_fr15_27,fr15_u2).
body(r_fr15_27,fr15_x1).
body(r_fr15_27,fr15_y2).
head(r_fr15_28,fr15_p3).
body(r_fr15_28,fr17_s2).
body(r_fr15_28,fr15_q4).
body(r_fr15_28,fr25_p2).
body(r_fr15_28,fr15_t2).
body(r_fr15_28,fr15_u2).
body(r_fr15_28,fr15_v2).
body(r_fr15_28,fr15_v3).
body(r_fr15_28,fr15_w1).
body(r_fr15_28,fr15_w3).
body(r_fr15_28,fr15_y2).
body(r_fr15_28,fr15_y3).
body(r_fr15_28,fr15_z2).
head(r_fr15_29,fr15_q2).
body(r_fr15_29,fr15_a1).
body(r_fr15_29,fr25_c2).
body(r_fr15_29,fr17_s2).
body(r_fr15_29,fr15_v3).
body(r_fr15_29,fr15_w3).
body(r_fr15_29,fr15_y2).
body(r_fr15_29,fr15_z1).
body(r_fr15_29,fr15_z2).
body(r_fr15_29,fr15_z3).
head(r_fr15_30,fr15_q2).
body(r_fr15_30,fr18_e1).
body(r_fr15_30,fr17_e4).
body(r_fr15_30,fr15_c1).
body(r_fr15_30,fr18_a1).
body(r_fr15_30,fr15_d2).
body(r_fr15_30,fr15_q4).
body(r_fr15_30,fr15_u1).
body(r_fr15_30,fr15_y2).
body(r_fr15_30,fr15_z2).
head(r_fr15_31,fr15_q1).
body(r_fr15_31,fr2_a1).
body(r_fr15_31,fr17_s2).
body(r_fr15_31,fr25_r2).
body(r_fr15_31,fr25_p2).
body(r_fr15_31,fr15_t2).
body(r_fr15_31,fr15_u1).
body(r_fr15_31,fr15_u2).
body(r_fr15_31,fr15_w3).
body(r_fr15_31,fr15_y2).
head(r_fr15_32,fr15_q1).
body(r_fr15_32,fr25_c2).
body(r_fr15_32,fr15_p4).
body(r_fr15_32,fr15_r2).
body(r_fr15_32,fr25_p2).
body(r_fr15_32,fr15_t2).
body(r_fr15_32,fr3_s2).
body(r_fr15_32,fr15_v3).
body(r_fr15_32,fr15_w1).
body(r_fr15_32,fr15_x1).
body(r_fr15_32,fr15_y3).
body(r_fr15_32,fr15_z1).
head(r_fr15_33,fr15_y3).
body(r_fr15_33,fr15_p1).
body(r_fr15_33,fr17_s2).
body(r_fr15_33,fr15_s1).
body(r_fr15_33,fr15_s3).
body(r_fr15_33,fr15_u2).
body(r_fr15_33,fr15_v3).
body(r_fr15_33,fr15_w1).
body(r_fr15_33,fr15_w3).
body(r_fr15_33,fr15_x1).
body(r_fr15_33,fr15_z3).
head(r_fr15_34,fr15_y3).
body(r_fr15_34,fr15_c1).
body(r_fr15_34,fr15_c3).
body(r_fr15_34,fr15_d2).
body(r_fr15_34,fr1_c1).
body(r_fr15_34,fr2_a1).
body(r_fr15_34,fr15_s1).
body(r_fr15_34,fr15_t2).
body(r_fr15_34,fr15_v3).
body(r_fr15_34,fr15_w3).
head(r_fr15_35,fr15_y3).
body(r_fr15_35,fr17_e4).
body(r_fr15_35,fr15_c1).
body(r_fr15_35,fr15_d2).
body(r_fr15_35,fr15_f1).
body(r_fr15_35,fr15_f2).
body(r_fr15_35,fr15_s1).
body(r_fr15_35,fr15_u2).
body(r_fr15_35,fr15_v2).
body(r_fr15_35,fr15_w1).
body(r_fr15_35,fr15_z2).
body(r_fr15_35,fr15_z3).
head(r_fr15_36,fr15_y3).
body(r_fr15_36,fr25_a3).
body(r_fr15_36,fr2_a1).
body(r_fr15_36,fr15_f1).
body(r_fr15_36,fr15_f2).
body(r_fr15_36,fr15_p1).
body(r_fr15_36,fr17_s2).
body(r_fr15_36,fr25_r2).
body(r_fr15_36,fr15_r2).
body(r_fr15_36,fr3_s2).
body(r_fr15_36,fr15_v3).
body(r_fr15_36,fr15_y2).
body(r_fr15_36,fr15_z3).
head(r_fr15_37,fr25_r2).
body(r_fr15_37,fr15_a1).
body(r_fr15_37,fr25_c2).
body(r_fr15_37,fr18_a1).
body(r_fr15_37,fr1_c1).
body(r_fr15_37,fr15_f1).
body(r_fr15_37,fr15_p1).
body(r_fr15_37,fr15_v2).
body(r_fr15_37,fr15_w3).
body(r_fr15_37,fr15_y2).
body(r_fr15_37,fr15_z1).
head(r_fr15_38,fr25_r2).
body(r_fr15_38,fr25_c2).
body(r_fr15_38,fr18_e1).
body(r_fr15_38,fr17_e4).
body(r_fr15_38,fr18_a1).
body(r_fr15_38,fr15_d2).
body(r_fr15_38,fr1_c1).
body(r_fr15_38,fr17_s2).
body(r_fr15_38,fr15_s1).
body(r_fr15_38,fr15_v2).
body(r_fr15_38,fr15_z1).
head(r_fr15_39,fr25_r2).
body(r_fr15_39,fr25_c2).
body(r_fr15_39,fr15_b2).
body(r_fr15_39,fr15_c1).
body(r_fr15_39,fr18_a1).
body(r_fr15_39,fr1_c1).
body(r_fr15_39,fr15_f1).
body(r_fr15_39,fr15_s1).
body(r_fr15_39,fr15_v3).
body(r_fr15_39,fr15_w3).
head(r_fr15_40,fr25_r2).
body(r_fr15_40,fr15_b1).
body(r_fr15_40,fr17_e4).
body(r_fr15_40,fr25_a3).
body(r_fr15_40,fr1_c1).
body(r_fr15_40,fr2_a1).
body(r_fr15_40,fr15_p1).
body(r_fr15_40,fr25_p2).
body(r_fr15_40,fr15_u1).
body(r_fr15_40,fr15_x1).
body(r_fr15_40,fr15_y2).
body(r_fr15_40,fr15_z3).
head(r_fr15_41,fr25_r2).
body(r_fr15_41,fr18_e1).
body(r_fr15_41,fr15_p4).
body(r_fr15_41,fr3_s2).
body(r_fr15_41,fr15_v2).
body(r_fr15_41,fr15_v3).
body(r_fr15_41,fr15_w1).
body(r_fr15_41,fr15_w2).
body(r_fr15_41,fr15_z1).
body(r_fr15_41,fr15_z3).
head(r_fr15_42,fr15_t2).
body(r_fr15_42,fr18_e1).
body(r_fr15_42,fr15_c1).
body(r_fr15_42,fr15_d2).
body(r_fr15_42,fr1_c1).
body(r_fr15_42,fr15_p1).
body(r_fr15_42,fr15_p4).
body(r_fr15_42,fr17_s2).
body(r_fr15_42,fr15_q4).
body(r_fr15_42,fr25_p2).
body(r_fr15_42,fr15_u2).
body(r_fr15_42,fr15_w2).
head(r_fr15_43,fr15_t2).
body(r_fr15_43,fr15_p1).
body(r_fr15_43,fr17_s2).
body(r_fr15_43,fr15_q4).
body(r_fr15_43,fr15_r2).
body(r_fr15_43,fr15_s1).
body(r_fr15_43,fr15_s3).
body(r_fr15_43,fr15_u2).
body(r_fr15_43,fr15_v2).
body(r_fr15_43,fr15_w1).
body(r_fr15_43,fr15_x1).
body(r_fr15_43,fr15_z1).
body(r_fr15_43,fr15_z3).
head(r_fr15_44,fr15_t2).
body(r_fr15_44,fr15_f2).
body(r_fr15_44,fr15_q4).
body(r_fr15_44,fr15_r2).
body(r_fr15_44,fr15_s1).
body(r_fr15_44,fr25_p2).
body(r_fr15_44,fr3_s2).
body(r_fr15_44,fr15_u1).
body(r_fr15_44,fr15_u2).
body(r_fr15_44,fr15_v3).
body(r_fr15_44,fr15_z3).
head(r_fr15_45,fr15_t2).
body(r_fr15_45,fr15_p1).
body(r_fr15_45,fr15_p4).
body(r_fr15_45,fr15_r2).
body(r_fr15_45,fr15_s1).
body(r_fr15_45,fr15_s3).
body(r_fr15_45,fr25_p2).
body(r_fr15_45,fr3_s2).
body(r_fr15_45,fr15_u2).
body(r_fr15_45,fr15_w1).
body(r_fr15_45,fr15_y2).
body(r_fr15_45,fr15_z1).
body(r_fr15_45,fr15_z3).
head(r_fr15_46,fr15_t2).
body(r_fr15_46,fr25_c2).
body(r_fr15_46,fr15_d2).
body(r_fr15_46,fr15_p4).
body(r_fr15_46,fr17_s2).
body(r_fr15_46,fr15_s1).
body(r_fr15_46,fr15_v3).
body(r_fr15_46,fr15_w2).
body(r_fr15_46,fr15_x1).
body(r_fr15_46,fr15_z1).
body(r_fr15_46,fr15_z3).
head(r_fr15_47,fr15_z1).
body(r_fr15_47,fr15_a1).
body(r_fr15_47,fr18_e1).
body(r_fr15_47,fr17_e4).
body(r_fr15_47,fr18_a1).
body(r_fr15_47,fr15_d2).
body(r_fr15_47,fr2_a1).
body(r_fr15_47,fr25_p2).
body(r_fr15_47,fr15_u2).
body(r_fr15_47,fr15_v3).
body(r_fr15_47,fr15_w3).
body(r_fr15_47,fr15_y2).
body(r_fr15_47,fr15_z2).
head(r_fr15_48,fr15_z1).
body(r_fr15_48,fr18_e1).
body(r_fr15_48,fr1_c1).
body(r_fr15_48,fr2_a1).
body(r_fr15_48,fr15_f1).
body(r_fr15_48,fr15_s3).
body(r_fr15_48,fr15_u1).
body(r_fr15_48,fr15_w1).
body(r_fr15_48,fr15_x1).
body(r_fr15_48,fr15_z2).
head(r_fr15_49,fr15_z1).
body(r_fr15_49,fr18_e1).
body(r_fr15_49,fr15_c1).
body(r_fr15_49,fr15_c3).
body(r_fr15_49,fr25_a3).
body(r_fr15_49,fr2_a1).
body(r_fr15_49,fr15_f2).
body(r_fr15_49,fr15_p1).
body(r_fr15_49,fr15_p4).
body(r_fr15_49,fr15_w2).
body(r_fr15_49,fr15_z2).
head(r_fr15_50,fr25_p2).
body(r_fr15_50,fr15_b1).
body(r_fr15_50,fr25_a3).
body(r_fr15_50,fr1_c1).
body(r_fr15_50,fr15_f2).
body(r_fr15_50,fr15_q4).
body(r_fr15_50,fr15_s1).
body(r_fr15_50,fr15_s3).
body(r_fr15_50,fr15_u1).
body(r_fr15_50,fr15_w1).
body(r_fr15_50,fr15_w3).
body(r_fr15_50,fr15_y2).
head(r_fr15_51,fr25_p2).
body(r_fr15_51,fr15_c1).
body(r_fr15_51,fr15_p1).
body(r_fr15_51,fr17_s2).
body(r_fr15_51,fr15_s3).
body(r_fr15_51,fr15_u2).
body(r_fr15_51,fr15_v2).
body(r_fr15_51,fr15_v3).
body(r_fr15_51,fr15_w1).
body(r_fr15_51,fr15_w2).
body(r_fr15_51,fr15_w3).
head(r_fr15_52,fr15_u1).
body(r_fr15_52,fr25_c2).
body(r_fr15_52,fr15_b1).
body(r_fr15_52,fr15_d2).
body(r_fr15_52,fr15_f1).
body(r_fr15_52,fr15_f2).
body(r_fr15_52,fr15_p4).
body(r_fr15_52,fr17_s2).
body(r_fr15_52,fr15_q4).
body(r_fr15_52,fr15_u2).
body(r_fr15_52,fr15_v2).
body(r_fr15_52,fr15_x1).
head(r_fr15_53,fr15_u1).
body(r_fr15_53,fr15_a1).
body(r_fr15_53,fr15_d2).
body(r_fr15_53,fr2_a1).
body(r_fr15_53,fr15_p1).
body(r_fr15_53,fr17_s2).
body(r_fr15_53,fr15_u2).
body(r_fr15_53,fr15_w1).
body(r_fr15_53,fr15_w2).
body(r_fr15_53,fr15_x1).
body(r_fr15_53,fr15_z3).
head(r_fr15_54,fr15_v2).
body(r_fr15_54,fr15_p4).
body(r_fr15_54,fr17_s2).
body(r_fr15_54,fr15_q4).
body(r_fr15_54,fr15_r2).
body(r_fr15_54,fr15_s3).
body(r_fr15_54,fr15_v3).
body(r_fr15_54,fr15_w1).
body(r_fr15_54,fr15_w2).
body(r_fr15_54,fr15_w3).
body(r_fr15_54,fr15_y2).
body(r_fr15_54,fr15_z2).
body(r_fr15_54,fr15_z3).
head(r_fr15_55,fr15_v2).
body(r_fr15_55,fr18_e1).
body(r_fr15_55,fr15_c1).
body(r_fr15_55,fr15_c3).
body(r_fr15_55,fr15_f1).
body(r_fr15_55,fr15_f2).
body(r_fr15_55,fr15_q4).
body(r_fr15_55,fr15_s1).
body(r_fr15_55,fr15_w2).
body(r_fr15_55,fr15_z2).
head(r_fr15_56,fr15_z3).
body(r_fr15_56,fr18_e1).
body(r_fr15_56,fr15_p4).
body(r_fr15_56,fr17_s2).
body(r_fr15_56,fr15_q4).
body(r_fr15_56,fr15_r2).
body(r_fr15_56,fr15_s1).
body(r_fr15_56,fr15_s3).
body(r_fr15_56,fr3_s2).
body(r_fr15_56,fr15_v3).
body(r_fr15_56,fr15_w1).
body(r_fr15_56,fr15_y2).
body(r_fr15_56,fr15_z2).
head(r_fr15_57,fr15_z3).
body(r_fr15_57,fr25_a3).
body(r_fr15_57,fr2_a1).
body(r_fr15_57,fr15_p1).
body(r_fr15_57,fr15_q4).
body(r_fr15_57,fr15_s3).
body(r_fr15_57,fr15_w1).
body(r_fr15_57,fr15_w2).
body(r_fr15_57,fr15_w3).
body(r_fr15_57,fr15_x1).
head(r_fr15_58,fr15_z3).
body(r_fr15_58,fr25_c2).
body(r_fr15_58,fr18_e1).
body(r_fr15_58,fr15_d2).
body(r_fr15_58,fr1_c1).
body(r_fr15_58,fr15_p4).
body(r_fr15_58,fr15_q4).
body(r_fr15_58,fr15_s3).
body(r_fr15_58,fr3_s2).
body(r_fr15_58,fr15_u2).
body(r_fr15_58,fr15_v3).
body(r_fr15_58,fr15_w3).
body(r_fr15_58,fr15_y2).
head(r_fr15_59,fr15_z3).
body(r_fr15_59,fr15_b1).
body(r_fr15_59,fr1_c1).
body(r_fr15_59,fr15_f2).
body(r_fr15_59,fr15_p1).
body(r_fr15_59,fr15_p4).
body(r_fr15_59,fr17_s2).
body(r_fr15_59,fr15_q4).
body(r_fr15_59,fr15_s3).
body(r_fr15_59,fr15_u2).
head(r_fr15_60,fr15_z3).
body(r_fr15_60,fr15_a1).
body(r_fr15_60,fr25_c2).
body(r_fr15_60,fr15_b1).
body(r_fr15_60,fr15_c3).
body(r_fr15_60,fr25_a3).
body(r_fr15_60,fr15_d2).
body(r_fr15_60,fr15_p4).
body(r_fr15_60,fr15_q4).
body(r_fr15_60,fr15_s1).
body(r_fr15_60,fr15_w1).
head(r_fr15_61,fr15_s3).
body(r_fr15_61,fr25_c2).
body(r_fr15_61,fr15_b2).
body(r_fr15_61,fr15_f2).
body(r_fr15_61,fr15_p1).
body(r_fr15_61,fr15_p4).
body(r_fr15_61,fr15_s1).
body(r_fr15_61,fr3_s2).
body(r_fr15_61,fr15_v3).
body(r_fr15_61,fr15_w1).
body(r_fr15_61,fr15_w2).
body(r_fr15_61,fr15_w3).
body(r_fr15_61,fr15_z2).
head(r_fr15_62,fr15_s3).
body(r_fr15_62,fr18_e1).
body(r_fr15_62,fr15_b1).
body(r_fr15_62,fr15_c1).
body(r_fr15_62,fr1_c1).
body(r_fr15_62,fr2_a1).
body(r_fr15_62,fr15_f2).
body(r_fr15_62,fr15_p1).
body(r_fr15_62,fr15_r2).
body(r_fr15_62,fr15_v3).
body(r_fr15_62,fr15_w3).
body(r_fr15_62,fr15_y2).

assumption(fr6_d1).
assumption(fr14_c2).
assumption(fr16_c1).
assumption(fr16_d1).
assumption(fr16_e1).
assumption(fr16_f1).
assumption(fr9_c1).
assumption(fr16_b2).
assumption(fr15_a1).
assumption(fr16_d2).
assumption(fr13_d1).
assumption(fr23_e1).
assumption(fr16_a3).
assumption(fr16_b3).
assumption(fr16_c3).
assumption(fr16_d3).
assumption(fr25_e2).
assumption(fr16_f3).
contrary(fr6_d1,fr16_a3).
contrary(fr9_c1,fr16_u3).
contrary(fr16_a3,fr16_w3).
contrary(fr14_c2,fr6_d1).
contrary(fr16_b2,fr16_c3).
contrary(fr16_b3,fr23_e1).
contrary(fr16_c1,fr6_d1).
contrary(fr15_a1,fr16_b2).
contrary(fr16_c3,fr16_q1).
contrary(fr16_d1,fr16_d3).
contrary(fr16_d2,fr16_p1).
contrary(fr16_d3,fr13_d1).
contrary(fr16_e1,fr6_d1).
contrary(fr13_d1,fr16_c1).
contrary(fr25_e2,fr6_d1).
contrary(fr16_f1,fr16_t1).
contrary(fr23_e1,fr16_y1).
contrary(fr16_f3,fr16_p3).
head(r_fr16_0,fr16_q1).
body(r_fr16_0,fr16_p3).
body(r_fr16_0,fr23_u3).
body(r_fr16_0,fr16_s1).
body(r_fr16_0,fr16_x1).
head(r_fr16_1,fr16_q1).
body(r_fr16_1,fr16_e1).
body(r_fr16_1,fr15_s1).
head(r_fr16_2,fr16_q1).
body(r_fr16_2,fr9_c1).
body(r_fr16_2,fr16_a3).
body(r_fr16_2,fr16_b2).
body(r_fr16_2,fr16_c3).
body(r_fr16_2,fr16_e1).
body(r_fr16_2,fr16_f1).
body(r_fr16_2,fr16_f3).
head(r_fr16_3,fr16_q1).
head(r_fr16_4,fr16_w1).
body(r_fr16_4,fr16_b2).
body(r_fr16_4,fr16_c3).
body(r_fr16_4,fr16_q1).
body(r_fr16_4,fr16_x2).
body(r_fr16_4,fr16_z2).
head(r_fr16_5,fr16_w1).
body(r_fr16_5,fr16_a3).
body(r_fr16_5,fr16_c1).
body(r_fr16_5,fr16_d1).
body(r_fr16_5,fr13_d1).
body(r_fr16_5,fr16_f3).
head(r_fr16_6,fr16_w1).
body(r_fr16_6,fr16_b2).
body(r_fr16_6,fr16_x2).
head(r_fr16_7,fr16_w1).
body(r_fr16_7,fr15_a1).
body(r_fr16_7,fr16_u1).
head(r_fr16_8,fr16_w1).
head(r_fr16_9,fr16_w1).
body(r_fr16_9,fr25_e2).
body(r_fr16_9,fr14_v3).
head(r_fr16_10,fr16_z2).
body(r_fr16_10,fr14_c2).
body(r_fr16_10,fr16_c1).
body(r_fr16_10,fr13_d1).
body(r_fr16_10,fr25_e2).
body(r_fr16_10,fr15_r2).
head(r_fr16_11,fr16_z2).
body(r_fr16_11,fr9_c1).
body(r_fr16_11,fr15_a1).
body(r_fr16_11,fr16_c3).
body(r_fr16_11,fr25_e2).
body(r_fr16_11,fr16_f1).
body(r_fr16_11,fr16_f3).
body(r_fr16_11,fr9_q3).
head(r_fr16_12,fr16_z2).
body(r_fr16_12,fr16_e1).
body(r_fr16_12,fr23_u3).
body(r_fr16_12,fr16_u2).
body(r_fr16_12,fr16_w3).
head(r_fr16_13,fr16_v2).
body(r_fr16_13,fr16_f1).
body(r_fr16_13,fr16_p3).
head(r_fr16_14,fr16_v2).
body(r_fr16_14,fr16_d1).
body(r_fr16_14,fr16_p3).
head(r_fr16_15,fr16_v2).
body(r_fr16_15,fr14_c2).
body(r_fr16_15,fr16_f3).
head(r_fr16_16,fr16_v2).
head(r_fr16_17,fr16_v2).
body(r_fr16_17,fr16_b2).
body(r_fr16_17,fr16_c1).
body(r_fr16_17,fr16_d3).
body(r_fr16_17,fr16_q2).
body(r_fr16_17,fr16_u2).
body(r_fr16_17,fr16_x1).
head(r_fr16_18,fr16_x1).
body(r_fr16_18,fr16_c1).
body(r_fr16_18,fr13_d1).
body(r_fr16_18,fr16_s1).
body(r_fr16_18,fr9_q3).
body(r_fr16_18,fr14_v3).
body(r_fr16_18,fr16_v2).
body(r_fr16_18,fr16_y1).
head(r_fr16_19,fr16_x1).
body(r_fr16_19,fr10_q1).
head(r_fr16_20,fr16_x1).
body(r_fr16_20,fr16_b2).
body(r_fr16_20,fr16_f3).
body(r_fr16_20,fr16_t1).
head(r_fr16_21,fr16_r2).
body(r_fr16_21,fr16_w2).
head(r_fr16_22,fr16_r2).
body(r_fr16_22,fr16_c1).
body(r_fr16_22,fr15_a1).
body(r_fr16_22,fr16_e1).
body(r_fr16_22,fr25_e2).
body(r_fr16_22,fr16_p1).
body(r_fr16_22,fr16_q1).
head(r_fr16_23,fr10_q1).
body(r_fr16_23,fr25_e2).
body(r_fr16_23,fr16_q2).
body(r_fr16_23,fr16_s1).
body(r_fr16_23,fr14_v3).
body(r_fr16_23,fr16_w3).
head(r_fr16_24,fr10_q1).
body(r_fr16_24,fr15_a1).
body(r_fr16_24,fr16_q1).
body(r_fr16_24,fr16_q2).
body(r_fr16_24,fr16_r2).
body(r_fr16_24,fr16_s1).
body(r_fr16_24,fr16_u2).
head(r_fr16_25,fr13_q2).
body(r_fr16_25,fr16_b2).
body(r_fr16_25,fr23_e1).
body(r_fr16_25,fr16_u1).
body(r_fr16_25,fr16_v2).
body(r_fr16_25,fr16_w2).
body(r_fr16_25,fr16_w3).
body(r_fr16_25,fr10_q1).
head(r_fr16_26,fr13_q2).
head(r_fr16_27,fr13_q2).
body(r_fr16_27,fr9_c1).
body(r_fr16_27,fr16_p2).
body(r_fr16_27,fr16_w1).
body(r_fr16_27,fr23_z2).
body(r_fr16_27,fr10_q1).
head(r_fr16_28,fr13_q2).
body(r_fr16_28,fr16_a3).
body(r_fr16_28,fr16_c1).
head(r_fr16_29,fr13_q2).
body(r_fr16_29,fr6_d1).
body(r_fr16_29,fr14_c2).
body(r_fr16_29,fr16_b2).
body(r_fr16_29,fr16_c3).
body(r_fr16_29,fr16_d1).
body(r_fr16_29,fr16_f1).
body(r_fr16_29,fr16_t1).
head(r_fr16_30,fr13_q2).
body(r_fr16_30,fr16_p1).
body(r_fr16_30,fr16_v2).
body(r_fr16_30,fr16_w2).
body(r_fr16_30,fr16_y1).
head(r_fr16_31,fr15_s1).
body(r_fr16_31,fr9_c1).
body(r_fr16_31,fr16_c3).
body(r_fr16_31,fr13_d1).
head(r_fr16_32,fr15_s1).
body(r_fr16_32,fr15_a1).
body(r_fr16_32,fr16_p3).
body(r_fr16_32,fr16_q2).
body(r_fr16_32,fr23_u3).
head(r_fr16_33,fr15_s1).
body(r_fr16_33,fr16_a3).
body(r_fr16_33,fr16_b2).
head(r_fr16_34,fr16_w3).
body(r_fr16_34,fr16_p1).
body(r_fr16_34,fr16_s1).
body(r_fr16_34,fr15_r2).
body(r_fr16_34,fr10_q1).
head(r_fr16_35,fr16_w3).
body(r_fr16_35,fr9_c1).
body(r_fr16_35,fr16_b3).
body(r_fr16_35,fr23_e1).
body(r_fr16_35,fr14_r2).
head(r_fr16_36,fr16_w3).
body(r_fr16_36,fr14_v3).
body(r_fr16_36,fr16_t1).
body(r_fr16_36,fr16_w2).
head(r_fr16_37,fr16_w3).
head(r_fr16_38,fr16_u2).
body(r_fr16_38,fr16_b2).
body(r_fr16_38,fr16_d3).
body(r_fr16_38,fr16_f1).
body(r_fr16_38,fr16_f3).
body(r_fr16_38,fr16_p3).
body(r_fr16_38,fr16_v2).
head(r_fr16_39,fr16_u2).
body(r_fr16_39,fr14_c2).
body(r_fr16_39,fr16_c1).
body(r_fr16_39,fr16_p3).
body(r_fr16_39,fr16_x1).
body(r_fr16_39,fr16_y1).
head(r_fr16_40,fr16_u2).
body(r_fr16_40,fr16_b2).
body(r_fr16_40,fr16_d1).
body(r_fr16_40,fr23_z2).
body(r_fr16_40,fr10_q1).
head(r_fr16_41,fr16_u2).
body(r_fr16_41,fr16_c3).
head(r_fr16_42,fr16_y1).
head(r_fr16_43,fr16_y1).
body(r_fr16_43,fr6_d1).
body(r_fr16_43,fr16_c3).
body(r_fr16_43,fr9_q3).
body(r_fr16_43,fr16_w3).
body(r_fr16_43,fr16_x2).
head(r_fr16_44,fr16_y1).
body(r_fr16_44,fr16_p2).
body(r_fr16_44,fr16_s1).
head(r_fr16_45,fr16_y1).
body(r_fr16_45,fr16_e1).
body(r_fr16_45,fr23_e1).
body(r_fr16_45,fr16_p2).
body(r_fr16_45,fr15_r2).
head(r_fr16_46,fr16_y1).
body(r_fr16_46,fr6_d1).
head(r_fr16_47,fr16_y1).
body(r_fr16_47,fr16_p3).
body(r_fr16_47,fr16_s1).
body(r_fr16_47,fr8_y1).
head(r_fr16_48,fr16_w2).
body(r_fr16_48,fr6_d1).
body(r_fr16_48,fr14_c2).
body(r_fr16_48,fr16_e1).
body(r_fr16_48,fr16_f1).
head(r_fr16_49,fr16_w2).
head(r_fr16_50,fr16_t1).
body(r_fr16_50,fr16_b2).
body(r_fr16_50,fr16_d2).
body(r_fr16_50,fr23_e1).
body(r_fr16_50,fr16_f3).
body(r_fr16_50,fr16_p2).
body(r_fr16_50,fr14_r2).
head(r_fr16_51,fr16_t1).
body(r_fr16_51,fr6_d1).
body(r_fr16_51,fr16_a3).
body(r_fr16_51,fr16_c1).
body(r_fr16_51,fr15_a1).
body(r_fr16_51,fr13_d1).
head(r_fr16_52,fr16_t1).
body(r_fr16_52,fr16_u1).
body(r_fr16_52,fr16_u2).
body(r_fr16_52,fr10_q1).
head(r_fr16_53,fr16_t1).
body(r_fr16_53,fr16_b3).
body(r_fr16_53,fr16_c1).
body(r_fr16_53,fr16_d3).
body(r_fr16_53,fr16_p3).
head(r_fr16_54,fr16_t1).
body(r_fr16_54,fr16_b3).
body(r_fr16_54,fr16_u2).
body(r_fr16_54,fr16_w2).
head(r_fr16_55,fr16_t1).
head(r_fr16_56,fr16_u3).
body(r_fr16_56,fr16_a3).
body(r_fr16_56,fr16_b3).
body(r_fr16_56,fr16_c1).
body(r_fr16_56,fr15_a1).
body(r_fr16_56,fr16_c3).
body(r_fr16_56,fr16_e1).
head(r_fr16_57,fr16_u3).
head(r_fr16_58,fr16_u3).
body(r_fr16_58,fr16_c1).
body(r_fr16_58,fr23_e1).
head(r_fr16_59,fr16_u3).
body(r_fr16_59,fr15_a1).
body(r_fr16_59,fr16_d2).
body(r_fr16_59,fr16_p1).
body(r_fr16_59,fr16_u2).
body(r_fr16_59,fr23_z2).
body(r_fr16_59,fr10_q1).
body(r_fr16_59,fr16_z2).
head(r_fr16_60,fr16_u3).
body(r_fr16_60,fr6_d1).
body(r_fr16_60,fr13_d1).
body(r_fr16_60,fr16_q1).
body(r_fr16_60,fr16_t1).
head(r_fr16_61,fr16_u3).
body(r_fr16_61,fr16_b3).
body(r_fr16_61,fr23_e1).
body(r_fr16_61,fr16_s1).
body(r_fr16_61,fr15_r2).
body(r_fr16_61,fr16_x1).
body(r_fr16_61,fr16_x2).
body(r_fr16_61,fr10_q1).
head(r_fr16_62,fr8_y1).
body(r_fr16_62,fr16_c1).
body(r_fr16_62,fr16_d3).
body(r_fr16_62,fr16_e1).
body(r_fr16_62,fr13_d1).
body(r_fr16_62,fr16_f1).
body(r_fr16_62,fr23_e1).
head(r_fr16_63,fr8_y1).
body(r_fr16_63,fr16_w1).
head(r_fr16_64,fr8_y1).
body(r_fr16_64,fr9_c1).
body(r_fr16_64,fr16_b2).
body(r_fr16_64,fr16_c3).
body(r_fr16_64,fr15_s1).
body(r_fr16_64,fr16_w3).
body(r_fr16_64,fr10_q1).
head(r_fr16_65,fr8_y1).
body(r_fr16_65,fr16_a3).
body(r_fr16_65,fr15_s1).
body(r_fr16_65,fr16_u3).
body(r_fr16_65,fr15_r2).
body(r_fr16_65,fr16_w1).
body(r_fr16_65,fr16_x2).
head(r_fr16_66,fr8_y1).
body(r_fr16_66,fr16_f1).
body(r_fr16_66,fr16_u3).
head(r_fr16_67,fr8_y1).
body(r_fr16_67,fr16_d1).
body(r_fr16_67,fr25_e2).
body(r_fr16_67,fr16_f3).
body(r_fr16_67,fr23_u3).
body(r_fr16_67,fr9_q3).
head(r_fr16_68,fr16_s1).
body(r_fr16_68,fr16_b2).
body(r_fr16_68,fr16_b3).
body(r_fr16_68,fr16_d3).
body(r_fr16_68,fr13_d1).
head(r_fr16_69,fr16_s1).
body(r_fr16_69,fr9_c1).
body(r_fr16_69,fr25_e2).
body(r_fr16_69,fr15_s1).
body(r_fr16_69,fr16_u3).
head(r_fr16_70,fr16_s1).
body(r_fr16_70,fr16_a3).
body(r_fr16_70,fr13_d1).
body(r_fr16_70,fr8_y1).
head(r_fr16_71,fr16_s1).
body(r_fr16_71,fr16_x2).
head(r_fr16_72,fr16_s1).
body(r_fr16_72,fr16_d2).
body(r_fr16_72,fr15_s1).
body(r_fr16_72,fr16_t1).
body(r_fr16_72,fr8_y1).
body(r_fr16_72,fr16_v2).
body(r_fr16_72,fr16_w3).
body(r_fr16_72,fr23_z2).
head(r_fr16_73,fr16_x2).
body(r_fr16_73,fr16_d2).
body(r_fr16_73,fr16_e1).
body(r_fr16_73,fr16_f3).
body(r_fr16_73,fr16_p1).
body(r_fr16_73,fr16_r2).
body(r_fr16_73,fr16_v2).
head(r_fr16_74,fr16_x2).
body(r_fr16_74,fr9_c1).
body(r_fr16_74,fr16_a3).
body(r_fr16_74,fr14_c2).
body(r_fr16_74,fr25_e2).
body(r_fr16_74,fr16_q1).
body(r_fr16_74,fr23_u3).
body(r_fr16_74,fr16_r2).
head(r_fr16_75,fr16_x2).
head(r_fr16_76,fr16_x2).
body(r_fr16_76,fr25_e2).
body(r_fr16_76,fr16_f3).
body(r_fr16_76,fr16_q1).
head(r_fr16_77,fr14_v3).
body(r_fr16_77,fr16_c3).
body(r_fr16_77,fr25_e2).
body(r_fr16_77,fr16_s1).
body(r_fr16_77,fr16_u1).
body(r_fr16_77,fr16_v2).
head(r_fr16_78,fr14_v3).
body(r_fr16_78,fr14_r2).
body(r_fr16_78,fr16_u1).
body(r_fr16_78,fr16_y1).
head(r_fr16_79,fr14_v3).
body(r_fr16_79,fr16_b3).
body(r_fr16_79,fr16_d2).
body(r_fr16_79,fr16_f3).
head(r_fr16_80,fr14_v3).
body(r_fr16_80,fr16_p3).
body(r_fr16_80,fr16_s1).
body(r_fr16_80,fr13_q2).
body(r_fr16_80,fr16_u1).
head(r_fr16_81,fr14_v3).
body(r_fr16_81,fr14_c2).
body(r_fr16_81,fr16_b2).
body(r_fr16_81,fr23_e1).
body(r_fr16_81,fr16_f3).
body(r_fr16_81,fr16_p1).
head(r_fr16_82,fr23_u3).
body(r_fr16_82,fr16_d1).
body(r_fr16_82,fr16_e1).
body(r_fr16_82,fr16_v2).
head(r_fr16_83,fr23_u3).
body(r_fr16_83,fr16_a3).
body(r_fr16_83,fr16_q3).
body(r_fr16_83,fr16_t1).
body(r_fr16_83,fr16_u1).
body(r_fr16_83,fr16_y1).
head(r_fr16_84,fr23_u3).
head(r_fr16_85,fr23_u3).
body(r_fr16_85,fr16_q1).
body(r_fr16_85,fr9_q3).
body(r_fr16_85,fr13_q2).
body(r_fr16_85,fr16_w3).
body(r_fr16_85,fr23_z2).
head(r_fr16_86,fr23_u3).
body(r_fr16_86,fr9_c1).
body(r_fr16_86,fr16_a3).
body(r_fr16_86,fr16_c3).
body(r_fr16_86,fr16_u3).
body(r_fr16_86,fr16_y1).
head(r_fr16_87,fr16_p1).
body(r_fr16_87,fr15_r2).
head(r_fr16_88,fr16_p1).
body(r_fr16_88,fr6_d1).
body(r_fr16_88,fr16_b2).
body(r_fr16_88,fr16_f3).
body(r_fr16_88,fr16_u2).
body(r_fr16_88,fr16_u3).
body(r_fr16_88,fr16_x1).
body(r_fr16_88,fr16_z2).
head(r_fr16_89,fr16_p1).
body(r_fr16_89,fr15_a1).
head(r_fr16_90,fr16_p1).
body(r_fr16_90,fr16_p3).
body(r_fr16_90,fr16_q3).
body(r_fr16_90,fr23_u3).
body(r_fr16_90,fr16_r2).
body(r_fr16_90,fr16_v2).
body(r_fr16_90,fr16_w3).
head(r_fr16_91,fr9_q3).
body(r_fr16_91,fr16_c1).
head(r_fr16_92,fr9_q3).
body(r_fr16_92,fr16_b3).
body(r_fr16_92,fr16_q2).
body(r_fr16_92,fr16_s1).
body(r_fr16_92,fr13_q2).
body(r_fr16_92,fr16_u2).
body(r_fr16_92,fr16_w2).
body(r_fr16_92,fr10_q1).
head(r_fr16_93,fr16_p3).
body(r_fr16_93,fr16_b2).
body(r_fr16_93,fr16_c1).
body(r_fr16_93,fr16_f1).
body(r_fr16_93,fr16_w2).
head(r_fr16_94,fr16_p3).
body(r_fr16_94,fr16_b2).
body(r_fr16_94,fr16_d1).
body(r_fr16_94,fr16_u2).
head(r_fr16_95,fr16_p3).
body(r_fr16_95,fr16_a3).
body(r_fr16_95,fr16_u3).
body(r_fr16_95,fr10_q1).
head(r_fr16_96,fr15_r2).
body(r_fr16_96,fr6_d1).
body(r_fr16_96,fr16_c3).
body(r_fr16_96,fr16_d3).
body(r_fr16_96,fr13_d1).
head(r_fr16_97,fr15_r2).
body(r_fr16_97,fr16_w3).
head(r_fr16_98,fr15_r2).
body(r_fr16_98,fr16_f3).
body(r_fr16_98,fr16_x1).
head(r_fr16_99,fr15_r2).
body(r_fr16_99,fr9_c1).
body(r_fr16_99,fr16_d1).
body(r_fr16_99,fr16_f3).
body(r_fr16_99,fr16_y1).
head(r_fr16_100,fr15_r2).
body(r_fr16_100,fr6_d1).
body(r_fr16_100,fr16_e1).
body(r_fr16_100,fr16_u2).
head(r_fr16_101,fr15_r2).
body(r_fr16_101,fr9_c1).
body(r_fr16_101,fr16_b2).
body(r_fr16_101,fr16_b3).
body(r_fr16_101,fr23_e1).
body(r_fr16_101,fr16_r2).
body(r_fr16_101,fr16_v2).

assumption(fr14_c2).
assumption(fr17_b1).
assumption(fr17_c1).
assumption(fr17_d1).
assumption(fr17_e1).
assumption(fr17_f1).
assumption(fr17_a2).
assumption(fr17_b2).
assumption(fr17_c2).
assumption(fr17_d2).
assumption(fr17_e2).
assumption(fr17_f2).
assumption(fr17_a3).
assumption(fr17_b3).
assumption(fr17_c3).
assumption(fr17_d3).
assumption(fr17_e3).
assumption(fr17_f3).
assumption(fr23_c1).
assumption(fr17_b4).
assumption(fr17_c4).
assumption(fr17_d4).
assumption(fr17_e4).
assumption(fr17_f4).
assumption(fr17_a5).
assumption(fr17_b5).
assumption(fr17_c5).
assumption(fr17_d5).
assumption(fr17_e5).
assumption(fr17_f5).
contrary(fr14_c2,fr22_y2).
contrary(fr17_a2,fr22_y2).
contrary(fr17_a3,fr23_u3).
contrary(fr23_c1,fr17_p1).
contrary(fr17_a5,fr17_r5).
contrary(fr17_b1,fr17_f2).
contrary(fr17_b2,fr17_e5).
contrary(fr17_b3,fr17_a5).
contrary(fr17_b4,fr17_z2).
contrary(fr17_b5,fr17_p4).
contrary(fr17_c1,fr17_s4).
contrary(fr17_c2,fr17_u5).
contrary(fr17_c3,fr17_v4).
contrary(fr17_c4,fr17_b1).
contrary(fr17_c5,fr17_w2).
contrary(fr17_d1,fr17_y2).
contrary(fr17_d2,fr17_w4).
contrary(fr17_d3,fr6_z2).
contrary(fr17_d4,fr17_s3).
contrary(fr17_d5,fr17_b5).
contrary(fr17_e1,fr17_a2).
contrary(fr17_e2,fr17_c2).
contrary(fr17_e3,fr17_f3).
contrary(fr17_e4,fr17_r5).
contrary(fr17_e5,fr17_p3).
contrary(fr17_f1,fr17_u5).
contrary(fr17_f2,fr6_r2).
contrary(fr17_f3,fr17_p3).
contrary(fr17_f4,fr17_q5).
contrary(fr17_f5,fr17_w4).
head(r_fr17_0,fr9_r2).
body(r_fr17_0,fr17_q2).
body(r_fr17_0,fr17_r4).
body(r_fr17_0,fr17_w3).
body(r_fr17_0,fr3_p1).
head(r_fr17_1,fr9_r2).
body(r_fr17_1,fr17_c3).
body(r_fr17_1,fr17_e1).
body(r_fr17_1,fr17_w4).
head(r_fr17_2,fr9_r2).
body(r_fr17_2,fr17_p5).
body(r_fr17_2,fr17_s2).
body(r_fr17_2,fr17_u3).
body(r_fr17_2,fr17_v4).
body(r_fr17_2,fr17_z2).
head(r_fr17_3,fr9_r2).
body(r_fr17_3,fr14_c2).
body(r_fr17_3,fr17_d1).
body(r_fr17_3,fr17_d4).
body(r_fr17_3,fr17_p2).
body(r_fr17_3,fr17_p3).
body(r_fr17_3,fr17_q5).
body(r_fr17_3,fr17_s5).
body(r_fr17_3,fr17_t4).
body(r_fr17_3,fr6_z2).
body(r_fr17_3,fr8_u2).
body(r_fr17_3,fr17_y1).
head(r_fr17_4,fr9_r2).
body(r_fr17_4,fr17_c3).
body(r_fr17_4,fr17_r5).
body(r_fr17_4,fr22_y2).
body(r_fr17_4,fr17_t2).
body(r_fr17_4,fr17_u4).
body(r_fr17_4,fr17_v2).
head(r_fr17_5,fr9_r2).
body(r_fr17_5,fr17_f1).
body(r_fr17_5,fr17_p2).
body(r_fr17_5,fr23_u3).
head(r_fr17_6,fr9_r2).
body(r_fr17_6,fr17_c2).
body(r_fr17_6,fr17_c4).
body(r_fr17_6,fr17_c5).
body(r_fr17_6,fr17_d2).
body(r_fr17_6,fr17_f5).
body(r_fr17_6,fr17_r3).
body(r_fr17_6,fr17_r4).
body(r_fr17_6,fr17_r5).
body(r_fr17_6,fr17_v3).
body(r_fr17_6,fr17_w4).
body(r_fr17_6,fr17_z4).
head(r_fr17_7,fr9_r2).
body(r_fr17_7,fr14_c2).
body(r_fr17_7,fr17_a3).
body(r_fr17_7,fr17_b3).
body(r_fr17_7,fr17_b4).
body(r_fr17_7,fr17_c3).
body(r_fr17_7,fr17_d1).
body(r_fr17_7,fr17_d5).
body(r_fr17_7,fr17_e3).
body(r_fr17_7,fr17_e5).
body(r_fr17_7,fr17_f1).
body(r_fr17_7,fr17_f2).
head(r_fr17_8,fr9_r2).
body(r_fr17_8,fr17_a5).
body(r_fr17_8,fr17_b2).
body(r_fr17_8,fr17_e2).
body(r_fr17_8,fr17_e5).
body(r_fr17_8,fr17_f3).
body(r_fr17_8,fr8_u2).
body(r_fr17_8,fr17_z1).
body(r_fr17_8,fr17_z2).
head(r_fr17_9,fr17_s3).
body(r_fr17_9,fr17_c4).
body(r_fr17_9,fr17_f3).
body(r_fr17_9,fr17_p2).
body(r_fr17_9,fr23_u3).
body(r_fr17_9,fr17_v2).
head(r_fr17_10,fr17_s3).
body(r_fr17_10,fr17_p5).
body(r_fr17_10,fr17_s4).
body(r_fr17_10,fr17_w4).
body(r_fr17_10,fr17_x3).
head(r_fr17_11,fr17_s3).
body(r_fr17_11,fr17_b3).
body(r_fr17_11,fr17_c3).
body(r_fr17_11,fr17_z4).
head(r_fr17_12,fr17_s3).
body(r_fr17_12,fr17_p3).
body(r_fr17_12,fr17_q4).
body(r_fr17_12,fr17_u4).
head(r_fr17_13,fr17_s3).
body(r_fr17_13,fr17_b5).
body(r_fr17_13,fr17_e2).
head(r_fr17_14,fr17_s3).
body(r_fr17_14,fr17_a5).
body(r_fr17_14,fr17_c5).
body(r_fr17_14,fr17_d2).
body(r_fr17_14,fr17_e4).
body(r_fr17_14,fr17_f1).
body(r_fr17_14,fr17_f2).
body(r_fr17_14,fr17_r3).
body(r_fr17_14,fr17_s5).
body(r_fr17_14,fr17_x2).
body(r_fr17_14,fr17_x4).
body(r_fr17_14,fr17_y2).
head(r_fr17_15,fr17_s3).
body(r_fr17_15,fr17_b4).
body(r_fr17_15,fr17_c2).
body(r_fr17_15,fr6_z2).
head(r_fr17_16,fr17_s3).
body(r_fr17_16,fr17_a2).
body(r_fr17_16,fr23_c1).
body(r_fr17_16,fr17_b4).
body(r_fr17_16,fr17_c4).
body(r_fr17_16,fr17_e3).
body(r_fr17_16,fr17_e5).
body(r_fr17_16,fr17_q4).
body(r_fr17_16,fr17_r2).
head(r_fr17_17,fr17_s3).
body(r_fr17_17,fr17_b1).
body(r_fr17_17,fr17_r1).
body(r_fr17_17,fr17_s4).
body(r_fr17_17,fr17_v2).
head(r_fr17_18,fr17_s3).
body(r_fr17_18,fr17_d5).
body(r_fr17_18,fr17_t2).
head(r_fr17_19,fr17_r3).
body(r_fr17_19,fr17_a3).
body(r_fr17_19,fr17_b3).
body(r_fr17_19,fr17_b5).
body(r_fr17_19,fr17_d2).
body(r_fr17_19,fr17_e5).
body(r_fr17_19,fr17_r4).
body(r_fr17_19,fr6_z2).
body(r_fr17_19,fr17_x4).
head(r_fr17_20,fr17_r3).
body(r_fr17_20,fr17_b3).
body(r_fr17_20,fr17_e2).
head(r_fr17_21,fr17_r3).
body(r_fr17_21,fr17_p1).
body(r_fr17_21,fr17_p2).
body(r_fr17_21,fr17_p4).
body(r_fr17_21,fr17_q4).
body(r_fr17_21,fr17_r5).
body(r_fr17_21,fr17_s1).
body(r_fr17_21,fr17_t5).
body(r_fr17_21,fr17_v3).
body(r_fr17_21,fr17_v4).
body(r_fr17_21,fr17_x2).
body(r_fr17_21,fr17_z1).
head(r_fr17_22,fr17_r3).
head(r_fr17_23,fr17_r1).
body(r_fr17_23,fr17_b3).
body(r_fr17_23,fr17_f1).
body(r_fr17_23,fr17_r2).
body(r_fr17_23,fr17_r4).
body(r_fr17_23,fr22_z2).
head(r_fr17_24,fr17_r1).
body(r_fr17_24,fr17_f1).
body(r_fr17_24,fr22_y2).
body(r_fr17_24,fr17_v2).
head(r_fr17_25,fr17_r1).
body(r_fr17_25,fr17_a2).
body(r_fr17_25,fr17_d3).
body(r_fr17_25,fr3_p1).
head(r_fr17_26,fr17_r1).
body(r_fr17_26,fr17_e2).
head(r_fr17_27,fr3_p1).
body(r_fr17_27,fr17_p2).
body(r_fr17_27,fr17_q5).
body(r_fr17_27,fr22_y2).
head(r_fr17_28,fr3_p1).
body(r_fr17_28,fr17_f4).
body(r_fr17_28,fr17_f5).
body(r_fr17_28,fr17_r2).
body(r_fr17_28,fr17_s3).
body(r_fr17_28,fr17_w4).
body(r_fr17_28,fr17_x1).
head(r_fr17_29,fr3_p1).
body(r_fr17_29,fr17_a3).
body(r_fr17_29,fr23_c1).
body(r_fr17_29,fr17_b1).
body(r_fr17_29,fr17_b5).
body(r_fr17_29,fr17_e3).
body(r_fr17_29,fr17_f4).
body(r_fr17_29,fr17_p1).
body(r_fr17_29,fr17_v4).
body(r_fr17_29,fr17_x4).
body(r_fr17_29,fr17_y4).
head(r_fr17_30,fr3_p1).
body(r_fr17_30,fr17_a2).
body(r_fr17_30,fr17_b3).
body(r_fr17_30,fr17_c5).
body(r_fr17_30,fr17_d1).
body(r_fr17_30,fr17_e1).
body(r_fr17_30,fr17_e4).
body(r_fr17_30,fr17_f2).
body(r_fr17_30,fr17_r3).
body(r_fr17_30,fr17_y2).
body(r_fr17_30,fr17_z2).
head(r_fr17_31,fr3_p1).
body(r_fr17_31,fr17_d3).
body(r_fr17_31,fr17_e3).
body(r_fr17_31,fr17_p3).
head(r_fr17_32,fr17_t4).
body(r_fr17_32,fr17_c1).
body(r_fr17_32,fr17_r3).
body(r_fr17_32,fr17_s2).
body(r_fr17_32,fr6_r2).
body(r_fr17_32,fr17_w2).
body(r_fr17_32,fr9_r2).
head(r_fr17_33,fr17_t4).
body(r_fr17_33,fr17_b5).
body(r_fr17_33,fr17_c4).
body(r_fr17_33,fr17_f2).
body(r_fr17_33,fr23_u3).
body(r_fr17_33,fr17_s2).
body(r_fr17_33,fr6_r2).
body(r_fr17_33,fr17_v2).
body(r_fr17_33,fr17_v4).
body(r_fr17_33,fr17_z2).
head(r_fr17_34,fr17_t4).
body(r_fr17_34,fr17_b3).
body(r_fr17_34,fr17_c3).
body(r_fr17_34,fr17_d2).
body(r_fr17_34,fr17_d3).
body(r_fr17_34,fr17_q2).
body(r_fr17_34,fr22_y2).
body(r_fr17_34,fr6_r2).
body(r_fr17_34,fr17_v4).
body(r_fr17_34,fr17_y2).
head(r_fr17_35,fr17_t4).
body(r_fr17_35,fr23_u3).
body(r_fr17_35,fr17_u4).
body(r_fr17_35,fr17_x3).
head(r_fr17_36,fr17_t4).
body(r_fr17_36,fr17_a3).
body(r_fr17_36,fr17_a5).
body(r_fr17_36,fr17_c3).
body(r_fr17_36,fr17_e1).
body(r_fr17_36,fr17_e2).
body(r_fr17_36,fr17_r2).
body(r_fr17_36,fr17_s3).
body(r_fr17_36,fr6_r2).
body(r_fr17_36,fr17_v2).
head(r_fr17_37,fr17_t4).
body(r_fr17_37,fr17_u4).
head(r_fr17_38,fr17_t4).
body(r_fr17_38,fr17_d4).
body(r_fr17_38,fr17_r1).
body(r_fr17_38,fr22_y2).
body(r_fr17_38,fr17_y4).
head(r_fr17_39,fr17_t4).
body(r_fr17_39,fr17_b5).
body(r_fr17_39,fr17_c2).
body(r_fr17_39,fr17_c5).
body(r_fr17_39,fr17_s1).
head(r_fr17_40,fr17_t4).
body(r_fr17_40,fr17_b3).
head(r_fr17_41,fr17_t4).
body(r_fr17_41,fr17_c4).
head(r_fr17_42,fr17_q3).
body(r_fr17_42,fr17_a2).
body(r_fr17_42,fr17_a3).
body(r_fr17_42,fr23_c1).
body(r_fr17_42,fr17_b3).
body(r_fr17_42,fr17_d4).
body(r_fr17_42,fr17_d5).
body(r_fr17_42,fr17_e3).
body(r_fr17_42,fr17_e5).
body(r_fr17_42,fr17_f3).
head(r_fr17_43,fr17_q3).
body(r_fr17_43,fr17_b3).
body(r_fr17_43,fr17_c2).
body(r_fr17_43,fr17_d4).
body(r_fr17_43,fr17_f2).
body(r_fr17_43,fr17_f3).
body(r_fr17_43,fr17_p1).
body(r_fr17_43,fr17_p3).
body(r_fr17_43,fr17_u5).
body(r_fr17_43,fr17_x2).
head(r_fr17_44,fr17_q3).
body(r_fr17_44,fr17_s1).
body(r_fr17_44,fr17_s3).
body(r_fr17_44,fr17_u3).
body(r_fr17_44,fr17_w2).
body(r_fr17_44,fr17_x2).
body(r_fr17_44,fr17_z1).
head(r_fr17_45,fr17_q3).
body(r_fr17_45,fr17_s5).
body(r_fr17_45,fr17_u4).
body(r_fr17_45,fr17_v2).
body(r_fr17_45,fr17_v4).
head(r_fr17_46,fr17_q3).
body(r_fr17_46,fr17_q2).
body(r_fr17_46,fr17_t5).
head(r_fr17_47,fr17_q3).
body(r_fr17_47,fr17_p5).
body(r_fr17_47,fr17_s1).
body(r_fr17_47,fr17_w2).
body(r_fr17_47,fr17_x1).
head(r_fr17_48,fr17_r4).
body(r_fr17_48,fr17_b2).
body(r_fr17_48,fr17_c1).
body(r_fr17_48,fr17_c3).
body(r_fr17_48,fr17_c4).
body(r_fr17_48,fr17_e4).
body(r_fr17_48,fr22_z2).
head(r_fr17_49,fr17_r4).
body(r_fr17_49,fr17_b2).
body(r_fr17_49,fr17_d1).
body(r_fr17_49,fr17_e4).
body(r_fr17_49,fr17_f5).
body(r_fr17_49,fr9_r2).
head(r_fr17_50,fr17_r4).
body(r_fr17_50,fr17_c1).
body(r_fr17_50,fr17_d1).
body(r_fr17_50,fr17_s3).
body(r_fr17_50,fr17_t2).
body(r_fr17_50,fr6_r2).
body(r_fr17_50,fr17_v4).
body(r_fr17_50,fr17_w2).
body(r_fr17_50,fr17_x2).
body(r_fr17_50,fr17_x3).
body(r_fr17_50,fr17_y1).
body(r_fr17_50,fr17_y4).
head(r_fr17_51,fr17_r4).
body(r_fr17_51,fr17_u5).
body(r_fr17_51,fr17_w4).
body(r_fr17_51,fr9_r2).
head(r_fr17_52,fr17_r4).
body(r_fr17_52,fr17_b4).
body(r_fr17_52,fr17_d3).
head(r_fr17_53,fr17_r4).
body(r_fr17_53,fr17_p1).
body(r_fr17_53,fr23_u3).
body(r_fr17_53,fr17_s3).
body(r_fr17_53,fr17_u4).
body(r_fr17_53,fr17_v2).
body(r_fr17_53,fr17_w3).
head(r_fr17_54,fr17_r4).
body(r_fr17_54,fr17_f3).
body(r_fr17_54,fr17_q4).
head(r_fr17_55,fr17_q2).
body(r_fr17_55,fr17_a2).
body(r_fr17_55,fr17_e5).
body(r_fr17_55,fr17_f1).
head(r_fr17_56,fr17_q2).
body(r_fr17_56,fr17_f4).
body(r_fr17_56,fr17_q3).
body(r_fr17_56,fr17_r1).
body(r_fr17_56,fr17_u3).
body(r_fr17_56,fr17_w2).
head(r_fr17_57,fr17_q2).
body(r_fr17_57,fr17_e1).
body(r_fr17_57,fr17_e4).
body(r_fr17_57,fr17_q5).
body(r_fr17_57,fr17_r3).
body(r_fr17_57,fr17_r4).
body(r_fr17_57,fr17_u4).
body(r_fr17_57,fr17_v3).
body(r_fr17_57,fr17_v4).
body(r_fr17_57,fr17_x1).
body(r_fr17_57,fr17_z1).
head(r_fr17_58,fr17_q2).
body(r_fr17_58,fr17_d4).
body(r_fr17_58,fr17_r1).
body(r_fr17_58,fr22_z2).
head(r_fr17_59,fr17_x3).
body(r_fr17_59,fr17_b4).
body(r_fr17_59,fr17_e2).
body(r_fr17_59,fr17_f1).
body(r_fr17_59,fr17_q5).
head(r_fr17_60,fr17_x3).
body(r_fr17_60,fr17_a3).
body(r_fr17_60,fr23_c1).
body(r_fr17_60,fr17_b2).
body(r_fr17_60,fr17_b3).
body(r_fr17_60,fr17_c5).
body(r_fr17_60,fr17_d4).
body(r_fr17_60,fr17_f3).
body(r_fr17_60,fr17_f5).
body(r_fr17_60,fr6_z2).
body(r_fr17_60,fr17_x4).
head(r_fr17_61,fr8_u2).
body(r_fr17_61,fr17_d4).
body(r_fr17_61,fr17_r2).
body(r_fr17_61,fr17_s1).
body(r_fr17_61,fr17_s2).
body(r_fr17_61,fr6_z2).
body(r_fr17_61,fr17_u4).
body(r_fr17_61,fr17_x3).
body(r_fr17_61,fr3_p1).
head(r_fr17_62,fr8_u2).
body(r_fr17_62,fr17_e2).
body(r_fr17_62,fr17_e3).
body(r_fr17_62,fr17_e4).
body(r_fr17_62,fr17_q2).
body(r_fr17_62,fr17_q3).
body(r_fr17_62,fr17_s1).
body(r_fr17_62,fr17_s2).
body(r_fr17_62,fr17_u5).
body(r_fr17_62,fr17_v3).
head(r_fr17_63,fr8_u2).
head(r_fr17_64,fr8_u2).
body(r_fr17_64,fr17_a3).
body(r_fr17_64,fr17_a5).
body(r_fr17_64,fr17_c1).
body(r_fr17_64,fr17_c3).
body(r_fr17_64,fr17_e1).
body(r_fr17_64,fr17_e4).
body(r_fr17_64,fr17_e5).
body(r_fr17_64,fr17_f5).
body(r_fr17_64,fr17_x1).
body(r_fr17_64,fr17_z1).
head(r_fr17_65,fr8_u2).
body(r_fr17_65,fr17_b3).
body(r_fr17_65,fr17_e2).
body(r_fr17_65,fr17_q2).
body(r_fr17_65,fr17_q5).
body(r_fr17_65,fr17_r5).
body(r_fr17_65,fr17_t2).
body(r_fr17_65,fr6_z2).
body(r_fr17_65,fr22_z2).
body(r_fr17_65,fr17_y1).
body(r_fr17_65,fr17_z1).
body(r_fr17_65,fr3_p1).
head(r_fr17_66,fr17_y2).
body(r_fr17_66,fr17_b2).
body(r_fr17_66,fr17_d3).
body(r_fr17_66,fr22_y2).
body(r_fr17_66,fr6_r2).
body(r_fr17_66,fr17_u4).
body(r_fr17_66,fr17_x2).
body(r_fr17_66,fr17_x3).
head(r_fr17_67,fr17_y2).
body(r_fr17_67,fr17_p3).
head(r_fr17_68,fr17_y2).
body(r_fr17_68,fr14_c2).
body(r_fr17_68,fr17_a3).
body(r_fr17_68,fr17_f1).
body(r_fr17_68,fr17_u5).
head(r_fr17_69,fr17_y2).
body(r_fr17_69,fr14_c2).
body(r_fr17_69,fr17_a2).
body(r_fr17_69,fr23_c1).
body(r_fr17_69,fr17_b3).
body(r_fr17_69,fr17_c4).
body(r_fr17_69,fr17_c5).
body(r_fr17_69,fr17_d4).
body(r_fr17_69,fr17_d5).
body(r_fr17_69,fr17_e2).
body(r_fr17_69,fr17_e5).
body(r_fr17_69,fr17_f3).
head(r_fr17_70,fr17_y2).
body(r_fr17_70,fr17_d1).
body(r_fr17_70,fr17_f3).
body(r_fr17_70,fr17_f5).
head(r_fr17_71,fr17_y2).
body(r_fr17_71,fr14_c2).
body(r_fr17_71,fr17_b5).
body(r_fr17_71,fr17_d4).
body(r_fr17_71,fr17_e1).
body(r_fr17_71,fr17_p3).
body(r_fr17_71,fr17_s3).
body(r_fr17_71,fr17_t2).
body(r_fr17_71,fr17_t3).
body(r_fr17_71,fr22_z2).
head(r_fr17_72,fr17_w4).
body(r_fr17_72,fr17_c2).
body(r_fr17_72,fr17_e5).
body(r_fr17_72,fr17_f4).
body(r_fr17_72,fr17_w3).
head(r_fr17_73,fr17_w4).
body(r_fr17_73,fr17_a2).
body(r_fr17_73,fr23_c1).
body(r_fr17_73,fr17_b2).
body(r_fr17_73,fr17_c2).
body(r_fr17_73,fr17_e5).
body(r_fr17_73,fr17_f1).
body(r_fr17_73,fr17_q2).
body(r_fr17_73,fr17_u3).
body(r_fr17_73,fr17_y2).
body(r_fr17_73,fr17_y4).
head(r_fr17_74,fr17_w4).
body(r_fr17_74,fr17_q4).
body(r_fr17_74,fr17_t5).
body(r_fr17_74,fr6_r2).
body(r_fr17_74,fr8_u2).
body(r_fr17_74,fr22_z2).
body(r_fr17_74,fr17_w3).
body(r_fr17_74,fr17_y1).
body(r_fr17_74,fr17_z2).
head(r_fr17_75,fr17_w4).
body(r_fr17_75,fr17_a2).
body(r_fr17_75,fr17_c4).
body(r_fr17_75,fr17_e4).
body(r_fr17_75,fr17_f1).
body(r_fr17_75,fr17_f2).
body(r_fr17_75,fr17_t5).
head(r_fr17_76,fr17_w4).
body(r_fr17_76,fr17_d1).
body(r_fr17_76,fr17_d3).
body(r_fr17_76,fr17_p3).
body(r_fr17_76,fr17_u3).
body(r_fr17_76,fr17_v2).
body(r_fr17_76,fr17_w3).
body(r_fr17_76,fr17_z2).
head(r_fr17_77,fr17_w4).
body(r_fr17_77,fr17_a2).
body(r_fr17_77,fr17_b4).
body(r_fr17_77,fr17_c3).
body(r_fr17_77,fr17_e5).
head(r_fr17_78,fr17_w4).
body(r_fr17_78,fr23_c1).
body(r_fr17_78,fr17_s3).
body(r_fr17_78,fr6_r2).
body(r_fr17_78,fr17_u5).
body(r_fr17_78,fr17_v2).
body(r_fr17_78,fr17_w2).
head(r_fr17_79,fr17_w4).
body(r_fr17_79,fr17_c1).
body(r_fr17_79,fr17_v4).
body(r_fr17_79,fr17_x1).
body(r_fr17_79,fr17_x3).
body(r_fr17_79,fr17_z2).
head(r_fr17_80,fr17_w4).
body(r_fr17_80,fr17_b2).
body(r_fr17_80,fr17_c3).
body(r_fr17_80,fr17_d3).
body(r_fr17_80,fr17_e1).
body(r_fr17_80,fr17_e2).
body(r_fr17_80,fr17_e3).
body(r_fr17_80,fr17_e4).
head(r_fr17_81,fr17_w4).
body(r_fr17_81,fr17_p5).
head(r_fr17_82,fr17_w3).
body(r_fr17_82,fr17_b5).
body(r_fr17_82,fr17_u4).
head(r_fr17_83,fr17_w3).
body(r_fr17_83,fr17_a3).
body(r_fr17_83,fr17_b1).
body(r_fr17_83,fr17_b3).
body(r_fr17_83,fr17_d4).
body(r_fr17_83,fr17_f3).
head(r_fr17_84,fr23_u3).
body(r_fr17_84,fr17_d5).
body(r_fr17_84,fr17_f4).
body(r_fr17_84,fr17_q3).
body(r_fr17_84,fr17_r5).
body(r_fr17_84,fr17_t5).
body(r_fr17_84,fr6_r2).
body(r_fr17_84,fr17_w3).
body(r_fr17_84,fr17_x3).
body(r_fr17_84,fr17_z2).
head(r_fr17_85,fr23_u3).
head(r_fr17_86,fr23_u3).
body(r_fr17_86,fr17_a2).
body(r_fr17_86,fr17_f4).
body(r_fr17_86,fr17_r1).
body(r_fr17_86,fr17_s4).
body(r_fr17_86,fr22_y2).
body(r_fr17_86,fr17_t2).
body(r_fr17_86,fr17_t5).
body(r_fr17_86,fr3_p1).
head(r_fr17_87,fr23_u3).
body(r_fr17_87,fr17_a5).
body(r_fr17_87,fr17_d3).
body(r_fr17_87,fr17_e2).
body(r_fr17_87,fr17_e5).
body(r_fr17_87,fr17_f1).
body(r_fr17_87,fr17_p5).
body(r_fr17_87,fr17_s3).
body(r_fr17_87,fr17_t4).
body(r_fr17_87,fr3_p1).
head(r_fr17_88,fr23_u3).
body(r_fr17_88,fr17_a3).
body(r_fr17_88,fr17_a5).
head(r_fr17_89,fr23_u3).
body(r_fr17_89,fr17_d3).
body(r_fr17_89,fr9_r2).
head(r_fr17_90,fr23_u3).
body(r_fr17_90,fr17_b4).
body(r_fr17_90,fr17_c4).
body(r_fr17_90,fr17_f2).
body(r_fr17_90,fr17_r4).
body(r_fr17_90,fr17_s5).
body(r_fr17_90,fr17_t2).
body(r_fr17_90,fr17_u5).
body(r_fr17_90,fr17_w3).
body(r_fr17_90,fr17_x2).
head(r_fr17_91,fr23_u3).
body(r_fr17_91,fr17_s2).
body(r_fr17_91,fr17_s3).
body(r_fr17_91,fr17_t5).
head(r_fr17_92,fr23_u3).
body(r_fr17_92,fr17_b1).
body(r_fr17_92,fr17_b4).
body(r_fr17_92,fr17_c4).
body(r_fr17_92,fr17_e3).
body(r_fr17_92,fr17_e5).
head(r_fr17_93,fr22_y2).
body(r_fr17_93,fr17_b3).
body(r_fr17_93,fr17_b5).
body(r_fr17_93,fr17_c3).
body(r_fr17_93,fr17_c5).
body(r_fr17_93,fr17_d2).
body(r_fr17_93,fr17_d5).
body(r_fr17_93,fr17_e1).
body(r_fr17_93,fr17_e2).
body(r_fr17_93,fr17_s3).
body(r_fr17_93,fr17_u5).
head(r_fr17_94,fr22_y2).
body(r_fr17_94,fr17_a5).
body(r_fr17_94,fr17_b5).
head(r_fr17_95,fr22_y2).
body(r_fr17_95,fr17_a3).
body(r_fr17_95,fr17_a5).
body(r_fr17_95,fr17_c1).
body(r_fr17_95,fr17_d1).
body(r_fr17_95,fr17_d2).
body(r_fr17_95,fr17_f1).
body(r_fr17_95,fr17_r5).
body(r_fr17_95,fr17_z4).
head(r_fr17_96,fr22_y2).
body(r_fr17_96,fr17_u4).
head(r_fr17_97,fr22_y2).
body(r_fr17_97,fr17_p3).
body(r_fr17_97,fr23_u3).
body(r_fr17_97,fr17_q4).
body(r_fr17_97,fr17_r2).
body(r_fr17_97,fr17_x3).
head(r_fr17_98,fr22_y2).
body(r_fr17_98,fr17_b5).
body(r_fr17_98,fr17_c3).
body(r_fr17_98,fr17_c4).
body(r_fr17_98,fr17_e2).
body(r_fr17_98,fr17_f1).
body(r_fr17_98,fr17_f2).
body(r_fr17_98,fr17_z2).
body(r_fr17_98,fr3_p1).
head(r_fr17_99,fr22_y2).
body(r_fr17_99,fr17_b1).
body(r_fr17_99,fr17_e2).
body(r_fr17_99,fr17_f2).
body(r_fr17_99,fr17_p3).
body(r_fr17_99,fr17_q2).
body(r_fr17_99,fr17_s4).
body(r_fr17_99,fr17_u3).
body(r_fr17_99,fr17_v3).
body(r_fr17_99,fr17_y1).
head(r_fr17_100,fr22_y2).
head(r_fr17_101,fr17_w2).
body(r_fr17_101,fr17_a5).
body(r_fr17_101,fr17_c3).
body(r_fr17_101,fr17_d1).
body(r_fr17_101,fr17_d5).
body(r_fr17_101,fr17_f3).
head(r_fr17_102,fr17_w2).
body(r_fr17_102,fr17_b5).
head(r_fr17_103,fr17_w2).
body(r_fr17_103,fr14_c2).
body(r_fr17_103,fr17_a2).
body(r_fr17_103,fr17_c4).
body(r_fr17_103,fr17_p4).
body(r_fr17_103,fr17_r1).
body(r_fr17_103,fr17_r4).
body(r_fr17_103,fr17_x3).
body(r_fr17_103,fr3_p1).
body(r_fr17_103,fr17_z4).
head(r_fr17_104,fr17_w2).
body(r_fr17_104,fr17_a3).
body(r_fr17_104,fr17_b1).
body(r_fr17_104,fr17_b3).
body(r_fr17_104,fr17_d3).
body(r_fr17_104,fr17_d4).
body(r_fr17_104,fr17_e2).
body(r_fr17_104,fr17_e3).
body(r_fr17_104,fr17_f2).
body(r_fr17_104,fr17_f3).
body(r_fr17_104,fr6_z2).
body(r_fr17_104,fr3_p1).
head(r_fr17_105,fr17_w2).
body(r_fr17_105,fr17_e2).
body(r_fr17_105,fr17_t5).
body(r_fr17_105,fr6_r2).
body(r_fr17_105,fr17_u5).
body(r_fr17_105,fr17_v3).
body(r_fr17_105,fr17_v4).
body(r_fr17_105,fr17_x1).
body(r_fr17_105,fr17_x3).
body(r_fr17_105,fr17_x4).
body(r_fr17_105,fr9_r2).
body(r_fr17_105,fr17_z2).
head(r_fr17_106,fr17_w2).
body(r_fr17_106,fr17_a3).
body(r_fr17_106,fr17_c1).
body(r_fr17_106,fr17_p4).
body(r_fr17_106,fr17_q4).
body(r_fr17_106,fr17_t4).
body(r_fr17_106,fr6_z2).
body(r_fr17_106,fr17_u5).
body(r_fr17_106,fr17_w4).
body(r_fr17_106,fr17_x3).
body(r_fr17_106,fr17_y1).
head(r_fr17_107,fr17_x1).
body(r_fr17_107,fr17_a2).
body(r_fr17_107,fr17_e4).
body(r_fr17_107,fr17_q4).
body(r_fr17_107,fr17_r5).
body(r_fr17_107,fr17_s3).
body(r_fr17_107,fr17_t5).
body(r_fr17_107,fr6_z2).
body(r_fr17_107,fr8_u2).
body(r_fr17_107,fr17_v2).
body(r_fr17_107,fr17_v3).
body(r_fr17_107,fr17_w4).
head(r_fr17_108,fr17_x1).
body(r_fr17_108,fr17_f4).
body(r_fr17_108,fr17_s4).
body(r_fr17_108,fr8_u2).
head(r_fr17_109,fr17_x1).
body(r_fr17_109,fr17_u3).
body(r_fr17_109,fr17_x4).
head(r_fr17_110,fr17_x4).
body(r_fr17_110,fr14_c2).
body(r_fr17_110,fr17_e2).
body(r_fr17_110,fr23_u3).
body(r_fr17_110,fr17_t2).
body(r_fr17_110,fr17_w3).
body(r_fr17_110,fr17_x3).
head(r_fr17_111,fr17_x4).
body(r_fr17_111,fr17_e4).
body(r_fr17_111,fr17_p4).
body(r_fr17_111,fr17_r3).
body(r_fr17_111,fr8_u2).
body(r_fr17_111,fr17_w3).
body(r_fr17_111,fr17_w4).
head(r_fr17_112,fr17_x4).
body(r_fr17_112,fr17_d4).
body(r_fr17_112,fr17_d5).
body(r_fr17_112,fr17_f2).
body(r_fr17_112,fr17_p1).
body(r_fr17_112,fr23_u3).
body(r_fr17_112,fr17_q5).
body(r_fr17_112,fr17_w4).
body(r_fr17_112,fr17_x1).
body(r_fr17_112,fr17_y1).
head(r_fr17_113,fr17_p2).
body(r_fr17_113,fr17_a5).
body(r_fr17_113,fr17_c1).
body(r_fr17_113,fr17_d2).
body(r_fr17_113,fr17_e5).
body(r_fr17_113,fr17_p5).
body(r_fr17_113,fr17_q3).
body(r_fr17_113,fr9_r2).
head(r_fr17_114,fr17_p2).
body(r_fr17_114,fr17_d2).
body(r_fr17_114,fr17_r3).
body(r_fr17_114,fr17_s5).
head(r_fr17_115,fr17_p2).
body(r_fr17_115,fr17_f2).
body(r_fr17_115,fr17_s4).
head(r_fr17_116,fr17_p2).
body(r_fr17_116,fr17_c1).
body(r_fr17_116,fr17_s3).
body(r_fr17_116,fr22_z2).
body(r_fr17_116,fr17_y4).
body(r_fr17_116,fr3_p1).
head(r_fr17_117,fr17_p2).
body(r_fr17_117,fr17_s4).
body(r_fr17_117,fr22_z2).
body(r_fr17_117,fr17_w4).
body(r_fr17_117,fr17_z2).
head(r_fr17_118,fr17_p2).
body(r_fr17_118,fr17_b4).
body(r_fr17_118,fr17_c1).
body(r_fr17_118,fr17_c4).
body(r_fr17_118,fr17_d1).
body(r_fr17_118,fr17_d5).
body(r_fr17_118,fr17_e3).
body(r_fr17_118,fr17_e5).
body(r_fr17_118,fr17_f2).
body(r_fr17_118,fr17_f5).
body(r_fr17_118,fr6_z2).
body(r_fr17_118,fr17_v3).
head(r_fr17_119,fr17_p2).
body(r_fr17_119,fr17_b1).
body(r_fr17_119,fr17_c1).
body(r_fr17_119,fr17_q2).
body(r_fr17_119,fr17_s3).
body(r_fr17_119,fr17_u4).
body(r_fr17_119,fr22_z2).
body(r_fr17_119,fr17_w2).
body(r_fr17_119,fr17_w4).
body(r_fr17_119,fr17_x3).
head(r_fr17_120,fr17_p2).
body(r_fr17_120,fr17_a2).
body(r_fr17_120,fr17_b1).
body(r_fr17_120,fr17_c1).
body(r_fr17_120,fr17_c3).
body(r_fr17_120,fr17_e2).
body(r_fr17_120,fr17_q4).
body(r_fr17_120,fr17_r1).
head(r_fr17_121,fr17_p2).
body(r_fr17_121,fr17_a3).
body(r_fr17_121,fr17_b2).
body(r_fr17_121,fr17_c3).
body(r_fr17_121,fr17_d2).
body(r_fr17_121,fr17_e4).
body(r_fr17_121,fr17_f1).
body(r_fr17_121,fr17_f5).
body(r_fr17_121,fr17_s5).
body(r_fr17_121,fr17_y1).
head(r_fr17_122,fr17_s5).
body(r_fr17_122,fr23_c1).
body(r_fr17_122,fr17_b2).
body(r_fr17_122,fr17_c3).
body(r_fr17_122,fr17_p4).
body(r_fr17_122,fr17_s3).
body(r_fr17_122,fr17_w2).
head(r_fr17_123,fr17_s5).
body(r_fr17_123,fr17_b2).
body(r_fr17_123,fr17_e3).
body(r_fr17_123,fr17_s1).
body(r_fr17_123,fr17_t2).
body(r_fr17_123,fr17_y1).
head(r_fr17_124,fr17_v3).
body(r_fr17_124,fr17_e3).
body(r_fr17_124,fr17_q5).
body(r_fr17_124,fr17_r2).
body(r_fr17_124,fr22_z2).
body(r_fr17_124,fr17_y2).
head(r_fr17_125,fr17_v3).
body(r_fr17_125,fr22_y2).
body(r_fr17_125,fr17_u5).
head(r_fr17_126,fr17_t3).
body(r_fr17_126,fr17_b1).
body(r_fr17_126,fr17_c3).
body(r_fr17_126,fr17_d1).
body(r_fr17_126,fr17_f4).
head(r_fr17_127,fr17_t3).
body(r_fr17_127,fr14_c2).
body(r_fr17_127,fr23_c1).
body(r_fr17_127,fr17_b2).
body(r_fr17_127,fr17_e4).
body(r_fr17_127,fr17_p5).
body(r_fr17_127,fr22_y2).
head(r_fr17_128,fr17_t3).
body(r_fr17_128,fr17_b3).
body(r_fr17_128,fr17_c2).
body(r_fr17_128,fr17_d4).
body(r_fr17_128,fr17_q2).
body(r_fr17_128,fr17_q4).
body(r_fr17_128,fr17_r5).
head(r_fr17_129,fr17_t3).
body(r_fr17_129,fr17_q2).
body(r_fr17_129,fr17_v2).
body(r_fr17_129,fr17_v4).
body(r_fr17_129,fr17_w3).
body(r_fr17_129,fr17_x1).
body(r_fr17_129,fr17_z2).
body(r_fr17_129,fr3_p1).
head(r_fr17_130,fr17_t3).
body(r_fr17_130,fr14_c2).
body(r_fr17_130,fr17_c3).
body(r_fr17_130,fr17_c4).
body(r_fr17_130,fr17_d3).
body(r_fr17_130,fr17_e1).
head(r_fr17_131,fr17_t3).
body(r_fr17_131,fr17_a5).
body(r_fr17_131,fr17_b3).
body(r_fr17_131,fr17_c3).
body(r_fr17_131,fr17_d2).
body(r_fr17_131,fr17_e5).
body(r_fr17_131,fr17_f4).
body(r_fr17_131,fr17_p2).
body(r_fr17_131,fr17_x4).
head(r_fr17_132,fr17_r5).
body(r_fr17_132,fr14_c2).
body(r_fr17_132,fr17_b2).
body(r_fr17_132,fr17_c4).
body(r_fr17_132,fr17_d5).
body(r_fr17_132,fr17_e5).
body(r_fr17_132,fr17_f1).
head(r_fr17_133,fr17_r5).
body(r_fr17_133,fr17_e3).
body(r_fr17_133,fr17_t5).
head(r_fr17_134,fr17_r5).
body(r_fr17_134,fr17_r3).
body(r_fr17_134,fr17_u4).
head(r_fr17_135,fr17_r5).
body(r_fr17_135,fr23_c1).
body(r_fr17_135,fr17_d1).
body(r_fr17_135,fr17_e2).
body(r_fr17_135,fr17_e3).
body(r_fr17_135,fr17_f4).
body(r_fr17_135,fr17_p5).
body(r_fr17_135,fr17_q4).
body(r_fr17_135,fr17_w3).
body(r_fr17_135,fr17_y2).
head(r_fr17_136,fr17_r5).
body(r_fr17_136,fr23_c1).
body(r_fr17_136,fr17_b5).
body(r_fr17_136,fr17_c5).
body(r_fr17_136,fr17_e3).
body(r_fr17_136,fr17_f2).
body(r_fr17_136,fr17_p1).
body(r_fr17_136,fr8_u2).
body(r_fr17_136,fr3_p1).
head(r_fr17_137,fr17_r5).
head(r_fr17_138,fr17_q5).
body(r_fr17_138,fr17_b3).
body(r_fr17_138,fr17_e3).
body(r_fr17_138,fr17_f4).
body(r_fr17_138,fr17_s5).
body(r_fr17_138,fr17_v4).
head(r_fr17_139,fr17_q5).
body(r_fr17_139,fr17_a3).
body(r_fr17_139,fr17_b1).
body(r_fr17_139,fr17_b5).
body(r_fr17_139,fr17_f1).
head(r_fr17_140,fr17_q4).
body(r_fr17_140,fr17_a2).
body(r_fr17_140,fr17_a5).
body(r_fr17_140,fr17_c1).
body(r_fr17_140,fr17_c2).
body(r_fr17_140,fr17_d2).
body(r_fr17_140,fr17_d3).
body(r_fr17_140,fr17_e1).
body(r_fr17_140,fr17_f3).
body(r_fr17_140,fr17_q2).
body(r_fr17_140,fr17_v4).
head(r_fr17_141,fr17_q4).
body(r_fr17_141,fr17_p1).
body(r_fr17_141,fr17_t4).
body(r_fr17_141,fr22_z2).
body(r_fr17_141,fr17_y2).
head(r_fr17_142,fr17_q4).
body(r_fr17_142,fr17_a3).
body(r_fr17_142,fr17_d5).
body(r_fr17_142,fr17_f3).
body(r_fr17_142,fr17_f5).
body(r_fr17_142,fr17_p4).
body(r_fr17_142,fr17_r2).
body(r_fr17_142,fr17_s3).
body(r_fr17_142,fr6_r2).
body(r_fr17_142,fr8_u2).
body(r_fr17_142,fr17_x1).
body(r_fr17_142,fr17_x3).
head(r_fr17_143,fr17_q4).
body(r_fr17_143,fr23_u3).
body(r_fr17_143,fr17_r2).
body(r_fr17_143,fr6_z2).
head(r_fr17_144,fr17_u4).
body(r_fr17_144,fr17_b2).
body(r_fr17_144,fr17_d3).
body(r_fr17_144,fr17_p3).
body(r_fr17_144,fr17_r3).
body(r_fr17_144,fr17_t4).
body(r_fr17_144,fr8_u2).
head(r_fr17_145,fr17_u4).
body(r_fr17_145,fr17_f3).
body(r_fr17_145,fr22_y2).
body(r_fr17_145,fr17_u3).
head(r_fr17_146,fr17_u4).
body(r_fr17_146,fr17_e4).
body(r_fr17_146,fr17_f4).
body(r_fr17_146,fr17_u5).
head(r_fr17_147,fr17_u4).
body(r_fr17_147,fr17_a2).
body(r_fr17_147,fr17_a3).
body(r_fr17_147,fr17_a5).
body(r_fr17_147,fr17_d2).
body(r_fr17_147,fr17_e1).
body(r_fr17_147,fr17_e2).
body(r_fr17_147,fr17_e3).
body(r_fr17_147,fr17_e4).
body(r_fr17_147,fr17_f4).
body(r_fr17_147,fr17_x3).
head(r_fr17_148,fr17_u4).
body(r_fr17_148,fr14_c2).
body(r_fr17_148,fr17_a5).
body(r_fr17_148,fr17_c5).
body(r_fr17_148,fr17_e2).
body(r_fr17_148,fr17_e5).
head(r_fr17_149,fr17_u4).
body(r_fr17_149,fr17_b3).
body(r_fr17_149,fr17_d3).
body(r_fr17_149,fr17_d5).
body(r_fr17_149,fr17_f1).
body(r_fr17_149,fr17_f2).
body(r_fr17_149,fr17_f4).
body(r_fr17_149,fr17_r1).
body(r_fr17_149,fr17_s5).
head(r_fr17_150,fr17_s4).
body(r_fr17_150,fr17_d4).
body(r_fr17_150,fr17_e1).
body(r_fr17_150,fr17_p3).
body(r_fr17_150,fr17_t3).
body(r_fr17_150,fr8_u2).
head(r_fr17_151,fr17_s4).
body(r_fr17_151,fr17_t3).
body(r_fr17_151,fr17_w3).
body(r_fr17_151,fr17_x4).
body(r_fr17_151,fr3_p1).
head(r_fr17_152,fr17_p4).
body(r_fr17_152,fr17_a3).
body(r_fr17_152,fr17_b4).
body(r_fr17_152,fr17_c2).
body(r_fr17_152,fr17_d3).
body(r_fr17_152,fr17_e3).
body(r_fr17_152,fr17_f2).
body(r_fr17_152,fr17_p1).
body(r_fr17_152,fr17_s2).
body(r_fr17_152,fr17_x2).
body(r_fr17_152,fr17_y4).
head(r_fr17_153,fr17_p4).
body(r_fr17_153,fr17_a3).
body(r_fr17_153,fr17_b5).
body(r_fr17_153,fr17_c4).
body(r_fr17_153,fr17_e4).
body(r_fr17_153,fr17_p3).
body(r_fr17_153,fr17_r1).
body(r_fr17_153,fr17_x1).
head(r_fr17_154,fr17_p4).
body(r_fr17_154,fr14_c2).
body(r_fr17_154,fr17_a2).
body(r_fr17_154,fr17_b1).
body(r_fr17_154,fr17_b2).
body(r_fr17_154,fr17_e5).
body(r_fr17_154,fr17_q5).
body(r_fr17_154,fr17_r4).
body(r_fr17_154,fr17_u4).
body(r_fr17_154,fr17_y4).
head(r_fr17_155,fr17_p4).
body(r_fr17_155,fr17_b1).
body(r_fr17_155,fr17_c2).
body(r_fr17_155,fr17_e4).
body(r_fr17_155,fr17_f4).
body(r_fr17_155,fr17_q5).
head(r_fr17_156,fr17_p4).
body(r_fr17_156,fr17_b2).
body(r_fr17_156,fr17_c2).
body(r_fr17_156,fr17_e2).
body(r_fr17_156,fr17_f2).
body(r_fr17_156,fr17_q2).
body(r_fr17_156,fr17_t3).
body(r_fr17_156,fr17_u3).
head(r_fr17_157,fr17_p4).
body(r_fr17_157,fr17_b1).
body(r_fr17_157,fr17_f5).
body(r_fr17_157,fr17_p5).
body(r_fr17_157,fr17_r3).
body(r_fr17_157,fr17_w2).
body(r_fr17_157,fr17_w4).
body(r_fr17_157,fr17_z2).
body(r_fr17_157,fr3_p1).
head(r_fr17_158,fr17_p4).
body(r_fr17_158,fr17_a2).
body(r_fr17_158,fr17_b1).
body(r_fr17_158,fr17_b3).
body(r_fr17_158,fr17_c2).
body(r_fr17_158,fr17_c5).
body(r_fr17_158,fr17_d3).
body(r_fr17_158,fr17_d5).
body(r_fr17_158,fr17_e4).
body(r_fr17_158,fr17_f1).
body(r_fr17_158,fr17_f5).
head(r_fr17_159,fr6_z2).
body(r_fr17_159,fr17_b1).
body(r_fr17_159,fr17_b4).
body(r_fr17_159,fr17_c4).
body(r_fr17_159,fr17_d1).
body(r_fr17_159,fr17_d4).
body(r_fr17_159,fr17_d5).
body(r_fr17_159,fr17_f2).
body(r_fr17_159,fr17_f4).
body(r_fr17_159,fr17_p2).
body(r_fr17_159,fr17_r2).
head(r_fr17_160,fr6_z2).
body(r_fr17_160,fr17_a2).
body(r_fr17_160,fr17_a5).
body(r_fr17_160,fr17_b1).
body(r_fr17_160,fr17_b3).
body(r_fr17_160,fr17_b4).
body(r_fr17_160,fr17_c3).
body(r_fr17_160,fr17_d1).
body(r_fr17_160,fr17_f5).
body(r_fr17_160,fr17_y4).
head(r_fr17_161,fr6_z2).
body(r_fr17_161,fr17_b4).
body(r_fr17_161,fr17_s2).
head(r_fr17_162,fr6_z2).
body(r_fr17_162,fr17_a3).
body(r_fr17_162,fr17_b4).
body(r_fr17_162,fr17_c1).
body(r_fr17_162,fr17_c3).
body(r_fr17_162,fr17_d2).
body(r_fr17_162,fr17_d5).
body(r_fr17_162,fr17_e1).
body(r_fr17_162,fr17_e5).
body(r_fr17_162,fr17_f5).
body(r_fr17_162,fr17_u3).
head(r_fr17_163,fr6_z2).
body(r_fr17_163,fr17_a2).
body(r_fr17_163,fr17_c4).
body(r_fr17_163,fr17_e1).
body(r_fr17_163,fr17_e5).
body(r_fr17_163,fr17_f4).
body(r_fr17_163,fr17_p4).
body(r_fr17_163,fr17_r5).
head(r_fr17_164,fr6_z2).
body(r_fr17_164,fr17_b3).
body(r_fr17_164,fr17_b5).
body(r_fr17_164,fr17_d5).
body(r_fr17_164,fr17_f4).
body(r_fr17_164,fr17_p5).
body(r_fr17_164,fr17_q4).
body(r_fr17_164,fr17_s2).
body(r_fr17_164,fr17_t2).
body(r_fr17_164,fr17_x3).
body(r_fr17_164,fr9_r2).
head(r_fr17_165,fr6_z2).
body(r_fr17_165,fr17_e2).
body(r_fr17_165,fr17_r2).
body(r_fr17_165,fr17_r5).
body(r_fr17_165,fr17_t3).
body(r_fr17_165,fr17_w3).
body(r_fr17_165,fr17_y2).
head(r_fr17_166,fr6_z2).
head(r_fr17_167,fr6_z2).
body(r_fr17_167,fr17_b5).
body(r_fr17_167,fr17_c2).
body(r_fr17_167,fr17_c4).
body(r_fr17_167,fr17_d1).
body(r_fr17_167,fr17_d5).
body(r_fr17_167,fr17_e4).
body(r_fr17_167,fr17_e5).
body(r_fr17_167,fr17_f5).
body(r_fr17_167,fr8_u2).
head(r_fr17_168,fr17_s2).
body(r_fr17_168,fr17_b1).
body(r_fr17_168,fr17_b2).
body(r_fr17_168,fr17_d5).
body(r_fr17_168,fr17_e4).
body(r_fr17_168,fr17_p1).
body(r_fr17_168,fr17_q2).
body(r_fr17_168,fr17_t2).
body(r_fr17_168,fr17_u3).
body(r_fr17_168,fr17_w3).
body(r_fr17_168,fr17_x4).
body(r_fr17_168,fr17_z4).
head(r_fr17_169,fr17_s2).
head(r_fr17_170,fr17_s2).
body(r_fr17_170,fr17_f1).
body(r_fr17_170,fr17_p1).
body(r_fr17_170,fr17_p4).
body(r_fr17_170,fr17_t4).
body(r_fr17_170,fr17_v2).
head(r_fr17_171,fr17_s2).
body(r_fr17_171,fr17_d5).
head(r_fr17_172,fr17_s2).
body(r_fr17_172,fr17_a3).
body(r_fr17_172,fr23_c1).
body(r_fr17_172,fr17_b5).
body(r_fr17_172,fr17_c4).
body(r_fr17_172,fr17_d1).
body(r_fr17_172,fr17_d5).
body(r_fr17_172,fr17_e3).
body(r_fr17_172,fr17_e5).
body(r_fr17_172,fr17_f1).
body(r_fr17_172,fr17_q4).
body(r_fr17_172,fr17_w2).
head(r_fr17_173,fr17_s2).
body(r_fr17_173,fr17_a3).
body(r_fr17_173,fr23_c1).
body(r_fr17_173,fr17_b1).
body(r_fr17_173,fr17_b3).
body(r_fr17_173,fr17_c3).
body(r_fr17_173,fr17_e4).
body(r_fr17_173,fr17_e5).
body(r_fr17_173,fr17_f1).
body(r_fr17_173,fr17_f5).
body(r_fr17_173,fr17_p3).
body(r_fr17_173,fr3_p1).
head(r_fr17_174,fr17_s2).
body(r_fr17_174,fr14_c2).
body(r_fr17_174,fr17_b4).
body(r_fr17_174,fr17_p1).
body(r_fr17_174,fr17_r5).
body(r_fr17_174,fr22_y2).
body(r_fr17_174,fr22_z2).
body(r_fr17_174,fr17_y2).
head(r_fr17_175,fr17_s2).
body(r_fr17_175,fr17_a3).
body(r_fr17_175,fr17_c2).
body(r_fr17_175,fr17_c3).
body(r_fr17_175,fr17_e5).
body(r_fr17_175,fr17_p3).
body(r_fr17_175,fr17_t5).
body(r_fr17_175,fr17_u5).
body(r_fr17_175,fr8_u2).
body(r_fr17_175,fr17_w2).
body(r_fr17_175,fr17_w4).
body(r_fr17_175,fr17_y4).
head(r_fr17_176,fr17_s2).
body(r_fr17_176,fr17_s4).
body(r_fr17_176,fr17_u3).
body(r_fr17_176,fr17_w2).
body(r_fr17_176,fr17_w4).
body(r_fr17_176,fr17_z2).
head(r_fr17_177,fr17_s2).
body(r_fr17_177,fr17_d4).
body(r_fr17_177,fr17_d5).
body(r_fr17_177,fr17_f2).
body(r_fr17_177,fr17_f4).
body(r_fr17_177,fr17_t3).
head(r_fr17_178,fr17_y4).
body(r_fr17_178,fr17_p2).
body(r_fr17_178,fr17_s1).
body(r_fr17_178,fr6_r2).
head(r_fr17_179,fr17_y4).
body(r_fr17_179,fr17_c2).
body(r_fr17_179,fr17_e5).
body(r_fr17_179,fr23_u3).
body(r_fr17_179,fr17_q2).
body(r_fr17_179,fr17_s2).
body(r_fr17_179,fr17_t2).
body(r_fr17_179,fr17_w2).
body(r_fr17_179,fr17_w3).
body(r_fr17_179,fr17_z4).
head(r_fr17_180,fr17_y4).
body(r_fr17_180,fr17_r1).
body(r_fr17_180,fr17_w4).
body(r_fr17_180,fr17_x4).
body(r_fr17_180,fr9_r2).
head(r_fr17_181,fr17_y4).
body(r_fr17_181,fr17_r2).
body(r_fr17_181,fr9_r2).
body(r_fr17_181,fr3_p1).
body(r_fr17_181,fr17_z4).
head(r_fr17_182,fr17_y4).
body(r_fr17_182,fr17_a2).
body(r_fr17_182,fr17_a3).
body(r_fr17_182,fr23_c1).
body(r_fr17_182,fr17_b2).
body(r_fr17_182,fr17_c1).
body(r_fr17_182,fr17_c4).
body(r_fr17_182,fr17_d3).
body(r_fr17_182,fr17_e2).
body(r_fr17_182,fr17_f4).
body(r_fr17_182,fr17_s4).
body(r_fr17_182,fr17_w3).
head(r_fr17_183,fr17_y4).
body(r_fr17_183,fr8_u2).
head(r_fr17_184,fr17_v4).
body(r_fr17_184,fr17_e1).
body(r_fr17_184,fr17_p1).
body(r_fr17_184,fr17_s1).
body(r_fr17_184,fr17_t5).
body(r_fr17_184,fr17_w2).
head(r_fr17_185,fr17_v4).
head(r_fr17_186,fr17_v4).
body(r_fr17_186,fr17_a2).
body(r_fr17_186,fr17_a3).
body(r_fr17_186,fr17_b1).
body(r_fr17_186,fr17_b3).
body(r_fr17_186,fr17_b4).
body(r_fr17_186,fr17_d5).
body(r_fr17_186,fr17_e3).
body(r_fr17_186,fr17_e4).
body(r_fr17_186,fr17_f5).
head(r_fr17_187,fr17_p1).
body(r_fr17_187,fr23_u3).
body(r_fr17_187,fr17_r1).
body(r_fr17_187,fr6_r2).
body(r_fr17_187,fr17_u4).
body(r_fr17_187,fr17_v3).
head(r_fr17_188,fr17_p1).
body(r_fr17_188,fr17_a2).
body(r_fr17_188,fr23_c1).
body(r_fr17_188,fr17_a5).
body(r_fr17_188,fr17_b2).
body(r_fr17_188,fr17_b5).
body(r_fr17_188,fr17_d3).
body(r_fr17_188,fr17_d4).
body(r_fr17_188,fr17_e1).
body(r_fr17_188,fr17_e3).
body(r_fr17_188,fr17_f2).
body(r_fr17_188,fr17_x2).
head(r_fr17_189,fr22_z2).
body(r_fr17_189,fr17_a3).
body(r_fr17_189,fr17_c2).
body(r_fr17_189,fr17_c3).
body(r_fr17_189,fr17_f5).
body(r_fr17_189,fr17_p1).
body(r_fr17_189,fr17_p3).
body(r_fr17_189,fr17_r5).
body(r_fr17_189,fr17_t5).
body(r_fr17_189,fr17_u5).
body(r_fr17_189,fr17_x1).
head(r_fr17_190,fr22_z2).
body(r_fr17_190,fr23_c1).
body(r_fr17_190,fr17_c2).
body(r_fr17_190,fr17_f3).
body(r_fr17_190,fr17_p5).
body(r_fr17_190,fr17_q4).
body(r_fr17_190,fr17_r4).
body(r_fr17_190,fr17_s2).
body(r_fr17_190,fr17_s4).
body(r_fr17_190,fr17_t3).
body(r_fr17_190,fr17_x2).
head(r_fr17_191,fr22_z2).
body(r_fr17_191,fr17_e1).
body(r_fr17_191,fr22_y2).
body(r_fr17_191,fr17_w2).
body(r_fr17_191,fr17_z4).
head(r_fr17_192,fr22_z2).
body(r_fr17_192,fr23_c1).
body(r_fr17_192,fr17_d1).
body(r_fr17_192,fr17_d2).
body(r_fr17_192,fr17_e1).
body(r_fr17_192,fr17_e2).
body(r_fr17_192,fr17_f5).
head(r_fr17_193,fr22_z2).
body(r_fr17_193,fr23_c1).
body(r_fr17_193,fr17_b1).
body(r_fr17_193,fr17_c2).
body(r_fr17_193,fr17_c5).
head(r_fr17_194,fr22_z2).
body(r_fr17_194,fr17_a3).
body(r_fr17_194,fr17_p2).
body(r_fr17_194,fr17_r3).
body(r_fr17_194,fr17_r5).
head(r_fr17_195,fr22_z2).
head(r_fr17_196,fr17_t5).
body(r_fr17_196,fr17_a2).
body(r_fr17_196,fr17_a5).
body(r_fr17_196,fr17_b2).
body(r_fr17_196,fr17_c4).
body(r_fr17_196,fr17_c5).
body(r_fr17_196,fr17_d4).
body(r_fr17_196,fr17_e5).
body(r_fr17_196,fr17_p4).
body(r_fr17_196,fr6_r2).
body(r_fr17_196,fr8_u2).
head(r_fr17_197,fr17_t5).
body(r_fr17_197,fr17_f4).
body(r_fr17_197,fr17_r1).
body(r_fr17_197,fr17_x4).
body(r_fr17_197,fr17_y1).
body(r_fr17_197,fr3_p1).
head(r_fr17_198,fr17_t5).
body(r_fr17_198,fr17_a5).
body(r_fr17_198,fr17_t4).
body(r_fr17_198,fr17_u5).
body(r_fr17_198,fr17_x4).
body(r_fr17_198,fr9_r2).
head(r_fr17_199,fr17_t5).
body(r_fr17_199,fr17_b5).
body(r_fr17_199,fr17_c1).
body(r_fr17_199,fr17_d2).
body(r_fr17_199,fr17_d3).
body(r_fr17_199,fr17_e3).
body(r_fr17_199,fr17_f1).
body(r_fr17_199,fr17_p1).
body(r_fr17_199,fr17_u3).
body(r_fr17_199,fr17_z2).
head(r_fr17_200,fr17_t5).
body(r_fr17_200,fr17_a5).
body(r_fr17_200,fr17_b3).
body(r_fr17_200,fr17_b4).
body(r_fr17_200,fr17_b5).
body(r_fr17_200,fr17_c2).
body(r_fr17_200,fr17_c5).
body(r_fr17_200,fr17_d1).
body(r_fr17_200,fr17_e3).
body(r_fr17_200,fr17_f1).
body(r_fr17_200,fr17_f5).
head(r_fr17_201,fr17_t5).
body(r_fr17_201,fr17_a2).
body(r_fr17_201,fr17_b2).
body(r_fr17_201,fr17_s5).
body(r_fr17_201,fr17_v4).
head(r_fr17_202,fr17_t5).
body(r_fr17_202,fr17_a3).
body(r_fr17_202,fr17_d4).
body(r_fr17_202,fr17_d5).
body(r_fr17_202,fr17_q4).
head(r_fr17_203,fr17_t5).
body(r_fr17_203,fr17_q2).
body(r_fr17_203,fr17_y4).
head(r_fr17_204,fr17_t5).
body(r_fr17_204,fr17_q3).
body(r_fr17_204,fr17_w4).
body(r_fr17_204,fr3_p1).
body(r_fr17_204,fr17_z4).
head(r_fr17_205,fr17_t5).
head(r_fr17_206,fr17_z2).
body(r_fr17_206,fr17_a5).
body(r_fr17_206,fr17_e4).
body(r_fr17_206,fr17_f3).
head(r_fr17_207,fr17_z2).
body(r_fr17_207,fr17_d1).
body(r_fr17_207,fr17_q3).
body(r_fr17_207,fr17_t3).
body(r_fr17_207,fr6_r2).
body(r_fr17_207,fr17_y4).
body(r_fr17_207,fr17_z1).
head(r_fr17_208,fr17_z2).
body(r_fr17_208,fr17_e1).
body(r_fr17_208,fr17_v2).
head(r_fr17_209,fr17_z2).
head(r_fr17_210,fr17_z2).
body(r_fr17_210,fr17_f2).
body(r_fr17_210,fr17_p1).
body(r_fr17_210,fr17_u4).
head(r_fr17_211,fr17_z2).
body(r_fr17_211,fr17_p2).
body(r_fr17_211,fr17_q2).
body(r_fr17_211,fr17_q4).
body(r_fr17_211,fr17_r1).
body(r_fr17_211,fr17_s5).
body(r_fr17_211,fr17_v4).
body(r_fr17_211,fr17_w2).
head(r_fr17_212,fr17_s1).
body(r_fr17_212,fr17_a3).
body(r_fr17_212,fr17_b3).
body(r_fr17_212,fr17_e2).
body(r_fr17_212,fr17_z4).
head(r_fr17_213,fr17_s1).
body(r_fr17_213,fr17_f1).
body(r_fr17_213,fr17_p1).
body(r_fr17_213,fr17_q2).
body(r_fr17_213,fr17_r1).
body(r_fr17_213,fr17_r3).
body(r_fr17_213,fr17_s5).
body(r_fr17_213,fr22_y2).
body(r_fr17_213,fr22_z2).
body(r_fr17_213,fr9_r2).
head(r_fr17_214,fr17_s1).
body(r_fr17_214,fr23_c1).
body(r_fr17_214,fr17_c4).
body(r_fr17_214,fr17_d3).
body(r_fr17_214,fr17_f4).
body(r_fr17_214,fr22_y2).
body(r_fr17_214,fr17_t4).
body(r_fr17_214,fr17_x3).
body(r_fr17_214,fr17_x4).
head(r_fr17_215,fr17_s1).
body(r_fr17_215,fr17_p5).
body(r_fr17_215,fr17_r5).
body(r_fr17_215,fr17_t3).
body(r_fr17_215,fr17_u3).
body(r_fr17_215,fr17_v2).
body(r_fr17_215,fr22_z2).
body(r_fr17_215,fr17_w3).
body(r_fr17_215,fr17_y2).
body(r_fr17_215,fr17_z4).
head(r_fr17_216,fr17_s1).
body(r_fr17_216,fr17_b3).
body(r_fr17_216,fr17_c4).
body(r_fr17_216,fr17_d2).
body(r_fr17_216,fr17_d3).
body(r_fr17_216,fr17_e1).
body(r_fr17_216,fr17_f3).
body(r_fr17_216,fr17_v2).
head(r_fr17_217,fr17_s1).
body(r_fr17_217,fr17_p5).
body(r_fr17_217,fr17_q5).
body(r_fr17_217,fr17_r1).
body(r_fr17_217,fr17_r5).
body(r_fr17_217,fr17_s3).
body(r_fr17_217,fr17_u3).
body(r_fr17_217,fr17_w4).
body(r_fr17_217,fr17_x1).
body(r_fr17_217,fr9_r2).
head(r_fr17_218,fr17_s1).
body(r_fr17_218,fr14_c2).
body(r_fr17_218,fr17_c3).
body(r_fr17_218,fr17_w4).
head(r_fr17_219,fr17_s1).
body(r_fr17_219,fr14_c2).
body(r_fr17_219,fr17_c5).
body(r_fr17_219,fr17_d2).
body(r_fr17_219,fr17_d3).
body(r_fr17_219,fr17_d4).
body(r_fr17_219,fr17_d5).
body(r_fr17_219,fr17_e1).
body(r_fr17_219,fr17_e3).
body(r_fr17_219,fr17_v2).
body(r_fr17_219,fr17_y1).
head(r_fr17_220,fr17_p3).
body(r_fr17_220,fr23_u3).
body(r_fr17_220,fr17_r1).
head(r_fr17_221,fr17_p3).
body(r_fr17_221,fr17_x4).
head(r_fr17_222,fr17_p3).
body(r_fr17_222,fr17_a2).
body(r_fr17_222,fr17_e1).
body(r_fr17_222,fr17_e5).
body(r_fr17_222,fr17_p4).
body(r_fr17_222,fr17_q4).
body(r_fr17_222,fr17_r5).
body(r_fr17_222,fr6_r2).
body(r_fr17_222,fr17_y1).
body(r_fr17_222,fr17_y4).
body(r_fr17_222,fr3_p1).
head(r_fr17_223,fr17_p3).
body(r_fr17_223,fr14_c2).
body(r_fr17_223,fr17_a5).
body(r_fr17_223,fr17_e2).
body(r_fr17_223,fr17_e5).
body(r_fr17_223,fr17_s4).
body(r_fr17_223,fr17_y2).
head(r_fr17_224,fr17_p3).
body(r_fr17_224,fr17_p5).
body(r_fr17_224,fr6_z2).
head(r_fr17_225,fr17_p3).
body(r_fr17_225,fr17_b3).
body(r_fr17_225,fr17_p1).
body(r_fr17_225,fr17_p2).
body(r_fr17_225,fr17_q3).
body(r_fr17_225,fr17_r1).
body(r_fr17_225,fr17_r2).
body(r_fr17_225,fr17_r3).
body(r_fr17_225,fr17_s3).
body(r_fr17_225,fr6_r2).
body(r_fr17_225,fr17_y2).
body(r_fr17_225,fr3_p1).
head(r_fr17_226,fr17_p3).
body(r_fr17_226,fr17_p5).
body(r_fr17_226,fr6_z2).
body(r_fr17_226,fr17_v2).
body(r_fr17_226,fr17_y2).
head(r_fr17_227,fr17_p3).
head(r_fr17_228,fr17_p3).
body(r_fr17_228,fr17_t2).
body(r_fr17_228,fr17_t5).
head(r_fr17_229,fr17_z1).
body(r_fr17_229,fr17_v4).
head(r_fr17_230,fr17_z1).
body(r_fr17_230,fr17_a3).
body(r_fr17_230,fr17_b4).
body(r_fr17_230,fr17_c2).
body(r_fr17_230,fr17_c5).
body(r_fr17_230,fr17_e3).
body(r_fr17_230,fr17_r4).
body(r_fr17_230,fr17_s4).
body(r_fr17_230,fr8_u2).
body(r_fr17_230,fr17_w2).
body(r_fr17_230,fr17_x1).
head(r_fr17_231,fr17_z1).
body(r_fr17_231,fr17_a2).
body(r_fr17_231,fr17_a5).
head(r_fr17_232,fr17_z1).
body(r_fr17_232,fr17_b1).
body(r_fr17_232,fr17_c1).
body(r_fr17_232,fr17_c2).
body(r_fr17_232,fr17_e5).
head(r_fr17_233,fr17_z1).
body(r_fr17_233,fr14_c2).
body(r_fr17_233,fr17_c4).
body(r_fr17_233,fr17_q4).
body(r_fr17_233,fr17_r2).
body(r_fr17_233,fr22_y2).
body(r_fr17_233,fr17_u3).
body(r_fr17_233,fr17_x2).
head(r_fr17_234,fr17_z1).
head(r_fr17_235,fr17_z1).
body(r_fr17_235,fr17_e2).
body(r_fr17_235,fr17_e5).
body(r_fr17_235,fr17_q5).
body(r_fr17_235,fr17_s4).
body(r_fr17_235,fr17_t3).
body(r_fr17_235,fr17_t5).
body(r_fr17_235,fr17_u3).

assumption(fr18_a1).
assumption(fr18_b1).
assumption(fr18_c1).
assumption(fr18_d1).
assumption(fr18_e1).
assumption(fr18_f1).
assumption(fr13_c1).
assumption(fr18_b2).
assumption(fr11_a2).
assumption(fr13_c1).
assumption(fr19_d2).
assumption(fr18_f2).
assumption(fr20_b1).
assumption(fr3_d2).
assumption(fr18_c3).
contrary(fr18_a1,fr18_r2).
contrary(fr13_c1,fr18_t4).
contrary(fr20_b1,fr18_u2).
contrary(fr18_b1,fr18_r1).
contrary(fr18_b2,fr18_s3).
contrary(fr3_d2,fr18_f2).
contrary(fr18_c1,fr18_u4).
contrary(fr11_a2,fr18_z1).
contrary(fr18_c3,fr18_t2).
contrary(fr18_d1,fr18_p4).
contrary(fr13_c1,fr18_u2).
contrary(fr18_e1,fr18_d1).
contrary(fr19_d2,fr18_z1).
contrary(fr18_f1,fr18_z3).
contrary(fr18_f2,fr7_q1).
head(r_fr18_0,fr18_x4).
body(r_fr18_0,fr18_a1).
body(r_fr18_0,fr20_b1).
body(r_fr18_0,fr3_d2).
body(r_fr18_0,fr18_c3).
body(r_fr18_0,fr18_e1).
head(r_fr18_1,fr18_x4).
head(r_fr18_2,fr18_r4).
head(r_fr18_3,fr18_r4).
body(r_fr18_3,fr3_d2).
body(r_fr18_3,fr18_t1).
body(r_fr18_3,fr18_w2).
body(r_fr18_3,fr18_y1).
body(r_fr18_3,fr18_y3).
head(r_fr18_4,fr18_y4).
body(r_fr18_4,fr18_x1).
head(r_fr18_5,fr18_y4).
body(r_fr18_5,fr3_d2).
head(r_fr18_6,fr18_y4).
body(r_fr18_6,fr13_c1).
body(r_fr18_6,fr18_q4).
body(r_fr18_6,fr18_r1).
body(r_fr18_6,fr18_t2).
head(r_fr18_7,fr18_t3).
body(r_fr18_7,fr3_d2).
body(r_fr18_7,fr11_a2).
head(r_fr18_8,fr18_t3).
body(r_fr18_8,fr20_b1).
body(r_fr18_8,fr18_f1).
head(r_fr18_9,fr18_t3).
body(r_fr18_9,fr18_w2).
head(r_fr18_10,fr18_t3).
head(r_fr18_11,fr18_p1).
body(r_fr18_11,fr20_b1).
head(r_fr18_12,fr18_p1).
body(r_fr18_12,fr19_d2).
head(r_fr18_13,fr18_q1).
body(r_fr18_13,fr3_d2).
body(r_fr18_13,fr13_c1).
body(r_fr18_13,fr18_t1).
head(r_fr18_14,fr18_q1).
body(r_fr18_14,fr18_c3).
body(r_fr18_14,fr18_p4).
body(r_fr18_14,fr18_v3).
body(r_fr18_14,fr18_v4).
head(r_fr18_15,fr18_q1).
body(r_fr18_15,fr13_c1).
body(r_fr18_15,fr24_p3).
head(r_fr18_16,fr18_q1).
body(r_fr18_16,fr18_a1).
body(r_fr18_16,fr18_c1).
body(r_fr18_16,fr18_d1).
head(r_fr18_17,fr18_q1).
body(r_fr18_17,fr13_c1).
body(r_fr18_17,fr18_b1).
body(r_fr18_17,fr18_c1).
body(r_fr18_17,fr11_a2).
body(r_fr18_17,fr18_y1).
head(r_fr18_18,fr18_q4).
body(r_fr18_18,fr11_a2).
head(r_fr18_19,fr18_q4).
body(r_fr18_19,fr20_b1).
body(r_fr18_19,fr18_b1).
head(r_fr18_20,fr18_z3).
body(r_fr18_20,fr13_c1).
body(r_fr18_20,fr19_t3).
body(r_fr18_20,fr18_w1).
head(r_fr18_21,fr18_z3).
body(r_fr18_21,fr11_a2).
body(r_fr18_21,fr18_e1).
body(r_fr18_21,fr18_p4).
body(r_fr18_21,fr24_p3).
head(r_fr18_22,fr18_z3).
body(r_fr18_22,fr13_c1).
body(r_fr18_22,fr18_b1).
body(r_fr18_22,fr18_d1).
body(r_fr18_22,fr13_c1).
body(r_fr18_22,fr19_d2).
head(r_fr18_23,fr18_z3).
body(r_fr18_23,fr18_b2).
body(r_fr18_23,fr3_d2).
body(r_fr18_23,fr18_c1).
body(r_fr18_23,fr18_c3).
body(r_fr18_23,fr18_e1).
body(r_fr18_23,fr18_f2).
head(r_fr18_24,fr18_z3).
body(r_fr18_24,fr20_b1).
body(r_fr18_24,fr18_r2).
head(r_fr18_25,fr18_v4).
body(r_fr18_25,fr13_c1).
body(r_fr18_25,fr18_c3).
body(r_fr18_25,fr18_d1).
body(r_fr18_25,fr13_c1).
body(r_fr18_25,fr18_e1).
body(r_fr18_25,fr7_q1).
head(r_fr18_26,fr18_v4).
body(r_fr18_26,fr18_e1).
body(r_fr18_26,fr18_r3).
body(r_fr18_26,fr18_s1).
body(r_fr18_26,fr21_r2).
head(r_fr18_27,fr18_v4).
body(r_fr18_27,fr20_b1).
body(r_fr18_27,fr14_r2).
body(r_fr18_27,fr18_z1).
head(r_fr18_28,fr18_v4).
body(r_fr18_28,fr18_r1).
body(r_fr18_28,fr14_r2).
head(r_fr18_29,fr18_v4).
body(r_fr18_29,fr18_s4).
body(r_fr18_29,fr18_t2).
body(r_fr18_29,fr18_x3).
head(r_fr18_30,fr18_w1).
body(r_fr18_30,fr18_c3).
body(r_fr18_30,fr18_d1).
head(r_fr18_31,fr18_w1).
body(r_fr18_31,fr3_d2).
body(r_fr18_31,fr18_d1).
body(r_fr18_31,fr7_q1).
body(r_fr18_31,fr18_u4).
body(r_fr18_31,fr18_x1).
head(r_fr18_32,fr18_v3).
body(r_fr18_32,fr11_a2).
body(r_fr18_32,fr13_c1).
body(r_fr18_32,fr18_f2).
body(r_fr18_32,fr18_r3).
body(r_fr18_32,fr18_t2).
body(r_fr18_32,fr18_t4).
head(r_fr18_33,fr18_v3).
body(r_fr18_33,fr18_z4).
head(r_fr18_34,fr18_u2).
body(r_fr18_34,fr18_b2).
body(r_fr18_34,fr18_p2).
body(r_fr18_34,fr18_s4).
body(r_fr18_34,fr18_v2).
body(r_fr18_34,fr18_x3).
body(r_fr18_34,fr18_z1).
head(r_fr18_35,fr18_u2).
body(r_fr18_35,fr18_a1).
body(r_fr18_35,fr18_b1).
body(r_fr18_35,fr18_b2).
body(r_fr18_35,fr3_d2).
body(r_fr18_35,fr18_s2).
body(r_fr18_35,fr18_s4).
head(r_fr18_36,fr18_u2).
body(r_fr18_36,fr18_f1).
head(r_fr18_37,fr18_u2).
body(r_fr18_37,fr18_d1).
body(r_fr18_37,fr21_r2).
body(r_fr18_37,fr6_u2).
head(r_fr18_38,fr18_t4).
body(r_fr18_38,fr18_b1).
body(r_fr18_38,fr19_v5).
body(r_fr18_38,fr18_w2).
head(r_fr18_39,fr18_t4).
head(r_fr18_40,fr18_t4).
body(r_fr18_40,fr11_a2).
body(r_fr18_40,fr18_d1).
head(r_fr18_41,fr18_t4).
body(r_fr18_41,fr18_p4).
body(r_fr18_41,fr21_r2).
body(r_fr18_41,fr18_r2).
body(r_fr18_41,fr18_x1).
body(r_fr18_41,fr19_u3).
head(r_fr18_42,fr18_t4).
body(r_fr18_42,fr18_p3).
body(r_fr18_42,fr7_q1).
body(r_fr18_42,fr18_x3).
head(r_fr18_43,fr18_v2).
body(r_fr18_43,fr21_r2).
body(r_fr18_43,fr18_r1).
body(r_fr18_43,fr18_w2).
body(r_fr18_43,fr6_u2).
body(r_fr18_43,fr19_u3).
head(r_fr18_44,fr18_v2).
head(r_fr18_45,fr18_p2).
body(r_fr18_45,fr18_w2).
head(r_fr18_46,fr18_p2).
body(r_fr18_46,fr20_b1).
body(r_fr18_46,fr3_d2).
body(r_fr18_46,fr18_c3).
body(r_fr18_46,fr18_d1).
body(r_fr18_46,fr18_f1).
head(r_fr18_47,fr18_p2).
body(r_fr18_47,fr21_r2).
body(r_fr18_47,fr18_s4).
body(r_fr18_47,fr21_r2).
head(r_fr18_48,fr18_p2).
head(r_fr18_49,fr18_p2).
body(r_fr18_49,fr18_s1).
head(r_fr18_50,fr18_s2).
body(r_fr18_50,fr18_a1).
body(r_fr18_50,fr18_r2).
body(r_fr18_50,fr18_s1).
body(r_fr18_50,fr19_t3).
body(r_fr18_50,fr14_r2).
head(r_fr18_51,fr18_s2).
head(r_fr18_52,fr18_s2).
body(r_fr18_52,fr18_p3).
body(r_fr18_52,fr18_t1).
body(r_fr18_52,fr21_r2).
head(r_fr18_53,fr18_s2).
body(r_fr18_53,fr3_d2).
body(r_fr18_53,fr18_w2).
head(r_fr18_54,fr18_s2).
body(r_fr18_54,fr18_t2).
head(r_fr18_55,fr18_t1).
body(r_fr18_55,fr18_a1).
body(r_fr18_55,fr18_d1).
body(r_fr18_55,fr18_e1).
head(r_fr18_56,fr18_t1).
body(r_fr18_56,fr18_b2).
body(r_fr18_56,fr18_r2).
body(r_fr18_56,fr14_p1).
body(r_fr18_56,fr6_u2).
body(r_fr18_56,fr18_z4).
head(r_fr18_57,fr18_t1).
body(r_fr18_57,fr18_b1).
body(r_fr18_57,fr18_f1).
body(r_fr18_57,fr21_r2).
body(r_fr18_57,fr24_p3).
body(r_fr18_57,fr18_t2).
head(r_fr18_58,fr19_u3).
body(r_fr18_58,fr18_r2).
head(r_fr18_59,fr19_u3).
body(r_fr18_59,fr11_a2).
body(r_fr18_59,fr18_c3).
body(r_fr18_59,fr18_f1).
body(r_fr18_59,fr21_r2).
body(r_fr18_59,fr18_t2).
head(r_fr18_60,fr19_u3).
body(r_fr18_60,fr18_f1).
body(r_fr18_60,fr7_q1).
body(r_fr18_60,fr18_r3).
body(r_fr18_60,fr18_w2).
body(r_fr18_60,fr6_u2).
head(r_fr18_61,fr19_v5).
body(r_fr18_61,fr18_z1).
body(r_fr18_61,fr18_z4).
head(r_fr18_62,fr19_v5).
body(r_fr18_62,fr18_f2).
body(r_fr18_62,fr18_t2).
body(r_fr18_62,fr19_t3).
body(r_fr18_62,fr18_x1).
body(r_fr18_62,fr18_x3).
head(r_fr18_63,fr19_v5).
body(r_fr18_63,fr18_a1).
body(r_fr18_63,fr18_p3).
body(r_fr18_63,fr18_t2).
body(r_fr18_63,fr18_y1).
head(r_fr18_64,fr19_v5).
body(r_fr18_64,fr7_q1).
body(r_fr18_64,fr18_r3).
body(r_fr18_64,fr18_s3).
body(r_fr18_64,fr18_s4).
body(r_fr18_64,fr14_r2).
body(r_fr18_64,fr18_z1).
head(r_fr18_65,fr19_v5).
head(r_fr18_66,fr18_s4).
head(r_fr18_67,fr18_s4).
body(r_fr18_67,fr18_b2).
body(r_fr18_67,fr3_d2).

assumption(fr19_a1).
assumption(fr2_b1).
assumption(fr19_c1).
assumption(fr19_d1).
assumption(fr19_e1).
assumption(fr19_f1).
assumption(fr19_a2).
assumption(fr19_b2).
assumption(fr19_c2).
assumption(fr19_d2).
assumption(fr24_d2).
assumption(fr19_f2).
assumption(fr19_a3).
assumption(fr19_b3).
assumption(fr19_c3).
contrary(fr19_a1,fr19_v5).
contrary(fr19_a2,fr19_s2).
contrary(fr19_a3,fr19_q1).
contrary(fr2_b1,fr19_p1).
contrary(fr19_b2,fr19_z5).
contrary(fr19_b3,fr19_q4).
contrary(fr19_c1,fr24_d2).
contrary(fr19_c2,fr19_t2).
contrary(fr19_c3,fr19_z5).
contrary(fr19_d1,fr19_z2).
contrary(fr19_d2,fr19_z2).
contrary(fr19_e1,fr7_w1).
contrary(fr24_d2,fr19_x2).
contrary(fr19_f1,fr24_v1).
contrary(fr19_f2,fr19_w2).
head(r_fr19_0,fr19_x5).
head(r_fr19_1,fr19_x5).
body(r_fr19_1,fr19_q1).
body(r_fr19_1,fr19_q5).
body(r_fr19_1,fr7_w1).
body(r_fr19_1,fr19_s2).
body(r_fr19_1,fr16_q3).
body(r_fr19_1,fr19_x3).
head(r_fr19_2,fr19_x5).
body(r_fr19_2,fr19_a2).
body(r_fr19_2,fr19_a3).
body(r_fr19_2,fr19_b3).
body(r_fr19_2,fr19_c2).
body(r_fr19_2,fr19_d1).
body(r_fr19_2,fr19_t4).
head(r_fr19_3,fr19_x5).
body(r_fr19_3,fr19_b2).
body(r_fr19_3,fr19_f1).
head(r_fr19_4,fr19_t3).
body(r_fr19_4,fr19_a1).
body(r_fr19_4,fr19_b2).
body(r_fr19_4,fr19_b3).
body(r_fr19_4,fr19_e1).
body(r_fr19_4,fr19_f1).
head(r_fr19_5,fr19_t3).
body(r_fr19_5,fr19_c1).
body(r_fr19_5,fr19_c2).
body(r_fr19_5,fr7_w1).
head(r_fr19_6,fr19_t3).
body(r_fr19_6,fr19_a1).
body(r_fr19_6,fr19_a3).
body(r_fr19_6,fr19_c1).
body(r_fr19_6,fr19_d2).
body(r_fr19_6,fr19_e1).
body(r_fr19_6,fr19_f1).
head(r_fr19_7,fr19_t3).
head(r_fr19_8,fr24_v1).
body(r_fr19_8,fr19_f2).
body(r_fr19_8,fr19_w1).
body(r_fr19_8,fr19_z3).
head(r_fr19_9,fr24_v1).
body(r_fr19_9,fr19_q2).
head(r_fr19_10,fr19_u5).
body(r_fr19_10,fr19_a2).
body(r_fr19_10,fr19_b3).
body(r_fr19_10,fr19_c2).
body(r_fr19_10,fr19_d2).
body(r_fr19_10,fr19_e1).
body(r_fr19_10,fr19_t5).
head(r_fr19_11,fr19_u5).
body(r_fr19_11,fr19_c3).
body(r_fr19_11,fr19_e1).
head(r_fr19_12,fr19_u5).
head(r_fr19_13,fr19_u5).
body(r_fr19_13,fr20_v6).
head(r_fr19_14,fr19_u5).
body(r_fr19_14,fr19_f2).
body(r_fr19_14,fr19_p4).
body(r_fr19_14,fr19_q4).
body(r_fr19_14,fr20_v3).
body(r_fr19_14,fr19_w4).
body(r_fr19_14,fr16_u1).
head(r_fr19_15,fr16_u1).
body(r_fr19_15,fr19_p1).
body(r_fr19_15,fr20_v6).
body(r_fr19_15,fr19_t1).
head(r_fr19_16,fr16_u1).
head(r_fr19_17,fr16_u1).
body(r_fr19_17,fr19_t1).
body(r_fr19_17,fr19_v5).
body(r_fr19_17,fr19_w2).
body(r_fr19_17,fr19_y2).
head(r_fr19_18,fr16_u1).
body(r_fr19_18,fr2_b1).
body(r_fr19_18,fr19_s4).
body(r_fr19_18,fr19_w2).
head(r_fr19_19,fr19_s1).
body(r_fr19_19,fr19_a3).
head(r_fr19_20,fr19_s1).
body(r_fr19_20,fr19_a3).
body(r_fr19_20,fr19_b3).
body(r_fr19_20,fr19_c2).
body(r_fr19_20,fr19_c3).
body(r_fr19_20,fr24_d2).
body(r_fr19_20,fr16_w2).
head(r_fr19_21,fr19_s1).
body(r_fr19_21,fr20_v6).
body(r_fr19_21,fr19_t2).
body(r_fr19_21,fr19_w2).
body(r_fr19_21,fr19_z2).
head(r_fr19_22,fr19_s1).
body(r_fr19_22,fr19_c3).
body(r_fr19_22,fr19_p3).
body(r_fr19_22,fr19_t1).
head(r_fr19_23,fr19_s1).
head(r_fr19_24,fr19_w4).
body(r_fr19_24,fr19_b2).
body(r_fr19_24,fr19_p2).
body(r_fr19_24,fr19_p3).
head(r_fr19_25,fr19_w4).
body(r_fr19_25,fr19_a1).
body(r_fr19_25,fr19_c1).
body(r_fr19_25,fr19_f1).
body(r_fr19_25,fr19_p4).
body(r_fr19_25,fr20_v6).
body(r_fr19_25,fr19_x2).
head(r_fr19_26,fr19_w4).
body(r_fr19_26,fr19_a2).
body(r_fr19_26,fr19_b2).
body(r_fr19_26,fr19_d2).
body(r_fr19_26,fr24_d2).
body(r_fr19_26,fr19_f1).
body(r_fr19_26,fr19_w1).
head(r_fr19_27,fr19_w4).
body(r_fr19_27,fr19_b2).
body(r_fr19_27,fr19_c1).
body(r_fr19_27,fr19_d2).
body(r_fr19_27,fr24_d2).
body(r_fr19_27,fr19_f1).
head(r_fr19_28,fr19_w4).
head(r_fr19_29,fr7_w1).
body(r_fr19_29,fr19_e1).
head(r_fr19_30,fr7_w1).
body(r_fr19_30,fr19_b2).
body(r_fr19_30,fr19_b3).
body(r_fr19_30,fr19_d2).
head(r_fr19_31,fr19_q2).
body(r_fr19_31,fr19_b3).
head(r_fr19_32,fr19_q2).
body(r_fr19_32,fr19_b3).
body(r_fr19_32,fr19_c2).
head(r_fr19_33,fr19_q2).
body(r_fr19_33,fr19_b2).
body(r_fr19_33,fr19_b3).
body(r_fr19_33,fr19_c3).
body(r_fr19_33,fr19_d1).
body(r_fr19_33,fr19_e1).
head(r_fr19_34,fr19_q2).
body(r_fr19_34,fr19_b2).
head(r_fr19_35,fr19_q2).
body(r_fr19_35,fr19_e1).
body(r_fr19_35,fr20_v3).
body(r_fr19_35,fr19_x3).
body(r_fr19_35,fr19_y2).
head(r_fr19_36,fr19_r5).
body(r_fr19_36,fr24_d2).
body(r_fr19_36,fr19_t1).
body(r_fr19_36,fr19_y1).
body(r_fr19_36,fr19_y4).
body(r_fr19_36,fr9_y2).
head(r_fr19_37,fr19_r5).
body(r_fr19_37,fr19_a1).
body(r_fr19_37,fr19_a3).
body(r_fr19_37,fr19_c3).
body(r_fr19_37,fr20_v6).
head(r_fr19_38,fr19_r5).
body(r_fr19_38,fr19_b3).
body(r_fr19_38,fr19_d1).
body(r_fr19_38,fr19_e1).
body(r_fr19_38,fr19_p2).
body(r_fr19_38,fr19_s4).
body(r_fr19_38,fr19_y3).
head(r_fr19_39,fr19_r5).
body(r_fr19_39,fr19_c2).
head(r_fr19_40,fr19_r5).
head(r_fr19_41,fr19_p3).
body(r_fr19_41,fr19_z2).
head(r_fr19_42,fr19_p3).
body(r_fr19_42,fr19_f2).
body(r_fr19_42,fr23_s1).
body(r_fr19_42,fr19_v4).
head(r_fr19_43,fr19_p3).
body(r_fr19_43,fr19_b3).
body(r_fr19_43,fr19_c1).
body(r_fr19_43,fr19_q3).
head(r_fr19_44,fr19_p3).
body(r_fr19_44,fr19_p2).
body(r_fr19_44,fr19_r3).
body(r_fr19_44,fr13_v2).
head(r_fr19_45,fr19_p3).
head(r_fr19_46,fr20_v6).
body(r_fr19_46,fr19_b3).
head(r_fr19_47,fr20_v6).
body(r_fr19_47,fr19_e1).
head(r_fr19_48,fr20_v6).
body(r_fr19_48,fr19_p4).
body(r_fr19_48,fr19_t4).
body(r_fr19_48,fr16_w2).
body(r_fr19_48,fr19_z5).
head(r_fr19_49,fr20_v6).
body(r_fr19_49,fr19_t1).
body(r_fr19_49,fr19_z1).
head(r_fr19_50,fr20_v6).
body(r_fr19_50,fr19_r3).
body(r_fr19_50,fr19_s4).
body(r_fr19_50,fr19_w1).
body(r_fr19_50,fr19_z3).
head(r_fr19_51,fr19_r3).
body(r_fr19_51,fr19_x1).
head(r_fr19_52,fr19_r3).
body(r_fr19_52,fr2_b1).
head(r_fr19_53,fr19_r3).
body(r_fr19_53,fr19_p4).
body(r_fr19_53,fr19_q3).
body(r_fr19_53,fr19_y5).
body(r_fr19_53,fr19_z5).
head(r_fr19_54,fr19_r3).
body(r_fr19_54,fr19_c2).
head(r_fr19_55,fr19_r3).
head(r_fr19_56,fr13_v2).
body(r_fr19_56,fr2_b1).
body(r_fr19_56,fr19_b2).
body(r_fr19_56,fr19_d2).
body(r_fr19_56,fr19_f1).
body(r_fr19_56,fr19_t5).
body(r_fr19_56,fr19_z1).
head(r_fr19_57,fr13_v2).
body(r_fr19_57,fr19_q5).
body(r_fr19_57,fr19_u3).
head(r_fr19_58,fr19_t1).
body(r_fr19_58,fr19_a2).
body(r_fr19_58,fr19_a3).
body(r_fr19_58,fr2_b1).
body(r_fr19_58,fr19_d2).
body(r_fr19_58,fr19_e1).
body(r_fr19_58,fr19_f1).
head(r_fr19_59,fr19_t1).
body(r_fr19_59,fr19_c1).
body(r_fr19_59,fr19_c2).
body(r_fr19_59,fr19_f2).
body(r_fr19_59,fr19_p2).
body(r_fr19_59,fr19_x1).
body(r_fr19_59,fr16_w2).
head(r_fr19_60,fr19_t1).
head(r_fr19_61,fr19_t1).
body(r_fr19_61,fr19_b2).
body(r_fr19_61,fr19_b3).
body(r_fr19_61,fr19_c1).
body(r_fr19_61,fr19_w2).
head(r_fr19_62,fr19_p1).
body(r_fr19_62,fr19_w1).
body(r_fr19_62,fr19_y1).
head(r_fr19_63,fr19_p1).
body(r_fr19_63,fr19_a2).
body(r_fr19_63,fr20_v3).
body(r_fr19_63,fr19_v4).
body(r_fr19_63,fr19_z3).
head(r_fr19_64,fr19_p1).
body(r_fr19_64,fr19_b2).
body(r_fr19_64,fr19_s3).
body(r_fr19_64,fr16_w2).
body(r_fr19_64,fr19_y3).
body(r_fr19_64,fr19_y5).
head(r_fr19_65,fr19_p1).
body(r_fr19_65,fr19_a2).
body(r_fr19_65,fr19_c3).
body(r_fr19_65,fr19_f1).
head(r_fr19_66,fr19_z1).
head(r_fr19_67,fr19_z1).
body(r_fr19_67,fr19_a1).
body(r_fr19_67,fr19_b3).
body(r_fr19_67,fr19_c2).
body(r_fr19_67,fr19_d2).
body(r_fr19_67,fr19_f1).
body(r_fr19_67,fr19_w1).
head(r_fr19_68,fr19_z1).
body(r_fr19_68,fr19_a2).
body(r_fr19_68,fr19_a3).
body(r_fr19_68,fr2_b1).
body(r_fr19_68,fr19_c1).
head(r_fr19_69,fr19_u4).
body(r_fr19_69,fr24_d2).
body(r_fr19_69,fr19_v3).
body(r_fr19_69,fr19_w1).
body(r_fr19_69,fr19_x1).
body(r_fr19_69,fr9_y2).
head(r_fr19_70,fr19_u4).
body(r_fr19_70,fr19_q1).
body(r_fr19_70,fr19_v4).
body(r_fr19_70,fr16_w2).
body(r_fr19_70,fr9_y2).
head(r_fr19_71,fr19_u4).
body(r_fr19_71,fr19_a3).
body(r_fr19_71,fr24_d2).
body(r_fr19_71,fr19_p2).
body(r_fr19_71,fr19_q4).
body(r_fr19_71,fr19_s4).
body(r_fr19_71,fr19_v4).
head(r_fr19_72,fr19_u4).
body(r_fr19_72,fr2_b1).
body(r_fr19_72,fr19_c1).
body(r_fr19_72,fr19_c2).
body(r_fr19_72,fr19_d1).
body(r_fr19_72,fr19_q5).
body(r_fr19_72,fr16_w2).
head(r_fr19_73,fr19_t2).
body(r_fr19_73,fr19_a1).
body(r_fr19_73,fr19_c2).
head(r_fr19_74,fr19_t2).
body(r_fr19_74,fr19_y5).
head(r_fr19_75,fr19_t2).
body(r_fr19_75,fr19_p4).
body(r_fr19_75,fr19_q1).
body(r_fr19_75,fr19_q5).
body(r_fr19_75,fr19_u3).
body(r_fr19_75,fr9_y2).
body(r_fr19_75,fr19_z5).
head(r_fr19_76,fr23_s1).
body(r_fr19_76,fr19_a1).
body(r_fr19_76,fr19_a3).
body(r_fr19_76,fr19_f1).
head(r_fr19_77,fr23_s1).
body(r_fr19_77,fr19_b2).
body(r_fr19_77,fr19_c3).
body(r_fr19_77,fr19_s4).
body(r_fr19_77,fr20_v3).
head(r_fr19_78,fr23_s1).
body(r_fr19_78,fr19_v3).
body(r_fr19_78,fr19_v4).
body(r_fr19_78,fr16_w2).
head(r_fr19_79,fr23_s1).
body(r_fr19_79,fr19_a2).
body(r_fr19_79,fr19_b2).
body(r_fr19_79,fr16_w2).
body(r_fr19_79,fr9_y2).

assumption(fr13_d1).
assumption(fr20_b1).
assumption(fr20_c1).
assumption(fr20_d1).
assumption(fr10_d1).
assumption(fr18_f2).
assumption(fr20_a2).
assumption(fr20_b2).
assumption(fr20_c2).
assumption(fr20_d2).
assumption(fr20_e2).
assumption(fr20_f2).
assumption(fr13_a1).
assumption(fr20_b3).
assumption(fr20_c3).
contrary(fr13_d1,fr20_a2).
contrary(fr20_a2,fr20_v5).
contrary(fr13_a1,fr19_u3).
contrary(fr20_b1,fr20_s2).
contrary(fr20_b2,fr18_f2).
contrary(fr20_b3,fr20_u3).
contrary(fr20_c1,fr20_s3).
contrary(fr20_c2,fr20_v3).
contrary(fr20_c3,fr18_u4).
contrary(fr20_d1,fr20_q2).
contrary(fr20_d2,fr10_d1).
contrary(fr10_d1,fr5_u1).
contrary(fr20_e2,fr20_r2).
contrary(fr18_f2,fr20_b2).
contrary(fr20_f2,fr20_q4).
head(r_fr20_0,fr20_y4).
body(r_fr20_0,fr20_d1).
body(r_fr20_0,fr20_e2).
body(r_fr20_0,fr20_f2).
head(r_fr20_1,fr20_y4).
body(r_fr20_1,fr13_a1).
head(r_fr20_2,fr20_y4).
body(r_fr20_2,fr18_u4).
body(r_fr20_2,fr20_w2).
head(r_fr20_3,fr20_y4).
body(r_fr20_3,fr20_q6).
body(r_fr20_3,fr20_u1).
body(r_fr20_3,fr20_v2).
body(r_fr20_3,fr20_x1).
body(r_fr20_3,fr20_y3).
body(r_fr20_3,fr20_y5).
head(r_fr20_4,fr20_y4).
head(r_fr20_5,fr20_p3).
body(r_fr20_5,fr20_t6).
head(r_fr20_6,fr20_p3).
body(r_fr20_6,fr25_r3).
body(r_fr20_6,fr20_u6).
head(r_fr20_7,fr20_p3).
head(r_fr20_8,fr20_p1).
body(r_fr20_8,fr20_p6).
head(r_fr20_9,fr20_p1).
body(r_fr20_9,fr20_e2).
body(r_fr20_9,fr20_f2).
head(r_fr20_10,fr20_p1).
body(r_fr20_10,fr20_b3).
body(r_fr20_10,fr20_c2).
body(r_fr20_10,fr20_d2).
body(r_fr20_10,fr20_p4).
head(r_fr20_11,fr20_p1).
body(r_fr20_11,fr13_d1).
body(r_fr20_11,fr20_c2).
body(r_fr20_11,fr10_d1).
body(r_fr20_11,fr20_s3).
head(r_fr20_12,fr20_q2).
body(r_fr20_12,fr20_v5).
body(r_fr20_12,fr20_w4).
body(r_fr20_12,fr20_z1).
head(r_fr20_13,fr20_q2).
body(r_fr20_13,fr20_q4).
body(r_fr20_13,fr20_t6).
body(r_fr20_13,fr20_u5).
body(r_fr20_13,fr20_y1).
body(r_fr20_13,fr20_z5).
head(r_fr20_14,fr20_q2).
body(r_fr20_14,fr20_v6).
body(r_fr20_14,fr20_y1).
body(r_fr20_14,fr7_w1).
head(r_fr20_15,fr20_q2).
body(r_fr20_15,fr16_w2).
body(r_fr20_15,fr20_s3).
body(r_fr20_15,fr20_t1).
body(r_fr20_15,fr20_y1).
body(r_fr20_15,fr18_v2).
body(r_fr20_15,fr7_w1).
head(r_fr20_16,fr20_p6).
body(r_fr20_16,fr13_a1).
body(r_fr20_16,fr20_b1).
body(r_fr20_16,fr20_b3).
body(r_fr20_16,fr20_c3).
body(r_fr20_16,fr20_y6).
head(r_fr20_17,fr20_p6).
head(r_fr20_18,fr20_p6).
body(r_fr20_18,fr13_a1).
body(r_fr20_18,fr20_p4).
body(r_fr20_18,fr20_t1).
body(r_fr20_18,fr20_t6).
body(r_fr20_18,fr18_v2).
head(r_fr20_19,fr20_q4).
body(r_fr20_19,fr20_c3).
body(r_fr20_19,fr20_r1).
body(r_fr20_19,fr20_r2).
body(r_fr20_19,fr25_r3).
body(r_fr20_19,fr20_v3).
body(r_fr20_19,fr20_x1).
head(r_fr20_20,fr20_q4).
head(r_fr20_21,fr20_q4).
body(r_fr20_21,fr20_b2).
body(r_fr20_21,fr20_p5).
body(r_fr20_21,fr20_r1).
body(r_fr20_21,fr19_u3).
head(r_fr20_22,fr20_q4).
body(r_fr20_22,fr20_a2).
body(r_fr20_22,fr20_b3).
body(r_fr20_22,fr20_d1).
head(r_fr20_23,fr20_q4).
body(r_fr20_23,fr20_a2).
body(r_fr20_23,fr20_r3).
body(r_fr20_23,fr20_r5).
body(r_fr20_23,fr20_t6).
body(r_fr20_23,fr20_u1).
body(r_fr20_23,fr20_z5).
head(r_fr20_24,fr20_z5).
body(r_fr20_24,fr13_a1).
body(r_fr20_24,fr20_b3).
body(r_fr20_24,fr18_f2).
body(r_fr20_24,fr20_s6).
body(r_fr20_24,fr5_u1).
body(r_fr20_24,fr20_z2).
head(r_fr20_25,fr20_z5).
body(r_fr20_25,fr20_a2).
body(r_fr20_25,fr20_b3).
body(r_fr20_25,fr20_c1).
body(r_fr20_25,fr20_d2).
head(r_fr20_26,fr20_z5).
head(r_fr20_27,fr20_z2).
body(r_fr20_27,fr13_d1).
body(r_fr20_27,fr20_b3).
body(r_fr20_27,fr20_r2).
body(r_fr20_27,fr20_s6).
body(r_fr20_27,fr20_w2).
head(r_fr20_28,fr20_z2).
body(r_fr20_28,fr20_r1).
head(r_fr20_29,fr20_z2).
body(r_fr20_29,fr20_b3).
body(r_fr20_29,fr25_r3).
head(r_fr20_30,fr20_v6).
body(r_fr20_30,fr20_a2).
body(r_fr20_30,fr20_e2).
body(r_fr20_30,fr18_u4).
head(r_fr20_31,fr20_v6).
body(r_fr20_31,fr20_s6).
head(r_fr20_32,fr20_v6).
body(r_fr20_32,fr13_a1).
body(r_fr20_32,fr20_b2).
body(r_fr20_32,fr20_d1).
body(r_fr20_32,fr20_e2).
head(r_fr20_33,fr20_v6).
body(r_fr20_33,fr13_a1).
body(r_fr20_33,fr18_f2).
body(r_fr20_33,fr20_q5).
body(r_fr20_33,fr20_u6).
head(r_fr20_34,fr20_v6).
head(r_fr20_35,fr20_v3).
body(r_fr20_35,fr20_x3).
head(r_fr20_36,fr20_v3).
body(r_fr20_36,fr20_d1).
body(r_fr20_36,fr20_p4).
body(r_fr20_36,fr16_w2).
body(r_fr20_36,fr20_s4).
body(r_fr20_36,fr20_u1).
body(r_fr20_36,fr20_z4).
head(r_fr20_37,fr5_u1).
body(r_fr20_37,fr20_w3).
body(r_fr20_37,fr20_w5).
head(r_fr20_38,fr5_u1).
body(r_fr20_38,fr13_a1).
body(r_fr20_38,fr20_t3).
body(r_fr20_38,fr20_x6).
head(r_fr20_39,fr5_u1).
body(r_fr20_39,fr20_b1).
body(r_fr20_39,fr20_b3).
body(r_fr20_39,fr20_c2).
head(r_fr20_40,fr5_u1).
head(r_fr20_41,fr20_y1).
body(r_fr20_41,fr18_f2).
body(r_fr20_41,fr20_s2).
body(r_fr20_41,fr20_u1).
body(r_fr20_41,fr19_u3).
body(r_fr20_41,fr20_u4).
body(r_fr20_41,fr21_y3).
head(r_fr20_42,fr20_y1).
body(r_fr20_42,fr10_d1).
body(r_fr20_42,fr20_r2).
body(r_fr20_42,fr20_w3).
head(r_fr20_43,fr20_y1).
head(r_fr20_44,fr20_y1).
body(r_fr20_44,fr20_a2).
body(r_fr20_44,fr20_b1).
body(r_fr20_44,fr20_b3).
body(r_fr20_44,fr20_c3).
body(r_fr20_44,fr20_d1).
body(r_fr20_44,fr20_e2).
head(r_fr20_45,fr20_y1).
body(r_fr20_45,fr20_d1).
body(r_fr20_45,fr10_d1).
head(r_fr20_46,fr20_r1).
body(r_fr20_46,fr20_a2).
head(r_fr20_47,fr20_r1).
body(r_fr20_47,fr20_a2).
body(r_fr20_47,fr13_a1).
body(r_fr20_47,fr20_d1).
body(r_fr20_47,fr20_e2).
body(r_fr20_47,fr18_f2).
body(r_fr20_47,fr16_w2).
head(r_fr20_48,fr20_r1).
body(r_fr20_48,fr20_d2).
body(r_fr20_48,fr10_d1).
body(r_fr20_48,fr19_y2).
head(r_fr20_49,fr19_y2).
body(r_fr20_49,fr20_s2).
body(r_fr20_49,fr20_s5).
body(r_fr20_49,fr20_s6).
body(r_fr20_49,fr20_w5).
body(r_fr20_49,fr21_y3).
head(r_fr20_50,fr19_y2).
body(r_fr20_50,fr20_p5).
body(r_fr20_50,fr20_r3).
body(r_fr20_50,fr20_t4).
body(r_fr20_50,fr20_u6).
body(r_fr20_50,fr7_w1).
head(r_fr20_51,fr19_y2).
body(r_fr20_51,fr20_b1).
head(r_fr20_52,fr19_y2).
body(r_fr20_52,fr20_a2).
body(r_fr20_52,fr20_b3).
body(r_fr20_52,fr10_d1).
head(r_fr20_53,fr20_y6).
body(r_fr20_53,fr20_b3).
body(r_fr20_53,fr20_c2).
body(r_fr20_53,fr18_f2).
body(r_fr20_53,fr20_u6).
head(r_fr20_54,fr20_y6).
body(r_fr20_54,fr10_d1).
body(r_fr20_54,fr18_f2).
body(r_fr20_54,fr20_q6).
body(r_fr20_54,fr20_x3).
head(r_fr20_55,fr25_r3).
body(r_fr20_55,fr20_f2).
body(r_fr20_55,fr20_q3).
body(r_fr20_55,fr20_w1).
head(r_fr20_56,fr25_r3).
body(r_fr20_56,fr20_c2).
body(r_fr20_56,fr20_u6).
body(r_fr20_56,fr18_u4).
body(r_fr20_56,fr20_w4).
body(r_fr20_56,fr20_w5).
head(r_fr20_57,fr20_t3).
body(r_fr20_57,fr20_b2).
body(r_fr20_57,fr20_p4).
body(r_fr20_57,fr20_w2).
head(r_fr20_58,fr20_t3).
head(r_fr20_59,fr20_t3).
body(r_fr20_59,fr20_u6).
head(r_fr20_60,fr20_t3).
body(r_fr20_60,fr13_a1).
head(r_fr20_61,fr20_q5).
body(r_fr20_61,fr20_v5).
head(r_fr20_62,fr20_q5).
body(r_fr20_62,fr20_c2).
body(r_fr20_62,fr20_t1).
body(r_fr20_62,fr20_u4).
body(r_fr20_62,fr20_w3).
head(r_fr20_63,fr20_u6).
body(r_fr20_63,fr20_a2).
body(r_fr20_63,fr20_b2).
body(r_fr20_63,fr20_c1).
body(r_fr20_63,fr10_d1).
body(r_fr20_63,fr18_f2).
body(r_fr20_63,fr20_s4).
head(r_fr20_64,fr20_u6).
body(r_fr20_64,fr20_c1).
body(r_fr20_64,fr20_d1).
body(r_fr20_64,fr20_w4).
head(r_fr20_65,fr20_p5).
body(r_fr20_65,fr20_x1).
head(r_fr20_66,fr20_p5).
body(r_fr20_66,fr20_b2).
body(r_fr20_66,fr20_c2).
body(r_fr20_66,fr19_u3).
body(r_fr20_66,fr20_u5).

assumption(fr20_b1).
assumption(fr7_f1).
assumption(fr21_c1).
assumption(fr21_d1).
assumption(fr21_e1).
assumption(fr21_f1).
assumption(fr21_a2).
assumption(fr21_b2).
assumption(fr21_c2).
assumption(fr21_d2).
assumption(fr21_f3).
assumption(fr21_f2).
assumption(fr21_a3).
assumption(fr21_b3).
assumption(fr21_c3).
assumption(fr21_d3).
assumption(fr21_e3).
assumption(fr21_f3).
assumption(fr21_a4).
assumption(fr17_b5).
assumption(fr21_c4).
contrary(fr20_b1,fr21_v3).
contrary(fr21_a2,fr21_b3).
contrary(fr21_a3,fr21_q1).
contrary(fr21_a4,fr17_b5).
contrary(fr7_f1,fr21_t2).
contrary(fr21_b2,fr7_f1).
contrary(fr21_b3,fr21_s2).
contrary(fr17_b5,fr21_t3).
contrary(fr21_c1,fr21_c2).
contrary(fr21_c2,fr21_r2).
contrary(fr21_c3,fr21_d1).
contrary(fr21_c4,fr21_w1).
contrary(fr21_d1,fr21_w2).
contrary(fr21_d2,fr21_d3).
contrary(fr21_d3,fr21_z2).
contrary(fr21_e1,fr21_z3).
contrary(fr21_f3,fr23_u3).
contrary(fr21_e3,fr21_t3).
contrary(fr21_f1,fr18_z4).
contrary(fr21_f2,fr21_p3).
contrary(fr21_f3,fr21_z3).
head(r_fr21_0,fr21_z3).
body(r_fr21_0,fr21_a3).
body(r_fr21_0,fr21_c2).
body(r_fr21_0,fr21_d2).
body(r_fr21_0,fr21_e1).
body(r_fr21_0,fr21_q4).
head(r_fr21_1,fr21_z3).
head(r_fr21_2,fr21_z3).
body(r_fr21_2,fr21_f2).
head(r_fr21_3,fr21_z3).
body(r_fr21_3,fr21_b3).
body(r_fr21_3,fr17_b5).
body(r_fr21_3,fr21_c4).
body(r_fr21_3,fr21_f3).
body(r_fr21_3,fr21_f3).
head(r_fr21_4,fr21_z3).
body(r_fr21_4,fr21_a2).
body(r_fr21_4,fr17_b5).
body(r_fr21_4,fr21_c2).
body(r_fr21_4,fr21_d3).
body(r_fr21_4,fr18_z4).
head(r_fr21_5,fr21_z3).
body(r_fr21_5,fr20_b1).
body(r_fr21_5,fr21_a2).
body(r_fr21_5,fr7_f1).
body(r_fr21_5,fr21_b2).
body(r_fr21_5,fr21_c1).
body(r_fr21_5,fr21_d1).
body(r_fr21_5,fr21_e1).
body(r_fr21_5,fr21_f2).
head(r_fr21_6,fr21_p2).
head(r_fr21_7,fr21_p2).
body(r_fr21_7,fr20_b1).
body(r_fr21_7,fr7_f1).
body(r_fr21_7,fr21_d2).
body(r_fr21_7,fr21_p4).
body(r_fr21_7,fr21_r1).
body(r_fr21_7,fr21_z1).
head(r_fr21_8,fr21_p2).
body(r_fr21_8,fr21_d1).
body(r_fr21_8,fr21_q1).
body(r_fr21_8,fr23_u3).
body(r_fr21_8,fr15_x2).
body(r_fr21_8,fr21_t3).
body(r_fr21_8,fr21_y2).
body(r_fr21_8,fr21_z1).
body(r_fr21_8,fr21_z2).
head(r_fr21_9,fr21_p2).
body(r_fr21_9,fr21_v2).
body(r_fr21_9,fr21_z1).
head(r_fr21_10,fr21_z1).
body(r_fr21_10,fr21_b2).
body(r_fr21_10,fr21_d1).
body(r_fr21_10,fr21_f3).
body(r_fr21_10,fr21_e3).
body(r_fr21_10,fr21_f3).
body(r_fr21_10,fr15_v1).
body(r_fr21_10,fr21_y3).
head(r_fr21_11,fr21_z1).
body(r_fr21_11,fr21_f3).
head(r_fr21_12,fr21_v3).
body(r_fr21_12,fr21_b3).
body(r_fr21_12,fr21_c2).
body(r_fr21_12,fr21_c3).
body(r_fr21_12,fr21_d2).
body(r_fr21_12,fr21_q2).
body(r_fr21_12,fr21_r1).
body(r_fr21_12,fr21_t3).
head(r_fr21_13,fr21_v3).
head(r_fr21_14,fr21_v3).
body(r_fr21_14,fr17_b5).
body(r_fr21_14,fr21_c1).
body(r_fr21_14,fr21_c2).
body(r_fr21_14,fr21_d3).
body(r_fr21_14,fr21_q1).
body(r_fr21_14,fr15_x2).
body(r_fr21_14,fr21_v2).
head(r_fr21_15,fr21_v3).
body(r_fr21_15,fr21_p2).
body(r_fr21_15,fr21_p3).
body(r_fr21_15,fr21_q2).
body(r_fr21_15,fr15_x2).
body(r_fr21_15,fr21_v2).
body(r_fr21_15,fr21_y3).
head(r_fr21_16,fr21_v3).
body(r_fr21_16,fr20_b1).
body(r_fr21_16,fr21_b2).
body(r_fr21_16,fr21_c1).
body(r_fr21_16,fr21_c2).
body(r_fr21_16,fr21_d1).
body(r_fr21_16,fr21_f3).
body(r_fr21_16,fr21_p1).
body(r_fr21_16,fr15_v1).
head(r_fr21_17,fr21_v3).
body(r_fr21_17,fr21_p1).
body(r_fr21_17,fr21_q3).
body(r_fr21_17,fr23_u3).
body(r_fr21_17,fr18_z4).
head(r_fr21_18,fr21_p4).
body(r_fr21_18,fr7_f1).
body(r_fr21_18,fr17_b5).
body(r_fr21_18,fr21_c3).
body(r_fr21_18,fr21_d2).
body(r_fr21_18,fr21_e1).
body(r_fr21_18,fr21_r1).
body(r_fr21_18,fr21_u1).
head(r_fr21_19,fr21_p4).
body(r_fr21_19,fr20_b1).
body(r_fr21_19,fr21_a3).
body(r_fr21_19,fr7_f1).
body(r_fr21_19,fr21_c1).
body(r_fr21_19,fr21_c2).
body(r_fr21_19,fr21_c4).
body(r_fr21_19,fr21_d3).
body(r_fr21_19,fr21_e1).
head(r_fr21_20,fr16_w2).
body(r_fr21_20,fr7_f1).
body(r_fr21_20,fr21_c4).
body(r_fr21_20,fr21_d2).
body(r_fr21_20,fr21_d3).
body(r_fr21_20,fr21_f2).
body(r_fr21_20,fr21_q1).
body(r_fr21_20,fr21_t1).
body(r_fr21_20,fr18_z4).
head(r_fr21_21,fr16_w2).
head(r_fr21_22,fr16_w2).
body(r_fr21_22,fr17_b5).
body(r_fr21_22,fr21_f3).
body(r_fr21_22,fr21_y1).
head(r_fr21_23,fr16_w2).
body(r_fr21_23,fr21_p4).
body(r_fr21_23,fr21_s3).
body(r_fr21_23,fr21_t2).
head(r_fr21_24,fr16_w2).
body(r_fr21_24,fr21_c2).
body(r_fr21_24,fr21_p3).
body(r_fr21_24,fr21_q2).
body(r_fr21_24,fr15_x2).
head(r_fr21_25,fr16_w2).
body(r_fr21_25,fr21_a4).
body(r_fr21_25,fr21_f3).
body(r_fr21_25,fr23_u3).
body(r_fr21_25,fr15_x2).
body(r_fr21_25,fr21_s3).
body(r_fr21_25,fr18_z4).
body(r_fr21_25,fr21_y3).
body(r_fr21_25,fr21_z3).
head(r_fr21_26,fr21_q4).
body(r_fr21_26,fr21_e1).
head(r_fr21_27,fr21_q4).
body(r_fr21_27,fr21_a4).
body(r_fr21_27,fr17_b5).
body(r_fr21_27,fr21_c1).
body(r_fr21_27,fr21_r2).
body(r_fr21_27,fr21_z1).
head(r_fr21_28,fr21_q4).
body(r_fr21_28,fr21_c3).
body(r_fr21_28,fr21_f3).
body(r_fr21_28,fr21_f1).
body(r_fr21_28,fr21_p2).
body(r_fr21_28,fr21_r2).
body(r_fr21_28,fr21_w2).
body(r_fr21_28,fr24_v1).
head(r_fr21_29,fr21_q4).
body(r_fr21_29,fr20_b1).
body(r_fr21_29,fr21_c3).
body(r_fr21_29,fr21_p1).
body(r_fr21_29,fr21_q3).
body(r_fr21_29,fr21_t2).
body(r_fr21_29,fr16_w2).
body(r_fr21_29,fr21_v2).
head(r_fr21_30,fr21_q4).
head(r_fr21_31,fr21_q4).
body(r_fr21_31,fr21_a3).
body(r_fr21_31,fr21_p4).
body(r_fr21_31,fr21_s2).
body(r_fr21_31,fr21_y1).
head(r_fr21_32,fr21_z2).
body(r_fr21_32,fr21_q3).
body(r_fr21_32,fr21_u3).
body(r_fr21_32,fr16_w2).
body(r_fr21_32,fr18_z4).
body(r_fr21_32,fr21_y2).
body(r_fr21_32,fr21_y3).
head(r_fr21_33,fr21_z2).
body(r_fr21_33,fr21_p3).
body(r_fr21_33,fr15_x2).
body(r_fr21_33,fr21_v2).
body(r_fr21_33,fr21_x1).
body(r_fr21_33,fr24_v1).
head(r_fr21_34,fr21_z2).
body(r_fr21_34,fr20_b1).
body(r_fr21_34,fr7_f1).
body(r_fr21_34,fr21_b2).
body(r_fr21_34,fr21_e3).
body(r_fr21_34,fr21_q1).
body(r_fr21_34,fr15_v1).
body(r_fr21_34,fr21_y1).
head(r_fr21_35,fr21_r2).
body(r_fr21_35,fr21_f3).
body(r_fr21_35,fr21_p2).
body(r_fr21_35,fr21_t1).
body(r_fr21_35,fr21_u3).
body(r_fr21_35,fr16_w2).
body(r_fr21_35,fr18_z4).
body(r_fr21_35,fr21_y3).
body(r_fr21_35,fr21_z2).
head(r_fr21_36,fr21_r2).
head(r_fr21_37,fr21_r2).
body(r_fr21_37,fr21_p2).
body(r_fr21_37,fr21_q3).
body(r_fr21_37,fr15_v1).
body(r_fr21_37,fr21_x1).
body(r_fr21_37,fr21_y2).
head(r_fr21_38,fr21_p3).
body(r_fr21_38,fr21_a2).
head(r_fr21_39,fr21_p3).
body(r_fr21_39,fr21_a2).
body(r_fr21_39,fr21_a3).
body(r_fr21_39,fr21_e3).
body(r_fr21_39,fr21_u1).
body(r_fr21_39,fr21_z2).
head(r_fr21_40,fr21_p3).
head(r_fr21_41,fr21_p3).
body(r_fr21_41,fr21_a3).
body(r_fr21_41,fr21_c2).
body(r_fr21_41,fr21_d2).
body(r_fr21_41,fr21_f3).
body(r_fr21_41,fr21_f1).
body(r_fr21_41,fr21_s2).
body(r_fr21_41,fr24_v1).
head(r_fr21_42,fr21_p3).
body(r_fr21_42,fr20_b1).
body(r_fr21_42,fr21_e3).
head(r_fr21_43,fr21_p3).
body(r_fr21_43,fr21_z3).
head(r_fr21_44,fr21_p3).
body(r_fr21_44,fr21_a2).
body(r_fr21_44,fr21_a4).
body(r_fr21_44,fr21_z1).
head(r_fr21_45,fr21_u2).
body(r_fr21_45,fr21_f1).
body(r_fr21_45,fr15_x2).
head(r_fr21_46,fr21_u2).
body(r_fr21_46,fr7_f1).
body(r_fr21_46,fr21_b2).
body(r_fr21_46,fr21_b3).
body(r_fr21_46,fr17_b5).
body(r_fr21_46,fr21_d3).
body(r_fr21_46,fr21_f1).
head(r_fr21_47,fr21_u2).
body(r_fr21_47,fr21_r1).
head(r_fr21_48,fr21_u2).
body(r_fr21_48,fr21_c3).
body(r_fr21_48,fr21_d1).
body(r_fr21_48,fr21_e3).
body(r_fr21_48,fr21_p2).
body(r_fr21_48,fr21_q3).
body(r_fr21_48,fr21_t3).
body(r_fr21_48,fr21_y2).
body(r_fr21_48,fr21_z1).
head(r_fr21_49,fr21_u2).
body(r_fr21_49,fr21_c4).
body(r_fr21_49,fr21_q4).
body(r_fr21_49,fr15_x2).
head(r_fr21_50,fr21_u2).
body(r_fr21_50,fr21_d3).
body(r_fr21_50,fr21_f3).
head(r_fr21_51,fr21_w2).
body(r_fr21_51,fr21_f2).
body(r_fr21_51,fr21_p3).
body(r_fr21_51,fr21_s2).
body(r_fr21_51,fr21_s3).
body(r_fr21_51,fr21_v3).
body(r_fr21_51,fr21_w1).
body(r_fr21_51,fr21_x1).
body(r_fr21_51,fr21_z3).
head(r_fr21_52,fr21_w2).
body(r_fr21_52,fr21_p4).
head(r_fr21_53,fr21_w2).
body(r_fr21_53,fr21_z1).
head(r_fr21_54,fr21_w2).
body(r_fr21_54,fr21_p2).
body(r_fr21_54,fr21_q3).
body(r_fr21_54,fr21_q4).
body(r_fr21_54,fr21_r2).
body(r_fr21_54,fr21_t3).
body(r_fr21_54,fr21_u3).
body(r_fr21_54,fr21_w1).
body(r_fr21_54,fr15_v1).
head(r_fr21_55,fr21_u1).
body(r_fr21_55,fr21_a4).
body(r_fr21_55,fr21_c1).
body(r_fr21_55,fr21_q3).
body(r_fr21_55,fr15_v1).
body(r_fr21_55,fr21_z1).
body(r_fr21_55,fr21_z3).
head(r_fr21_56,fr21_u1).
body(r_fr21_56,fr21_a4).
body(r_fr21_56,fr16_w2).
head(r_fr21_57,fr21_u1).
body(r_fr21_57,fr21_a2).
body(r_fr21_57,fr21_b2).
body(r_fr21_57,fr17_b5).
body(r_fr21_57,fr21_c1).
body(r_fr21_57,fr21_p4).
body(r_fr21_57,fr21_q1).
body(r_fr21_57,fr15_x2).
body(r_fr21_57,fr21_t1).
head(r_fr21_58,fr21_u1).
body(r_fr21_58,fr21_a3).
body(r_fr21_58,fr7_f1).
body(r_fr21_58,fr21_b3).
body(r_fr21_58,fr21_c4).
body(r_fr21_58,fr21_f1).
body(r_fr21_58,fr21_f3).
head(r_fr21_59,fr21_u1).
body(r_fr21_59,fr21_b2).
body(r_fr21_59,fr21_c4).
body(r_fr21_59,fr21_d3).
body(r_fr21_59,fr21_f3).
body(r_fr21_59,fr21_e3).
body(r_fr21_59,fr21_f1).
body(r_fr21_59,fr21_f3).
head(r_fr21_60,fr21_u1).
body(r_fr21_60,fr21_c3).
head(r_fr21_61,fr21_u1).
body(r_fr21_61,fr7_f1).
body(r_fr21_61,fr21_z2).
head(r_fr21_62,fr21_y1).
head(r_fr21_63,fr21_y1).
body(r_fr21_63,fr21_a4).
body(r_fr21_63,fr21_b2).
body(r_fr21_63,fr21_e3).
body(r_fr21_63,fr21_f2).
head(r_fr21_64,fr21_v2).
body(r_fr21_64,fr20_b1).
body(r_fr21_64,fr21_b2).
body(r_fr21_64,fr21_c2).
head(r_fr21_65,fr21_v2).
body(r_fr21_65,fr21_p4).
body(r_fr21_65,fr18_z4).
head(r_fr21_66,fr21_x1).
body(r_fr21_66,fr20_b1).
body(r_fr21_66,fr21_c1).
body(r_fr21_66,fr21_d2).
body(r_fr21_66,fr21_f3).
body(r_fr21_66,fr21_r1).
body(r_fr21_66,fr21_u1).
body(r_fr21_66,fr21_v3).
head(r_fr21_67,fr21_x1).
body(r_fr21_67,fr21_f3).
head(r_fr21_68,fr21_x1).
body(r_fr21_68,fr20_b1).
body(r_fr21_68,fr21_c3).
body(r_fr21_68,fr21_e1).
body(r_fr21_68,fr21_f3).
body(r_fr21_68,fr21_v2).
head(r_fr21_69,fr21_x1).
head(r_fr21_70,fr21_r1).
body(r_fr21_70,fr7_f1).
body(r_fr21_70,fr21_f3).
body(r_fr21_70,fr21_q4).
body(r_fr21_70,fr21_t1).
body(r_fr21_70,fr24_v1).
body(r_fr21_70,fr21_y2).
head(r_fr21_71,fr21_r1).
body(r_fr21_71,fr21_a2).
body(r_fr21_71,fr17_b5).
body(r_fr21_71,fr21_c4).
body(r_fr21_71,fr21_d1).
body(r_fr21_71,fr21_d3).
body(r_fr21_71,fr21_f3).
body(r_fr21_71,fr16_w2).
head(r_fr21_72,fr21_r1).
body(r_fr21_72,fr21_e1).
body(r_fr21_72,fr23_u3).
body(r_fr21_72,fr21_t1).
body(r_fr21_72,fr21_u1).
body(r_fr21_72,fr21_u3).
body(r_fr21_72,fr21_x1).
body(r_fr21_72,fr18_z4).
body(r_fr21_72,fr21_z3).
head(r_fr21_73,fr21_r1).
body(r_fr21_73,fr21_b3).
body(r_fr21_73,fr21_d1).
body(r_fr21_73,fr21_q4).
body(r_fr21_73,fr21_v2).
body(r_fr21_73,fr21_w2).
head(r_fr21_74,fr21_r1).
body(r_fr21_74,fr21_c2).
body(r_fr21_74,fr21_e3).
body(r_fr21_74,fr21_f3).
head(r_fr21_75,fr21_y3).
body(r_fr21_75,fr21_a3).
body(r_fr21_75,fr21_c3).
body(r_fr21_75,fr21_f1).
body(r_fr21_75,fr21_p1).
body(r_fr21_75,fr23_u3).
head(r_fr21_76,fr21_y3).
body(r_fr21_76,fr21_p3).
body(r_fr21_76,fr21_r2).
body(r_fr21_76,fr21_t3).
body(r_fr21_76,fr21_u1).
body(r_fr21_76,fr21_w1).
head(r_fr21_77,fr21_y3).
body(r_fr21_77,fr21_a2).
body(r_fr21_77,fr21_d1).
body(r_fr21_77,fr21_e3).
head(r_fr21_78,fr21_y3).
body(r_fr21_78,fr21_a2).
body(r_fr21_78,fr7_f1).
body(r_fr21_78,fr21_b2).
body(r_fr21_78,fr21_f3).
body(r_fr21_78,fr21_e3).
body(r_fr21_78,fr21_f2).
body(r_fr21_78,fr21_f3).
body(r_fr21_78,fr21_p2).
head(r_fr21_79,fr21_y3).
body(r_fr21_79,fr20_b1).
body(r_fr21_79,fr21_d1).
body(r_fr21_79,fr21_f3).
head(r_fr21_80,fr21_y3).
body(r_fr21_80,fr17_b5).
body(r_fr21_80,fr21_c4).
body(r_fr21_80,fr21_d3).
body(r_fr21_80,fr21_e1).
body(r_fr21_80,fr21_q2).
body(r_fr21_80,fr21_v2).
body(r_fr21_80,fr21_x1).
body(r_fr21_80,fr21_y2).
head(r_fr21_81,fr15_x2).
body(r_fr21_81,fr21_t3).
head(r_fr21_82,fr15_x2).
head(r_fr21_83,fr15_x2).
body(r_fr21_83,fr21_e3).
head(r_fr21_84,fr15_x2).
body(r_fr21_84,fr21_q2).
body(r_fr21_84,fr23_u3).
body(r_fr21_84,fr21_u2).
body(r_fr21_84,fr21_v3).
head(r_fr21_85,fr15_x2).
body(r_fr21_85,fr21_c3).
body(r_fr21_85,fr21_y2).
head(r_fr21_86,fr15_x2).
body(r_fr21_86,fr21_p1).
body(r_fr21_86,fr16_w2).
body(r_fr21_86,fr21_z1).
body(r_fr21_86,fr21_z2).
body(r_fr21_86,fr21_z3).
head(r_fr21_87,fr21_q2).
body(r_fr21_87,fr21_p1).
head(r_fr21_88,fr21_q2).
body(r_fr21_88,fr21_c3).
body(r_fr21_88,fr21_e3).
body(r_fr21_88,fr21_r1).
body(r_fr21_88,fr23_u3).
body(r_fr21_88,fr16_w2).
body(r_fr21_88,fr21_z2).
head(r_fr21_89,fr21_y2).
body(r_fr21_89,fr21_a3).
body(r_fr21_89,fr21_f3).
body(r_fr21_89,fr21_q3).
body(r_fr21_89,fr23_u3).
body(r_fr21_89,fr21_s2).
body(r_fr21_89,fr21_t3).
body(r_fr21_89,fr21_v3).
body(r_fr21_89,fr21_x1).
head(r_fr21_90,fr21_y2).
body(r_fr21_90,fr21_a4).
body(r_fr21_90,fr21_q1).
body(r_fr21_90,fr21_q3).
body(r_fr21_90,fr21_x1).
body(r_fr21_90,fr21_y1).
body(r_fr21_90,fr21_z1).
head(r_fr21_91,fr21_y2).
body(r_fr21_91,fr21_a3).
body(r_fr21_91,fr7_f1).
body(r_fr21_91,fr21_c1).
body(r_fr21_91,fr21_d1).
body(r_fr21_91,fr21_d2).
body(r_fr21_91,fr21_e1).
body(r_fr21_91,fr21_f3).
body(r_fr21_91,fr21_z3).
head(r_fr21_92,fr21_y2).
body(r_fr21_92,fr7_f1).
body(r_fr21_92,fr21_d3).
body(r_fr21_92,fr21_p1).
body(r_fr21_92,fr21_r2).
body(r_fr21_92,fr21_v3).
body(r_fr21_92,fr21_w2).
body(r_fr21_92,fr24_v1).
head(r_fr21_93,fr21_y2).
body(r_fr21_93,fr7_f1).
body(r_fr21_93,fr21_c4).
body(r_fr21_93,fr18_z4).
head(r_fr21_94,fr21_y2).
body(r_fr21_94,fr21_a4).
body(r_fr21_94,fr21_b3).
body(r_fr21_94,fr17_b5).
body(r_fr21_94,fr21_c1).
body(r_fr21_94,fr21_c3).
body(r_fr21_94,fr21_f3).
body(r_fr21_94,fr21_v3).
body(r_fr21_94,fr21_z2).
head(r_fr21_95,fr21_q3).
body(r_fr21_95,fr21_a3).
body(r_fr21_95,fr21_p3).
body(r_fr21_95,fr21_q1).
body(r_fr21_95,fr21_t1).
body(r_fr21_95,fr21_x1).
body(r_fr21_95,fr21_y3).
body(r_fr21_95,fr21_z1).
body(r_fr21_95,fr21_z2).
head(r_fr21_96,fr21_q3).
body(r_fr21_96,fr20_b1).
body(r_fr21_96,fr21_a2).
body(r_fr21_96,fr21_a4).
body(r_fr21_96,fr17_b5).
body(r_fr21_96,fr21_e1).
body(r_fr21_96,fr21_f3).
head(r_fr21_97,fr21_q3).
body(r_fr21_97,fr21_a2).
body(r_fr21_97,fr21_e3).
head(r_fr21_98,fr23_u3).
body(r_fr21_98,fr21_p1).
body(r_fr21_98,fr21_r2).
body(r_fr21_98,fr21_s2).
body(r_fr21_98,fr21_t3).
body(r_fr21_98,fr21_u1).
body(r_fr21_98,fr21_v3).
body(r_fr21_98,fr18_z4).
head(r_fr21_99,fr23_u3).
body(r_fr21_99,fr21_a2).
body(r_fr21_99,fr21_a3).
body(r_fr21_99,fr21_b2).
body(r_fr21_99,fr21_b3).
body(r_fr21_99,fr21_e1).
body(r_fr21_99,fr21_f2).
body(r_fr21_99,fr21_p2).
head(r_fr21_100,fr23_u3).
body(r_fr21_100,fr21_a3).
body(r_fr21_100,fr21_a4).
body(r_fr21_100,fr21_c2).
body(r_fr21_100,fr21_c3).
body(r_fr21_100,fr21_d3).
body(r_fr21_100,fr21_q4).
body(r_fr21_100,fr16_w2).
body(r_fr21_100,fr21_z2).
head(r_fr21_101,fr23_u3).
head(r_fr21_102,fr23_u3).
body(r_fr21_102,fr21_a4).
body(r_fr21_102,fr21_c2).
body(r_fr21_102,fr21_f2).
head(r_fr21_103,fr23_u3).
body(r_fr21_103,fr21_c2).
body(r_fr21_103,fr21_d3).
body(r_fr21_103,fr21_f3).
head(r_fr21_104,fr21_s3).
body(r_fr21_104,fr21_a4).
body(r_fr21_104,fr21_b2).
body(r_fr21_104,fr21_c4).
body(r_fr21_104,fr21_f1).
body(r_fr21_104,fr21_q2).
head(r_fr21_105,fr21_s3).
body(r_fr21_105,fr7_f1).
body(r_fr21_105,fr21_b2).
body(r_fr21_105,fr21_c4).
body(r_fr21_105,fr21_f3).
body(r_fr21_105,fr21_e3).
body(r_fr21_105,fr21_f2).
body(r_fr21_105,fr21_f3).
head(r_fr21_106,fr21_s3).
body(r_fr21_106,fr21_p2).
body(r_fr21_106,fr21_p4).
head(r_fr21_107,fr21_s3).
body(r_fr21_107,fr20_b1).
body(r_fr21_107,fr21_a2).
body(r_fr21_107,fr21_c4).
body(r_fr21_107,fr21_d2).
body(r_fr21_107,fr21_d3).
body(r_fr21_107,fr21_f3).
body(r_fr21_107,fr21_e3).
body(r_fr21_107,fr21_t2).
head(r_fr21_108,fr21_s3).
body(r_fr21_108,fr21_a3).
body(r_fr21_108,fr7_f1).
body(r_fr21_108,fr21_c2).
body(r_fr21_108,fr21_c3).
body(r_fr21_108,fr21_f2).
body(r_fr21_108,fr15_x2).
body(r_fr21_108,fr21_u2).
body(r_fr21_108,fr24_v1).
head(r_fr21_109,fr21_s3).
body(r_fr21_109,fr20_b1).
body(r_fr21_109,fr17_b5).
body(r_fr21_109,fr21_d1).
body(r_fr21_109,fr21_e3).
body(r_fr21_109,fr21_z1).
head(r_fr21_110,fr21_s3).
body(r_fr21_110,fr21_f1).
body(r_fr21_110,fr21_x1).
head(r_fr21_111,fr18_z4).
body(r_fr21_111,fr24_v1).
body(r_fr21_111,fr21_y3).
head(r_fr21_112,fr18_z4).
body(r_fr21_112,fr21_p3).
body(r_fr21_112,fr23_u3).
body(r_fr21_112,fr21_t2).
body(r_fr21_112,fr21_y1).
body(r_fr21_112,fr21_z3).
head(r_fr21_113,fr24_v1).
body(r_fr21_113,fr21_a2).
body(r_fr21_113,fr21_c3).
body(r_fr21_113,fr21_e3).
body(r_fr21_113,fr21_f1).
body(r_fr21_113,fr21_q1).
body(r_fr21_113,fr21_r2).
head(r_fr21_114,fr24_v1).
body(r_fr21_114,fr21_d1).
body(r_fr21_114,fr21_q4).
body(r_fr21_114,fr21_t1).
body(r_fr21_114,fr21_t3).
head(r_fr21_115,fr21_t1).
body(r_fr21_115,fr21_a2).
body(r_fr21_115,fr21_e3).
body(r_fr21_115,fr21_q1).
head(r_fr21_116,fr21_t1).
head(r_fr21_117,fr21_t3).
body(r_fr21_117,fr21_b3).
body(r_fr21_117,fr21_c4).
body(r_fr21_117,fr21_p3).
body(r_fr21_117,fr21_s3).
body(r_fr21_117,fr18_z4).
head(r_fr21_118,fr21_t3).

assumption(fr22_a1).
assumption(fr22_b1).
assumption(fr9_c2).
assumption(fr13_d1).
assumption(fr22_e1).
assumption(fr22_f1).
assumption(fr24_c1).
assumption(fr22_b2).
assumption(fr2_b2).
assumption(fr22_d2).
assumption(fr7_f1).
assumption(fr22_f2).
assumption(fr22_a3).
assumption(fr22_b3).
assumption(fr22_c3).
contrary(fr22_a1,fr3_s1).
contrary(fr24_c1,fr22_a1).
contrary(fr22_a3,fr22_y4).
contrary(fr22_b1,fr23_w3).
contrary(fr22_b2,fr22_r4).
contrary(fr22_b3,fr22_w3).
contrary(fr9_c2,fr22_q1).
contrary(fr2_b2,fr22_p6).
contrary(fr22_c3,fr22_b2).
contrary(fr13_d1,fr22_p2).
contrary(fr22_d2,fr22_z1).
contrary(fr22_e1,fr22_s2).
contrary(fr7_f1,fr22_w2).
contrary(fr22_f1,fr22_q6).
contrary(fr22_f2,fr22_r3).
head(r_fr22_0,fr22_t3).
body(r_fr22_0,fr22_a1).
body(r_fr22_0,fr22_e1).
head(r_fr22_1,fr22_t3).
body(r_fr22_1,fr22_p6).
body(r_fr22_1,fr22_r4).
body(r_fr22_1,fr22_s3).
body(r_fr22_1,fr22_v3).
body(r_fr22_1,fr22_v5).
body(r_fr22_1,fr22_y5).
head(r_fr22_2,fr22_t3).
body(r_fr22_2,fr22_a3).
body(r_fr22_2,fr22_e1).
body(r_fr22_2,fr7_f1).
body(r_fr22_2,fr22_p5).
body(r_fr22_2,fr22_r1).
head(r_fr22_3,fr22_t3).
head(r_fr22_4,fr22_t3).
body(r_fr22_4,fr22_c3).
head(r_fr22_5,fr22_q6).
body(r_fr22_5,fr22_a3).
head(r_fr22_6,fr22_q6).
body(r_fr22_6,fr22_b1).
head(r_fr22_7,fr22_q6).
body(r_fr22_7,fr7_f1).
head(r_fr22_8,fr22_q6).
body(r_fr22_8,fr9_c2).
body(r_fr22_8,fr2_b2).
body(r_fr22_8,fr7_f1).
head(r_fr22_9,fr22_q6).
body(r_fr22_9,fr22_w5).
head(r_fr22_10,fr22_r1).
body(r_fr22_10,fr22_e1).
body(r_fr22_10,fr7_f1).
body(r_fr22_10,fr22_u1).
head(r_fr22_11,fr22_r1).
body(r_fr22_11,fr22_c3).
body(r_fr22_11,fr7_f1).
body(r_fr22_11,fr22_y2).
head(r_fr22_12,fr22_r1).
body(r_fr22_12,fr22_q1).
body(r_fr22_12,fr22_v3).
head(r_fr22_13,fr22_r1).
head(r_fr22_14,fr22_p6).
body(r_fr22_14,fr22_a1).
body(r_fr22_14,fr24_r2).
body(r_fr22_14,fr22_t5).
body(r_fr22_14,fr22_v3).
body(r_fr22_14,fr22_v5).
head(r_fr22_15,fr22_p6).
body(r_fr22_15,fr22_b1).
body(r_fr22_15,fr2_b2).
body(r_fr22_15,fr22_y5).
head(r_fr22_16,fr22_p6).
body(r_fr22_16,fr22_a1).
body(r_fr22_16,fr22_b2).
body(r_fr22_16,fr22_d2).
body(r_fr22_16,fr22_q4).
head(r_fr22_17,fr22_p6).
head(r_fr22_18,fr22_p6).
body(r_fr22_18,fr24_c1).
body(r_fr22_18,fr22_c3).
body(r_fr22_18,fr7_f1).
body(r_fr22_18,fr22_r5).
head(r_fr22_19,fr22_r5).
body(r_fr22_19,fr24_c1).
body(r_fr22_19,fr22_c3).
body(r_fr22_19,fr22_e1).
body(r_fr22_19,fr22_f1).
body(r_fr22_19,fr22_w5).
head(r_fr22_20,fr22_r5).
body(r_fr22_20,fr9_c2).
body(r_fr22_20,fr2_b2).
body(r_fr22_20,fr22_w5).
head(r_fr22_21,fr22_r5).
body(r_fr22_21,fr22_q5).
head(r_fr22_22,fr22_r5).
body(r_fr22_22,fr2_b2).
body(r_fr22_22,fr22_f2).
body(r_fr22_22,fr18_x1).
body(r_fr22_22,fr22_u1).
body(r_fr22_22,fr22_y2).
head(r_fr22_23,fr22_u2).
body(r_fr22_23,fr22_a3).
body(r_fr22_23,fr22_f2).
body(r_fr22_23,fr22_p3).
head(r_fr22_24,fr22_u2).
body(r_fr22_24,fr13_d1).
head(r_fr22_25,fr22_u2).
body(r_fr22_25,fr22_x2).
head(r_fr22_26,fr22_w5).
body(r_fr22_26,fr22_w1).
head(r_fr22_27,fr22_w5).
body(r_fr22_27,fr22_f1).
head(r_fr22_28,fr22_w5).
body(r_fr22_28,fr22_b1).
body(r_fr22_28,fr2_b2).
body(r_fr22_28,fr22_q2).
body(r_fr22_28,fr22_w2).
body(r_fr22_28,fr22_z1).
head(r_fr22_29,fr22_y2).
body(r_fr22_29,fr22_p5).
body(r_fr22_29,fr22_t5).
body(r_fr22_29,fr22_v6).
body(r_fr22_29,fr22_w2).
body(r_fr22_29,fr22_x1).
head(r_fr22_30,fr22_y2).
body(r_fr22_30,fr23_v3).
head(r_fr22_31,fr22_y2).
body(r_fr22_31,fr22_b2).
body(r_fr22_31,fr22_b3).
head(r_fr22_32,fr22_y2).
body(r_fr22_32,fr22_c3).
body(r_fr22_32,fr22_f1).
head(r_fr22_33,fr22_u4).
body(r_fr22_33,fr24_c1).
body(r_fr22_33,fr22_b3).
body(r_fr22_33,fr22_p5).
body(r_fr22_33,fr22_u3).
head(r_fr22_34,fr22_u4).
body(r_fr22_34,fr7_f1).
body(r_fr22_34,fr22_q1).
body(r_fr22_34,fr22_z4).
head(r_fr22_35,fr22_u4).
body(r_fr22_35,fr13_d1).
head(r_fr22_36,fr22_u4).
body(r_fr22_36,fr2_b2).
body(r_fr22_36,fr7_f1).
body(r_fr22_36,fr22_f1).
body(r_fr22_36,fr14_p1).
body(r_fr22_36,fr22_y4).
body(r_fr22_36,fr23_x3).
head(r_fr22_37,fr22_u1).
body(r_fr22_37,fr22_r4).
body(r_fr22_37,fr22_u6).
body(r_fr22_37,fr22_x3).
head(r_fr22_38,fr22_u1).
body(r_fr22_38,fr22_a1).
body(r_fr22_38,fr22_b2).
body(r_fr22_38,fr13_d1).
body(r_fr22_38,fr22_f2).
head(r_fr22_39,fr22_s3).
head(r_fr22_40,fr22_s3).
body(r_fr22_40,fr22_a3).
body(r_fr22_40,fr2_b2).
body(r_fr22_40,fr22_s5).
head(r_fr22_41,fr22_s3).
body(r_fr22_41,fr22_c3).
head(r_fr22_42,fr22_s3).
body(r_fr22_42,fr22_s5).
body(r_fr22_42,fr22_v2).
head(r_fr22_43,fr22_s3).
body(r_fr22_43,fr22_q1).
body(r_fr22_43,fr22_v5).
head(r_fr22_44,fr22_y4).
body(r_fr22_44,fr22_e1).
body(r_fr22_44,fr22_u6).
body(r_fr22_44,fr22_w3).
body(r_fr22_44,fr22_w6).
head(r_fr22_45,fr22_y4).
body(r_fr22_45,fr22_s5).
body(r_fr22_45,fr22_v4).
body(r_fr22_45,fr22_y1).
body(r_fr22_45,fr22_z5).
head(r_fr22_46,fr22_y4).
body(r_fr22_46,fr13_d1).
body(r_fr22_46,fr22_s5).
body(r_fr22_46,fr22_t5).
head(r_fr22_47,fr22_y4).
body(r_fr22_47,fr22_b3).
body(r_fr22_47,fr22_c3).
body(r_fr22_47,fr22_u6).
body(r_fr22_47,fr22_x6).
head(r_fr22_48,fr22_p2).
body(r_fr22_48,fr2_b2).
body(r_fr22_48,fr22_f2).
head(r_fr22_49,fr22_p2).
head(r_fr22_50,fr22_p2).
body(r_fr22_50,fr2_b2).
body(r_fr22_50,fr22_d2).
body(r_fr22_50,fr22_e1).
body(r_fr22_50,fr22_p3).
body(r_fr22_50,fr22_p5).
body(r_fr22_50,fr22_x6).
head(r_fr22_51,fr22_x5).
body(r_fr22_51,fr24_c1).
body(r_fr22_51,fr22_b1).
body(r_fr22_51,fr22_c3).
body(r_fr22_51,fr22_d2).
body(r_fr22_51,fr22_e1).
body(r_fr22_51,fr22_s5).
head(r_fr22_52,fr22_x5).
body(r_fr22_52,fr22_b3).
body(r_fr22_52,fr22_d2).
body(r_fr22_52,fr22_e1).
body(r_fr22_52,fr22_f1).
body(r_fr22_52,fr22_y5).
head(r_fr22_53,fr22_x5).
body(r_fr22_53,fr22_u3).
body(r_fr22_53,fr22_v1).
body(r_fr22_53,fr22_x4).
head(r_fr22_54,fr22_v6).
body(r_fr22_54,fr22_a3).
body(r_fr22_54,fr2_x1).
body(r_fr22_54,fr22_w6).
body(r_fr22_54,fr22_x1).
head(r_fr22_55,fr22_v6).
body(r_fr22_55,fr22_f2).
head(r_fr22_56,fr22_v6).
body(r_fr22_56,fr22_b2).
body(r_fr22_56,fr22_b3).
body(r_fr22_56,fr22_c3).
body(r_fr22_56,fr13_d1).
body(r_fr22_56,fr22_f2).
head(r_fr22_57,fr22_v6).
body(r_fr22_57,fr22_r3).
body(r_fr22_57,fr22_y1).
body(r_fr22_57,fr22_y5).
body(r_fr22_57,fr23_x3).
head(r_fr22_58,fr22_u6).
body(r_fr22_58,fr22_b2).
body(r_fr22_58,fr9_c2).
body(r_fr22_58,fr13_d1).
body(r_fr22_58,fr22_d2).
body(r_fr22_58,fr7_f1).
head(r_fr22_59,fr22_u6).
body(r_fr22_59,fr22_d2).
body(r_fr22_59,fr3_s1).
head(r_fr22_60,fr22_u6).
body(r_fr22_60,fr2_b2).
body(r_fr22_60,fr2_x1).
head(r_fr22_61,fr22_u6).
body(r_fr22_61,fr22_b3).
body(r_fr22_61,fr22_f1).
body(r_fr22_61,fr22_q1).
body(r_fr22_61,fr22_q4).
body(r_fr22_61,fr22_s5).
body(r_fr22_61,fr22_w4).
head(r_fr22_62,fr22_q5).
body(r_fr22_62,fr22_p3).
body(r_fr22_62,fr22_r4).
body(r_fr22_62,fr22_s5).
body(r_fr22_62,fr22_t1).
body(r_fr22_62,fr22_x1).
head(r_fr22_63,fr22_q5).
body(r_fr22_63,fr9_c2).
body(r_fr22_63,fr13_d1).
head(r_fr22_64,fr22_q5).
body(r_fr22_64,fr22_b1).
body(r_fr22_64,fr22_s4).
head(r_fr22_65,fr22_q5).
body(r_fr22_65,fr22_a3).
body(r_fr22_65,fr2_b2).
body(r_fr22_65,fr22_e1).
body(r_fr22_65,fr7_f1).
head(r_fr22_66,fr22_q5).
body(r_fr22_66,fr9_c2).
body(r_fr22_66,fr22_d2).
body(r_fr22_66,fr22_e1).
body(r_fr22_66,fr22_p1).
body(r_fr22_66,fr22_r2).
body(r_fr22_66,fr22_w4).
head(r_fr22_67,fr22_w2).
body(r_fr22_67,fr22_p3).
body(r_fr22_67,fr22_z2).
head(r_fr22_68,fr22_w2).
body(r_fr22_68,fr9_c2).
body(r_fr22_68,fr2_b2).
body(r_fr22_68,fr22_r3).
body(r_fr22_68,fr22_x6).
head(r_fr22_69,fr22_w2).
body(r_fr22_69,fr22_b1).
body(r_fr22_69,fr22_e1).
head(r_fr22_70,fr22_w2).
body(r_fr22_70,fr22_b2).
body(r_fr22_70,fr13_d1).
body(r_fr22_70,fr22_y5).
head(r_fr22_71,fr22_w2).
body(r_fr22_71,fr2_b2).
body(r_fr22_71,fr13_d1).
body(r_fr22_71,fr22_d2).
body(r_fr22_71,fr22_p3).
body(r_fr22_71,fr22_t1).
body(r_fr22_71,fr22_t5).
head(r_fr22_72,fr22_v2).
body(r_fr22_72,fr24_c1).
body(r_fr22_72,fr7_f1).
head(r_fr22_73,fr22_v2).
body(r_fr22_73,fr22_b3).
body(r_fr22_73,fr22_e1).
head(r_fr22_74,fr22_v2).
body(r_fr22_74,fr22_q4).
body(r_fr22_74,fr22_w6).
head(r_fr22_75,fr22_v2).
body(r_fr22_75,fr22_q4).
body(r_fr22_75,fr22_r3).
body(r_fr22_75,fr18_t3).
body(r_fr22_75,fr22_x4).
head(r_fr22_76,fr22_v2).
body(r_fr22_76,fr2_x1).
body(r_fr22_76,fr22_s4).
body(r_fr22_76,fr22_t6).
body(r_fr22_76,fr22_x1).
body(r_fr22_76,fr22_z5).
head(r_fr22_77,fr22_s5).
body(r_fr22_77,fr22_q4).
body(r_fr22_77,fr22_t6).
body(r_fr22_77,fr22_u3).
body(r_fr22_77,fr22_x2).
head(r_fr22_78,fr22_s5).
body(r_fr22_78,fr22_q1).
body(r_fr22_78,fr24_r2).

assumption(fr9_c1).
assumption(fr23_b1).
assumption(fr23_c1).
assumption(fr21_f3).
assumption(fr23_e1).
assumption(fr23_f1).
assumption(fr23_a2).
assumption(fr23_b2).
assumption(fr23_c2).
assumption(fr23_d2).
assumption(fr1_a2).
assumption(fr23_f2).
assumption(fr14_c3).
assumption(fr14_d1).
assumption(fr23_c3).
contrary(fr9_c1,fr23_r1).
contrary(fr23_a2,fr23_w3).
contrary(fr14_c3,fr23_q2).
contrary(fr23_b1,fr23_y2).
contrary(fr23_b2,fr23_f2).
contrary(fr14_d1,fr23_u3).
contrary(fr23_c1,fr23_y3).
contrary(fr23_c2,fr1_a2).
contrary(fr23_c3,fr23_y3).
contrary(fr21_f3,fr23_y3).
contrary(fr23_d2,fr7_y1).
contrary(fr23_e1,fr23_r3).
contrary(fr1_a2,fr23_p1).
contrary(fr23_f1,fr23_p2).
contrary(fr23_f2,fr23_x3).
head(r_fr23_0,fr23_x2).
body(r_fr23_0,fr23_a2).
head(r_fr23_1,fr23_x2).
body(r_fr23_1,fr23_d2).
body(r_fr23_1,fr23_s3).
body(r_fr23_1,fr23_w1).
head(r_fr23_2,fr23_x2).
head(r_fr23_3,fr23_p3).
body(r_fr23_3,fr23_c1).
body(r_fr23_3,fr23_y1).
head(r_fr23_4,fr23_p3).
body(r_fr23_4,fr23_t1).
body(r_fr23_4,fr23_y1).
head(r_fr23_5,fr23_q1).
head(r_fr23_6,fr23_q1).
body(r_fr23_6,fr14_c3).
body(r_fr23_6,fr23_c2).
body(r_fr23_6,fr23_d2).
head(r_fr23_7,fr23_q1).
body(r_fr23_7,fr23_e1).
head(r_fr23_8,fr23_y1).
head(r_fr23_9,fr23_y1).
body(r_fr23_9,fr23_e1).
body(r_fr23_9,fr23_f2).
body(r_fr23_9,fr23_x3).
head(r_fr23_10,fr23_y1).
body(r_fr23_10,fr23_c2).
body(r_fr23_10,fr23_p1).
body(r_fr23_10,fr23_t3).
head(r_fr23_11,fr23_y1).
body(r_fr23_11,fr23_a2).
body(r_fr23_11,fr23_b2).
body(r_fr23_11,fr23_f2).
head(r_fr23_12,fr23_t2).
head(r_fr23_13,fr23_t2).
body(r_fr23_13,fr23_f2).
body(r_fr23_13,fr7_y1).
head(r_fr23_14,fr23_t2).
body(r_fr23_14,fr23_d2).
body(r_fr23_14,fr23_u2).
head(r_fr23_15,fr23_z3).
body(r_fr23_15,fr14_c3).
body(r_fr23_15,fr23_c2).
body(r_fr23_15,fr23_c3).
head(r_fr23_16,fr23_z3).
body(r_fr23_16,fr23_a2).
body(r_fr23_16,fr14_c3).
body(r_fr23_16,fr1_a2).
head(r_fr23_17,fr23_u1).
body(r_fr23_17,fr14_d1).
body(r_fr23_17,fr23_c3).
body(r_fr23_17,fr23_d2).
head(r_fr23_18,fr23_u1).
body(r_fr23_18,fr23_r1).
body(r_fr23_18,fr23_v3).
body(r_fr23_18,fr23_w3).
head(r_fr23_19,fr23_w3).
body(r_fr23_19,fr23_p1).
body(r_fr23_19,fr23_r2).
body(r_fr23_19,fr23_y3).
head(r_fr23_20,fr23_w3).
head(r_fr23_21,fr23_w3).
body(r_fr23_21,fr23_w2).
body(r_fr23_21,fr23_x3).
head(r_fr23_22,fr23_w3).
body(r_fr23_22,fr23_u3).
body(r_fr23_22,fr23_x3).
head(r_fr23_23,fr23_w3).
body(r_fr23_23,fr23_p1).
body(r_fr23_23,fr23_r1).
body(r_fr23_23,fr23_s3).
head(r_fr23_24,fr23_w1).
body(r_fr23_24,fr23_b2).
body(r_fr23_24,fr14_d1).
body(r_fr23_24,fr23_c3).
head(r_fr23_25,fr23_w1).
body(r_fr23_25,fr7_y1).
body(r_fr23_25,fr23_x1).
head(r_fr23_26,fr23_w1).
head(r_fr23_27,fr23_w1).
body(r_fr23_27,fr23_e1).
head(r_fr23_28,fr23_w1).
body(r_fr23_28,fr23_q2).
body(r_fr23_28,fr23_t1).
body(r_fr23_28,fr23_y2).
head(r_fr23_29,fr23_w2).
body(r_fr23_29,fr9_c1).
body(r_fr23_29,fr23_a2).
body(r_fr23_29,fr23_b1).
head(r_fr23_30,fr23_w2).
body(r_fr23_30,fr23_b1).
head(r_fr23_31,fr23_w2).
body(r_fr23_31,fr23_p2).
head(r_fr23_32,fr23_w2).
body(r_fr23_32,fr23_c3).
body(r_fr23_32,fr23_u3).
body(r_fr23_32,fr23_v3).
head(r_fr23_33,fr23_w2).
body(r_fr23_33,fr23_r1).
head(r_fr23_34,fr23_y2).
body(r_fr23_34,fr9_c1).
body(r_fr23_34,fr23_c3).
body(r_fr23_34,fr23_e1).
head(r_fr23_35,fr23_y2).
body(r_fr23_35,fr23_b2).
body(r_fr23_35,fr23_c3).
body(r_fr23_35,fr23_e1).
head(r_fr23_36,fr23_x1).
body(r_fr23_36,fr23_e1).
body(r_fr23_36,fr23_q2).
head(r_fr23_37,fr23_x1).
body(r_fr23_37,fr14_c3).
body(r_fr23_37,fr23_b1).
body(r_fr23_37,fr23_c1).
head(r_fr23_38,fr23_t1).
body(r_fr23_38,fr23_p1).
body(r_fr23_38,fr23_p2).
head(r_fr23_39,fr23_t1).
body(r_fr23_39,fr23_e1).
body(r_fr23_39,fr23_q2).
body(r_fr23_39,fr23_r2).
head(r_fr23_40,fr5_r2).
body(r_fr23_40,fr15_z2).
head(r_fr23_41,fr5_r2).
head(r_fr23_42,fr5_r2).
body(r_fr23_42,fr14_d1).
body(r_fr23_42,fr23_t3).
head(r_fr23_43,fr23_z2).
body(r_fr23_43,fr23_d2).
head(r_fr23_44,fr23_z2).
body(r_fr23_44,fr23_s2).
head(r_fr23_45,fr23_r3).
body(r_fr23_45,fr23_b2).
body(r_fr23_45,fr23_r2).
body(r_fr23_45,fr23_w3).
head(r_fr23_46,fr23_r3).
head(r_fr23_47,fr23_r3).
body(r_fr23_47,fr23_d2).
body(r_fr23_47,fr23_s2).
body(r_fr23_47,fr23_x3).
head(r_fr23_48,fr23_r3).
body(r_fr23_48,fr23_f2).
body(r_fr23_48,fr15_z2).
head(r_fr23_49,fr23_w3).
body(r_fr23_49,fr23_q4).
head(r_fr23_50,fr23_w3).
body(r_fr23_50,fr23_a2).
head(r_fr23_51,fr23_w3).
body(r_fr23_51,fr23_b2).
body(r_fr23_51,fr23_s3).
body(r_fr23_51,fr23_y3).
head(r_fr23_52,fr23_w3).
body(r_fr23_52,fr23_a2).
body(r_fr23_52,fr23_d2).
body(r_fr23_52,fr23_e1).
head(r_fr23_53,fr23_u2).
body(r_fr23_53,fr14_c3).
body(r_fr23_53,fr23_d2).
body(r_fr23_53,fr23_u3).
head(r_fr23_54,fr23_u2).
body(r_fr23_54,fr23_a2).
body(r_fr23_54,fr23_b1).
head(r_fr23_55,fr23_u2).
head(r_fr23_56,fr23_s2).
body(r_fr23_56,fr23_d2).
head(r_fr23_57,fr23_s2).
head(r_fr23_58,fr23_s2).
body(r_fr23_58,fr23_f2).
body(r_fr23_58,fr23_s1).
head(r_fr23_59,fr23_q4).
head(r_fr23_60,fr23_q4).
body(r_fr23_60,fr23_b2).
body(r_fr23_60,fr23_p1).
body(r_fr23_60,fr23_u3).
head(r_fr23_61,fr23_q4).
body(r_fr23_61,fr23_p1).
body(r_fr23_61,fr23_r1).

assumption(fr24_a1).
assumption(fr24_b1).
assumption(fr24_c1).
assumption(fr24_d1).
assumption(fr24_e1).
assumption(fr24_f1).
assumption(fr7_a1).
assumption(fr24_b2).
assumption(fr24_c2).
assumption(fr24_d2).
assumption(fr25_e2).
assumption(fr24_f2).
assumption(fr11_e2).
assumption(fr24_b3).
assumption(fr24_c3).
contrary(fr24_a1,fr14_r2).
contrary(fr7_a1,fr24_d2).
contrary(fr11_e2,fr24_f1).
contrary(fr24_b1,fr14_r2).
contrary(fr24_b2,fr7_a1).
contrary(fr24_b3,fr24_q1).
contrary(fr24_c1,fr24_c2).
contrary(fr24_c2,fr24_b3).
contrary(fr24_c3,fr24_w2).
contrary(fr24_d1,fr7_a1).
contrary(fr24_d2,fr24_r2).
contrary(fr24_e1,fr24_a1).
contrary(fr25_e2,fr24_w2).
contrary(fr24_f1,fr24_f2).
contrary(fr24_f2,fr24_e1).
head(r_fr24_0,fr24_q1).
body(r_fr24_0,fr24_d2).
body(r_fr24_0,fr24_e1).
body(r_fr24_0,fr24_f1).
head(r_fr24_1,fr24_q1).
body(r_fr24_1,fr24_s2).
head(r_fr24_2,fr24_q1).
body(r_fr24_2,fr24_b1).
body(r_fr24_2,fr24_c1).
body(r_fr24_2,fr24_c2).
body(r_fr24_2,fr15_x3).
body(r_fr24_2,fr23_t3).
body(r_fr24_2,fr24_s2).
head(r_fr24_3,fr24_q1).
body(r_fr24_3,fr24_e1).
body(r_fr24_3,fr24_v1).
body(r_fr24_3,fr24_w1).
head(r_fr24_4,fr24_q1).
body(r_fr24_4,fr20_y5).
body(r_fr24_4,fr24_p3).
body(r_fr24_4,fr15_x3).
body(r_fr24_4,fr23_z2).
body(r_fr24_4,fr24_v1).
body(r_fr24_4,fr23_w3).
head(r_fr24_5,fr24_q1).
body(r_fr24_5,fr23_z2).
head(r_fr24_6,fr24_q1).
body(r_fr24_6,fr24_c1).
body(r_fr24_6,fr24_f1).
body(r_fr24_6,fr24_f2).
head(r_fr24_7,fr24_q1).
head(r_fr24_8,fr24_q1).
body(r_fr24_8,fr24_b2).
body(r_fr24_8,fr24_c2).
body(r_fr24_8,fr15_x3).
body(r_fr24_8,fr23_t3).
body(r_fr24_8,fr20_s3).
head(r_fr24_9,fr24_q1).
body(r_fr24_9,fr11_e2).
body(r_fr24_9,fr24_c2).
body(r_fr24_9,fr24_d1).
body(r_fr24_9,fr24_f2).
body(r_fr24_9,fr24_s1).
body(r_fr24_9,fr24_t2).
head(r_fr24_10,fr24_q1).
body(r_fr24_10,fr24_c3).
body(r_fr24_10,fr24_d1).
body(r_fr24_10,fr20_r3).
body(r_fr24_10,fr24_s1).
body(r_fr24_10,fr24_s2).
body(r_fr24_10,fr24_t2).
head(r_fr24_11,fr24_q1).
body(r_fr24_11,fr11_e2).
body(r_fr24_11,fr24_d1).
body(r_fr24_11,fr24_s1).
body(r_fr24_11,fr24_w1).
body(r_fr24_11,fr24_w2).
body(r_fr24_11,fr24_y1).
head(r_fr24_12,fr24_q1).
body(r_fr24_12,fr24_c1).
body(r_fr24_12,fr24_c2).
body(r_fr24_12,fr20_r3).
body(r_fr24_12,fr24_u1).
body(r_fr24_12,fr23_w3).
head(r_fr24_13,fr24_q1).
body(r_fr24_13,fr24_a1).
body(r_fr24_13,fr24_d1).
body(r_fr24_13,fr20_r3).
body(r_fr24_13,fr20_v3).
head(r_fr24_14,fr24_q1).
body(r_fr24_14,fr24_a1).
body(r_fr24_14,fr23_z2).
head(r_fr24_15,fr24_q1).
body(r_fr24_15,fr7_a1).
body(r_fr24_15,fr24_b2).
body(r_fr24_15,fr24_b3).
body(r_fr24_15,fr25_e2).
head(r_fr24_16,fr23_z2).
body(r_fr24_16,fr24_a1).
body(r_fr24_16,fr7_a1).
body(r_fr24_16,fr24_c2).
body(r_fr24_16,fr24_e1).
body(r_fr24_16,fr24_p3).
body(r_fr24_16,fr24_v1).
head(r_fr24_17,fr23_z2).
body(r_fr24_17,fr24_q1).
body(r_fr24_17,fr15_x3).
body(r_fr24_17,fr24_s1).
body(r_fr24_17,fr24_s2).
body(r_fr24_17,fr13_v1).
body(r_fr24_17,fr23_w3).
head(r_fr24_18,fr23_z2).
body(r_fr24_18,fr24_b1).
body(r_fr24_18,fr24_b2).
body(r_fr24_18,fr24_c3).
body(r_fr24_18,fr24_d1).
body(r_fr24_18,fr24_d2).
body(r_fr24_18,fr24_p3).
head(r_fr24_19,fr23_z2).
body(r_fr24_19,fr7_a1).
body(r_fr24_19,fr24_f2).
body(r_fr24_19,fr24_t2).
body(r_fr24_19,fr24_v1).
head(r_fr24_20,fr23_z2).
body(r_fr24_20,fr24_v1).
head(r_fr24_21,fr23_z2).
body(r_fr24_21,fr24_b1).
body(r_fr24_21,fr24_d1).
body(r_fr24_21,fr24_r1).
body(r_fr24_21,fr14_r2).
head(r_fr24_22,fr23_z2).
body(r_fr24_22,fr24_b1).
body(r_fr24_22,fr24_b3).
body(r_fr24_22,fr24_f1).
body(r_fr24_22,fr24_t2).
head(r_fr24_23,fr23_z2).
body(r_fr24_23,fr24_b1).
body(r_fr24_23,fr24_d2).
body(r_fr24_23,fr24_e1).
body(r_fr24_23,fr24_s1).
head(r_fr24_24,fr23_z2).
body(r_fr24_24,fr20_s3).
head(r_fr24_25,fr23_z2).
head(r_fr24_26,fr23_z2).
body(r_fr24_26,fr24_a1).
body(r_fr24_26,fr24_c2).
head(r_fr24_27,fr23_z2).
body(r_fr24_27,fr24_a1).
body(r_fr24_27,fr11_e2).
body(r_fr24_27,fr24_c3).
body(r_fr24_27,fr24_f2).
head(r_fr24_28,fr23_z2).
body(r_fr24_28,fr24_b3).
body(r_fr24_28,fr24_y1).
head(r_fr24_29,fr23_z2).
body(r_fr24_29,fr24_u1).
head(r_fr24_30,fr23_z2).
body(r_fr24_30,fr7_a1).
body(r_fr24_30,fr11_e2).
body(r_fr24_30,fr25_e2).
body(r_fr24_30,fr24_r1).
body(r_fr24_30,fr14_r2).
body(r_fr24_30,fr23_w3).
head(r_fr24_31,fr23_z2).
body(r_fr24_31,fr7_a1).
body(r_fr24_31,fr24_d1).
body(r_fr24_31,fr24_d2).
body(r_fr24_31,fr24_f2).
head(r_fr24_32,fr23_z2).
body(r_fr24_32,fr13_v1).
body(r_fr24_32,fr24_w2).
head(r_fr24_33,fr23_t3).
body(r_fr24_33,fr7_a1).
body(r_fr24_33,fr24_b1).
body(r_fr24_33,fr14_r2).
body(r_fr24_33,fr23_w3).
head(r_fr24_34,fr23_t3).
body(r_fr24_34,fr20_y5).
body(r_fr24_34,fr24_v1).
body(r_fr24_34,fr24_x2).
head(r_fr24_35,fr23_t3).
body(r_fr24_35,fr24_c2).
head(r_fr24_36,fr23_t3).
body(r_fr24_36,fr24_d2).
body(r_fr24_36,fr24_r2).
body(r_fr24_36,fr24_s2).
head(r_fr24_37,fr23_t3).
body(r_fr24_37,fr15_x3).
body(r_fr24_37,fr24_y1).
head(r_fr24_38,fr23_t3).
body(r_fr24_38,fr7_a1).
body(r_fr24_38,fr24_b3).
body(r_fr24_38,fr24_d1).
body(r_fr24_38,fr24_f1).
body(r_fr24_38,fr23_z2).
head(r_fr24_39,fr23_t3).
body(r_fr24_39,fr24_b3).
body(r_fr24_39,fr23_z2).
head(r_fr24_40,fr23_t3).
body(r_fr24_40,fr11_e2).
body(r_fr24_40,fr24_c3).
body(r_fr24_40,fr24_f1).
body(r_fr24_40,fr24_f2).
body(r_fr24_40,fr20_y5).
body(r_fr24_40,fr24_w1).
head(r_fr24_41,fr23_t3).
head(r_fr24_42,fr23_t3).
body(r_fr24_42,fr11_e2).
head(r_fr24_43,fr23_t3).
body(r_fr24_43,fr20_r3).
body(r_fr24_43,fr24_q1).
body(r_fr24_43,fr13_v1).
head(r_fr24_44,fr23_t3).
body(r_fr24_44,fr15_x3).
body(r_fr24_44,fr20_s3).
body(r_fr24_44,fr14_r2).
head(r_fr24_45,fr23_t3).
body(r_fr24_45,fr24_b1).
body(r_fr24_45,fr24_c2).
body(r_fr24_45,fr24_f1).
head(r_fr24_46,fr23_t3).
body(r_fr24_46,fr13_v1).
body(r_fr24_46,fr7_q1).
head(r_fr24_47,fr23_t3).
body(r_fr24_47,fr20_r3).
body(r_fr24_47,fr20_y5).
body(r_fr24_47,fr24_x2).
body(r_fr24_47,fr21_r2).
body(r_fr24_47,fr23_w3).
head(r_fr24_48,fr24_s2).
body(r_fr24_48,fr7_a1).
body(r_fr24_48,fr24_c1).
body(r_fr24_48,fr24_d1).
body(r_fr24_48,fr24_r1).
head(r_fr24_49,fr24_s2).
body(r_fr24_49,fr20_r3).
body(r_fr24_49,fr20_s3).
body(r_fr24_49,fr24_y1).
head(r_fr24_50,fr24_s2).
body(r_fr24_50,fr24_b3).
body(r_fr24_50,fr24_c3).
body(r_fr24_50,fr24_d2).
body(r_fr24_50,fr25_e2).
body(r_fr24_50,fr24_f1).
head(r_fr24_51,fr24_s2).
body(r_fr24_51,fr24_b2).
body(r_fr24_51,fr25_e2).
body(r_fr24_51,fr13_v1).
body(r_fr24_51,fr21_r2).
body(r_fr24_51,fr23_w3).
head(r_fr24_52,fr24_s2).
body(r_fr24_52,fr24_b3).
body(r_fr24_52,fr24_e1).
head(r_fr24_53,fr24_s2).
body(r_fr24_53,fr24_d1).
body(r_fr24_53,fr24_e1).
head(r_fr24_54,fr24_s2).
body(r_fr24_54,fr20_v3).
body(r_fr24_54,fr23_w3).
head(r_fr24_55,fr24_s2).
body(r_fr24_55,fr7_a1).
body(r_fr24_55,fr24_c2).
body(r_fr24_55,fr24_d1).
head(r_fr24_56,fr24_s2).
body(r_fr24_56,fr24_f2).
head(r_fr24_57,fr24_s2).
body(r_fr24_57,fr25_e2).
head(r_fr24_58,fr24_s2).
body(r_fr24_58,fr7_a1).
body(r_fr24_58,fr11_e2).
head(r_fr24_59,fr24_s2).
body(r_fr24_59,fr14_r2).
head(r_fr24_60,fr24_s2).
body(r_fr24_60,fr11_e2).
body(r_fr24_60,fr24_e1).
body(r_fr24_60,fr25_e2).
body(r_fr24_60,fr7_q1).
body(r_fr24_60,fr24_y1).
head(r_fr24_61,fr24_s2).
body(r_fr24_61,fr24_b2).
body(r_fr24_61,fr24_b3).
body(r_fr24_61,fr20_r3).
body(r_fr24_61,fr24_u1).
head(r_fr24_62,fr24_s2).
body(r_fr24_62,fr24_b3).
body(r_fr24_62,fr24_c3).
body(r_fr24_62,fr24_d2).
body(r_fr24_62,fr25_e2).
body(r_fr24_62,fr24_p3).
head(r_fr24_63,fr24_v1).
body(r_fr24_63,fr24_b2).
body(r_fr24_63,fr20_s3).
body(r_fr24_63,fr23_z2).
head(r_fr24_64,fr24_v1).
body(r_fr24_64,fr24_p3).
body(r_fr24_64,fr24_y1).
head(r_fr24_65,fr24_v1).
body(r_fr24_65,fr24_c3).
body(r_fr24_65,fr24_f1).
body(r_fr24_65,fr13_v1).
body(r_fr24_65,fr23_w3).
head(r_fr24_66,fr24_v1).
body(r_fr24_66,fr20_y5).
body(r_fr24_66,fr24_r2).
body(r_fr24_66,fr24_u1).
body(r_fr24_66,fr23_z2).
head(r_fr24_67,fr24_v1).
body(r_fr24_67,fr20_s3).
body(r_fr24_67,fr13_v1).
body(r_fr24_67,fr24_w1).
head(r_fr24_68,fr24_v1).
head(r_fr24_69,fr24_v1).
body(r_fr24_69,fr11_e2).
body(r_fr24_69,fr24_b1).
body(r_fr24_69,fr24_c2).
body(r_fr24_69,fr24_e1).
body(r_fr24_69,fr24_f1).
body(r_fr24_69,fr24_f2).
head(r_fr24_70,fr24_v1).
body(r_fr24_70,fr14_r2).
head(r_fr24_71,fr24_v1).
body(r_fr24_71,fr24_b1).
body(r_fr24_71,fr24_b3).
body(r_fr24_71,fr24_q1).
body(r_fr24_71,fr24_w2).
body(r_fr24_71,fr7_q1).
body(r_fr24_71,fr21_r2).
head(r_fr24_72,fr24_v1).
body(r_fr24_72,fr20_y5).
body(r_fr24_72,fr24_w1).
body(r_fr24_72,fr7_q1).
body(r_fr24_72,fr24_x2).
head(r_fr24_73,fr24_v1).
body(r_fr24_73,fr7_a1).
body(r_fr24_73,fr24_b1).
body(r_fr24_73,fr24_b2).
body(r_fr24_73,fr24_b3).
body(r_fr24_73,fr24_d1).
body(r_fr24_73,fr24_e1).
head(r_fr24_74,fr24_v1).
body(r_fr24_74,fr24_b1).
body(r_fr24_74,fr24_d1).
body(r_fr24_74,fr24_q1).
body(r_fr24_74,fr20_s3).
body(r_fr24_74,fr14_r2).
head(r_fr24_75,fr24_v1).
body(r_fr24_75,fr25_e2).
body(r_fr24_75,fr20_v3).
head(r_fr24_76,fr24_v1).
body(r_fr24_76,fr24_d2).
head(r_fr24_77,fr20_y5).
body(r_fr24_77,fr24_f2).
body(r_fr24_77,fr23_z2).
head(r_fr24_78,fr20_y5).
body(r_fr24_78,fr24_e1).
body(r_fr24_78,fr25_e2).
body(r_fr24_78,fr23_z2).
head(r_fr24_79,fr20_y5).
body(r_fr24_79,fr15_x3).
body(r_fr24_79,fr14_r2).
head(r_fr24_80,fr20_y5).
body(r_fr24_80,fr24_f1).
head(r_fr24_81,fr20_y5).
body(r_fr24_81,fr24_t2).
body(r_fr24_81,fr7_q1).
body(r_fr24_81,fr23_w3).
head(r_fr24_82,fr20_y5).
body(r_fr24_82,fr24_q1).
body(r_fr24_82,fr23_t3).
body(r_fr24_82,fr24_t2).
body(r_fr24_82,fr24_y1).
head(r_fr24_83,fr20_y5).
head(r_fr24_84,fr20_y5).
body(r_fr24_84,fr20_r3).
body(r_fr24_84,fr20_v3).
body(r_fr24_84,fr7_q1).
head(r_fr24_85,fr20_y5).
body(r_fr24_85,fr11_e2).
body(r_fr24_85,fr24_b1).
body(r_fr24_85,fr24_b3).
body(r_fr24_85,fr24_d1).
body(r_fr24_85,fr24_d2).
body(r_fr24_85,fr24_e1).
head(r_fr24_86,fr20_y5).
body(r_fr24_86,fr24_c3).
body(r_fr24_86,fr24_d2).
body(r_fr24_86,fr15_x3).
body(r_fr24_86,fr24_y1).
head(r_fr24_87,fr20_y5).
body(r_fr24_87,fr24_b1).
head(r_fr24_88,fr20_y5).
body(r_fr24_88,fr24_b1).
body(r_fr24_88,fr24_c2).
body(r_fr24_88,fr24_f2).
body(r_fr24_88,fr24_p3).
body(r_fr24_88,fr13_v1).
body(r_fr24_88,fr7_q1).
head(r_fr24_89,fr20_y5).
body(r_fr24_89,fr24_b1).
body(r_fr24_89,fr24_f1).
body(r_fr24_89,fr20_v3).
body(r_fr24_89,fr23_w3).
head(r_fr24_90,fr20_y5).
body(r_fr24_90,fr24_c2).
body(r_fr24_90,fr24_d2).
body(r_fr24_90,fr24_e1).
head(r_fr24_91,fr20_v3).
body(r_fr24_91,fr24_b2).
body(r_fr24_91,fr24_e1).
body(r_fr24_91,fr24_s1).
head(r_fr24_92,fr20_v3).
body(r_fr24_92,fr24_a1).
body(r_fr24_92,fr7_a1).
body(r_fr24_92,fr24_b1).
body(r_fr24_92,fr24_d1).
body(r_fr24_92,fr24_d2).
body(r_fr24_92,fr24_f1).
head(r_fr24_93,fr20_v3).
body(r_fr24_93,fr11_e2).
body(r_fr24_93,fr24_c3).
head(r_fr24_94,fr20_v3).
body(r_fr24_94,fr24_b3).
body(r_fr24_94,fr23_t3).
head(r_fr24_95,fr20_v3).
body(r_fr24_95,fr24_f2).
head(r_fr24_96,fr20_v3).
body(r_fr24_96,fr24_c2).
body(r_fr24_96,fr14_r2).
head(r_fr24_97,fr20_v3).
body(r_fr24_97,fr24_c1).
body(r_fr24_97,fr24_r1).
body(r_fr24_97,fr24_u1).
head(r_fr24_98,fr20_v3).
body(r_fr24_98,fr24_b2).
body(r_fr24_98,fr24_b3).
body(r_fr24_98,fr24_c1).
body(r_fr24_98,fr24_c3).
body(r_fr24_98,fr24_d2).
body(r_fr24_98,fr24_f2).
head(r_fr24_99,fr20_v3).
body(r_fr24_99,fr11_e2).
head(r_fr24_100,fr20_v3).
body(r_fr24_100,fr7_a1).
head(r_fr24_101,fr20_v3).
body(r_fr24_101,fr24_a1).
body(r_fr24_101,fr24_d2).
body(r_fr24_101,fr24_e1).
body(r_fr24_101,fr20_r3).
body(r_fr24_101,fr7_q1).
body(r_fr24_101,fr23_w3).
head(r_fr24_102,fr20_v3).
body(r_fr24_102,fr7_a1).
body(r_fr24_102,fr24_b2).
body(r_fr24_102,fr24_d1).
body(r_fr24_102,fr23_z2).
head(r_fr24_103,fr20_v3).
body(r_fr24_103,fr24_b2).
body(r_fr24_103,fr23_w3).
head(r_fr24_104,fr20_v3).
body(r_fr24_104,fr24_f1).
body(r_fr24_104,fr20_s3).
head(r_fr24_105,fr20_v3).
head(r_fr24_106,fr20_v3).
body(r_fr24_106,fr7_a1).
body(r_fr24_106,fr24_b3).
body(r_fr24_106,fr24_c3).
head(r_fr24_107,fr15_x3).
body(r_fr24_107,fr24_b3).
body(r_fr24_107,fr24_d1).
body(r_fr24_107,fr20_y5).
body(r_fr24_107,fr24_s2).
body(r_fr24_107,fr13_v1).
head(r_fr24_108,fr15_x3).
body(r_fr24_108,fr11_e2).
body(r_fr24_108,fr24_b2).
body(r_fr24_108,fr24_f2).
body(r_fr24_108,fr20_y5).
body(r_fr24_108,fr20_s3).
head(r_fr24_109,fr15_x3).
body(r_fr24_109,fr24_s2).
head(r_fr24_110,fr15_x3).
body(r_fr24_110,fr24_c1).
body(r_fr24_110,fr24_c3).
body(r_fr24_110,fr21_r2).
head(r_fr24_111,fr15_x3).
body(r_fr24_111,fr24_b1).
body(r_fr24_111,fr20_r3).
body(r_fr24_111,fr24_t2).
body(r_fr24_111,fr24_x2).
head(r_fr24_112,fr15_x3).
body(r_fr24_112,fr7_a1).
body(r_fr24_112,fr24_b3).
body(r_fr24_112,fr24_d1).
body(r_fr24_112,fr20_v3).
body(r_fr24_112,fr24_s2).
body(r_fr24_112,fr24_v1).
head(r_fr24_113,fr15_x3).
body(r_fr24_113,fr24_a1).
body(r_fr24_113,fr7_a1).
body(r_fr24_113,fr24_b1).
body(r_fr24_113,fr24_c1).
head(r_fr24_114,fr15_x3).
body(r_fr24_114,fr11_e2).
body(r_fr24_114,fr24_b1).
body(r_fr24_114,fr24_b3).
body(r_fr24_114,fr24_c2).
body(r_fr24_114,fr24_d2).
body(r_fr24_114,fr20_y5).
head(r_fr24_115,fr15_x3).
body(r_fr24_115,fr24_a1).
body(r_fr24_115,fr24_c3).
body(r_fr24_115,fr24_e1).
body(r_fr24_115,fr24_f1).
body(r_fr24_115,fr24_p3).
body(r_fr24_115,fr24_r1).
head(r_fr24_116,fr15_x3).
body(r_fr24_116,fr11_e2).
body(r_fr24_116,fr24_c1).
body(r_fr24_116,fr24_f2).
head(r_fr24_117,fr15_x3).
head(r_fr24_118,fr15_x3).
body(r_fr24_118,fr24_a1).
body(r_fr24_118,fr7_a1).
body(r_fr24_118,fr24_b2).
body(r_fr24_118,fr24_c1).
body(r_fr24_118,fr25_e2).
body(r_fr24_118,fr24_f1).
head(r_fr24_119,fr15_x3).
body(r_fr24_119,fr24_w2).
head(r_fr24_120,fr15_x3).
body(r_fr24_120,fr24_c1).
body(r_fr24_120,fr20_r3).
body(r_fr24_120,fr23_t3).
body(r_fr24_120,fr7_q1).
head(r_fr24_121,fr15_x3).
body(r_fr24_121,fr24_b1).
body(r_fr24_121,fr25_e2).
body(r_fr24_121,fr23_z2).
head(r_fr24_122,fr15_x3).
body(r_fr24_122,fr24_b3).
body(r_fr24_122,fr24_w2).
head(r_fr24_123,fr24_r2).
body(r_fr24_123,fr7_a1).
body(r_fr24_123,fr24_d1).
body(r_fr24_123,fr24_f2).
body(r_fr24_123,fr20_r3).
body(r_fr24_123,fr7_q1).
head(r_fr24_124,fr24_r2).
body(r_fr24_124,fr24_b2).
body(r_fr24_124,fr24_b3).
body(r_fr24_124,fr24_q1).
body(r_fr24_124,fr24_s2).
body(r_fr24_124,fr23_z2).
body(r_fr24_124,fr24_w1).
head(r_fr24_125,fr24_r2).
body(r_fr24_125,fr20_v3).
head(r_fr24_126,fr24_r2).
body(r_fr24_126,fr24_q1).
body(r_fr24_126,fr24_s1).
body(r_fr24_126,fr24_v1).
body(r_fr24_126,fr24_w2).
body(r_fr24_126,fr7_q1).
body(r_fr24_126,fr24_x2).
head(r_fr24_127,fr24_r2).
body(r_fr24_127,fr20_r3).
body(r_fr24_127,fr24_r1).
body(r_fr24_127,fr13_v1).
head(r_fr24_128,fr24_r2).
body(r_fr24_128,fr20_s3).
head(r_fr24_129,fr24_r2).
body(r_fr24_129,fr7_a1).
body(r_fr24_129,fr24_b1).
body(r_fr24_129,fr24_b2).
body(r_fr24_129,fr24_c3).
head(r_fr24_130,fr24_r2).
body(r_fr24_130,fr7_a1).
body(r_fr24_130,fr11_e2).
head(r_fr24_131,fr24_r2).
body(r_fr24_131,fr24_a1).
body(r_fr24_131,fr11_e2).
body(r_fr24_131,fr24_b3).
body(r_fr24_131,fr24_c1).
head(r_fr24_132,fr24_r2).
body(r_fr24_132,fr25_e2).
head(r_fr24_133,fr24_r2).
head(r_fr24_134,fr24_r2).
body(r_fr24_134,fr24_a1).
body(r_fr24_134,fr7_a1).
body(r_fr24_134,fr24_b2).
body(r_fr24_134,fr24_b3).
body(r_fr24_134,fr24_c3).
body(r_fr24_134,fr24_e1).
head(r_fr24_135,fr24_r2).
body(r_fr24_135,fr7_a1).
body(r_fr24_135,fr24_b2).
body(r_fr24_135,fr24_c3).
body(r_fr24_135,fr24_d1).
body(r_fr24_135,fr24_f2).
body(r_fr24_135,fr20_y5).
head(r_fr24_136,fr24_r2).
body(r_fr24_136,fr24_b2).
body(r_fr24_136,fr24_c3).
body(r_fr24_136,fr24_f1).
head(r_fr24_137,fr24_r2).
body(r_fr24_137,fr7_a1).
body(r_fr24_137,fr11_e2).
body(r_fr24_137,fr24_t2).
head(r_fr24_138,fr24_r2).
body(r_fr24_138,fr24_b1).
head(r_fr24_139,fr24_r2).
body(r_fr24_139,fr24_v1).
body(r_fr24_139,fr14_r2).
head(r_fr24_140,fr13_v1).
body(r_fr24_140,fr24_c1).
body(r_fr24_140,fr15_x3).
body(r_fr24_140,fr24_r2).
head(r_fr24_141,fr13_v1).
body(r_fr24_141,fr11_e2).
body(r_fr24_141,fr24_b1).
body(r_fr24_141,fr24_b2).
body(r_fr24_141,fr24_c3).
body(r_fr24_141,fr24_d2).
body(r_fr24_141,fr23_t3).
head(r_fr24_142,fr13_v1).
body(r_fr24_142,fr24_b2).
body(r_fr24_142,fr23_t3).
head(r_fr24_143,fr13_v1).
body(r_fr24_143,fr24_c2).
body(r_fr24_143,fr23_z2).
body(r_fr24_143,fr24_x2).
head(r_fr24_144,fr13_v1).
body(r_fr24_144,fr24_c1).
body(r_fr24_144,fr24_c3).
body(r_fr24_144,fr24_f1).
head(r_fr24_145,fr13_v1).
body(r_fr24_145,fr20_v3).
head(r_fr24_146,fr13_v1).
body(r_fr24_146,fr24_a1).
body(r_fr24_146,fr24_q1).
body(r_fr24_146,fr24_s1).
body(r_fr24_146,fr24_u1).
body(r_fr24_146,fr14_r2).
head(r_fr24_147,fr13_v1).
body(r_fr24_147,fr24_b1).
body(r_fr24_147,fr24_b3).
body(r_fr24_147,fr25_e2).
body(r_fr24_147,fr20_v3).
head(r_fr24_148,fr13_v1).
body(r_fr24_148,fr7_q1).
head(r_fr24_149,fr13_v1).
body(r_fr24_149,fr24_b1).
body(r_fr24_149,fr24_f2).
head(r_fr24_150,fr13_v1).
body(r_fr24_150,fr24_p3).
head(r_fr24_151,fr13_v1).
body(r_fr24_151,fr24_q1).
head(r_fr24_152,fr13_v1).
head(r_fr24_153,fr13_v1).
body(r_fr24_153,fr24_b3).
body(r_fr24_153,fr24_c2).
body(r_fr24_153,fr24_q1).
body(r_fr24_153,fr20_v3).
body(r_fr24_153,fr23_z2).
body(r_fr24_153,fr14_r2).
head(r_fr24_154,fr20_r3).
body(r_fr24_154,fr24_r1).
head(r_fr24_155,fr20_r3).
body(r_fr24_155,fr24_d2).
body(r_fr24_155,fr24_f1).
head(r_fr24_156,fr20_r3).
body(r_fr24_156,fr11_e2).
body(r_fr24_156,fr25_e2).
head(r_fr24_157,fr20_r3).
body(r_fr24_157,fr24_b3).
body(r_fr24_157,fr24_p3).
body(r_fr24_157,fr20_v3).
body(r_fr24_157,fr24_r1).
body(r_fr24_157,fr24_u1).
body(r_fr24_157,fr24_w1).
head(r_fr24_158,fr20_r3).
body(r_fr24_158,fr7_a1).
body(r_fr24_158,fr20_s3).
head(r_fr24_159,fr20_r3).
body(r_fr24_159,fr24_p3).
body(r_fr24_159,fr24_s2).
head(r_fr24_160,fr20_r3).
body(r_fr24_160,fr24_c2).
body(r_fr24_160,fr24_d1).
body(r_fr24_160,fr24_p3).
body(r_fr24_160,fr20_v3).
body(r_fr24_160,fr24_r1).
body(r_fr24_160,fr24_u1).
head(r_fr24_161,fr20_r3).
body(r_fr24_161,fr20_v3).
body(r_fr24_161,fr24_r2).
body(r_fr24_161,fr23_z2).
body(r_fr24_161,fr24_w1).
head(r_fr24_162,fr20_r3).
body(r_fr24_162,fr24_a1).
body(r_fr24_162,fr24_b2).
body(r_fr24_162,fr24_b3).
body(r_fr24_162,fr24_c3).
body(r_fr24_162,fr24_d2).
head(r_fr24_163,fr20_r3).
body(r_fr24_163,fr11_e2).
body(r_fr24_163,fr24_d2).
body(r_fr24_163,fr24_e1).
body(r_fr24_163,fr24_f1).
body(r_fr24_163,fr23_z2).
head(r_fr24_164,fr20_r3).
body(r_fr24_164,fr24_b2).
head(r_fr24_165,fr20_r3).
body(r_fr24_165,fr24_b3).
head(r_fr24_166,fr20_r3).
body(r_fr24_166,fr24_b3).
body(r_fr24_166,fr24_u1).
head(r_fr24_167,fr20_r3).
body(r_fr24_167,fr24_a1).
body(r_fr24_167,fr24_b2).
body(r_fr24_167,fr24_c1).
body(r_fr24_167,fr24_d2).
body(r_fr24_167,fr24_t2).
body(r_fr24_167,fr7_q1).
head(r_fr24_168,fr24_t2).
body(r_fr24_168,fr24_q1).
body(r_fr24_168,fr15_x3).
body(r_fr24_168,fr24_r1).
body(r_fr24_168,fr24_w2).
body(r_fr24_168,fr24_y1).
body(r_fr24_168,fr21_r2).
head(r_fr24_169,fr24_t2).
body(r_fr24_169,fr24_a1).
body(r_fr24_169,fr11_e2).
body(r_fr24_169,fr24_c2).
body(r_fr24_169,fr24_c3).
body(r_fr24_169,fr24_w1).
head(r_fr24_170,fr24_t2).
body(r_fr24_170,fr24_f2).
body(r_fr24_170,fr24_r2).
head(r_fr24_171,fr24_t2).
body(r_fr24_171,fr24_c2).
body(r_fr24_171,fr24_d1).
body(r_fr24_171,fr24_d2).
body(r_fr24_171,fr24_f1).
head(r_fr24_172,fr24_t2).
body(r_fr24_172,fr24_a1).
body(r_fr24_172,fr24_d1).
body(r_fr24_172,fr24_d2).
body(r_fr24_172,fr24_e1).
body(r_fr24_172,fr24_r1).
head(r_fr24_173,fr24_t2).
body(r_fr24_173,fr7_a1).
body(r_fr24_173,fr24_b1).
body(r_fr24_173,fr20_s3).
head(r_fr24_174,fr24_t2).
body(r_fr24_174,fr24_b1).
body(r_fr24_174,fr24_p3).
body(r_fr24_174,fr24_w1).
body(r_fr24_174,fr21_r2).
head(r_fr24_175,fr24_t2).
body(r_fr24_175,fr24_b2).
body(r_fr24_175,fr24_c2).
body(r_fr24_175,fr25_e2).
body(r_fr24_175,fr20_r3).
head(r_fr24_176,fr24_t2).
body(r_fr24_176,fr24_d2).
head(r_fr24_177,fr24_t2).
body(r_fr24_177,fr24_a1).
body(r_fr24_177,fr24_b3).
body(r_fr24_177,fr24_d2).
body(r_fr24_177,fr25_e2).
body(r_fr24_177,fr24_f1).
head(r_fr24_178,fr24_t2).
body(r_fr24_178,fr11_e2).
body(r_fr24_178,fr24_b2).
body(r_fr24_178,fr24_b3).
body(r_fr24_178,fr24_c2).
body(r_fr24_178,fr24_e1).
body(r_fr24_178,fr20_v3).
head(r_fr24_179,fr24_t2).
head(r_fr24_180,fr24_t2).
body(r_fr24_180,fr24_w1).
head(r_fr24_181,fr24_t2).
body(r_fr24_181,fr7_a1).
body(r_fr24_181,fr11_e2).
body(r_fr24_181,fr24_b1).
body(r_fr24_181,fr24_b3).
body(r_fr24_181,fr24_c3).
body(r_fr24_181,fr23_z2).
head(r_fr24_182,fr24_t2).
body(r_fr24_182,fr7_a1).
body(r_fr24_182,fr24_b1).
head(r_fr24_183,fr20_s3).
body(r_fr24_183,fr24_a1).
body(r_fr24_183,fr13_v1).
body(r_fr24_183,fr24_x2).
head(r_fr24_184,fr20_s3).
body(r_fr24_184,fr7_a1).
body(r_fr24_184,fr24_s2).
head(r_fr24_185,fr20_s3).
body(r_fr24_185,fr15_x3).
head(r_fr24_186,fr20_s3).
body(r_fr24_186,fr7_q1).
head(r_fr24_187,fr20_s3).
body(r_fr24_187,fr24_b1).
body(r_fr24_187,fr24_c1).
body(r_fr24_187,fr24_p3).
body(r_fr24_187,fr24_s1).
body(r_fr24_187,fr24_y1).
head(r_fr24_188,fr20_s3).
body(r_fr24_188,fr20_v3).
body(r_fr24_188,fr14_r2).
head(r_fr24_189,fr20_s3).
head(r_fr24_190,fr20_s3).
body(r_fr24_190,fr24_a1).
head(r_fr24_191,fr20_s3).
body(r_fr24_191,fr25_e2).
head(r_fr24_192,fr20_s3).
body(r_fr24_192,fr24_b1).
body(r_fr24_192,fr24_f1).
body(r_fr24_192,fr20_v3).
body(r_fr24_192,fr24_u1).
head(r_fr24_193,fr20_s3).
body(r_fr24_193,fr7_a1).
body(r_fr24_193,fr24_b1).
body(r_fr24_193,fr25_e2).
body(r_fr24_193,fr24_q1).
body(r_fr24_193,fr24_t2).
body(r_fr24_193,fr24_x2).
head(r_fr24_194,fr20_s3).
body(r_fr24_194,fr20_r3).
body(r_fr24_194,fr15_x3).
body(r_fr24_194,fr23_t3).
head(r_fr24_195,fr20_s3).
body(r_fr24_195,fr24_f2).
body(r_fr24_195,fr20_y5).
head(r_fr24_196,fr20_s3).
body(r_fr24_196,fr7_a1).
body(r_fr24_196,fr24_r2).
body(r_fr24_196,fr24_t2).
head(r_fr24_197,fr24_s1).
body(r_fr24_197,fr24_d2).
head(r_fr24_198,fr24_s1).
body(r_fr24_198,fr7_a1).
body(r_fr24_198,fr24_b1).
body(r_fr24_198,fr24_f2).
body(r_fr24_198,fr24_p3).
body(r_fr24_198,fr13_v1).
head(r_fr24_199,fr24_s1).
body(r_fr24_199,fr20_y5).
body(r_fr24_199,fr20_v3).
body(r_fr24_199,fr24_r2).
body(r_fr24_199,fr23_t3).
body(r_fr24_199,fr24_w1).
body(r_fr24_199,fr7_q1).
head(r_fr24_200,fr24_s1).
body(r_fr24_200,fr24_c3).
head(r_fr24_201,fr24_s1).
body(r_fr24_201,fr7_q1).
body(r_fr24_201,fr14_r2).
head(r_fr24_202,fr24_s1).
body(r_fr24_202,fr24_a1).
body(r_fr24_202,fr24_b1).
body(r_fr24_202,fr24_b2).
head(r_fr24_203,fr24_s1).
body(r_fr24_203,fr24_v1).
head(r_fr24_204,fr24_s1).
body(r_fr24_204,fr24_a1).
body(r_fr24_204,fr7_a1).
body(r_fr24_204,fr24_b1).
body(r_fr24_204,fr24_c2).
body(r_fr24_204,fr24_d2).
body(r_fr24_204,fr24_f2).
head(r_fr24_205,fr24_s1).
body(r_fr24_205,fr24_a1).
body(r_fr24_205,fr23_z2).
head(r_fr24_206,fr24_s1).
body(r_fr24_206,fr11_e2).
body(r_fr24_206,fr24_b3).
body(r_fr24_206,fr24_c1).
body(r_fr24_206,fr24_f2).
head(r_fr24_207,fr24_s1).
body(r_fr24_207,fr20_v3).
body(r_fr24_207,fr24_r1).
body(r_fr24_207,fr20_s3).
body(r_fr24_207,fr24_u1).
body(r_fr24_207,fr23_z2).
body(r_fr24_207,fr24_w2).
head(r_fr24_208,fr24_s1).
body(r_fr24_208,fr24_b3).
body(r_fr24_208,fr20_v3).
head(r_fr24_209,fr24_s1).
head(r_fr24_210,fr24_s1).
body(r_fr24_210,fr7_a1).
body(r_fr24_210,fr24_b3).
body(r_fr24_210,fr24_q1).
body(r_fr24_210,fr24_r2).
body(r_fr24_210,fr24_w2).
body(r_fr24_210,fr23_w3).
head(r_fr24_211,fr24_s1).
body(r_fr24_211,fr21_r2).
head(r_fr24_212,fr24_s1).
body(r_fr24_212,fr7_a1).
body(r_fr24_212,fr24_c2).
body(r_fr24_212,fr20_v3).
body(r_fr24_212,fr20_s3).
head(r_fr24_213,fr24_s1).
body(r_fr24_213,fr24_a1).
body(r_fr24_213,fr7_a1).
body(r_fr24_213,fr24_b2).
body(r_fr24_213,fr24_d2).
body(r_fr24_213,fr24_e1).
body(r_fr24_213,fr24_f2).
head(r_fr24_214,fr24_u1).
body(r_fr24_214,fr24_b2).
body(r_fr24_214,fr24_b3).
body(r_fr24_214,fr24_c3).
body(r_fr24_214,fr24_d2).
head(r_fr24_215,fr24_u1).
body(r_fr24_215,fr24_a1).
body(r_fr24_215,fr24_b1).
body(r_fr24_215,fr24_c3).
body(r_fr24_215,fr24_d1).
body(r_fr24_215,fr24_d2).
head(r_fr24_216,fr24_u1).
body(r_fr24_216,fr24_a1).
body(r_fr24_216,fr24_d1).
body(r_fr24_216,fr25_e2).
body(r_fr24_216,fr24_p3).
head(r_fr24_217,fr24_u1).
body(r_fr24_217,fr24_v1).
body(r_fr24_217,fr7_q1).
body(r_fr24_217,fr23_w3).
head(r_fr24_218,fr24_u1).
body(r_fr24_218,fr11_e2).
head(r_fr24_219,fr24_u1).
body(r_fr24_219,fr7_a1).
body(r_fr24_219,fr24_b2).
body(r_fr24_219,fr24_d2).
body(r_fr24_219,fr24_s1).
body(r_fr24_219,fr24_t2).
body(r_fr24_219,fr24_w2).
head(r_fr24_220,fr24_u1).
body(r_fr24_220,fr24_b1).
body(r_fr24_220,fr24_b3).
body(r_fr24_220,fr24_c3).
body(r_fr24_220,fr24_d2).
body(r_fr24_220,fr24_w1).
body(r_fr24_220,fr7_q1).
head(r_fr24_221,fr24_u1).
body(r_fr24_221,fr24_c2).
body(r_fr24_221,fr24_q1).
head(r_fr24_222,fr24_u1).
body(r_fr24_222,fr7_a1).
body(r_fr24_222,fr11_e2).
body(r_fr24_222,fr24_c1).
body(r_fr24_222,fr24_c3).
body(r_fr24_222,fr13_v1).
body(r_fr24_222,fr23_w3).
head(r_fr24_223,fr24_u1).
body(r_fr24_223,fr24_d1).
body(r_fr24_223,fr20_s3).
body(r_fr24_223,fr24_w2).
head(r_fr24_224,fr24_u1).
body(r_fr24_224,fr20_y5).
body(r_fr24_224,fr24_p3).
body(r_fr24_224,fr24_r2).
body(r_fr24_224,fr24_v1).
head(r_fr24_225,fr24_u1).
body(r_fr24_225,fr7_a1).
body(r_fr24_225,fr24_c1).
head(r_fr24_226,fr24_u1).
body(r_fr24_226,fr11_e2).
body(r_fr24_226,fr24_f2).
head(r_fr24_227,fr24_u1).
body(r_fr24_227,fr23_t3).
body(r_fr24_227,fr7_q1).
head(r_fr24_228,fr24_r1).
body(r_fr24_228,fr20_r3).
head(r_fr24_229,fr24_r1).
body(r_fr24_229,fr24_d2).
body(r_fr24_229,fr24_e1).
body(r_fr24_229,fr24_s1).
head(r_fr24_230,fr24_r1).
body(r_fr24_230,fr23_t3).
body(r_fr24_230,fr24_w2).
body(r_fr24_230,fr7_q1).
body(r_fr24_230,fr24_y1).
head(r_fr24_231,fr24_r1).
body(r_fr24_231,fr24_c2).
body(r_fr24_231,fr24_c3).
body(r_fr24_231,fr23_t3).
body(r_fr24_231,fr23_z2).
head(r_fr24_232,fr24_r1).
body(r_fr24_232,fr20_s3).
head(r_fr24_233,fr24_r1).
body(r_fr24_233,fr24_b1).
body(r_fr24_233,fr24_c1).
body(r_fr24_233,fr24_c3).
head(r_fr24_234,fr24_r1).
body(r_fr24_234,fr24_c2).
body(r_fr24_234,fr24_d1).
body(r_fr24_234,fr24_u1).
body(r_fr24_234,fr13_v1).
body(r_fr24_234,fr24_y1).
head(r_fr24_235,fr24_r1).
body(r_fr24_235,fr7_a1).
body(r_fr24_235,fr20_s3).
body(r_fr24_235,fr24_t2).
head(r_fr24_236,fr24_r1).
body(r_fr24_236,fr11_e2).
head(r_fr24_237,fr24_r1).
body(r_fr24_237,fr24_s2).
body(r_fr24_237,fr20_s3).
body(r_fr24_237,fr24_u1).
head(r_fr24_238,fr24_r1).
head(r_fr24_239,fr24_r1).
body(r_fr24_239,fr7_a1).
body(r_fr24_239,fr11_e2).
body(r_fr24_239,fr24_c3).
body(r_fr24_239,fr23_z2).
body(r_fr24_239,fr24_w2).
head(r_fr24_240,fr24_r1).
body(r_fr24_240,fr11_e2).
body(r_fr24_240,fr24_c2).
body(r_fr24_240,fr7_q1).
body(r_fr24_240,fr24_x2).
body(r_fr24_240,fr23_w3).
head(r_fr24_241,fr24_r1).
body(r_fr24_241,fr7_a1).
body(r_fr24_241,fr24_d1).
head(r_fr24_242,fr14_r2).
body(r_fr24_242,fr24_p3).
body(r_fr24_242,fr24_q1).
body(r_fr24_242,fr24_s2).
body(r_fr24_242,fr24_u1).
body(r_fr24_242,fr24_w1).
body(r_fr24_242,fr24_x2).
head(r_fr24_243,fr14_r2).
body(r_fr24_243,fr24_w1).
head(r_fr24_244,fr14_r2).
body(r_fr24_244,fr7_a1).
body(r_fr24_244,fr24_v1).
head(r_fr24_245,fr14_r2).
body(r_fr24_245,fr24_c3).
body(r_fr24_245,fr24_x2).
head(r_fr24_246,fr14_r2).
body(r_fr24_246,fr24_a1).
body(r_fr24_246,fr24_b3).
body(r_fr24_246,fr24_c2).
body(r_fr24_246,fr24_d1).
body(r_fr24_246,fr24_f2).
body(r_fr24_246,fr24_q1).
head(r_fr24_247,fr14_r2).
body(r_fr24_247,fr24_a1).
body(r_fr24_247,fr24_d1).
body(r_fr24_247,fr24_f1).
body(r_fr24_247,fr15_x3).
body(r_fr24_247,fr13_v1).
body(r_fr24_247,fr21_r2).
head(r_fr24_248,fr14_r2).
body(r_fr24_248,fr24_a1).
body(r_fr24_248,fr24_c1).
body(r_fr24_248,fr24_c2).
head(r_fr24_249,fr14_r2).
body(r_fr24_249,fr11_e2).
body(r_fr24_249,fr24_x2).
head(r_fr24_250,fr14_r2).
body(r_fr24_250,fr7_a1).
body(r_fr24_250,fr24_f2).
body(r_fr24_250,fr24_p3).
body(r_fr24_250,fr15_x3).
body(r_fr24_250,fr24_r1).
head(r_fr24_251,fr14_r2).
body(r_fr24_251,fr24_p3).
body(r_fr24_251,fr20_s3).
body(r_fr24_251,fr24_w1).
body(r_fr24_251,fr7_q1).
body(r_fr24_251,fr24_y1).
body(r_fr24_251,fr23_w3).
head(r_fr24_252,fr14_r2).
body(r_fr24_252,fr7_a1).
body(r_fr24_252,fr24_b3).
body(r_fr24_252,fr24_d1).
body(r_fr24_252,fr24_f2).
body(r_fr24_252,fr24_u1).
body(r_fr24_252,fr7_q1).
head(r_fr24_253,fr14_r2).
body(r_fr24_253,fr24_w2).
head(r_fr24_254,fr14_r2).
body(r_fr24_254,fr20_y5).
head(r_fr24_255,fr14_r2).
body(r_fr24_255,fr24_c3).
body(r_fr24_255,fr24_d2).
body(r_fr24_255,fr24_f2).
body(r_fr24_255,fr23_z2).
head(r_fr24_256,fr24_x2).
body(r_fr24_256,fr24_b2).
body(r_fr24_256,fr21_r2).
head(r_fr24_257,fr24_x2).
body(r_fr24_257,fr24_c2).
body(r_fr24_257,fr24_d2).
body(r_fr24_257,fr24_e1).
body(r_fr24_257,fr25_e2).
body(r_fr24_257,fr24_f2).
head(r_fr24_258,fr24_x2).
body(r_fr24_258,fr11_e2).
body(r_fr24_258,fr24_c2).
head(r_fr24_259,fr24_x2).
body(r_fr24_259,fr24_c1).
body(r_fr24_259,fr24_d1).
body(r_fr24_259,fr24_d2).
body(r_fr24_259,fr24_f2).
body(r_fr24_259,fr24_s2).
body(r_fr24_259,fr24_u1).
head(r_fr24_260,fr24_x2).
body(r_fr24_260,fr15_x3).
body(r_fr24_260,fr23_t3).
body(r_fr24_260,fr24_s1).
body(r_fr24_260,fr24_t2).
body(r_fr24_260,fr23_w3).
head(r_fr24_261,fr24_x2).
body(r_fr24_261,fr24_v1).
body(r_fr24_261,fr24_y1).
body(r_fr24_261,fr14_r2).
head(r_fr24_262,fr24_x2).
body(r_fr24_262,fr20_y5).
body(r_fr24_262,fr20_v3).
body(r_fr24_262,fr24_r1).
body(r_fr24_262,fr23_t3).
body(r_fr24_262,fr20_s3).
head(r_fr24_263,fr24_x2).
head(r_fr24_264,fr24_x2).
body(r_fr24_264,fr24_r1).
body(r_fr24_264,fr21_r2).
head(r_fr24_265,fr24_x2).
body(r_fr24_265,fr24_d2).
body(r_fr24_265,fr24_s1).
body(r_fr24_265,fr24_w2).
head(r_fr24_266,fr24_x2).
body(r_fr24_266,fr24_t2).
head(r_fr24_267,fr24_x2).
body(r_fr24_267,fr24_e1).
body(r_fr24_267,fr23_t3).
head(r_fr24_268,fr24_x2).
body(r_fr24_268,fr24_b2).
body(r_fr24_268,fr24_r1).
body(r_fr24_268,fr24_w1).
head(r_fr24_269,fr24_x2).
body(r_fr24_269,fr7_a1).
body(r_fr24_269,fr24_b1).
body(r_fr24_269,fr24_c1).
body(r_fr24_269,fr24_c2).
body(r_fr24_269,fr24_f2).
head(r_fr24_270,fr24_x2).
body(r_fr24_270,fr7_q1).
body(r_fr24_270,fr23_w3).
head(r_fr24_271,fr21_r2).
body(r_fr24_271,fr24_a1).
head(r_fr24_272,fr21_r2).
body(r_fr24_272,fr24_c1).
body(r_fr24_272,fr24_c2).
body(r_fr24_272,fr24_s2).
body(r_fr24_272,fr7_q1).
head(r_fr24_273,fr21_r2).
body(r_fr24_273,fr11_e2).
body(r_fr24_273,fr24_f1).
head(r_fr24_274,fr21_r2).
body(r_fr24_274,fr15_x3).
body(r_fr24_274,fr24_s2).
body(r_fr24_274,fr24_w2).
body(r_fr24_274,fr14_r2).
head(r_fr24_275,fr21_r2).
body(r_fr24_275,fr24_a1).
body(r_fr24_275,fr24_f1).
head(r_fr24_276,fr21_r2).
body(r_fr24_276,fr11_e2).
body(r_fr24_276,fr24_c1).
body(r_fr24_276,fr24_c2).
body(r_fr24_276,fr24_c3).
body(r_fr24_276,fr24_y1).
head(r_fr24_277,fr21_r2).
body(r_fr24_277,fr24_c3).
body(r_fr24_277,fr13_v1).
body(r_fr24_277,fr24_y1).
body(r_fr24_277,fr14_r2).
head(r_fr24_278,fr21_r2).
head(r_fr24_279,fr21_r2).
body(r_fr24_279,fr25_e2).
body(r_fr24_279,fr20_r3).
body(r_fr24_279,fr24_r1).
body(r_fr24_279,fr24_s2).
body(r_fr24_279,fr23_z2).
body(r_fr24_279,fr24_w2).
head(r_fr24_280,fr21_r2).
body(r_fr24_280,fr25_e2).
body(r_fr24_280,fr24_r2).
body(r_fr24_280,fr20_s3).
body(r_fr24_280,fr14_r2).
head(r_fr24_281,fr21_r2).
body(r_fr24_281,fr24_a1).
body(r_fr24_281,fr24_c3).
head(r_fr24_282,fr21_r2).
body(r_fr24_282,fr7_a1).
body(r_fr24_282,fr24_f1).
head(r_fr24_283,fr21_r2).
body(r_fr24_283,fr7_a1).
body(r_fr24_283,fr24_b1).
head(r_fr24_284,fr21_r2).
body(r_fr24_284,fr24_a1).
body(r_fr24_284,fr24_b3).
body(r_fr24_284,fr24_c3).
body(r_fr24_284,fr20_r3).
head(r_fr24_285,fr21_r2).
body(r_fr24_285,fr24_f2).
head(r_fr24_286,fr21_r2).
body(r_fr24_286,fr24_c3).
body(r_fr24_286,fr24_s2).
body(r_fr24_286,fr24_t2).
body(r_fr24_286,fr24_w2).
head(r_fr24_287,fr21_r2).
body(r_fr24_287,fr24_b2).
body(r_fr24_287,fr24_c1).
body(r_fr24_287,fr24_d2).
body(r_fr24_287,fr24_x2).
head(r_fr24_288,fr24_p3).
body(r_fr24_288,fr24_v1).
body(r_fr24_288,fr24_y1).
head(r_fr24_289,fr24_p3).
body(r_fr24_289,fr24_q1).
body(r_fr24_289,fr20_v3).
body(r_fr24_289,fr24_r2).
body(r_fr24_289,fr21_r2).
head(r_fr24_290,fr24_p3).
body(r_fr24_290,fr7_a1).
body(r_fr24_290,fr24_c1).
body(r_fr24_290,fr20_v3).
body(r_fr24_290,fr24_r2).
body(r_fr24_290,fr24_w1).
head(r_fr24_291,fr24_p3).
body(r_fr24_291,fr24_w2).
head(r_fr24_292,fr24_p3).
body(r_fr24_292,fr11_e2).
body(r_fr24_292,fr24_c1).
body(r_fr24_292,fr24_d1).
body(r_fr24_292,fr24_f1).
head(r_fr24_293,fr24_p3).
body(r_fr24_293,fr24_b2).
head(r_fr24_294,fr24_p3).
body(r_fr24_294,fr24_c2).
body(r_fr24_294,fr24_s1).
body(r_fr24_294,fr24_w1).
head(r_fr24_295,fr24_p3).
body(r_fr24_295,fr24_q1).
body(r_fr24_295,fr24_y1).
head(r_fr24_296,fr24_p3).
body(r_fr24_296,fr24_b3).
head(r_fr24_297,fr24_p3).
body(r_fr24_297,fr24_f1).
body(r_fr24_297,fr24_r2).
body(r_fr24_297,fr24_v1).
head(r_fr24_298,fr24_p3).
head(r_fr24_299,fr24_p3).
body(r_fr24_299,fr24_c3).
body(r_fr24_299,fr25_e2).
body(r_fr24_299,fr24_r1).
body(r_fr24_299,fr24_s2).
body(r_fr24_299,fr20_s3).
body(r_fr24_299,fr23_w3).
head(r_fr24_300,fr24_p3).
body(r_fr24_300,fr7_a1).
body(r_fr24_300,fr24_d1).
body(r_fr24_300,fr25_e2).
body(r_fr24_300,fr24_r1).
body(r_fr24_300,fr24_v1).
body(r_fr24_300,fr24_w2).
head(r_fr24_301,fr24_p3).
body(r_fr24_301,fr24_a1).
body(r_fr24_301,fr24_q1).

assumption(fr20_d2).
assumption(fr2_b1).
assumption(fr25_c1).
assumption(fr25_d1).
assumption(fr14_e2).
assumption(fr25_f1).
assumption(fr25_a2).
assumption(fr25_b2).
assumption(fr25_c2).
assumption(fr25_d2).
assumption(fr25_e2).
assumption(fr2_d1).
assumption(fr25_a3).
assumption(fr25_b3).
assumption(fr25_c3).
contrary(fr20_d2,fr24_v1).
contrary(fr25_a2,fr25_b2).
contrary(fr25_a3,fr25_t3).
contrary(fr2_b1,fr25_c2).
contrary(fr25_b2,fr25_c2).
contrary(fr25_b3,fr14_e2).
contrary(fr25_c1,fr25_a2).
contrary(fr25_c2,fr25_d1).
contrary(fr25_c3,fr25_r1).
contrary(fr25_d1,fr2_b1).
contrary(fr25_d2,fr3_p1).
contrary(fr14_e2,fr18_v2).
contrary(fr25_e2,fr25_w3).
contrary(fr25_f1,fr25_s3).
contrary(fr2_d1,fr25_q1).
head(r_fr25_0,fr25_w2).
body(r_fr25_0,fr25_a3).
body(r_fr25_0,fr2_b1).
body(r_fr25_0,fr25_c1).
body(r_fr25_0,fr25_c3).
body(r_fr25_0,fr25_d1).
body(r_fr25_0,fr2_d1).
body(r_fr25_0,fr25_q1).
body(r_fr25_0,fr24_v1).
body(r_fr25_0,fr25_q4).
body(r_fr25_0,fr25_s2).
body(r_fr25_0,fr25_t3).
body(r_fr25_0,fr7_v1).
body(r_fr25_0,fr25_v1).
body(r_fr25_0,fr3_p1).
body(r_fr25_0,fr25_z1).
head(r_fr25_1,fr25_w2).
body(r_fr25_1,fr25_b2).
body(r_fr25_1,fr25_c3).
body(r_fr25_1,fr14_e2).
body(r_fr25_1,fr25_p1).
body(r_fr25_1,fr25_p2).
body(r_fr25_1,fr25_q1).
body(r_fr25_1,fr24_v1).
body(r_fr25_1,fr25_q4).
body(r_fr25_1,fr25_r1).
body(r_fr25_1,fr25_s1).
body(r_fr25_1,fr25_s2).
body(r_fr25_1,fr25_s3).
body(r_fr25_1,fr7_v1).
body(r_fr25_1,fr25_u3).
body(r_fr25_1,fr25_w3).
body(r_fr25_1,fr3_p1).
body(r_fr25_1,fr25_y2).
body(r_fr25_1,fr15_v1).
head(r_fr25_2,fr25_w2).
body(r_fr25_2,fr25_e2).
body(r_fr25_2,fr25_f1).
body(r_fr25_2,fr25_p2).
body(r_fr25_2,fr18_v2).
body(r_fr25_2,fr25_q1).
body(r_fr25_2,fr7_y1).
body(r_fr25_2,fr25_q4).
body(r_fr25_2,fr25_s2).
body(r_fr25_2,fr25_s3).
body(r_fr25_2,fr25_t1).
body(r_fr25_2,fr25_t3).
body(r_fr25_2,fr7_v1).
body(r_fr25_2,fr25_u2).
body(r_fr25_2,fr8_t1).
body(r_fr25_2,fr3_p1).
body(r_fr25_2,fr25_y1).
body(r_fr25_2,fr25_z1).
body(r_fr25_2,fr25_z2).
head(r_fr25_3,fr25_u3).
body(r_fr25_3,fr25_d2).
body(r_fr25_3,fr25_p1).
body(r_fr25_3,fr25_p3).
body(r_fr25_3,fr18_v2).
body(r_fr25_3,fr24_v1).
body(r_fr25_3,fr25_q4).
body(r_fr25_3,fr25_r1).
body(r_fr25_3,fr25_s1).
body(r_fr25_3,fr25_s3).
body(r_fr25_3,fr25_t3).
body(r_fr25_3,fr8_t1).
body(r_fr25_3,fr3_s2).
body(r_fr25_3,fr25_w2).
body(r_fr25_3,fr25_w3).
body(r_fr25_3,fr3_p1).
body(r_fr25_3,fr25_y2).
body(r_fr25_3,fr25_z2).
head(r_fr25_4,fr25_u3).
body(r_fr25_4,fr25_a3).
body(r_fr25_4,fr2_b1).
body(r_fr25_4,fr25_c1).
body(r_fr25_4,fr25_d1).
body(r_fr25_4,fr25_e2).
body(r_fr25_4,fr2_d1).
body(r_fr25_4,fr25_p1).
body(r_fr25_4,fr25_p2).
body(r_fr25_4,fr24_v1).
body(r_fr25_4,fr25_q4).
body(r_fr25_4,fr25_s1).
body(r_fr25_4,fr8_t1).
body(r_fr25_4,fr25_w2).
body(r_fr25_4,fr25_w3).
body(r_fr25_4,fr20_q2).
body(r_fr25_4,fr25_z2).
head(r_fr25_5,fr7_v1).
body(r_fr25_5,fr25_p1).
body(r_fr25_5,fr25_p2).
body(r_fr25_5,fr18_v2).
body(r_fr25_5,fr7_y1).
body(r_fr25_5,fr25_q4).
body(r_fr25_5,fr25_r1).
body(r_fr25_5,fr25_r2).
body(r_fr25_5,fr25_r3).
body(r_fr25_5,fr25_t2).
body(r_fr25_5,fr8_t1).
body(r_fr25_5,fr3_p1).
body(r_fr25_5,fr25_y1).
body(r_fr25_5,fr25_y2).
body(r_fr25_5,fr20_q2).
body(r_fr25_5,fr25_z1).
head(r_fr25_6,fr7_v1).
body(r_fr25_6,fr25_a3).
body(r_fr25_6,fr14_e2).
body(r_fr25_6,fr25_p2).
body(r_fr25_6,fr25_p3).
body(r_fr25_6,fr25_q1).
body(r_fr25_6,fr25_r1).
body(r_fr25_6,fr25_s1).
body(r_fr25_6,fr25_s2).
body(r_fr25_6,fr25_t3).
body(r_fr25_6,fr25_u2).
body(r_fr25_6,fr25_w2).
body(r_fr25_6,fr25_w3).
body(r_fr25_6,fr25_x2).
body(r_fr25_6,fr20_q2).
body(r_fr25_6,fr25_z1).
body(r_fr25_6,fr15_v1).
head(r_fr25_7,fr7_v1).
body(r_fr25_7,fr25_p3).
body(r_fr25_7,fr7_y1).
body(r_fr25_7,fr25_r2).
body(r_fr25_7,fr25_s1).
body(r_fr25_7,fr25_s3).
body(r_fr25_7,fr25_t2).
body(r_fr25_7,fr25_u3).
body(r_fr25_7,fr8_t1).
body(r_fr25_7,fr25_w1).
body(r_fr25_7,fr25_w2).
body(r_fr25_7,fr25_y1).
body(r_fr25_7,fr25_y2).
body(r_fr25_7,fr25_z1).
body(r_fr25_7,fr25_z2).
body(r_fr25_7,fr15_v1).
head(r_fr25_8,fr25_y1).
body(r_fr25_8,fr2_b1).
body(r_fr25_8,fr25_b3).
body(r_fr25_8,fr25_c1).
body(r_fr25_8,fr25_c2).
body(r_fr25_8,fr14_e2).
body(r_fr25_8,fr25_e2).
body(r_fr25_8,fr25_q1).
body(r_fr25_8,fr24_v1).
body(r_fr25_8,fr25_q4).
body(r_fr25_8,fr25_r1).
body(r_fr25_8,fr25_s3).
body(r_fr25_8,fr25_u3).
body(r_fr25_8,fr25_v1).
body(r_fr25_8,fr8_t1).
body(r_fr25_8,fr25_w2).
body(r_fr25_8,fr25_w3).
body(r_fr25_8,fr3_p1).
body(r_fr25_8,fr15_v1).
head(r_fr25_9,fr25_y1).
body(r_fr25_9,fr24_v1).
body(r_fr25_9,fr25_r2).
body(r_fr25_9,fr25_r3).
body(r_fr25_9,fr25_s2).
body(r_fr25_9,fr25_s3).
body(r_fr25_9,fr25_t3).
body(r_fr25_9,fr7_v1).
body(r_fr25_9,fr25_v1).
body(r_fr25_9,fr8_t1).
body(r_fr25_9,fr3_s2).
body(r_fr25_9,fr25_w2).
body(r_fr25_9,fr25_w3).
body(r_fr25_9,fr25_x2).
body(r_fr25_9,fr20_q2).
body(r_fr25_9,fr25_z1).
head(r_fr25_10,fr25_y1).
body(r_fr25_10,fr20_d2).
body(r_fr25_10,fr25_a3).
body(r_fr25_10,fr25_c1).
body(r_fr25_10,fr25_d2).
body(r_fr25_10,fr25_f1).
body(r_fr25_10,fr25_p2).
body(r_fr25_10,fr25_q1).
body(r_fr25_10,fr7_y1).
body(r_fr25_10,fr24_v1).
body(r_fr25_10,fr25_r2).
body(r_fr25_10,fr25_t1).
body(r_fr25_10,fr25_u2).
body(r_fr25_10,fr3_p1).
body(r_fr25_10,fr25_z1).
body(r_fr25_10,fr25_z2).
body(r_fr25_10,fr15_v1).
head(r_fr25_11,fr25_y1).
body(r_fr25_11,fr20_d2).
body(r_fr25_11,fr25_a2).
body(r_fr25_11,fr25_c2).
body(r_fr25_11,fr25_e2).
body(r_fr25_11,fr25_p2).
body(r_fr25_11,fr25_p3).
body(r_fr25_11,fr18_v2).
body(r_fr25_11,fr25_q1).
body(r_fr25_11,fr7_y1).
body(r_fr25_11,fr25_t2).
body(r_fr25_11,fr25_t3).
body(r_fr25_11,fr7_v1).
body(r_fr25_11,fr25_u2).
body(r_fr25_11,fr25_w2).
body(r_fr25_11,fr25_w3).
body(r_fr25_11,fr25_y2).
body(r_fr25_11,fr20_q2).
body(r_fr25_11,fr25_z1).
head(r_fr25_12,fr25_y1).
body(r_fr25_12,fr20_d2).
body(r_fr25_12,fr25_p1).
body(r_fr25_12,fr25_p2).
body(r_fr25_12,fr18_v2).
body(r_fr25_12,fr25_q1).
body(r_fr25_12,fr7_y1).
body(r_fr25_12,fr25_q4).
body(r_fr25_12,fr25_r1).
body(r_fr25_12,fr25_r3).
body(r_fr25_12,fr25_s1).
body(r_fr25_12,fr25_s3).
body(r_fr25_12,fr25_t1).
body(r_fr25_12,fr25_u2).
body(r_fr25_12,fr25_u3).
body(r_fr25_12,fr25_v1).
body(r_fr25_12,fr3_p1).
body(r_fr25_12,fr25_z2).
head(r_fr25_13,fr25_z2).
body(r_fr25_13,fr25_b3).
body(r_fr25_13,fr25_c3).
body(r_fr25_13,fr25_p2).
body(r_fr25_13,fr25_p3).
body(r_fr25_13,fr25_q1).
body(r_fr25_13,fr25_s2).
body(r_fr25_13,fr7_v1).
body(r_fr25_13,fr25_u2).
body(r_fr25_13,fr8_t1).
body(r_fr25_13,fr25_w1).
body(r_fr25_13,fr25_w2).
body(r_fr25_13,fr25_w3).
body(r_fr25_13,fr3_p1).
body(r_fr25_13,fr20_q2).
body(r_fr25_13,fr25_z1).
body(r_fr25_13,fr15_v1).
head(r_fr25_14,fr25_z2).
body(r_fr25_14,fr20_d2).
body(r_fr25_14,fr25_a3).
body(r_fr25_14,fr25_p1).
body(r_fr25_14,fr25_p3).
body(r_fr25_14,fr18_v2).
body(r_fr25_14,fr25_q1).
body(r_fr25_14,fr25_q4).
body(r_fr25_14,fr25_r1).
body(r_fr25_14,fr25_s1).
body(r_fr25_14,fr25_t2).
body(r_fr25_14,fr25_t3).
body(r_fr25_14,fr7_v1).
body(r_fr25_14,fr25_u2).
body(r_fr25_14,fr25_w3).
body(r_fr25_14,fr25_x2).
body(r_fr25_14,fr25_y1).
body(r_fr25_14,fr25_y2).
body(r_fr25_14,fr15_v1).
head(r_fr25_15,fr25_z2).
body(r_fr25_15,fr25_c2).
body(r_fr25_15,fr25_c3).
body(r_fr25_15,fr25_d1).
body(r_fr25_15,fr25_p1).
body(r_fr25_15,fr25_p2).
body(r_fr25_15,fr25_q1).
body(r_fr25_15,fr7_y1).
body(r_fr25_15,fr25_q4).
body(r_fr25_15,fr25_r2).
body(r_fr25_15,fr25_s2).
body(r_fr25_15,fr25_s3).
body(r_fr25_15,fr25_t1).
body(r_fr25_15,fr25_t2).
body(r_fr25_15,fr25_u3).
body(r_fr25_15,fr3_s2).
body(r_fr25_15,fr3_p1).
body(r_fr25_15,fr20_q2).
head(r_fr25_16,fr25_z2).
body(r_fr25_16,fr25_a2).
body(r_fr25_16,fr2_b1).
body(r_fr25_16,fr25_c2).
body(r_fr25_16,fr25_e2).
body(r_fr25_16,fr25_f1).
body(r_fr25_16,fr2_d1).
body(r_fr25_16,fr25_p1).
body(r_fr25_16,fr24_v1).
body(r_fr25_16,fr25_s1).
body(r_fr25_16,fr25_s2).
body(r_fr25_16,fr25_t1).
body(r_fr25_16,fr25_t2).
body(r_fr25_16,fr25_w1).
body(r_fr25_16,fr25_y1).
body(r_fr25_16,fr25_z1).
head(r_fr25_17,fr15_v1).
body(r_fr25_17,fr25_p3).
body(r_fr25_17,fr18_v2).
body(r_fr25_17,fr25_q1).
body(r_fr25_17,fr25_r1).
body(r_fr25_17,fr25_s1).
body(r_fr25_17,fr25_s2).
body(r_fr25_17,fr25_s3).
body(r_fr25_17,fr25_t2).
body(r_fr25_17,fr25_t3).
body(r_fr25_17,fr25_u3).
body(r_fr25_17,fr3_s2).
body(r_fr25_17,fr25_w1).
body(r_fr25_17,fr3_p1).
body(r_fr25_17,fr3_p1).
body(r_fr25_17,fr25_z2).
head(r_fr25_18,fr15_v1).
body(r_fr25_18,fr25_a3).
body(r_fr25_18,fr25_d1).
body(r_fr25_18,fr25_d2).
body(r_fr25_18,fr14_e2).
body(r_fr25_18,fr25_f1).
body(r_fr25_18,fr25_p1).
body(r_fr25_18,fr18_v2).
body(r_fr25_18,fr25_q1).
body(r_fr25_18,fr25_q4).
body(r_fr25_18,fr25_r1).
body(r_fr25_18,fr25_s2).
body(r_fr25_18,fr25_t3).
body(r_fr25_18,fr25_u2).
body(r_fr25_18,fr25_u3).
body(r_fr25_18,fr25_y1).
body(r_fr25_18,fr25_z1).
head(r_fr25_19,fr15_v1).
body(r_fr25_19,fr25_p2).
body(r_fr25_19,fr18_v2).
body(r_fr25_19,fr25_q1).
body(r_fr25_19,fr24_v1).
body(r_fr25_19,fr25_q4).
body(r_fr25_19,fr25_r1).
body(r_fr25_19,fr25_r2).
body(r_fr25_19,fr25_s1).
body(r_fr25_19,fr25_t2).
body(r_fr25_19,fr25_t3).
body(r_fr25_19,fr7_v1).
body(r_fr25_19,fr25_u2).
body(r_fr25_19,fr25_u3).
body(r_fr25_19,fr8_t1).
body(r_fr25_19,fr3_s2).
body(r_fr25_19,fr25_w2).
body(r_fr25_19,fr25_w3).
body(r_fr25_19,fr25_y2).
head(r_fr25_20,fr15_v1).
body(r_fr25_20,fr25_a2).
body(r_fr25_20,fr25_c1).
body(r_fr25_20,fr25_c2).
body(r_fr25_20,fr25_d1).
body(r_fr25_20,fr25_f1).
body(r_fr25_20,fr25_p2).
body(r_fr25_20,fr25_p3).
body(r_fr25_20,fr25_q1).
body(r_fr25_20,fr7_y1).
body(r_fr25_20,fr25_r2).
body(r_fr25_20,fr25_s1).
body(r_fr25_20,fr25_s3).
body(r_fr25_20,fr25_w1).
body(r_fr25_20,fr25_y1).
body(r_fr25_20,fr20_q2).
head(r_fr25_21,fr15_v1).
body(r_fr25_21,fr25_b3).
body(r_fr25_21,fr25_p1).
body(r_fr25_21,fr25_q1).
body(r_fr25_21,fr24_v1).
body(r_fr25_21,fr25_q4).
body(r_fr25_21,fr25_r1).
body(r_fr25_21,fr25_r3).
body(r_fr25_21,fr25_u2).
body(r_fr25_21,fr8_t1).
body(r_fr25_21,fr3_s2).
body(r_fr25_21,fr25_w1).
body(r_fr25_21,fr25_w2).
body(r_fr25_21,fr25_w3).
body(r_fr25_21,fr25_x2).
body(r_fr25_21,fr25_y2).
body(r_fr25_21,fr25_z1).
head(r_fr25_22,fr25_s2).
body(r_fr25_22,fr25_c1).
body(r_fr25_22,fr25_c2).
body(r_fr25_22,fr25_d1).
body(r_fr25_22,fr25_e2).
body(r_fr25_22,fr25_p1).
body(r_fr25_22,fr25_p2).
body(r_fr25_22,fr25_r2).
body(r_fr25_22,fr25_s1).
body(r_fr25_22,fr25_s3).
body(r_fr25_22,fr25_t1).
body(r_fr25_22,fr25_v1).
body(r_fr25_22,fr25_w2).
body(r_fr25_22,fr3_p1).
body(r_fr25_22,fr25_x2).
body(r_fr25_22,fr25_y1).
body(r_fr25_22,fr20_q2).
body(r_fr25_22,fr25_z2).
head(r_fr25_23,fr25_s2).
body(r_fr25_23,fr2_b1).
body(r_fr25_23,fr25_d1).
body(r_fr25_23,fr25_p1).
body(r_fr25_23,fr25_q1).
body(r_fr25_23,fr24_v1).
body(r_fr25_23,fr25_r2).
body(r_fr25_23,fr25_s1).
body(r_fr25_23,fr25_t2).
body(r_fr25_23,fr7_v1).
body(r_fr25_23,fr25_w1).
body(r_fr25_23,fr25_w3).
body(r_fr25_23,fr25_x2).
body(r_fr25_23,fr3_p1).
body(r_fr25_23,fr25_y1).
body(r_fr25_23,fr20_q2).
body(r_fr25_23,fr25_z1).
body(r_fr25_23,fr25_z2).
body(r_fr25_23,fr15_v1).
head(r_fr25_24,fr25_s2).
body(r_fr25_24,fr20_d2).
body(r_fr25_24,fr25_a3).
body(r_fr25_24,fr25_c3).
body(r_fr25_24,fr25_p1).
body(r_fr25_24,fr25_q1).
body(r_fr25_24,fr24_v1).
body(r_fr25_24,fr25_s1).
body(r_fr25_24,fr25_t1).
body(r_fr25_24,fr7_v1).
body(r_fr25_24,fr25_v1).
body(r_fr25_24,fr3_s2).
body(r_fr25_24,fr25_w2).
body(r_fr25_24,fr25_w3).
body(r_fr25_24,fr3_p1).
body(r_fr25_24,fr25_x2).
body(r_fr25_24,fr3_p1).
body(r_fr25_24,fr20_q2).
body(r_fr25_24,fr15_v1).
head(r_fr25_25,fr25_s2).
body(r_fr25_25,fr25_a2).
body(r_fr25_25,fr25_b2).
body(r_fr25_25,fr18_v2).
body(r_fr25_25,fr7_y1).
body(r_fr25_25,fr24_v1).
body(r_fr25_25,fr25_q4).
body(r_fr25_25,fr25_s3).
body(r_fr25_25,fr25_t3).
body(r_fr25_25,fr25_v1).
body(r_fr25_25,fr8_t1).
body(r_fr25_25,fr25_w1).
body(r_fr25_25,fr3_p1).
body(r_fr25_25,fr25_y1).
body(r_fr25_25,fr25_z2).
body(r_fr25_25,fr15_v1).
head(r_fr25_26,fr25_z1).
body(r_fr25_26,fr20_d2).
body(r_fr25_26,fr25_c2).
body(r_fr25_26,fr25_d2).
body(r_fr25_26,fr25_e2).
body(r_fr25_26,fr2_d1).
body(r_fr25_26,fr25_p1).
body(r_fr25_26,fr25_p3).
body(r_fr25_26,fr25_q4).
body(r_fr25_26,fr25_r2).
body(r_fr25_26,fr25_s2).
body(r_fr25_26,fr25_t3).
body(r_fr25_26,fr25_v1).
body(r_fr25_26,fr8_t1).
body(r_fr25_26,fr25_w1).
body(r_fr25_26,fr25_w3).
body(r_fr25_26,fr3_p1).
body(r_fr25_26,fr25_y1).
body(r_fr25_26,fr15_v1).
head(r_fr25_27,fr25_z1).
body(r_fr25_27,fr25_a2).
body(r_fr25_27,fr25_a3).
body(r_fr25_27,fr2_b1).
body(r_fr25_27,fr25_c1).
body(r_fr25_27,fr25_f1).
body(r_fr25_27,fr25_p1).
body(r_fr25_27,fr25_p3).
body(r_fr25_27,fr25_q4).
body(r_fr25_27,fr25_r1).
body(r_fr25_27,fr25_r3).
body(r_fr25_27,fr25_s1).
body(r_fr25_27,fr25_s3).
body(r_fr25_27,fr25_t2).
body(r_fr25_27,fr3_s2).
body(r_fr25_27,fr25_w2).
body(r_fr25_27,fr3_p1).
head(r_fr25_28,fr25_z1).
body(r_fr25_28,fr20_d2).
body(r_fr25_28,fr25_c1).
body(r_fr25_28,fr25_c2).
body(r_fr25_28,fr25_e2).
body(r_fr25_28,fr25_f1).
body(r_fr25_28,fr25_p1).
body(r_fr25_28,fr24_v1).
body(r_fr25_28,fr25_q4).
body(r_fr25_28,fr25_r1).
body(r_fr25_28,fr25_s2).
body(r_fr25_28,fr25_s3).
body(r_fr25_28,fr25_t1).
body(r_fr25_28,fr25_t3).
body(r_fr25_28,fr25_u2).
body(r_fr25_28,fr25_u3).
body(r_fr25_28,fr8_t1).
body(r_fr25_28,fr25_y1).
body(r_fr25_28,fr25_y2).
head(r_fr25_29,fr25_p1).
body(r_fr25_29,fr20_d2).
body(r_fr25_29,fr25_a2).
body(r_fr25_29,fr25_b2).
body(r_fr25_29,fr25_c1).
body(r_fr25_29,fr25_d1).
body(r_fr25_29,fr25_d2).
body(r_fr25_29,fr25_p3).
body(r_fr25_29,fr25_q4).
body(r_fr25_29,fr25_r2).
body(r_fr25_29,fr25_s2).
body(r_fr25_29,fr25_t3).
body(r_fr25_29,fr3_p1).
body(r_fr25_29,fr25_y1).
body(r_fr25_29,fr25_y2).
body(r_fr25_29,fr20_q2).
body(r_fr25_29,fr25_z2).
head(r_fr25_30,fr25_p1).
body(r_fr25_30,fr25_b3).
body(r_fr25_30,fr2_d1).
body(r_fr25_30,fr18_v2).
body(r_fr25_30,fr7_y1).
body(r_fr25_30,fr25_r1).
body(r_fr25_30,fr25_r2).
body(r_fr25_30,fr25_r3).
body(r_fr25_30,fr25_s3).
body(r_fr25_30,fr25_t3).
body(r_fr25_30,fr7_v1).
body(r_fr25_30,fr25_u3).
body(r_fr25_30,fr8_t1).
body(r_fr25_30,fr25_w3).
body(r_fr25_30,fr3_p1).
body(r_fr25_30,fr25_y2).
body(r_fr25_30,fr25_z1).
body(r_fr25_30,fr15_v1).
head(r_fr25_31,fr18_v2).
body(r_fr25_31,fr25_d2).
body(r_fr25_31,fr25_p2).
body(r_fr25_31,fr25_p3).
body(r_fr25_31,fr25_r2).
body(r_fr25_31,fr25_s1).
body(r_fr25_31,fr25_t1).
body(r_fr25_31,fr25_t2).
body(r_fr25_31,fr3_s2).
body(r_fr25_31,fr25_w2).
body(r_fr25_31,fr25_w3).
body(r_fr25_31,fr25_y1).
body(r_fr25_31,fr25_y2).
body(r_fr25_31,fr20_q2).
body(r_fr25_31,fr25_z1).
body(r_fr25_31,fr15_v1).
head(r_fr25_32,fr18_v2).
body(r_fr25_32,fr25_a3).
body(r_fr25_32,fr25_b2).
body(r_fr25_32,fr2_d1).
body(r_fr25_32,fr25_p3).
body(r_fr25_32,fr25_q4).
body(r_fr25_32,fr25_r1).
body(r_fr25_32,fr25_r3).
body(r_fr25_32,fr25_s1).
body(r_fr25_32,fr25_t3).
body(r_fr25_32,fr7_v1).
body(r_fr25_32,fr25_u3).
body(r_fr25_32,fr25_w1).
body(r_fr25_32,fr3_p1).
body(r_fr25_32,fr3_p1).
body(r_fr25_32,fr20_q2).
body(r_fr25_32,fr25_z2).
head(r_fr25_33,fr3_p1).
body(r_fr25_33,fr25_d2).
body(r_fr25_33,fr18_v2).
body(r_fr25_33,fr25_q1).
body(r_fr25_33,fr7_y1).
body(r_fr25_33,fr24_v1).
body(r_fr25_33,fr25_r3).
body(r_fr25_33,fr25_s1).
body(r_fr25_33,fr25_s2).
body(r_fr25_33,fr25_t1).
body(r_fr25_33,fr25_t2).
body(r_fr25_33,fr25_t3).
body(r_fr25_33,fr25_w3).
body(r_fr25_33,fr3_p1).
body(r_fr25_33,fr25_y1).
body(r_fr25_33,fr25_z2).
head(r_fr25_34,fr3_p1).
body(r_fr25_34,fr2_b1).
body(r_fr25_34,fr25_b2).
body(r_fr25_34,fr25_b3).
body(r_fr25_34,fr25_c2).
body(r_fr25_34,fr25_d2).
body(r_fr25_34,fr25_p3).
body(r_fr25_34,fr25_r1).
body(r_fr25_34,fr25_r2).
body(r_fr25_34,fr25_s3).
body(r_fr25_34,fr25_t3).
body(r_fr25_34,fr25_u3).
body(r_fr25_34,fr25_v1).
body(r_fr25_34,fr8_t1).
body(r_fr25_34,fr25_w3).
body(r_fr25_34,fr25_x2).
body(r_fr25_34,fr25_y1).
body(r_fr25_34,fr20_q2).
body(r_fr25_34,fr25_z2).
head(r_fr25_35,fr25_t1).
body(r_fr25_35,fr25_d1).
body(r_fr25_35,fr14_e2).
body(r_fr25_35,fr25_p1).
body(r_fr25_35,fr25_p2).
body(r_fr25_35,fr25_p3).
body(r_fr25_35,fr18_v2).
body(r_fr25_35,fr25_q1).
body(r_fr25_35,fr25_q4).
body(r_fr25_35,fr25_r2).
body(r_fr25_35,fr25_s1).
body(r_fr25_35,fr25_s3).
body(r_fr25_35,fr25_t3).
body(r_fr25_35,fr25_u2).
body(r_fr25_35,fr3_p1).
body(r_fr25_35,fr25_y2).
body(r_fr25_35,fr25_z2).
body(r_fr25_35,fr15_v1).
head(r_fr25_36,fr25_t1).
body(r_fr25_36,fr25_p2).
body(r_fr25_36,fr25_p3).
body(r_fr25_36,fr18_v2).
body(r_fr25_36,fr7_y1).
body(r_fr25_36,fr25_s1).
body(r_fr25_36,fr25_s2).
body(r_fr25_36,fr25_t2).
body(r_fr25_36,fr25_u3).
body(r_fr25_36,fr25_v1).
body(r_fr25_36,fr8_t1).
body(r_fr25_36,fr3_s2).
body(r_fr25_36,fr25_w1).
body(r_fr25_36,fr25_w2).
body(r_fr25_36,fr25_w3).
body(r_fr25_36,fr3_p1).
body(r_fr25_36,fr25_y1).
body(r_fr25_36,fr15_v1).
head(r_fr25_37,fr7_y1).
body(r_fr25_37,fr25_a2).
body(r_fr25_37,fr2_b1).
body(r_fr25_37,fr25_c1).
body(r_fr25_37,fr25_d1).
body(r_fr25_37,fr18_v2).
body(r_fr25_37,fr25_q1).
body(r_fr25_37,fr25_s3).
body(r_fr25_37,fr25_t1).
body(r_fr25_37,fr25_t2).
body(r_fr25_37,fr25_t3).
body(r_fr25_37,fr7_v1).
body(r_fr25_37,fr25_v1).
body(r_fr25_37,fr3_p1).
body(r_fr25_37,fr20_q2).
body(r_fr25_37,fr25_z2).
head(r_fr25_38,fr7_y1).
body(r_fr25_38,fr25_p2).
body(r_fr25_38,fr25_q1).
body(r_fr25_38,fr24_v1).
body(r_fr25_38,fr25_q4).
body(r_fr25_38,fr25_r2).
body(r_fr25_38,fr25_r3).
body(r_fr25_38,fr25_s1).
body(r_fr25_38,fr25_s3).
body(r_fr25_38,fr25_t1).
body(r_fr25_38,fr7_v1).
body(r_fr25_38,fr25_u3).
body(r_fr25_38,fr8_t1).
body(r_fr25_38,fr3_s2).
body(r_fr25_38,fr25_w2).
body(r_fr25_38,fr25_x2).
body(r_fr25_38,fr25_y1).
body(r_fr25_38,fr25_z1).
body(r_fr25_38,fr25_z2).
head(r_fr25_39,fr7_y1).
body(r_fr25_39,fr2_d1).
body(r_fr25_39,fr25_p2).
body(r_fr25_39,fr25_q4).
body(r_fr25_39,fr25_r3).
body(r_fr25_39,fr25_t1).
body(r_fr25_39,fr25_t3).
body(r_fr25_39,fr25_u2).
body(r_fr25_39,fr8_t1).
body(r_fr25_39,fr3_s2).
body(r_fr25_39,fr25_w2).
body(r_fr25_39,fr25_x2).
body(r_fr25_39,fr25_y1).
body(r_fr25_39,fr20_q2).
body(r_fr25_39,fr25_z1).
body(r_fr25_39,fr25_z2).
head(r_fr25_40,fr25_p3).
body(r_fr25_40,fr25_c1).
body(r_fr25_40,fr25_d1).
body(r_fr25_40,fr14_e2).
body(r_fr25_40,fr25_p2).
body(r_fr25_40,fr25_q1).
body(r_fr25_40,fr24_v1).
body(r_fr25_40,fr25_r2).
body(r_fr25_40,fr25_r3).
body(r_fr25_40,fr25_s1).
body(r_fr25_40,fr25_s3).
body(r_fr25_40,fr25_t1).
body(r_fr25_40,fr25_t3).
body(r_fr25_40,fr25_w2).
body(r_fr25_40,fr25_w3).
body(r_fr25_40,fr3_p1).
body(r_fr25_40,fr3_p1).
body(r_fr25_40,fr25_y1).
body(r_fr25_40,fr25_z2).
head(r_fr25_41,fr25_p3).
body(r_fr25_41,fr25_b2).
body(r_fr25_41,fr25_b3).
body(r_fr25_41,fr25_c2).
body(r_fr25_41,fr14_e2).
body(r_fr25_41,fr25_e2).
body(r_fr25_41,fr2_d1).
body(r_fr25_41,fr7_y1).
body(r_fr25_41,fr25_r3).
body(r_fr25_41,fr25_s2).
body(r_fr25_41,fr25_t1).
body(r_fr25_41,fr25_t2).
body(r_fr25_41,fr25_u2).
body(r_fr25_41,fr3_s2).
body(r_fr25_41,fr25_w3).
body(r_fr25_41,fr3_p1).
body(r_fr25_41,fr25_y2).
head(r_fr25_42,fr25_q1).
body(r_fr25_42,fr25_b2).
body(r_fr25_42,fr25_b3).
body(r_fr25_42,fr25_c3).
body(r_fr25_42,fr14_e2).
body(r_fr25_42,fr25_p1).
body(r_fr25_42,fr25_p2).
body(r_fr25_42,fr18_v2).
body(r_fr25_42,fr24_v1).
body(r_fr25_42,fr25_q4).
body(r_fr25_42,fr25_r3).
body(r_fr25_42,fr25_s1).
body(r_fr25_42,fr25_t1).
body(r_fr25_42,fr25_u2).
body(r_fr25_42,fr3_s2).
body(r_fr25_42,fr25_w2).
body(r_fr25_42,fr3_p1).
body(r_fr25_42,fr25_y1).
body(r_fr25_42,fr25_z1).
head(r_fr25_43,fr25_q1).
body(r_fr25_43,fr20_d2).
body(r_fr25_43,fr25_b3).
body(r_fr25_43,fr25_d1).
body(r_fr25_43,fr25_e2).
body(r_fr25_43,fr25_p2).
body(r_fr25_43,fr25_p3).
body(r_fr25_43,fr25_q4).
body(r_fr25_43,fr25_s2).
body(r_fr25_43,fr25_t1).
body(r_fr25_43,fr25_t2).
body(r_fr25_43,fr25_t3).
body(r_fr25_43,fr25_u2).
body(r_fr25_43,fr8_t1).
body(r_fr25_43,fr25_w3).
body(r_fr25_43,fr25_x2).
body(r_fr25_43,fr3_p1).
body(r_fr25_43,fr25_z2).
head(r_fr25_44,fr25_q1).
body(r_fr25_44,fr20_d2).
body(r_fr25_44,fr25_p2).
body(r_fr25_44,fr25_p3).
body(r_fr25_44,fr25_r1).
body(r_fr25_44,fr25_s1).
body(r_fr25_44,fr25_s2).
body(r_fr25_44,fr25_s3).
body(r_fr25_44,fr25_t1).
body(r_fr25_44,fr8_t1).
body(r_fr25_44,fr25_w2).
body(r_fr25_44,fr3_p1).
body(r_fr25_44,fr25_x2).
body(r_fr25_44,fr3_p1).
body(r_fr25_44,fr25_y1).
body(r_fr25_44,fr20_q2).
body(r_fr25_44,fr25_z1).
body(r_fr25_44,fr25_z2).
body(r_fr25_44,fr15_v1).
head(r_fr25_45,fr25_q1).
body(r_fr25_45,fr14_e2).
body(r_fr25_45,fr18_v2).
body(r_fr25_45,fr25_r1).
body(r_fr25_45,fr25_r2).
body(r_fr25_45,fr25_s1).
body(r_fr25_45,fr25_s2).
body(r_fr25_45,fr25_t2).
body(r_fr25_45,fr25_t3).
body(r_fr25_45,fr7_v1).
body(r_fr25_45,fr3_p1).
body(r_fr25_45,fr25_x2).
body(r_fr25_45,fr3_p1).
body(r_fr25_45,fr25_y1).
body(r_fr25_45,fr25_y2).
body(r_fr25_45,fr20_q2).
head(r_fr25_46,fr25_u2).
body(r_fr25_46,fr20_d2).
body(r_fr25_46,fr25_a3).
body(r_fr25_46,fr25_b3).
body(r_fr25_46,fr25_c1).
body(r_fr25_46,fr25_f1).
body(r_fr25_46,fr25_p3).
body(r_fr25_46,fr25_r3).
body(r_fr25_46,fr25_s1).
body(r_fr25_46,fr25_t3).
body(r_fr25_46,fr8_t1).
body(r_fr25_46,fr3_s2).
body(r_fr25_46,fr25_w1).
body(r_fr25_46,fr3_p1).
body(r_fr25_46,fr3_p1).
body(r_fr25_46,fr25_z2).
body(r_fr25_46,fr15_v1).
head(r_fr25_47,fr25_u2).
body(r_fr25_47,fr20_d2).
body(r_fr25_47,fr25_a2).
body(r_fr25_47,fr25_a3).
body(r_fr25_47,fr2_b1).
body(r_fr25_47,fr25_e2).
body(r_fr25_47,fr25_f1).
body(r_fr25_47,fr25_p2).
body(r_fr25_47,fr24_v1).
body(r_fr25_47,fr25_r2).
body(r_fr25_47,fr25_s3).
body(r_fr25_47,fr25_v1).
body(r_fr25_47,fr8_t1).
body(r_fr25_47,fr3_s2).
body(r_fr25_47,fr25_z1).
body(r_fr25_47,fr25_z2).
head(r_fr25_48,fr24_v1).
body(r_fr25_48,fr25_c1).
body(r_fr25_48,fr25_p1).
body(r_fr25_48,fr18_v2).
body(r_fr25_48,fr7_y1).
body(r_fr25_48,fr25_r2).
body(r_fr25_48,fr25_r3).
body(r_fr25_48,fr25_s2).
body(r_fr25_48,fr25_t1).
body(r_fr25_48,fr7_v1).
body(r_fr25_48,fr25_u3).
body(r_fr25_48,fr25_w2).
body(r_fr25_48,fr25_w3).
body(r_fr25_48,fr3_p1).
body(r_fr25_48,fr25_x2).
body(r_fr25_48,fr3_p1).
body(r_fr25_48,fr25_y1).
body(r_fr25_48,fr20_q2).
body(r_fr25_48,fr15_v1).
head(r_fr25_49,fr24_v1).
body(r_fr25_49,fr25_p1).
body(r_fr25_49,fr25_p2).
body(r_fr25_49,fr25_q4).
body(r_fr25_49,fr25_r2).
body(r_fr25_49,fr25_s1).
body(r_fr25_49,fr25_s2).
body(r_fr25_49,fr25_s3).
body(r_fr25_49,fr25_t2).
body(r_fr25_49,fr7_v1).
body(r_fr25_49,fr25_u2).
body(r_fr25_49,fr3_s2).
body(r_fr25_49,fr25_w1).
body(r_fr25_49,fr25_w3).
body(r_fr25_49,fr3_p1).
body(r_fr25_49,fr25_x2).
body(r_fr25_49,fr3_p1).
body(r_fr25_49,fr25_y2).
body(r_fr25_49,fr20_q2).
head(r_fr25_50,fr24_v1).
body(r_fr25_50,fr20_d2).
body(r_fr25_50,fr25_a2).
body(r_fr25_50,fr25_b2).
body(r_fr25_50,fr25_b3).
body(r_fr25_50,fr25_c1).
body(r_fr25_50,fr25_d2).
body(r_fr25_50,fr25_p1).
body(r_fr25_50,fr25_r1).
body(r_fr25_50,fr25_r2).
body(r_fr25_50,fr25_r3).
body(r_fr25_50,fr25_s1).
body(r_fr25_50,fr25_s3).
body(r_fr25_50,fr25_t1).
body(r_fr25_50,fr25_u2).
body(r_fr25_50,fr25_v1).
body(r_fr25_50,fr25_y1).
head(r_fr25_51,fr24_v1).
body(r_fr25_51,fr25_a3).
body(r_fr25_51,fr2_b1).
body(r_fr25_51,fr25_b2).
body(r_fr25_51,fr25_b3).
body(r_fr25_51,fr25_c1).
body(r_fr25_51,fr25_c2).
body(r_fr25_51,fr25_p1).
body(r_fr25_51,fr25_p2).
body(r_fr25_51,fr25_q4).
body(r_fr25_51,fr25_s1).
body(r_fr25_51,fr25_t1).
body(r_fr25_51,fr7_v1).
body(r_fr25_51,fr25_u2).
body(r_fr25_51,fr25_x2).
body(r_fr25_51,fr25_y1).
body(r_fr25_51,fr20_q2).
body(r_fr25_51,fr25_z1).
head(r_fr25_52,fr24_v1).
body(r_fr25_52,fr25_c1).
body(r_fr25_52,fr25_c2).
body(r_fr25_52,fr14_e2).
body(r_fr25_52,fr25_e2).
body(r_fr25_52,fr25_p2).
body(r_fr25_52,fr18_v2).
body(r_fr25_52,fr25_r2).
body(r_fr25_52,fr25_r3).
body(r_fr25_52,fr25_t1).
body(r_fr25_52,fr25_t2).
body(r_fr25_52,fr25_t3).
body(r_fr25_52,fr3_s2).
body(r_fr25_52,fr3_p1).
body(r_fr25_52,fr3_p1).
body(r_fr25_52,fr25_y1).
body(r_fr25_52,fr25_z2).
head(r_fr25_53,fr25_r3).
body(r_fr25_53,fr25_a3).
body(r_fr25_53,fr25_b3).
body(r_fr25_53,fr25_d2).
body(r_fr25_53,fr14_e2).
body(r_fr25_53,fr25_e2).
body(r_fr25_53,fr25_p2).
body(r_fr25_53,fr25_p3).
body(r_fr25_53,fr18_v2).
body(r_fr25_53,fr7_y1).
body(r_fr25_53,fr24_v1).
body(r_fr25_53,fr25_s2).
body(r_fr25_53,fr25_u3).
body(r_fr25_53,fr8_t1).
body(r_fr25_53,fr25_w3).
body(r_fr25_53,fr3_p1).
body(r_fr25_53,fr25_y1).
body(r_fr25_53,fr25_y2).
head(r_fr25_54,fr25_r3).
body(r_fr25_54,fr25_c3).
body(r_fr25_54,fr2_d1).
body(r_fr25_54,fr25_p1).
body(r_fr25_54,fr18_v2).
body(r_fr25_54,fr25_q1).
body(r_fr25_54,fr25_r1).
body(r_fr25_54,fr25_r2).
body(r_fr25_54,fr25_s3).
body(r_fr25_54,fr25_t1).
body(r_fr25_54,fr25_t2).
body(r_fr25_54,fr7_v1).
body(r_fr25_54,fr25_u3).
body(r_fr25_54,fr25_v1).
body(r_fr25_54,fr8_t1).
body(r_fr25_54,fr25_y1).
body(r_fr25_54,fr25_y2).
body(r_fr25_54,fr25_z2).
head(r_fr25_55,fr20_q2).
body(r_fr25_55,fr2_b1).
body(r_fr25_55,fr25_c3).
body(r_fr25_55,fr25_p3).
body(r_fr25_55,fr18_v2).
body(r_fr25_55,fr24_v1).
body(r_fr25_55,fr25_r2).
body(r_fr25_55,fr25_s2).
body(r_fr25_55,fr25_t1).
body(r_fr25_55,fr25_t2).
body(r_fr25_55,fr7_v1).
body(r_fr25_55,fr8_t1).
body(r_fr25_55,fr25_w2).
body(r_fr25_55,fr25_w3).
body(r_fr25_55,fr25_x2).
body(r_fr25_55,fr3_p1).
body(r_fr25_55,fr25_y1).
body(r_fr25_55,fr25_z2).
body(r_fr25_55,fr15_v1).
head(r_fr25_56,fr20_q2).
body(r_fr25_56,fr25_a3).
body(r_fr25_56,fr25_c3).
body(r_fr25_56,fr25_d1).
body(r_fr25_56,fr25_d2).
body(r_fr25_56,fr25_e2).
body(r_fr25_56,fr24_v1).
body(r_fr25_56,fr25_q4).
body(r_fr25_56,fr25_r2).
body(r_fr25_56,fr25_s2).
body(r_fr25_56,fr25_s3).
body(r_fr25_56,fr25_u2).
body(r_fr25_56,fr25_u3).
body(r_fr25_56,fr3_s2).
body(r_fr25_56,fr25_w1).
body(r_fr25_56,fr25_w2).
body(r_fr25_56,fr25_z2).
body(r_fr25_56,fr15_v1).
head(r_fr25_57,fr20_q2).
body(r_fr25_57,fr20_d2).
body(r_fr25_57,fr25_a2).
body(r_fr25_57,fr14_e2).
body(r_fr25_57,fr25_f1).
body(r_fr25_57,fr2_d1).
body(r_fr25_57,fr25_p1).
body(r_fr25_57,fr25_p2).
body(r_fr25_57,fr25_p3).
body(r_fr25_57,fr25_q1).
body(r_fr25_57,fr25_s2).
body(r_fr25_57,fr25_s3).
body(r_fr25_57,fr25_u2).
body(r_fr25_57,fr25_u3).
body(r_fr25_57,fr3_s2).
body(r_fr25_57,fr25_w1).
body(r_fr25_57,fr3_p1).
head(r_fr25_58,fr20_q2).
body(r_fr25_58,fr25_a3).
body(r_fr25_58,fr25_d1).
body(r_fr25_58,fr14_e2).
body(r_fr25_58,fr2_d1).
body(r_fr25_58,fr18_v2).
body(r_fr25_58,fr25_q1).
body(r_fr25_58,fr7_y1).
body(r_fr25_58,fr25_q4).
body(r_fr25_58,fr25_r3).
body(r_fr25_58,fr25_s3).
body(r_fr25_58,fr25_t2).
body(r_fr25_58,fr25_u2).
body(r_fr25_58,fr25_u3).
body(r_fr25_58,fr25_v1).
body(r_fr25_58,fr25_y1).
body(r_fr25_58,fr25_y2).
head(r_fr25_59,fr25_r1).
body(r_fr25_59,fr25_a2).
body(r_fr25_59,fr2_b1).
body(r_fr25_59,fr25_b3).
body(r_fr25_59,fr25_c2).
body(r_fr25_59,fr25_d2).
body(r_fr25_59,fr25_e2).
body(r_fr25_59,fr18_v2).
body(r_fr25_59,fr25_t1).
body(r_fr25_59,fr25_u2).
body(r_fr25_59,fr25_v1).
body(r_fr25_59,fr8_t1).
body(r_fr25_59,fr25_w1).
body(r_fr25_59,fr25_w2).
body(r_fr25_59,fr25_w3).
body(r_fr25_59,fr3_p1).
body(r_fr25_59,fr25_z2).
head(r_fr25_60,fr25_r1).
body(r_fr25_60,fr20_d2).
body(r_fr25_60,fr2_b1).
body(r_fr25_60,fr25_b2).
body(r_fr25_60,fr25_b3).
body(r_fr25_60,fr25_c2).
body(r_fr25_60,fr2_d1).
body(r_fr25_60,fr25_p1).
body(r_fr25_60,fr25_p3).
body(r_fr25_60,fr7_y1).
body(r_fr25_60,fr25_s2).
body(r_fr25_60,fr25_u2).
body(r_fr25_60,fr25_v1).
body(r_fr25_60,fr3_s2).
body(r_fr25_60,fr25_x2).
body(r_fr25_60,fr3_p1).
body(r_fr25_60,fr25_y2).
body(r_fr25_60,fr20_q2).

