assumption(fr1_a1).
assumption(fr4_a1).
assumption(fr25_c1).
assumption(fr1_d1).
assumption(fr12_f1).
assumption(fr11_e1).
assumption(fr15_b3).
assumption(fr1_b2).
assumption(fr18_a1).
assumption(fr1_d2).
assumption(fr25_b2).
assumption(fr1_f2).
contrary(fr1_a1,fr4_p1).
contrary(fr15_b3,fr11_q3).
contrary(fr4_a1,fr1_a1).
contrary(fr1_b2,fr1_a1).
contrary(fr25_c1,fr1_f2).
contrary(fr18_a1,fr19_q2).
contrary(fr1_d1,fr25_s2).
contrary(fr1_d2,fr1_w1).
contrary(fr12_f1,fr1_b2).
contrary(fr25_b2,fr1_f2).
contrary(fr11_e1,fr1_f2).
contrary(fr1_f2,fr1_z1).
head(r_fr1_0,fr19_q2).
body(r_fr1_0,fr4_a1).
body(r_fr1_0,fr1_b2).
body(r_fr1_0,fr12_f1).
body(r_fr1_0,fr1_f2).
body(r_fr1_0,fr4_q2).
head(r_fr1_1,fr19_q2).
body(r_fr1_1,fr1_d2).
head(r_fr1_2,fr19_q2).
body(r_fr1_2,fr11_q3).
head(r_fr1_3,fr19_q2).
body(r_fr1_3,fr1_f2).
body(r_fr1_3,fr11_q3).
body(r_fr1_3,fr1_t2).
head(r_fr1_4,fr8_p1).
body(r_fr1_4,fr1_s1).
head(r_fr1_5,fr8_p1).
body(r_fr1_5,fr1_d2).
body(r_fr1_5,fr1_f2).
head(r_fr1_6,fr8_p1).
head(r_fr1_7,fr25_s2).
body(r_fr1_7,fr1_a1).
body(r_fr1_7,fr8_z1).
head(r_fr1_8,fr25_s2).
body(r_fr1_8,fr1_f2).
head(r_fr1_9,fr25_s2).
body(r_fr1_9,fr8_x5).
body(r_fr1_9,fr1_s1).
body(r_fr1_9,fr25_s2).
body(r_fr1_9,fr1_z1).
head(r_fr1_10,fr25_s2).
body(r_fr1_10,fr12_f1).
body(r_fr1_10,fr1_q1).
body(r_fr1_10,fr3_p3).
head(r_fr1_11,fr1_z1).
body(r_fr1_11,fr4_a1).
body(r_fr1_11,fr18_a1).
body(r_fr1_11,fr1_d1).
body(r_fr1_11,fr12_f1).
head(r_fr1_12,fr1_z1).
body(r_fr1_12,fr1_a1).
body(r_fr1_12,fr11_q3).
head(r_fr1_13,fr1_z1).
body(r_fr1_13,fr1_a1).
body(r_fr1_13,fr4_p1).
body(r_fr1_13,fr8_x5).
head(r_fr1_14,fr1_z1).
body(r_fr1_14,fr1_b2).
head(r_fr1_15,fr25_s2).
body(r_fr1_15,fr15_b3).
body(r_fr1_15,fr1_t2).
body(r_fr1_15,fr1_x1).
head(r_fr1_16,fr25_s2).
body(r_fr1_16,fr25_c1).
body(r_fr1_16,fr1_p2).
body(r_fr1_16,fr8_x5).
body(r_fr1_16,fr1_x2).
head(r_fr1_17,fr25_s2).
body(r_fr1_17,fr25_b2).
body(r_fr1_17,fr1_p2).
body(r_fr1_17,fr1_s1).
body(r_fr1_17,fr1_x2).
head(r_fr1_18,fr8_z1).
body(r_fr1_18,fr1_b2).
body(r_fr1_18,fr1_d2).
body(r_fr1_18,fr4_p1).
body(r_fr1_18,fr1_p2).
body(r_fr1_18,fr1_t2).
head(r_fr1_19,fr8_z1).
body(r_fr1_19,fr1_d1).
body(r_fr1_19,fr12_f1).
head(r_fr1_20,fr8_z1).
body(r_fr1_20,fr25_c1).
body(r_fr1_20,fr25_b2).
body(r_fr1_20,fr1_f2).
head(r_fr1_21,fr8_z1).
body(r_fr1_21,fr4_a1).
body(r_fr1_21,fr11_q3).
head(r_fr1_22,fr3_p3).
body(r_fr1_22,fr1_d1).
body(r_fr1_22,fr1_d2).
body(r_fr1_22,fr4_p1).
body(r_fr1_22,fr8_x5).
body(r_fr1_22,fr1_x2).
head(r_fr1_23,fr3_p3).
body(r_fr1_23,fr18_a1).
head(r_fr1_24,fr1_w1).
body(r_fr1_24,fr1_a1).
body(r_fr1_24,fr4_a1).
body(r_fr1_24,fr1_d2).
body(r_fr1_24,fr11_q3).
head(r_fr1_25,fr1_w1).
body(r_fr1_25,fr1_p2).
body(r_fr1_25,fr1_q1).
body(r_fr1_25,fr1_s2).
body(r_fr1_25,fr1_x1).
head(r_fr1_26,fr1_w1).
head(r_fr1_27,fr1_w1).
body(r_fr1_27,fr4_p1).
body(r_fr1_27,fr1_x1).
head(r_fr1_28,fr4_q2).
body(r_fr1_28,fr4_a1).
body(r_fr1_28,fr1_d1).
body(r_fr1_28,fr1_t2).
body(r_fr1_28,fr1_x2).
head(r_fr1_29,fr4_q2).
head(r_fr1_30,fr4_q2).
body(r_fr1_30,fr1_d1).
body(r_fr1_30,fr1_t2).
body(r_fr1_30,fr1_x1).
head(r_fr1_31,fr1_s1).
body(r_fr1_31,fr15_b3).
body(r_fr1_31,fr1_b2).
body(r_fr1_31,fr1_d1).
body(r_fr1_31,fr11_e1).
body(r_fr1_31,fr1_f2).
head(r_fr1_32,fr1_s1).
body(r_fr1_32,fr1_a1).
body(r_fr1_32,fr4_a1).
body(r_fr1_32,fr25_c1).
body(r_fr1_32,fr1_d2).
body(r_fr1_32,fr12_f1).
head(r_fr1_33,fr11_q3).
body(r_fr1_33,fr1_a1).
body(r_fr1_33,fr1_f2).
body(r_fr1_33,fr1_q1).
body(r_fr1_33,fr8_x5).
body(r_fr1_33,fr11_q3).
head(r_fr1_34,fr11_q3).
body(r_fr1_34,fr1_a1).
head(r_fr1_35,fr1_x2).
body(r_fr1_35,fr1_a1).
body(r_fr1_35,fr1_d1).
body(r_fr1_35,fr12_f1).
body(r_fr1_35,fr1_p2).
head(r_fr1_36,fr1_x2).
head(r_fr1_37,fr1_p2).
body(r_fr1_37,fr15_b3).
body(r_fr1_37,fr25_c1).
body(r_fr1_37,fr18_a1).
body(r_fr1_37,fr12_f1).
head(r_fr1_38,fr1_p2).
body(r_fr1_38,fr1_t2).
body(r_fr1_38,fr1_x1).
head(r_fr1_39,fr1_p2).
head(r_fr1_40,fr8_x5).
body(r_fr1_40,fr1_a1).
body(r_fr1_40,fr1_d1).
body(r_fr1_40,fr1_q1).
body(r_fr1_40,fr1_t2).
body(r_fr1_40,fr11_q3).
head(r_fr1_41,fr8_x5).
head(r_fr1_42,fr1_t2).
body(r_fr1_42,fr1_q1).
body(r_fr1_42,fr1_x1).
head(r_fr1_43,fr1_t2).
body(r_fr1_43,fr1_a1).
body(r_fr1_43,fr1_d2).
body(r_fr1_43,fr4_p1).
body(r_fr1_43,fr1_s2).
body(r_fr1_43,fr11_q3).
head(r_fr1_44,fr1_t2).
body(r_fr1_44,fr11_q3).
head(r_fr1_45,fr1_t2).
body(r_fr1_45,fr25_c1).
body(r_fr1_45,fr18_a1).
body(r_fr1_45,fr25_b2).
body(r_fr1_45,fr4_p1).
body(r_fr1_45,fr1_q1).
head(r_fr1_46,fr1_x1).
body(r_fr1_46,fr25_c1).
body(r_fr1_46,fr4_p1).
body(r_fr1_46,fr1_q1).
body(r_fr1_46,fr11_q3).
head(r_fr1_47,fr1_x1).
body(r_fr1_47,fr25_c1).

assumption(fr12_f1).
assumption(fr2_b1).
assumption(fr2_c1).
assumption(fr2_d1).
assumption(fr2_b2).
assumption(fr2_f1).
assumption(fr2_a2).
assumption(fr2_b2).
assumption(fr2_c2).
assumption(fr8_c4).
assumption(fr2_e2).
assumption(fr2_f2).
contrary(fr12_f1,fr2_w2).
contrary(fr2_a2,fr11_r1).
contrary(fr2_b1,fr12_f1).
contrary(fr2_b2,fr2_b2).
contrary(fr2_c1,fr12_f1).
contrary(fr2_c2,fr25_s2).
contrary(fr2_d1,fr2_b1).
contrary(fr8_c4,fr3_p3).
contrary(fr2_b2,fr3_p3).
contrary(fr2_e2,fr2_v1).
contrary(fr2_f1,fr2_p1).
contrary(fr2_f2,fr2_b2).
head(r_fr2_0,fr2_v2).
body(r_fr2_0,fr2_v1).
head(r_fr2_1,fr2_v2).
body(r_fr2_1,fr2_b1).
body(r_fr2_1,fr2_c1).
body(r_fr2_1,fr8_c4).
body(r_fr2_1,fr2_e2).
body(r_fr2_1,fr3_p3).
head(r_fr2_2,fr2_v2).
body(r_fr2_2,fr2_a2).
body(r_fr2_2,fr2_b2).
body(r_fr2_2,fr19_q2).
head(r_fr2_3,fr3_v1).
body(r_fr2_3,fr2_b2).
body(r_fr2_3,fr20_y1).
body(r_fr2_3,fr3_p3).
head(r_fr2_4,fr3_v1).
body(r_fr2_4,fr2_c2).
body(r_fr2_4,fr2_f2).
head(r_fr2_5,fr11_r1).
body(r_fr2_5,fr2_b1).
body(r_fr2_5,fr2_b2).
head(r_fr2_6,fr11_r1).
body(r_fr2_6,fr11_q2).
head(r_fr2_7,fr11_r1).
body(r_fr2_7,fr12_f1).
body(r_fr2_7,fr3_p3).
body(r_fr2_7,fr12_y1).
head(r_fr2_8,fr11_r1).
body(r_fr2_8,fr2_a2).
body(r_fr2_8,fr2_c1).
body(r_fr2_8,fr8_c4).
body(r_fr2_8,fr3_p3).
body(r_fr2_8,fr25_s2).
head(r_fr2_9,fr12_y1).
body(r_fr2_9,fr20_y1).
body(r_fr2_9,fr8_q1).
body(r_fr2_9,fr2_w2).
body(r_fr2_9,fr3_p3).
head(r_fr2_10,fr12_y1).
head(r_fr2_11,fr12_y1).
body(r_fr2_11,fr12_f1).
body(r_fr2_11,fr2_c2).
body(r_fr2_11,fr19_q2).
body(r_fr2_11,fr2_v1).
head(r_fr2_12,fr12_y1).
body(r_fr2_12,fr2_b2).
body(r_fr2_12,fr8_c4).
body(r_fr2_12,fr20_y1).
body(r_fr2_12,fr2_u1).
body(r_fr2_12,fr2_v1).
head(r_fr2_13,fr3_p3).
body(r_fr2_13,fr16_p2).
head(r_fr2_14,fr3_p3).
body(r_fr2_14,fr2_q2).
body(r_fr2_14,fr3_p3).
body(r_fr2_14,fr16_p2).
body(r_fr2_14,fr25_s2).
body(r_fr2_14,fr2_w2).
head(r_fr2_15,fr3_p3).
body(r_fr2_15,fr2_a2).
body(r_fr2_15,fr2_b1).
body(r_fr2_15,fr2_c2).
body(r_fr2_15,fr2_w2).
body(r_fr2_15,fr12_s3).
head(r_fr2_16,fr3_p3).
body(r_fr2_16,fr2_a2).
body(r_fr2_16,fr8_c4).
body(r_fr2_16,fr2_q2).
body(r_fr2_16,fr16_p2).
head(r_fr2_17,fr3_p3).
body(r_fr2_17,fr19_q2).
body(r_fr2_17,fr2_v1).
body(r_fr2_17,fr2_w2).
head(r_fr2_18,fr3_p3).
body(r_fr2_18,fr20_y1).
body(r_fr2_18,fr3_p3).
body(r_fr2_18,fr19_q2).
head(r_fr2_19,fr11_q2).
body(r_fr2_19,fr2_b1).
head(r_fr2_20,fr11_q2).
body(r_fr2_20,fr19_q2).
body(r_fr2_20,fr8_q1).
body(r_fr2_20,fr12_s3).
head(r_fr2_21,fr2_q2).
body(r_fr2_21,fr2_e2).
head(r_fr2_22,fr2_q2).
head(r_fr2_23,fr2_q2).
body(r_fr2_23,fr2_b2).
body(r_fr2_23,fr3_p3).
body(r_fr2_23,fr2_u2).
head(r_fr2_24,fr2_v1).
body(r_fr2_24,fr8_q1).
head(r_fr2_25,fr2_v1).
body(r_fr2_25,fr2_b2).
body(r_fr2_25,fr2_p1).
head(r_fr2_26,fr2_v1).
body(r_fr2_26,fr2_b1).
body(r_fr2_26,fr8_c4).
body(r_fr2_26,fr2_w2).
head(r_fr2_27,fr2_v1).
body(r_fr2_27,fr2_b2).
body(r_fr2_27,fr2_c2).
body(r_fr2_27,fr2_e2).
body(r_fr2_27,fr2_p1).
body(r_fr2_27,fr2_u2).
head(r_fr2_28,fr12_s3).
body(r_fr2_28,fr12_f1).
body(r_fr2_28,fr2_b2).
body(r_fr2_28,fr2_e2).
body(r_fr2_28,fr2_f2).
body(r_fr2_28,fr2_p1).
head(r_fr2_29,fr12_s3).
body(r_fr2_29,fr19_q2).
body(r_fr2_29,fr2_u1).
body(r_fr2_29,fr25_s2).
head(r_fr2_30,fr12_s3).
head(r_fr2_31,fr12_s3).
body(r_fr2_31,fr12_f1).
body(r_fr2_31,fr8_q1).
head(r_fr2_32,fr2_u1).
head(r_fr2_33,fr2_u1).
body(r_fr2_33,fr12_f1).
body(r_fr2_33,fr2_f1).
head(r_fr2_34,fr2_u1).
body(r_fr2_34,fr2_b1).
head(r_fr2_35,fr2_u2).
body(r_fr2_35,fr2_a2).
body(r_fr2_35,fr2_c1).
head(r_fr2_36,fr2_u2).
body(r_fr2_36,fr2_c1).
body(r_fr2_36,fr2_p1).
head(r_fr2_37,fr2_u2).
body(r_fr2_37,fr2_a2).
body(r_fr2_37,fr2_d1).
head(r_fr2_38,fr2_p1).
body(r_fr2_38,fr3_p3).
body(r_fr2_38,fr16_p2).
body(r_fr2_38,fr19_q2).
head(r_fr2_39,fr2_p1).
head(r_fr2_40,fr2_p1).
body(r_fr2_40,fr2_a2).
body(r_fr2_40,fr2_b2).
body(r_fr2_40,fr8_c4).
body(r_fr2_40,fr2_f2).
body(r_fr2_40,fr20_y1).
head(r_fr2_41,fr3_p3).
body(r_fr2_41,fr20_y1).
body(r_fr2_41,fr16_p2).
body(r_fr2_41,fr2_w2).
head(r_fr2_42,fr3_p3).
head(r_fr2_43,fr20_y1).
body(r_fr2_43,fr12_f1).
body(r_fr2_43,fr16_p2).
body(r_fr2_43,fr19_q2).
body(r_fr2_43,fr2_w2).
head(r_fr2_44,fr20_y1).
body(r_fr2_44,fr2_f2).
body(r_fr2_44,fr16_p2).
head(r_fr2_45,fr20_y1).
head(r_fr2_46,fr8_q1).
body(r_fr2_46,fr2_c2).
body(r_fr2_46,fr25_s2).
head(r_fr2_47,fr8_q1).
body(r_fr2_47,fr2_b2).
body(r_fr2_47,fr2_b2).
body(r_fr2_47,fr2_e2).
body(r_fr2_47,fr25_s2).
head(r_fr2_48,fr8_q1).
body(r_fr2_48,fr16_p2).
body(r_fr2_48,fr19_q2).
body(r_fr2_48,fr25_s2).
body(r_fr2_48,fr2_w2).

assumption(fr3_a1).
assumption(fr3_b1).
assumption(fr2_b2).
assumption(fr3_d1).
assumption(fr3_e1).
assumption(fr3_f1).
assumption(fr3_a2).
assumption(fr3_b2).
assumption(fr21_c2).
assumption(fr3_d2).
assumption(fr3_e2).
assumption(fr21_f2).
assumption(fr3_a3).
assumption(fr3_b3).
assumption(fr3_c3).
contrary(fr3_a1,fr3_y1).
contrary(fr3_a2,fr2_b2).
contrary(fr3_a3,fr21_c2).
contrary(fr3_b1,fr3_r1).
contrary(fr3_b2,fr21_c2).
contrary(fr3_b3,fr3_r2).
contrary(fr2_b2,fr21_c2).
contrary(fr21_c2,fr12_x2).
contrary(fr3_c3,fr3_a1).
contrary(fr3_d1,fr3_f1).
contrary(fr3_d2,fr3_a3).
contrary(fr3_e1,fr24_r3).
contrary(fr3_e2,fr3_y1).
contrary(fr3_f1,fr24_r3).
contrary(fr21_f2,fr21_x1).
head(r_fr3_0,fr3_p3).
body(r_fr3_0,fr3_b2).
body(r_fr3_0,fr3_c3).
body(r_fr3_0,fr3_e1).
head(r_fr3_1,fr3_p3).
body(r_fr3_1,fr3_a2).
body(r_fr3_1,fr3_a3).
body(r_fr3_1,fr3_b2).
body(r_fr3_1,fr3_e1).
body(r_fr3_1,fr1_w1).
body(r_fr3_1,fr3_v2).
head(r_fr3_2,fr3_p3).
head(r_fr3_3,fr3_p3).
body(r_fr3_3,fr3_b3).
body(r_fr3_3,fr12_x2).
body(r_fr3_3,fr3_v1).
head(r_fr3_4,fr3_p3).
body(r_fr3_4,fr3_v2).
head(r_fr3_5,fr3_p3).
body(r_fr3_5,fr3_p3).
body(r_fr3_5,fr3_y1).
head(r_fr3_6,fr3_p3).
body(r_fr3_6,fr2_b2).
body(r_fr3_6,fr3_w2).
head(r_fr3_7,fr3_p3).
body(r_fr3_7,fr3_a2).
body(r_fr3_7,fr3_f1).
body(r_fr3_7,fr3_t1).
body(r_fr3_7,fr3_t2).
body(r_fr3_7,fr24_r3).
head(r_fr3_8,fr3_p3).
body(r_fr3_8,fr3_r2).
body(r_fr3_8,fr3_v2).
body(r_fr3_8,fr3_w1).
head(r_fr3_9,fr3_p3).
body(r_fr3_9,fr3_c3).
body(r_fr3_9,fr12_x2).
body(r_fr3_9,fr21_x1).
body(r_fr3_9,fr3_z2).
head(r_fr3_10,fr3_p3).
body(r_fr3_10,fr3_a1).
body(r_fr3_10,fr3_b3).
body(r_fr3_10,fr3_e1).
body(r_fr3_10,fr21_f2).
body(r_fr3_10,fr3_q2).
body(r_fr3_10,fr3_u2).
head(r_fr3_11,fr3_p3).
body(r_fr3_11,fr12_x2).
head(r_fr3_12,fr3_p3).
body(r_fr3_12,fr3_q2).
head(r_fr3_13,fr3_p3).
body(r_fr3_13,fr3_b2).
body(r_fr3_13,fr3_q3).
body(r_fr3_13,fr3_r1).
head(r_fr3_14,fr3_p3).
body(r_fr3_14,fr21_f2).
body(r_fr3_14,fr3_w2).
body(r_fr3_14,fr21_x1).
body(r_fr3_14,fr3_z1).
head(r_fr3_15,fr3_p3).
head(r_fr3_16,fr3_p3).
body(r_fr3_16,fr2_b2).
body(r_fr3_16,fr3_c3).
body(r_fr3_16,fr3_q3).
body(r_fr3_16,fr3_u2).
head(r_fr3_17,fr3_p3).
body(r_fr3_17,fr21_x1).
head(r_fr3_18,fr3_p3).
body(r_fr3_18,fr3_b1).
body(r_fr3_18,fr21_c2).
body(r_fr3_18,fr3_d2).
body(r_fr3_18,fr3_e2).
body(r_fr3_18,fr3_f1).
body(r_fr3_18,fr21_f2).
head(r_fr3_19,fr3_z1).
body(r_fr3_19,fr3_q2).
body(r_fr3_19,fr1_w1).
body(r_fr3_19,fr3_p3).
body(r_fr3_19,fr3_t1).
body(r_fr3_19,fr3_v2).
head(r_fr3_20,fr3_z1).
body(r_fr3_20,fr2_b2).
head(r_fr3_21,fr3_z1).
body(r_fr3_21,fr2_b2).
body(r_fr3_21,fr1_w1).
body(r_fr3_21,fr12_x2).
body(r_fr3_21,fr3_v2).
body(r_fr3_21,fr3_z2).
head(r_fr3_22,fr3_z1).
body(r_fr3_22,fr3_d1).
body(r_fr3_22,fr1_w1).
head(r_fr3_23,fr3_z1).
body(r_fr3_23,fr3_a1).
body(r_fr3_23,fr3_a2).
body(r_fr3_23,fr3_p1).
body(r_fr3_23,fr3_q3).
body(r_fr3_23,fr24_r3).
body(r_fr3_23,fr3_y2).
head(r_fr3_24,fr3_z1).
body(r_fr3_24,fr3_f1).
body(r_fr3_24,fr1_w1).
body(r_fr3_24,fr3_z2).
head(r_fr3_25,fr3_z1).
body(r_fr3_25,fr3_a3).
body(r_fr3_25,fr3_r1).
body(r_fr3_25,fr3_v1).
head(r_fr3_26,fr3_z1).
body(r_fr3_26,fr3_a2).
body(r_fr3_26,fr3_b3).
body(r_fr3_26,fr21_c2).
body(r_fr3_26,fr3_c3).
head(r_fr3_27,fr3_z1).
body(r_fr3_27,fr24_r3).
head(r_fr3_28,fr3_t1).
body(r_fr3_28,fr3_c3).
body(r_fr3_28,fr3_d1).
body(r_fr3_28,fr3_e2).
head(r_fr3_29,fr3_t1).
body(r_fr3_29,fr3_w1).
body(r_fr3_29,fr3_w2).
head(r_fr3_30,fr3_t1).
body(r_fr3_30,fr3_b2).
body(r_fr3_30,fr3_b3).
body(r_fr3_30,fr3_e2).
head(r_fr3_31,fr3_t1).
body(r_fr3_31,fr3_a1).
head(r_fr3_32,fr3_t1).
body(r_fr3_32,fr21_c2).
body(r_fr3_32,fr3_v2).
body(r_fr3_32,fr3_w1).
head(r_fr3_33,fr3_t1).
body(r_fr3_33,fr3_d1).
body(r_fr3_33,fr3_r1).
body(r_fr3_33,fr12_x2).
body(r_fr3_33,fr3_v2).
head(r_fr3_34,fr3_t1).
body(r_fr3_34,fr3_q3).
body(r_fr3_34,fr3_s1).
body(r_fr3_34,fr3_v1).
head(r_fr3_35,fr3_t1).
body(r_fr3_35,fr21_x1).
head(r_fr3_36,fr3_t1).
body(r_fr3_36,fr21_c2).
head(r_fr3_37,fr3_t1).
body(r_fr3_37,fr3_a2).
head(r_fr3_38,fr3_v1).
body(r_fr3_38,fr3_e1).
head(r_fr3_39,fr3_v1).
body(r_fr3_39,fr3_a1).
body(r_fr3_39,fr3_a2).
body(r_fr3_39,fr3_b1).
body(r_fr3_39,fr3_b3).
head(r_fr3_40,fr3_v1).
body(r_fr3_40,fr3_b2).
body(r_fr3_40,fr3_e1).
body(r_fr3_40,fr3_f1).
body(r_fr3_40,fr3_u2).
head(r_fr3_41,fr3_v1).
body(r_fr3_41,fr3_p3).
body(r_fr3_41,fr3_u2).
body(r_fr3_41,fr3_w2).
head(r_fr3_42,fr3_v1).
body(r_fr3_42,fr3_f1).
body(r_fr3_42,fr3_w2).
body(r_fr3_42,fr24_r3).
head(r_fr3_43,fr3_v1).
body(r_fr3_43,fr3_a2).
body(r_fr3_43,fr3_b1).
body(r_fr3_43,fr3_b3).
body(r_fr3_43,fr12_x2).
head(r_fr3_44,fr3_v1).
body(r_fr3_44,fr3_f1).
head(r_fr3_45,fr3_v1).
body(r_fr3_45,fr3_a2).
body(r_fr3_45,fr3_a3).
body(r_fr3_45,fr3_e2).
body(r_fr3_45,fr3_r1).
head(r_fr3_46,fr3_v1).
body(r_fr3_46,fr3_f1).
body(r_fr3_46,fr3_q2).
body(r_fr3_46,fr3_y2).
head(r_fr3_47,fr3_v1).
body(r_fr3_47,fr21_x1).
head(r_fr3_48,fr3_q2).
body(r_fr3_48,fr2_b2).
body(r_fr3_48,fr3_f1).
body(r_fr3_48,fr3_t2).
head(r_fr3_49,fr3_q2).
body(r_fr3_49,fr2_b2).
body(r_fr3_49,fr3_d1).
body(r_fr3_49,fr3_e1).
body(r_fr3_49,fr21_f2).
body(r_fr3_49,fr3_p3).
body(r_fr3_49,fr3_v2).
head(r_fr3_50,fr3_q2).
body(r_fr3_50,fr12_x2).
head(r_fr3_51,fr3_q2).
body(r_fr3_51,fr3_a3).
body(r_fr3_51,fr3_p1).
body(r_fr3_51,fr12_x2).
body(r_fr3_51,fr24_r3).
head(r_fr3_52,fr3_q2).
body(r_fr3_52,fr3_d1).
head(r_fr3_53,fr3_q2).
body(r_fr3_53,fr3_r1).
body(r_fr3_53,fr24_r3).
head(r_fr3_54,fr3_q2).
body(r_fr3_54,fr3_w2).
head(r_fr3_55,fr3_q2).
body(r_fr3_55,fr3_a2).
body(r_fr3_55,fr3_q3).
head(r_fr3_56,fr3_q2).
body(r_fr3_56,fr3_a2).
body(r_fr3_56,fr3_b1).
body(r_fr3_56,fr3_b2).
body(r_fr3_56,fr3_b3).
body(r_fr3_56,fr3_f1).
body(r_fr3_56,fr3_w2).
head(r_fr3_57,fr3_q2).
head(r_fr3_58,fr3_z2).
body(r_fr3_58,fr3_c3).
body(r_fr3_58,fr3_d2).
body(r_fr3_58,fr3_e2).
body(r_fr3_58,fr21_f2).
body(r_fr3_58,fr3_v2).
head(r_fr3_59,fr3_z2).
body(r_fr3_59,fr3_a1).
body(r_fr3_59,fr21_c2).
body(r_fr3_59,fr3_c3).
head(r_fr3_60,fr3_z2).
body(r_fr3_60,fr3_d1).
body(r_fr3_60,fr21_f2).
head(r_fr3_61,fr3_z2).
body(r_fr3_61,fr3_a1).
body(r_fr3_61,fr3_e1).
head(r_fr3_62,fr3_z2).
body(r_fr3_62,fr3_q3).
body(r_fr3_62,fr3_r1).
body(r_fr3_62,fr21_x1).
head(r_fr3_63,fr3_z2).
body(r_fr3_63,fr3_b1).
body(r_fr3_63,fr3_b2).
body(r_fr3_63,fr3_d1).
body(r_fr3_63,fr3_f1).
body(r_fr3_63,fr3_s1).
body(r_fr3_63,fr24_r3).
head(r_fr3_64,fr3_z2).
body(r_fr3_64,fr3_a2).
body(r_fr3_64,fr3_b3).
body(r_fr3_64,fr3_e1).
body(r_fr3_64,fr3_f1).
head(r_fr3_65,fr3_z2).
head(r_fr3_66,fr3_z2).
body(r_fr3_66,fr3_d1).
body(r_fr3_66,fr3_e2).
body(r_fr3_66,fr3_f1).
body(r_fr3_66,fr21_f2).
head(r_fr3_67,fr3_z2).
body(r_fr3_67,fr3_q3).
body(r_fr3_67,fr3_w1).
head(r_fr3_68,fr1_w1).
body(r_fr3_68,fr3_a2).
body(r_fr3_68,fr21_c2).
body(r_fr3_68,fr21_f2).
body(r_fr3_68,fr3_q3).
body(r_fr3_68,fr3_y2).
head(r_fr3_69,fr1_w1).
body(r_fr3_69,fr3_a2).
body(r_fr3_69,fr3_d1).
body(r_fr3_69,fr3_r2).
body(r_fr3_69,fr3_w1).
head(r_fr3_70,fr1_w1).
body(r_fr3_70,fr3_b2).
body(r_fr3_70,fr3_d1).
body(r_fr3_70,fr3_p1).
body(r_fr3_70,fr3_u2).
head(r_fr3_71,fr1_w1).
body(r_fr3_71,fr3_b2).
head(r_fr3_72,fr1_w1).
body(r_fr3_72,fr3_b3).
head(r_fr3_73,fr1_w1).
body(r_fr3_73,fr3_a3).
body(r_fr3_73,fr3_b2).
body(r_fr3_73,fr12_x2).
body(r_fr3_73,fr21_x1).
head(r_fr3_74,fr1_w1).
head(r_fr3_75,fr1_w1).
body(r_fr3_75,fr3_a1).
body(r_fr3_75,fr3_a3).
body(r_fr3_75,fr3_v2).
body(r_fr3_75,fr3_w2).
head(r_fr3_76,fr1_w1).
body(r_fr3_76,fr2_b2).
body(r_fr3_76,fr21_c2).
body(r_fr3_76,fr3_f1).
body(r_fr3_76,fr3_q3).
body(r_fr3_76,fr3_r2).
body(r_fr3_76,fr3_w2).
head(r_fr3_77,fr1_w1).
body(r_fr3_77,fr3_b3).
body(r_fr3_77,fr2_b2).
body(r_fr3_77,fr21_c2).
body(r_fr3_77,fr3_c3).
body(r_fr3_77,fr3_d2).
head(r_fr3_78,fr3_y1).
body(r_fr3_78,fr3_a1).
body(r_fr3_78,fr3_a2).
body(r_fr3_78,fr3_b2).
body(r_fr3_78,fr3_f1).
body(r_fr3_78,fr21_f2).
body(r_fr3_78,fr3_p3).
head(r_fr3_79,fr3_y1).
body(r_fr3_79,fr3_b2).
body(r_fr3_79,fr21_c2).
body(r_fr3_79,fr3_d2).
body(r_fr3_79,fr3_f1).
body(r_fr3_79,fr21_x1).
head(r_fr3_80,fr3_y1).
body(r_fr3_80,fr3_a1).
body(r_fr3_80,fr3_a2).
body(r_fr3_80,fr3_a3).
body(r_fr3_80,fr3_f1).
head(r_fr3_81,fr3_y1).
head(r_fr3_82,fr3_y1).
body(r_fr3_82,fr3_b1).
body(r_fr3_82,fr3_e1).
body(r_fr3_82,fr3_w1).
head(r_fr3_83,fr3_y1).
body(r_fr3_83,fr12_x2).
body(r_fr3_83,fr3_q3).
body(r_fr3_83,fr3_s1).
body(r_fr3_83,fr3_w1).
body(r_fr3_83,fr3_w2).
head(r_fr3_84,fr3_y1).
body(r_fr3_84,fr3_e1).
body(r_fr3_84,fr3_e2).
head(r_fr3_85,fr3_y1).
body(r_fr3_85,fr3_b1).
body(r_fr3_85,fr3_d1).
body(r_fr3_85,fr3_e2).
body(r_fr3_85,fr12_x2).
head(r_fr3_86,fr3_y1).
body(r_fr3_86,fr3_q3).
body(r_fr3_86,fr12_x2).
body(r_fr3_86,fr21_x1).
body(r_fr3_86,fr24_r3).
head(r_fr3_87,fr3_y1).
body(r_fr3_87,fr3_e1).
body(r_fr3_87,fr3_f1).
head(r_fr3_88,fr3_v2).
head(r_fr3_89,fr3_v2).
body(r_fr3_89,fr3_a3).
body(r_fr3_89,fr3_b3).
body(r_fr3_89,fr2_b2).
body(r_fr3_89,fr3_c3).
body(r_fr3_89,fr3_d2).
body(r_fr3_89,fr3_w1).
head(r_fr3_90,fr3_v2).
body(r_fr3_90,fr3_b1).
body(r_fr3_90,fr2_b2).
body(r_fr3_90,fr3_d1).
body(r_fr3_90,fr3_s1).
body(r_fr3_90,fr3_t2).
head(r_fr3_91,fr3_v2).
body(r_fr3_91,fr3_b3).
body(r_fr3_91,fr3_d2).
head(r_fr3_92,fr3_v2).
body(r_fr3_92,fr3_e1).
body(r_fr3_92,fr12_x2).
body(r_fr3_92,fr3_u2).
body(r_fr3_92,fr3_w1).
body(r_fr3_92,fr3_y2).
head(r_fr3_93,fr3_v2).
body(r_fr3_93,fr3_d1).
body(r_fr3_93,fr3_d2).
body(r_fr3_93,fr3_e2).
body(r_fr3_93,fr3_f1).
body(r_fr3_93,fr21_f2).
head(r_fr3_94,fr3_v2).
body(r_fr3_94,fr3_a1).
body(r_fr3_94,fr3_a3).
body(r_fr3_94,fr3_b1).
body(r_fr3_94,fr3_e2).
body(r_fr3_94,fr3_p3).
body(r_fr3_94,fr3_y2).
head(r_fr3_95,fr3_v2).
body(r_fr3_95,fr3_b2).
body(r_fr3_95,fr3_b3).
body(r_fr3_95,fr3_e1).
body(r_fr3_95,fr21_f2).
head(r_fr3_96,fr3_v2).
body(r_fr3_96,fr21_f2).
body(r_fr3_96,fr12_x2).
body(r_fr3_96,fr3_u2).
head(r_fr3_97,fr3_v2).
body(r_fr3_97,fr3_s1).
head(r_fr3_98,fr3_v2).
body(r_fr3_98,fr3_a3).
body(r_fr3_98,fr3_b1).
body(r_fr3_98,fr3_e2).
head(r_fr3_99,fr3_q3).
body(r_fr3_99,fr3_p1).
body(r_fr3_99,fr12_x2).
body(r_fr3_99,fr3_w2).
head(r_fr3_100,fr3_q3).
body(r_fr3_100,fr3_f1).
head(r_fr3_101,fr3_q3).
body(r_fr3_101,fr3_c3).
body(r_fr3_101,fr3_d2).
body(r_fr3_101,fr3_p3).
head(r_fr3_102,fr3_q3).
body(r_fr3_102,fr2_b2).
head(r_fr3_103,fr3_q3).
body(r_fr3_103,fr3_a1).
body(r_fr3_103,fr3_y2).
head(r_fr3_104,fr3_q3).
body(r_fr3_104,fr3_a1).
body(r_fr3_104,fr3_a2).
body(r_fr3_104,fr3_p1).
head(r_fr3_105,fr3_q3).
body(r_fr3_105,fr3_b2).
body(r_fr3_105,fr3_e1).
body(r_fr3_105,fr3_f1).
head(r_fr3_106,fr3_q3).
body(r_fr3_106,fr3_a1).
body(r_fr3_106,fr3_a2).
body(r_fr3_106,fr3_a3).
body(r_fr3_106,fr21_c2).
body(r_fr3_106,fr3_f1).
body(r_fr3_106,fr21_f2).
head(r_fr3_107,fr3_q3).
body(r_fr3_107,fr3_a2).
body(r_fr3_107,fr3_d2).
body(r_fr3_107,fr3_f1).
body(r_fr3_107,fr3_p1).
body(r_fr3_107,fr3_r2).
head(r_fr3_108,fr3_q3).
body(r_fr3_108,fr3_b2).
body(r_fr3_108,fr3_u2).
head(r_fr3_109,fr3_q3).
body(r_fr3_109,fr3_u2).
head(r_fr3_110,fr3_t2).
body(r_fr3_110,fr3_r1).
body(r_fr3_110,fr3_p3).
body(r_fr3_110,fr21_x1).
body(r_fr3_110,fr24_r3).
body(r_fr3_110,fr3_y2).
head(r_fr3_111,fr3_t2).
body(r_fr3_111,fr3_b1).
body(r_fr3_111,fr3_b2).
body(r_fr3_111,fr2_b2).
body(r_fr3_111,fr3_d1).
body(r_fr3_111,fr3_e1).
body(r_fr3_111,fr3_f1).
head(r_fr3_112,fr3_t2).
body(r_fr3_112,fr3_c3).
body(r_fr3_112,fr12_x2).
head(r_fr3_113,fr3_t2).
body(r_fr3_113,fr3_a1).
body(r_fr3_113,fr21_c2).
body(r_fr3_113,fr12_x2).
body(r_fr3_113,fr3_y2).
head(r_fr3_114,fr3_t2).
head(r_fr3_115,fr3_t2).
body(r_fr3_115,fr3_a1).
body(r_fr3_115,fr3_a2).
body(r_fr3_115,fr3_b1).
body(r_fr3_115,fr3_e2).
body(r_fr3_115,fr3_f1).
head(r_fr3_116,fr3_t2).
body(r_fr3_116,fr12_x2).
head(r_fr3_117,fr3_t2).
body(r_fr3_117,fr3_r2).
head(r_fr3_118,fr3_p3).
body(r_fr3_118,fr3_b1).
body(r_fr3_118,fr12_x2).
body(r_fr3_118,fr3_u2).
body(r_fr3_118,fr3_w2).
body(r_fr3_118,fr21_x1).
body(r_fr3_118,fr3_y2).
head(r_fr3_119,fr3_p3).
body(r_fr3_119,fr3_a1).
body(r_fr3_119,fr3_b1).
body(r_fr3_119,fr3_d1).
body(r_fr3_119,fr3_e1).
body(r_fr3_119,fr3_e2).
body(r_fr3_119,fr12_x2).
head(r_fr3_120,fr3_p3).
body(r_fr3_120,fr3_c3).
head(r_fr3_121,fr3_p3).
head(r_fr3_122,fr3_p3).
body(r_fr3_122,fr3_a3).
body(r_fr3_122,fr21_c2).
body(r_fr3_122,fr3_e2).
head(r_fr3_123,fr3_p3).
body(r_fr3_123,fr3_b2).
body(r_fr3_123,fr3_d2).
body(r_fr3_123,fr3_e2).
body(r_fr3_123,fr3_r1).
body(r_fr3_123,fr3_y2).
head(r_fr3_124,fr3_p3).
body(r_fr3_124,fr3_a1).
body(r_fr3_124,fr12_x2).
body(r_fr3_124,fr3_r2).
body(r_fr3_124,fr3_w2).
body(r_fr3_124,fr21_x1).
body(r_fr3_124,fr24_r3).
head(r_fr3_125,fr3_p3).
body(r_fr3_125,fr21_c2).
body(r_fr3_125,fr3_r2).
body(r_fr3_125,fr3_s1).
body(r_fr3_125,fr21_x1).
head(r_fr3_126,fr3_p3).
body(r_fr3_126,fr3_b1).
body(r_fr3_126,fr2_b2).
body(r_fr3_126,fr3_w2).
body(r_fr3_126,fr21_x1).
body(r_fr3_126,fr24_r3).
head(r_fr3_127,fr3_r1).
body(r_fr3_127,fr12_x2).
body(r_fr3_127,fr3_w2).
body(r_fr3_127,fr21_x1).
head(r_fr3_128,fr3_r1).
body(r_fr3_128,fr3_b2).
body(r_fr3_128,fr2_b2).
body(r_fr3_128,fr21_f2).
body(r_fr3_128,fr3_p1).
body(r_fr3_128,fr3_r2).
body(r_fr3_128,fr21_x1).
head(r_fr3_129,fr3_r1).
body(r_fr3_129,fr2_b2).
body(r_fr3_129,fr3_c3).
body(r_fr3_129,fr3_d1).
body(r_fr3_129,fr3_e2).
body(r_fr3_129,fr3_r2).
head(r_fr3_130,fr3_r1).
body(r_fr3_130,fr3_a1).
body(r_fr3_130,fr3_b1).
body(r_fr3_130,fr3_f1).
body(r_fr3_130,fr3_s1).
body(r_fr3_130,fr3_y2).
head(r_fr3_131,fr3_r1).
body(r_fr3_131,fr3_b1).
body(r_fr3_131,fr3_b3).
body(r_fr3_131,fr3_d1).
body(r_fr3_131,fr3_p1).
body(r_fr3_131,fr3_y2).
head(r_fr3_132,fr3_r1).
body(r_fr3_132,fr3_a1).
body(r_fr3_132,fr3_a2).
head(r_fr3_133,fr3_r1).
head(r_fr3_134,fr3_r1).
body(r_fr3_134,fr3_r2).
body(r_fr3_134,fr3_w2).
head(r_fr3_135,fr3_r1).
body(r_fr3_135,fr3_a2).
body(r_fr3_135,fr3_u2).
head(r_fr3_136,fr12_x2).
body(r_fr3_136,fr3_e2).
body(r_fr3_136,fr21_x1).
head(r_fr3_137,fr12_x2).
body(r_fr3_137,fr3_a2).
body(r_fr3_137,fr3_b3).
body(r_fr3_137,fr3_d2).
body(r_fr3_137,fr12_x2).
head(r_fr3_138,fr12_x2).
body(r_fr3_138,fr3_e2).
body(r_fr3_138,fr21_f2).
body(r_fr3_138,fr3_p1).
body(r_fr3_138,fr3_r2).
body(r_fr3_138,fr21_x1).
body(r_fr3_138,fr3_y2).
head(r_fr3_139,fr12_x2).
body(r_fr3_139,fr3_b1).
body(r_fr3_139,fr3_d1).
body(r_fr3_139,fr3_s1).
body(r_fr3_139,fr3_w1).
body(r_fr3_139,fr3_y2).
head(r_fr3_140,fr12_x2).
body(r_fr3_140,fr3_b1).
body(r_fr3_140,fr3_d2).
body(r_fr3_140,fr3_e1).
body(r_fr3_140,fr3_p1).
body(r_fr3_140,fr12_x2).
head(r_fr3_141,fr12_x2).
body(r_fr3_141,fr3_d1).
body(r_fr3_141,fr3_e2).
body(r_fr3_141,fr3_p1).
head(r_fr3_142,fr12_x2).
body(r_fr3_142,fr3_d1).
head(r_fr3_143,fr12_x2).
body(r_fr3_143,fr3_b1).
body(r_fr3_143,fr3_d1).
body(r_fr3_143,fr3_p1).
body(r_fr3_143,fr12_x2).
head(r_fr3_144,fr12_x2).
body(r_fr3_144,fr12_x2).
body(r_fr3_144,fr21_x1).
head(r_fr3_145,fr12_x2).
body(r_fr3_145,fr12_x2).
head(r_fr3_146,fr3_y2).
body(r_fr3_146,fr3_d2).
body(r_fr3_146,fr3_u2).
body(r_fr3_146,fr3_w1).
head(r_fr3_147,fr3_y2).
body(r_fr3_147,fr3_r2).
head(r_fr3_148,fr3_y2).
body(r_fr3_148,fr3_d1).
body(r_fr3_148,fr24_r3).
head(r_fr3_149,fr3_y2).
body(r_fr3_149,fr3_e2).
body(r_fr3_149,fr12_x2).
body(r_fr3_149,fr3_s1).
body(r_fr3_149,fr21_x1).
body(r_fr3_149,fr24_r3).
head(r_fr3_150,fr3_y2).
head(r_fr3_151,fr3_y2).
body(r_fr3_151,fr3_a1).
body(r_fr3_151,fr3_a3).
body(r_fr3_151,fr3_b2).
body(r_fr3_151,fr3_d1).
head(r_fr3_152,fr3_y2).
body(r_fr3_152,fr3_a1).
body(r_fr3_152,fr3_b1).
body(r_fr3_152,fr3_b2).
body(r_fr3_152,fr3_r2).
body(r_fr3_152,fr3_w1).
body(r_fr3_152,fr3_w2).
head(r_fr3_153,fr3_y2).
body(r_fr3_153,fr12_x2).
body(r_fr3_153,fr3_s1).
body(r_fr3_153,fr3_u2).
body(r_fr3_153,fr3_w2).
head(r_fr3_154,fr3_s1).
body(r_fr3_154,fr3_a3).
body(r_fr3_154,fr3_d2).
body(r_fr3_154,fr3_e1).
body(r_fr3_154,fr21_x1).
head(r_fr3_155,fr3_s1).
head(r_fr3_156,fr3_s1).
body(r_fr3_156,fr3_a2).
body(r_fr3_156,fr21_c2).
body(r_fr3_156,fr3_e1).
body(r_fr3_156,fr3_w1).
head(r_fr3_157,fr3_s1).
body(r_fr3_157,fr12_x2).
body(r_fr3_157,fr3_r2).
body(r_fr3_157,fr3_u2).
body(r_fr3_157,fr3_w1).
body(r_fr3_157,fr21_x1).
body(r_fr3_157,fr24_r3).
head(r_fr3_158,fr3_s1).
body(r_fr3_158,fr3_b1).
body(r_fr3_158,fr3_b3).
body(r_fr3_158,fr3_d1).
body(r_fr3_158,fr3_e2).
body(r_fr3_158,fr3_f1).
head(r_fr3_159,fr3_s1).
body(r_fr3_159,fr3_b1).
body(r_fr3_159,fr3_e1).
body(r_fr3_159,fr3_f1).
head(r_fr3_160,fr3_s1).
body(r_fr3_160,fr3_a2).
body(r_fr3_160,fr3_r2).
body(r_fr3_160,fr3_u2).
body(r_fr3_160,fr3_w2).
head(r_fr3_161,fr3_s1).
body(r_fr3_161,fr3_p1).
body(r_fr3_161,fr12_x2).
body(r_fr3_161,fr3_r2).
body(r_fr3_161,fr3_u2).
body(r_fr3_161,fr3_w2).
head(r_fr3_162,fr3_s1).
body(r_fr3_162,fr3_b3).
body(r_fr3_162,fr3_p1).
body(r_fr3_162,fr3_r2).
body(r_fr3_162,fr3_u2).
body(r_fr3_162,fr3_w1).
body(r_fr3_162,fr24_r3).
head(r_fr3_163,fr3_s1).
body(r_fr3_163,fr3_a2).
body(r_fr3_163,fr3_b1).
body(r_fr3_163,fr3_f1).
body(r_fr3_163,fr21_f2).
body(r_fr3_163,fr3_p1).
head(r_fr3_164,fr12_x2).
body(r_fr3_164,fr3_w1).
body(r_fr3_164,fr3_w2).
body(r_fr3_164,fr21_x1).
head(r_fr3_165,fr12_x2).
body(r_fr3_165,fr3_a1).
body(r_fr3_165,fr3_r2).
head(r_fr3_166,fr12_x2).
body(r_fr3_166,fr3_b2).
body(r_fr3_166,fr3_e1).
body(r_fr3_166,fr3_e2).
body(r_fr3_166,fr21_x1).
head(r_fr3_167,fr12_x2).
body(r_fr3_167,fr21_x1).
body(r_fr3_167,fr24_r3).
head(r_fr3_168,fr12_x2).
body(r_fr3_168,fr3_p1).
body(r_fr3_168,fr3_r2).
body(r_fr3_168,fr3_u2).
body(r_fr3_168,fr3_w1).
body(r_fr3_168,fr3_w2).
body(r_fr3_168,fr21_x1).
head(r_fr3_169,fr12_x2).
head(r_fr3_170,fr12_x2).
body(r_fr3_170,fr3_a2).
body(r_fr3_170,fr3_e2).
head(r_fr3_171,fr12_x2).
body(r_fr3_171,fr3_a3).
body(r_fr3_171,fr3_e1).
body(r_fr3_171,fr3_e2).
body(r_fr3_171,fr21_x1).
head(r_fr3_172,fr24_r3).
body(r_fr3_172,fr3_a2).
body(r_fr3_172,fr3_b1).
body(r_fr3_172,fr3_b3).
body(r_fr3_172,fr3_d1).
body(r_fr3_172,fr3_d2).
body(r_fr3_172,fr21_f2).
head(r_fr3_173,fr24_r3).
body(r_fr3_173,fr3_b1).
body(r_fr3_173,fr3_b3).
body(r_fr3_173,fr3_e1).
body(r_fr3_173,fr3_f1).
body(r_fr3_173,fr3_p1).
body(r_fr3_173,fr3_r2).
head(r_fr3_174,fr24_r3).
body(r_fr3_174,fr3_f1).
body(r_fr3_174,fr3_r2).
body(r_fr3_174,fr3_w1).
body(r_fr3_174,fr3_w2).
head(r_fr3_175,fr24_r3).
body(r_fr3_175,fr3_c3).
head(r_fr3_176,fr24_r3).
body(r_fr3_176,fr3_w1).
head(r_fr3_177,fr24_r3).
body(r_fr3_177,fr3_p1).
body(r_fr3_177,fr3_w1).
head(r_fr3_178,fr24_r3).
body(r_fr3_178,fr3_b2).
body(r_fr3_178,fr3_r2).
body(r_fr3_178,fr3_u2).
head(r_fr3_179,fr24_r3).
body(r_fr3_179,fr3_a2).
head(r_fr3_180,fr3_w2).
body(r_fr3_180,fr3_a1).
body(r_fr3_180,fr2_b2).
body(r_fr3_180,fr3_f1).
body(r_fr3_180,fr21_f2).
body(r_fr3_180,fr3_u2).
head(r_fr3_181,fr3_w2).
body(r_fr3_181,fr3_b3).
body(r_fr3_181,fr3_r2).
body(r_fr3_181,fr3_u2).
head(r_fr3_182,fr3_w2).
body(r_fr3_182,fr3_p1).
body(r_fr3_182,fr3_r2).
body(r_fr3_182,fr3_u2).
head(r_fr3_183,fr3_w2).
body(r_fr3_183,fr3_a1).
head(r_fr3_184,fr3_w2).
body(r_fr3_184,fr21_c2).
body(r_fr3_184,fr3_w1).
head(r_fr3_185,fr3_w2).
body(r_fr3_185,fr3_b1).
body(r_fr3_185,fr3_c3).
body(r_fr3_185,fr3_p1).
body(r_fr3_185,fr3_r2).
body(r_fr3_185,fr3_w1).
head(r_fr3_186,fr3_w2).
body(r_fr3_186,fr3_a1).
body(r_fr3_186,fr3_b1).
head(r_fr3_187,fr3_w2).

assumption(fr4_a1).
assumption(fr4_b1).
assumption(fr4_c1).
assumption(fr12_f1).
assumption(fr4_e1).
assumption(fr4_f1).
assumption(fr3_a1).
assumption(fr4_b2).
assumption(fr4_c2).
assumption(fr4_d2).
assumption(fr4_e2).
assumption(fr4_f2).
assumption(fr4_a3).
assumption(fr4_b3).
assumption(fr3_a3).
assumption(fr4_d3).
assumption(fr4_e3).
assumption(fr4_f3).
assumption(fr4_a4).
assumption(fr4_b4).
assumption(fr4_c4).
assumption(fr4_d4).
assumption(fr4_e4).
assumption(fr18_a1).
assumption(fr4_a5).
assumption(fr4_b5).
assumption(fr4_c5).
assumption(fr4_d5).
assumption(fr4_e5).
assumption(fr7_a1).
contrary(fr4_a1,fr4_t1).
contrary(fr3_a1,fr4_t1).
contrary(fr4_a3,fr4_q1).
contrary(fr4_a4,fr4_p1).
contrary(fr4_a5,fr4_r5).
contrary(fr4_b1,fr4_f2).
contrary(fr4_b2,fr4_e5).
contrary(fr4_b3,fr4_a5).
contrary(fr4_b4,fr4_z2).
contrary(fr4_b5,fr25_p3).
contrary(fr4_c1,fr4_s4).
contrary(fr4_c2,fr4_u5).
contrary(fr3_a3,fr4_v4).
contrary(fr4_c4,fr4_b1).
contrary(fr4_c5,fr4_w2).
contrary(fr12_f1,fr17_u1).
contrary(fr4_d2,fr25_w1).
contrary(fr4_d3,fr23_x4).
contrary(fr4_d4,fr4_s3).
contrary(fr4_d5,fr4_b5).
contrary(fr4_e1,fr3_a1).
contrary(fr4_e2,fr4_c2).
contrary(fr4_e3,fr4_f3).
contrary(fr4_e4,fr4_r5).
contrary(fr4_e5,fr4_p3).
contrary(fr4_f1,fr4_u5).
contrary(fr4_f2,fr4_u1).
contrary(fr4_f3,fr4_p3).
contrary(fr18_a1,fr4_q5).
contrary(fr7_a1,fr25_w1).
head(r_fr4_0,fr4_y3).
body(r_fr4_0,fr4_q2).
body(r_fr4_0,fr4_r4).
body(r_fr4_0,fr4_w3).
body(r_fr4_0,fr4_z3).
head(r_fr4_1,fr4_y3).
body(r_fr4_1,fr3_a3).
body(r_fr4_1,fr4_e1).
body(r_fr4_1,fr25_w1).
head(r_fr4_2,fr4_y3).
body(r_fr4_2,fr4_p5).
body(r_fr4_2,fr4_s2).
body(r_fr4_2,fr4_u3).
body(r_fr4_2,fr4_v4).
body(r_fr4_2,fr4_z2).
head(r_fr4_3,fr4_y3).
body(r_fr4_3,fr4_a1).
body(r_fr4_3,fr12_f1).
body(r_fr4_3,fr4_d4).
body(r_fr4_3,fr4_p2).
body(r_fr4_3,fr4_p3).
body(r_fr4_3,fr4_q5).
body(r_fr4_3,fr4_s5).
body(r_fr4_3,fr4_t4).
body(r_fr4_3,fr23_x4).
body(r_fr4_3,fr4_v1).
body(r_fr4_3,fr4_y1).
head(r_fr4_4,fr4_y3).
body(r_fr4_4,fr3_a3).
body(r_fr4_4,fr4_r5).
body(r_fr4_4,fr4_t1).
body(r_fr4_4,fr4_t2).
body(r_fr4_4,fr5_s1).
body(r_fr4_4,fr4_v2).
head(r_fr4_5,fr4_y3).
body(r_fr4_5,fr4_f1).
body(r_fr4_5,fr4_p2).
body(r_fr4_5,fr4_q1).
head(r_fr4_6,fr4_y3).
body(r_fr4_6,fr4_c2).
body(r_fr4_6,fr4_c4).
body(r_fr4_6,fr4_c5).
body(r_fr4_6,fr4_d2).
body(r_fr4_6,fr7_a1).
body(r_fr4_6,fr4_r3).
body(r_fr4_6,fr4_r4).
body(r_fr4_6,fr4_r5).
body(r_fr4_6,fr4_v3).
body(r_fr4_6,fr25_w1).
body(r_fr4_6,fr4_z4).
head(r_fr4_7,fr4_y3).
body(r_fr4_7,fr4_a1).
body(r_fr4_7,fr4_a3).
body(r_fr4_7,fr4_b3).
body(r_fr4_7,fr4_b4).
body(r_fr4_7,fr3_a3).
body(r_fr4_7,fr12_f1).
body(r_fr4_7,fr4_d5).
body(r_fr4_7,fr4_e3).
body(r_fr4_7,fr4_e5).
body(r_fr4_7,fr4_f1).
body(r_fr4_7,fr4_f2).
head(r_fr4_8,fr4_y3).
body(r_fr4_8,fr4_a5).
body(r_fr4_8,fr4_b2).
body(r_fr4_8,fr4_e2).
body(r_fr4_8,fr4_e5).
body(r_fr4_8,fr4_f3).
body(r_fr4_8,fr4_v1).
body(r_fr4_8,fr4_z1).
body(r_fr4_8,fr4_z2).
head(r_fr4_9,fr4_s3).
body(r_fr4_9,fr4_c4).
body(r_fr4_9,fr4_f3).
body(r_fr4_9,fr4_p2).
body(r_fr4_9,fr4_q1).
body(r_fr4_9,fr4_v2).
head(r_fr4_10,fr4_s3).
body(r_fr4_10,fr4_p5).
body(r_fr4_10,fr4_s4).
body(r_fr4_10,fr25_w1).
body(r_fr4_10,fr4_x3).
head(r_fr4_11,fr4_s3).
body(r_fr4_11,fr4_b3).
body(r_fr4_11,fr3_a3).
body(r_fr4_11,fr4_z4).
head(r_fr4_12,fr4_s3).
body(r_fr4_12,fr4_p3).
body(r_fr4_12,fr4_q4).
body(r_fr4_12,fr5_s1).
head(r_fr4_13,fr4_s3).
body(r_fr4_13,fr4_b5).
body(r_fr4_13,fr4_e2).
head(r_fr4_14,fr4_s3).
body(r_fr4_14,fr4_a5).
body(r_fr4_14,fr4_c5).
body(r_fr4_14,fr4_d2).
body(r_fr4_14,fr4_e4).
body(r_fr4_14,fr4_f1).
body(r_fr4_14,fr4_f2).
body(r_fr4_14,fr4_r3).
body(r_fr4_14,fr4_s5).
body(r_fr4_14,fr4_x2).
body(r_fr4_14,fr4_x4).
body(r_fr4_14,fr17_u1).
head(r_fr4_15,fr4_s3).
body(r_fr4_15,fr4_b4).
body(r_fr4_15,fr4_c2).
body(r_fr4_15,fr23_x4).
head(r_fr4_16,fr4_s3).
body(r_fr4_16,fr3_a1).
body(r_fr4_16,fr4_a4).
body(r_fr4_16,fr4_b4).
body(r_fr4_16,fr4_c4).
body(r_fr4_16,fr4_e3).
body(r_fr4_16,fr4_e5).
body(r_fr4_16,fr4_q4).
body(r_fr4_16,fr4_r2).
head(r_fr4_17,fr4_s3).
body(r_fr4_17,fr4_b1).
body(r_fr4_17,fr23_x4).
body(r_fr4_17,fr4_s4).
body(r_fr4_17,fr4_v2).
head(r_fr4_18,fr4_s3).
body(r_fr4_18,fr4_d5).
body(r_fr4_18,fr4_t2).
head(r_fr4_19,fr4_r3).
body(r_fr4_19,fr4_a3).
body(r_fr4_19,fr4_b3).
body(r_fr4_19,fr4_b5).
body(r_fr4_19,fr4_d2).
body(r_fr4_19,fr4_e5).
body(r_fr4_19,fr4_r4).
body(r_fr4_19,fr23_x4).
body(r_fr4_19,fr4_x4).
head(r_fr4_20,fr4_r3).
body(r_fr4_20,fr4_b3).
body(r_fr4_20,fr4_e2).
head(r_fr4_21,fr4_r3).
body(r_fr4_21,fr4_p1).
body(r_fr4_21,fr4_p2).
body(r_fr4_21,fr25_p3).
body(r_fr4_21,fr4_q4).
body(r_fr4_21,fr4_r5).
body(r_fr4_21,fr4_s1).
body(r_fr4_21,fr4_t5).
body(r_fr4_21,fr4_v3).
body(r_fr4_21,fr4_v4).
body(r_fr4_21,fr4_x2).
body(r_fr4_21,fr4_z1).
head(r_fr4_22,fr4_r3).
head(r_fr4_23,fr23_x4).
body(r_fr4_23,fr4_b3).
body(r_fr4_23,fr4_f1).
body(r_fr4_23,fr4_r2).
body(r_fr4_23,fr4_r4).
body(r_fr4_23,fr4_w1).
head(r_fr4_24,fr23_x4).
body(r_fr4_24,fr4_f1).
body(r_fr4_24,fr4_t1).
body(r_fr4_24,fr4_v2).
head(r_fr4_25,fr23_x4).
body(r_fr4_25,fr3_a1).
body(r_fr4_25,fr4_d3).
body(r_fr4_25,fr4_z3).
head(r_fr4_26,fr23_x4).
body(r_fr4_26,fr4_e2).
head(r_fr4_27,fr4_z3).
body(r_fr4_27,fr4_p2).
body(r_fr4_27,fr4_q5).
body(r_fr4_27,fr4_t1).
head(r_fr4_28,fr4_z3).
body(r_fr4_28,fr18_a1).
body(r_fr4_28,fr7_a1).
body(r_fr4_28,fr4_r2).
body(r_fr4_28,fr4_s3).
body(r_fr4_28,fr25_w1).
body(r_fr4_28,fr4_x1).
head(r_fr4_29,fr4_z3).
body(r_fr4_29,fr4_a3).
body(r_fr4_29,fr4_a4).
body(r_fr4_29,fr4_b1).
body(r_fr4_29,fr4_b5).
body(r_fr4_29,fr4_e3).
body(r_fr4_29,fr18_a1).
body(r_fr4_29,fr4_p1).
body(r_fr4_29,fr4_v4).
body(r_fr4_29,fr4_x4).
body(r_fr4_29,fr4_y4).
head(r_fr4_30,fr4_z3).
body(r_fr4_30,fr3_a1).
body(r_fr4_30,fr4_b3).
body(r_fr4_30,fr4_c5).
body(r_fr4_30,fr12_f1).
body(r_fr4_30,fr4_e1).
body(r_fr4_30,fr4_e4).
body(r_fr4_30,fr4_f2).
body(r_fr4_30,fr4_r3).
body(r_fr4_30,fr17_u1).
body(r_fr4_30,fr4_z2).
head(r_fr4_31,fr4_z3).
body(r_fr4_31,fr4_d3).
body(r_fr4_31,fr4_e3).
body(r_fr4_31,fr4_p3).
head(r_fr4_32,fr4_t4).
body(r_fr4_32,fr4_c1).
body(r_fr4_32,fr4_r3).
body(r_fr4_32,fr4_s2).
body(r_fr4_32,fr4_u1).
body(r_fr4_32,fr4_w2).
body(r_fr4_32,fr4_y3).
head(r_fr4_33,fr4_t4).
body(r_fr4_33,fr4_b5).
body(r_fr4_33,fr4_c4).
body(r_fr4_33,fr4_f2).
body(r_fr4_33,fr4_q1).
body(r_fr4_33,fr4_s2).
body(r_fr4_33,fr4_u1).
body(r_fr4_33,fr4_v2).
body(r_fr4_33,fr4_v4).
body(r_fr4_33,fr4_z2).
head(r_fr4_34,fr4_t4).
body(r_fr4_34,fr4_b3).
body(r_fr4_34,fr3_a3).
body(r_fr4_34,fr4_d2).
body(r_fr4_34,fr4_d3).
body(r_fr4_34,fr4_q2).
body(r_fr4_34,fr4_t1).
body(r_fr4_34,fr4_u1).
body(r_fr4_34,fr4_v4).
body(r_fr4_34,fr17_u1).
head(r_fr4_35,fr4_t4).
body(r_fr4_35,fr4_q1).
body(r_fr4_35,fr5_s1).
body(r_fr4_35,fr4_x3).
head(r_fr4_36,fr4_t4).
body(r_fr4_36,fr4_a3).
body(r_fr4_36,fr4_a5).
body(r_fr4_36,fr3_a3).
body(r_fr4_36,fr4_e1).
body(r_fr4_36,fr4_e2).
body(r_fr4_36,fr4_r2).
body(r_fr4_36,fr4_s3).
body(r_fr4_36,fr4_u1).
body(r_fr4_36,fr4_v2).
head(r_fr4_37,fr4_t4).
body(r_fr4_37,fr5_s1).
head(r_fr4_38,fr4_t4).
body(r_fr4_38,fr4_d4).
body(r_fr4_38,fr23_x4).
body(r_fr4_38,fr4_t1).
body(r_fr4_38,fr4_y4).
head(r_fr4_39,fr4_t4).
body(r_fr4_39,fr4_b5).
body(r_fr4_39,fr4_c2).
body(r_fr4_39,fr4_c5).
body(r_fr4_39,fr4_s1).
head(r_fr4_40,fr4_t4).
body(r_fr4_40,fr4_b3).
head(r_fr4_41,fr4_t4).
body(r_fr4_41,fr4_c4).
head(r_fr4_42,fr4_q3).
body(r_fr4_42,fr3_a1).
body(r_fr4_42,fr4_a3).
body(r_fr4_42,fr4_a4).
body(r_fr4_42,fr4_b3).
body(r_fr4_42,fr4_d4).
body(r_fr4_42,fr4_d5).
body(r_fr4_42,fr4_e3).
body(r_fr4_42,fr4_e5).
body(r_fr4_42,fr4_f3).
head(r_fr4_43,fr4_q3).
body(r_fr4_43,fr4_b3).
body(r_fr4_43,fr4_c2).
body(r_fr4_43,fr4_d4).
body(r_fr4_43,fr4_f2).
body(r_fr4_43,fr4_f3).
body(r_fr4_43,fr4_p1).
body(r_fr4_43,fr4_p3).
body(r_fr4_43,fr4_u5).
body(r_fr4_43,fr4_x2).
head(r_fr4_44,fr4_q3).
body(r_fr4_44,fr4_s1).
body(r_fr4_44,fr4_s3).
body(r_fr4_44,fr4_u3).
body(r_fr4_44,fr4_w2).
body(r_fr4_44,fr4_x2).
body(r_fr4_44,fr4_z1).
head(r_fr4_45,fr4_q3).
body(r_fr4_45,fr4_s5).
body(r_fr4_45,fr5_s1).
body(r_fr4_45,fr4_v2).
body(r_fr4_45,fr4_v4).
head(r_fr4_46,fr4_q3).
body(r_fr4_46,fr4_q2).
body(r_fr4_46,fr4_t5).
head(r_fr4_47,fr4_q3).
body(r_fr4_47,fr4_p5).
body(r_fr4_47,fr4_s1).
body(r_fr4_47,fr4_w2).
body(r_fr4_47,fr4_x1).
head(r_fr4_48,fr4_r4).
body(r_fr4_48,fr4_b2).
body(r_fr4_48,fr4_c1).
body(r_fr4_48,fr3_a3).
body(r_fr4_48,fr4_c4).
body(r_fr4_48,fr4_e4).
body(r_fr4_48,fr4_w1).
head(r_fr4_49,fr4_r4).
body(r_fr4_49,fr4_b2).
body(r_fr4_49,fr12_f1).
body(r_fr4_49,fr4_e4).
body(r_fr4_49,fr7_a1).
body(r_fr4_49,fr4_y3).
head(r_fr4_50,fr4_r4).
body(r_fr4_50,fr4_c1).
body(r_fr4_50,fr12_f1).
body(r_fr4_50,fr4_s3).
body(r_fr4_50,fr4_t2).
body(r_fr4_50,fr4_u1).
body(r_fr4_50,fr4_v4).
body(r_fr4_50,fr4_w2).
body(r_fr4_50,fr4_x2).
body(r_fr4_50,fr4_x3).
body(r_fr4_50,fr4_y1).
body(r_fr4_50,fr4_y4).
head(r_fr4_51,fr4_r4).
body(r_fr4_51,fr4_u5).
body(r_fr4_51,fr25_w1).
body(r_fr4_51,fr4_y3).
head(r_fr4_52,fr4_r4).
body(r_fr4_52,fr4_b4).
body(r_fr4_52,fr4_d3).
head(r_fr4_53,fr4_r4).
body(r_fr4_53,fr4_p1).
body(r_fr4_53,fr4_q1).
body(r_fr4_53,fr4_s3).
body(r_fr4_53,fr5_s1).
body(r_fr4_53,fr4_v2).
body(r_fr4_53,fr4_w3).
head(r_fr4_54,fr4_r4).
body(r_fr4_54,fr4_f3).
body(r_fr4_54,fr4_q4).
head(r_fr4_55,fr4_q2).
body(r_fr4_55,fr3_a1).
body(r_fr4_55,fr4_e5).
body(r_fr4_55,fr4_f1).
head(r_fr4_56,fr4_q2).
body(r_fr4_56,fr18_a1).
body(r_fr4_56,fr4_q3).
body(r_fr4_56,fr23_x4).
body(r_fr4_56,fr4_u3).
body(r_fr4_56,fr4_w2).
head(r_fr4_57,fr4_q2).
body(r_fr4_57,fr4_e1).
body(r_fr4_57,fr4_e4).
body(r_fr4_57,fr4_q5).
body(r_fr4_57,fr4_r3).
body(r_fr4_57,fr4_r4).
body(r_fr4_57,fr5_s1).
body(r_fr4_57,fr4_v3).
body(r_fr4_57,fr4_v4).
body(r_fr4_57,fr4_x1).
body(r_fr4_57,fr4_z1).
head(r_fr4_58,fr4_q2).
body(r_fr4_58,fr4_d4).
body(r_fr4_58,fr23_x4).
body(r_fr4_58,fr4_w1).
head(r_fr4_59,fr4_x3).
body(r_fr4_59,fr4_b4).
body(r_fr4_59,fr4_e2).
body(r_fr4_59,fr4_f1).
body(r_fr4_59,fr4_q5).
head(r_fr4_60,fr4_x3).
body(r_fr4_60,fr4_a3).
body(r_fr4_60,fr4_a4).
body(r_fr4_60,fr4_b2).
body(r_fr4_60,fr4_b3).
body(r_fr4_60,fr4_c5).
body(r_fr4_60,fr4_d4).
body(r_fr4_60,fr4_f3).
body(r_fr4_60,fr7_a1).
body(r_fr4_60,fr23_x4).
body(r_fr4_60,fr4_x4).
head(r_fr4_61,fr4_v1).
body(r_fr4_61,fr4_d4).
body(r_fr4_61,fr4_r2).
body(r_fr4_61,fr4_s1).
body(r_fr4_61,fr4_s2).
body(r_fr4_61,fr23_x4).
body(r_fr4_61,fr5_s1).
body(r_fr4_61,fr4_x3).
body(r_fr4_61,fr4_z3).
head(r_fr4_62,fr4_v1).
body(r_fr4_62,fr4_e2).
body(r_fr4_62,fr4_e3).
body(r_fr4_62,fr4_e4).
body(r_fr4_62,fr4_q2).
body(r_fr4_62,fr4_q3).
body(r_fr4_62,fr4_s1).
body(r_fr4_62,fr4_s2).
body(r_fr4_62,fr4_u5).
body(r_fr4_62,fr4_v3).
head(r_fr4_63,fr4_v1).
head(r_fr4_64,fr4_v1).
body(r_fr4_64,fr4_a3).
body(r_fr4_64,fr4_a5).
body(r_fr4_64,fr4_c1).
body(r_fr4_64,fr3_a3).
body(r_fr4_64,fr4_e1).
body(r_fr4_64,fr4_e4).
body(r_fr4_64,fr4_e5).
body(r_fr4_64,fr7_a1).
body(r_fr4_64,fr4_x1).
body(r_fr4_64,fr4_z1).
head(r_fr4_65,fr4_v1).
body(r_fr4_65,fr4_b3).
body(r_fr4_65,fr4_e2).
body(r_fr4_65,fr4_q2).
body(r_fr4_65,fr4_q5).
body(r_fr4_65,fr4_r5).
body(r_fr4_65,fr4_t2).
body(r_fr4_65,fr23_x4).
body(r_fr4_65,fr4_w1).
body(r_fr4_65,fr4_y1).
body(r_fr4_65,fr4_z1).
body(r_fr4_65,fr4_z3).
head(r_fr4_66,fr17_u1).
body(r_fr4_66,fr4_b2).
body(r_fr4_66,fr4_d3).
body(r_fr4_66,fr4_t1).
body(r_fr4_66,fr4_u1).
body(r_fr4_66,fr5_s1).
body(r_fr4_66,fr4_x2).
body(r_fr4_66,fr4_x3).
head(r_fr4_67,fr17_u1).
body(r_fr4_67,fr4_p3).
head(r_fr4_68,fr17_u1).
body(r_fr4_68,fr4_a1).
body(r_fr4_68,fr4_a3).
body(r_fr4_68,fr4_f1).
body(r_fr4_68,fr4_u5).
head(r_fr4_69,fr17_u1).
body(r_fr4_69,fr4_a1).
body(r_fr4_69,fr3_a1).
body(r_fr4_69,fr4_a4).
body(r_fr4_69,fr4_b3).
body(r_fr4_69,fr4_c4).
body(r_fr4_69,fr4_c5).
body(r_fr4_69,fr4_d4).
body(r_fr4_69,fr4_d5).
body(r_fr4_69,fr4_e2).
body(r_fr4_69,fr4_e5).
body(r_fr4_69,fr4_f3).
head(r_fr4_70,fr17_u1).
body(r_fr4_70,fr12_f1).
body(r_fr4_70,fr4_f3).
body(r_fr4_70,fr7_a1).
head(r_fr4_71,fr17_u1).
body(r_fr4_71,fr4_a1).
body(r_fr4_71,fr4_b5).
body(r_fr4_71,fr4_d4).
body(r_fr4_71,fr4_e1).
body(r_fr4_71,fr4_p3).
body(r_fr4_71,fr4_s3).
body(r_fr4_71,fr4_t2).
body(r_fr4_71,fr4_t3).
body(r_fr4_71,fr4_w1).
head(r_fr4_72,fr25_w1).
body(r_fr4_72,fr4_c2).
body(r_fr4_72,fr4_e5).
body(r_fr4_72,fr18_a1).
body(r_fr4_72,fr4_w3).
head(r_fr4_73,fr25_w1).
body(r_fr4_73,fr3_a1).
body(r_fr4_73,fr4_a4).
body(r_fr4_73,fr4_b2).
body(r_fr4_73,fr4_c2).
body(r_fr4_73,fr4_e5).
body(r_fr4_73,fr4_f1).
body(r_fr4_73,fr4_q2).
body(r_fr4_73,fr4_u3).
body(r_fr4_73,fr17_u1).
body(r_fr4_73,fr4_y4).
head(r_fr4_74,fr25_w1).
body(r_fr4_74,fr4_q4).
body(r_fr4_74,fr4_t5).
body(r_fr4_74,fr4_u1).
body(r_fr4_74,fr4_v1).
body(r_fr4_74,fr4_w1).
body(r_fr4_74,fr4_w3).
body(r_fr4_74,fr4_y1).
body(r_fr4_74,fr4_z2).
head(r_fr4_75,fr25_w1).
body(r_fr4_75,fr3_a1).
body(r_fr4_75,fr4_c4).
body(r_fr4_75,fr4_e4).
body(r_fr4_75,fr4_f1).
body(r_fr4_75,fr4_f2).
body(r_fr4_75,fr4_t5).
head(r_fr4_76,fr25_w1).
body(r_fr4_76,fr12_f1).
body(r_fr4_76,fr4_d3).
body(r_fr4_76,fr4_p3).
body(r_fr4_76,fr4_u3).
body(r_fr4_76,fr4_v2).
body(r_fr4_76,fr4_w3).
body(r_fr4_76,fr4_z2).
head(r_fr4_77,fr25_w1).
body(r_fr4_77,fr3_a1).
body(r_fr4_77,fr4_b4).
body(r_fr4_77,fr3_a3).
body(r_fr4_77,fr4_e5).
head(r_fr4_78,fr25_w1).
body(r_fr4_78,fr4_a4).
body(r_fr4_78,fr4_s3).
body(r_fr4_78,fr4_u1).
body(r_fr4_78,fr4_u5).
body(r_fr4_78,fr4_v2).
body(r_fr4_78,fr4_w2).
head(r_fr4_79,fr25_w1).
body(r_fr4_79,fr4_c1).
body(r_fr4_79,fr4_v4).
body(r_fr4_79,fr4_x1).
body(r_fr4_79,fr4_x3).
body(r_fr4_79,fr4_z2).
head(r_fr4_80,fr25_w1).
body(r_fr4_80,fr4_b2).
body(r_fr4_80,fr3_a3).
body(r_fr4_80,fr4_d3).
body(r_fr4_80,fr4_e1).
body(r_fr4_80,fr4_e2).
body(r_fr4_80,fr4_e3).
body(r_fr4_80,fr4_e4).
head(r_fr4_81,fr25_w1).
body(r_fr4_81,fr4_p5).
head(r_fr4_82,fr4_w3).
body(r_fr4_82,fr4_b5).
body(r_fr4_82,fr5_s1).
head(r_fr4_83,fr4_w3).
body(r_fr4_83,fr4_a3).
body(r_fr4_83,fr4_b1).
body(r_fr4_83,fr4_b3).
body(r_fr4_83,fr4_d4).
body(r_fr4_83,fr4_f3).
head(r_fr4_84,fr4_q1).
body(r_fr4_84,fr4_d5).
body(r_fr4_84,fr18_a1).
body(r_fr4_84,fr4_q3).
body(r_fr4_84,fr4_r5).
body(r_fr4_84,fr4_t5).
body(r_fr4_84,fr4_u1).
body(r_fr4_84,fr4_w3).
body(r_fr4_84,fr4_x3).
body(r_fr4_84,fr4_z2).
head(r_fr4_85,fr4_q1).
head(r_fr4_86,fr4_q1).
body(r_fr4_86,fr3_a1).
body(r_fr4_86,fr18_a1).
body(r_fr4_86,fr23_x4).
body(r_fr4_86,fr4_s4).
body(r_fr4_86,fr4_t1).
body(r_fr4_86,fr4_t2).
body(r_fr4_86,fr4_t5).
body(r_fr4_86,fr4_z3).
head(r_fr4_87,fr4_q1).
body(r_fr4_87,fr4_a5).
body(r_fr4_87,fr4_d3).
body(r_fr4_87,fr4_e2).
body(r_fr4_87,fr4_e5).
body(r_fr4_87,fr4_f1).
body(r_fr4_87,fr4_p5).
body(r_fr4_87,fr4_s3).
body(r_fr4_87,fr4_t4).
body(r_fr4_87,fr4_z3).
head(r_fr4_88,fr4_q1).
body(r_fr4_88,fr4_a3).
body(r_fr4_88,fr4_a5).
head(r_fr4_89,fr4_q1).
body(r_fr4_89,fr4_d3).
body(r_fr4_89,fr4_y3).
head(r_fr4_90,fr4_q1).
body(r_fr4_90,fr4_b4).
body(r_fr4_90,fr4_c4).
body(r_fr4_90,fr4_f2).
body(r_fr4_90,fr4_r4).
body(r_fr4_90,fr4_s5).
body(r_fr4_90,fr4_t2).
body(r_fr4_90,fr4_u5).
body(r_fr4_90,fr4_w3).
body(r_fr4_90,fr4_x2).
head(r_fr4_91,fr4_q1).
body(r_fr4_91,fr4_s2).
body(r_fr4_91,fr4_s3).
body(r_fr4_91,fr4_t5).
head(r_fr4_92,fr4_q1).
body(r_fr4_92,fr4_b1).
body(r_fr4_92,fr4_b4).
body(r_fr4_92,fr4_c4).
body(r_fr4_92,fr4_e3).
body(r_fr4_92,fr4_e5).
head(r_fr4_93,fr4_t1).
body(r_fr4_93,fr4_b3).
body(r_fr4_93,fr4_b5).
body(r_fr4_93,fr3_a3).
body(r_fr4_93,fr4_c5).
body(r_fr4_93,fr4_d2).
body(r_fr4_93,fr4_d5).
body(r_fr4_93,fr4_e1).
body(r_fr4_93,fr4_e2).
body(r_fr4_93,fr4_s3).
body(r_fr4_93,fr4_u5).
head(r_fr4_94,fr4_t1).
body(r_fr4_94,fr4_a5).
body(r_fr4_94,fr4_b5).
head(r_fr4_95,fr4_t1).
body(r_fr4_95,fr4_a3).
body(r_fr4_95,fr4_a5).
body(r_fr4_95,fr4_c1).
body(r_fr4_95,fr12_f1).
body(r_fr4_95,fr4_d2).
body(r_fr4_95,fr4_f1).
body(r_fr4_95,fr4_r5).
body(r_fr4_95,fr4_z4).
head(r_fr4_96,fr4_t1).
body(r_fr4_96,fr5_s1).
head(r_fr4_97,fr4_t1).
body(r_fr4_97,fr4_p3).
body(r_fr4_97,fr4_q1).
body(r_fr4_97,fr4_q4).
body(r_fr4_97,fr4_r2).
body(r_fr4_97,fr4_x3).
head(r_fr4_98,fr4_t1).
body(r_fr4_98,fr4_b5).
body(r_fr4_98,fr3_a3).
body(r_fr4_98,fr4_c4).
body(r_fr4_98,fr4_e2).
body(r_fr4_98,fr4_f1).
body(r_fr4_98,fr4_f2).
body(r_fr4_98,fr4_z2).
body(r_fr4_98,fr4_z3).
head(r_fr4_99,fr4_t1).
body(r_fr4_99,fr4_b1).
body(r_fr4_99,fr4_e2).
body(r_fr4_99,fr4_f2).
body(r_fr4_99,fr4_p3).
body(r_fr4_99,fr4_q2).
body(r_fr4_99,fr4_s4).
body(r_fr4_99,fr4_u3).
body(r_fr4_99,fr4_v3).
body(r_fr4_99,fr4_y1).
head(r_fr4_100,fr4_t1).
head(r_fr4_101,fr4_w2).
body(r_fr4_101,fr4_a5).
body(r_fr4_101,fr3_a3).
body(r_fr4_101,fr12_f1).
body(r_fr4_101,fr4_d5).
body(r_fr4_101,fr4_f3).
head(r_fr4_102,fr4_w2).
body(r_fr4_102,fr4_b5).
head(r_fr4_103,fr4_w2).
body(r_fr4_103,fr4_a1).
body(r_fr4_103,fr3_a1).
body(r_fr4_103,fr4_c4).
body(r_fr4_103,fr25_p3).
body(r_fr4_103,fr23_x4).
body(r_fr4_103,fr4_r4).
body(r_fr4_103,fr4_x3).
body(r_fr4_103,fr4_z3).
body(r_fr4_103,fr4_z4).
head(r_fr4_104,fr4_w2).
body(r_fr4_104,fr4_a3).
body(r_fr4_104,fr4_b1).
body(r_fr4_104,fr4_b3).
body(r_fr4_104,fr4_d3).
body(r_fr4_104,fr4_d4).
body(r_fr4_104,fr4_e2).
body(r_fr4_104,fr4_e3).
body(r_fr4_104,fr4_f2).
body(r_fr4_104,fr4_f3).
body(r_fr4_104,fr23_x4).
body(r_fr4_104,fr4_z3).
head(r_fr4_105,fr4_w2).
body(r_fr4_105,fr4_e2).
body(r_fr4_105,fr4_t5).
body(r_fr4_105,fr4_u1).
body(r_fr4_105,fr4_u5).
body(r_fr4_105,fr4_v3).
body(r_fr4_105,fr4_v4).
body(r_fr4_105,fr4_x1).
body(r_fr4_105,fr4_x3).
body(r_fr4_105,fr4_x4).
body(r_fr4_105,fr4_y3).
body(r_fr4_105,fr4_z2).
head(r_fr4_106,fr4_w2).
body(r_fr4_106,fr4_a3).
body(r_fr4_106,fr4_c1).
body(r_fr4_106,fr25_p3).
body(r_fr4_106,fr4_q4).
body(r_fr4_106,fr4_t4).
body(r_fr4_106,fr23_x4).
body(r_fr4_106,fr4_u5).
body(r_fr4_106,fr25_w1).
body(r_fr4_106,fr4_x3).
body(r_fr4_106,fr4_y1).
head(r_fr4_107,fr4_x1).
body(r_fr4_107,fr3_a1).
body(r_fr4_107,fr4_e4).
body(r_fr4_107,fr4_q4).
body(r_fr4_107,fr4_r5).
body(r_fr4_107,fr4_s3).
body(r_fr4_107,fr4_t5).
body(r_fr4_107,fr23_x4).
body(r_fr4_107,fr4_v1).
body(r_fr4_107,fr4_v2).
body(r_fr4_107,fr4_v3).
body(r_fr4_107,fr25_w1).
head(r_fr4_108,fr4_x1).
body(r_fr4_108,fr18_a1).
body(r_fr4_108,fr4_s4).
body(r_fr4_108,fr4_v1).
head(r_fr4_109,fr4_x1).
body(r_fr4_109,fr4_u3).
body(r_fr4_109,fr4_x4).
head(r_fr4_110,fr4_x4).
body(r_fr4_110,fr4_a1).
body(r_fr4_110,fr4_e2).
body(r_fr4_110,fr4_q1).
body(r_fr4_110,fr4_t2).
body(r_fr4_110,fr4_w3).
body(r_fr4_110,fr4_x3).
head(r_fr4_111,fr4_x4).
body(r_fr4_111,fr4_e4).
body(r_fr4_111,fr25_p3).
body(r_fr4_111,fr4_r3).
body(r_fr4_111,fr4_v1).
body(r_fr4_111,fr4_w3).
body(r_fr4_111,fr25_w1).
head(r_fr4_112,fr4_x4).
body(r_fr4_112,fr4_d4).
body(r_fr4_112,fr4_d5).
body(r_fr4_112,fr4_f2).
body(r_fr4_112,fr4_p1).
body(r_fr4_112,fr4_q1).
body(r_fr4_112,fr4_q5).
body(r_fr4_112,fr25_w1).
body(r_fr4_112,fr4_x1).
body(r_fr4_112,fr4_y1).
head(r_fr4_113,fr4_p2).
body(r_fr4_113,fr4_a5).
body(r_fr4_113,fr4_c1).
body(r_fr4_113,fr4_d2).
body(r_fr4_113,fr4_e5).
body(r_fr4_113,fr4_p5).
body(r_fr4_113,fr4_q3).
body(r_fr4_113,fr4_y3).
head(r_fr4_114,fr4_p2).
body(r_fr4_114,fr4_d2).
body(r_fr4_114,fr4_r3).
body(r_fr4_114,fr4_s5).
head(r_fr4_115,fr4_p2).
body(r_fr4_115,fr4_f2).
body(r_fr4_115,fr4_s4).
head(r_fr4_116,fr4_p2).
body(r_fr4_116,fr4_c1).
body(r_fr4_116,fr4_s3).
body(r_fr4_116,fr4_w1).
body(r_fr4_116,fr4_y4).
body(r_fr4_116,fr4_z3).
head(r_fr4_117,fr4_p2).
body(r_fr4_117,fr4_s4).
body(r_fr4_117,fr4_w1).
body(r_fr4_117,fr25_w1).
body(r_fr4_117,fr4_z2).
head(r_fr4_118,fr4_p2).
body(r_fr4_118,fr4_b4).
body(r_fr4_118,fr4_c1).
body(r_fr4_118,fr4_c4).
body(r_fr4_118,fr12_f1).
body(r_fr4_118,fr4_d5).
body(r_fr4_118,fr4_e3).
body(r_fr4_118,fr4_e5).
body(r_fr4_118,fr4_f2).
body(r_fr4_118,fr7_a1).
body(r_fr4_118,fr23_x4).
body(r_fr4_118,fr4_v3).
head(r_fr4_119,fr4_p2).
body(r_fr4_119,fr4_b1).
body(r_fr4_119,fr4_c1).
body(r_fr4_119,fr4_q2).
body(r_fr4_119,fr4_s3).
body(r_fr4_119,fr5_s1).
body(r_fr4_119,fr4_w1).
body(r_fr4_119,fr4_w2).
body(r_fr4_119,fr25_w1).
body(r_fr4_119,fr4_x3).
head(r_fr4_120,fr4_p2).
body(r_fr4_120,fr3_a1).
body(r_fr4_120,fr4_b1).
body(r_fr4_120,fr4_c1).
body(r_fr4_120,fr3_a3).
body(r_fr4_120,fr4_e2).
body(r_fr4_120,fr4_q4).
body(r_fr4_120,fr23_x4).
head(r_fr4_121,fr4_p2).
body(r_fr4_121,fr4_a3).
body(r_fr4_121,fr4_b2).
body(r_fr4_121,fr3_a3).
body(r_fr4_121,fr4_d2).
body(r_fr4_121,fr4_e4).
body(r_fr4_121,fr4_f1).
body(r_fr4_121,fr7_a1).
body(r_fr4_121,fr4_s5).
body(r_fr4_121,fr4_y1).
head(r_fr4_122,fr4_s5).
body(r_fr4_122,fr4_a4).
body(r_fr4_122,fr4_b2).
body(r_fr4_122,fr3_a3).
body(r_fr4_122,fr25_p3).
body(r_fr4_122,fr4_s3).
body(r_fr4_122,fr4_w2).
head(r_fr4_123,fr4_s5).
body(r_fr4_123,fr4_b2).
body(r_fr4_123,fr4_e3).
body(r_fr4_123,fr4_s1).
body(r_fr4_123,fr4_t2).
body(r_fr4_123,fr4_y1).
head(r_fr4_124,fr4_v3).
body(r_fr4_124,fr4_e3).
body(r_fr4_124,fr4_q5).
body(r_fr4_124,fr4_r2).
body(r_fr4_124,fr4_w1).
body(r_fr4_124,fr17_u1).
head(r_fr4_125,fr4_v3).
body(r_fr4_125,fr4_t1).
body(r_fr4_125,fr4_u5).
head(r_fr4_126,fr4_t3).
body(r_fr4_126,fr4_b1).
body(r_fr4_126,fr3_a3).
body(r_fr4_126,fr12_f1).
body(r_fr4_126,fr18_a1).
head(r_fr4_127,fr4_t3).
body(r_fr4_127,fr4_a1).
body(r_fr4_127,fr4_a4).
body(r_fr4_127,fr4_b2).
body(r_fr4_127,fr4_e4).
body(r_fr4_127,fr4_p5).
body(r_fr4_127,fr4_t1).
head(r_fr4_128,fr4_t3).
body(r_fr4_128,fr4_b3).
body(r_fr4_128,fr4_c2).
body(r_fr4_128,fr4_d4).
body(r_fr4_128,fr4_q2).
body(r_fr4_128,fr4_q4).
body(r_fr4_128,fr4_r5).
head(r_fr4_129,fr4_t3).
body(r_fr4_129,fr4_q2).
body(r_fr4_129,fr4_v2).
body(r_fr4_129,fr4_v4).
body(r_fr4_129,fr4_w3).
body(r_fr4_129,fr4_x1).
body(r_fr4_129,fr4_z2).
body(r_fr4_129,fr4_z3).
head(r_fr4_130,fr4_t3).
body(r_fr4_130,fr4_a1).
body(r_fr4_130,fr3_a3).
body(r_fr4_130,fr4_c4).
body(r_fr4_130,fr4_d3).
body(r_fr4_130,fr4_e1).
head(r_fr4_131,fr4_t3).
body(r_fr4_131,fr4_a5).
body(r_fr4_131,fr4_b3).
body(r_fr4_131,fr3_a3).
body(r_fr4_131,fr4_d2).
body(r_fr4_131,fr4_e5).
body(r_fr4_131,fr18_a1).
body(r_fr4_131,fr4_p2).
body(r_fr4_131,fr4_x4).
head(r_fr4_132,fr4_r5).
body(r_fr4_132,fr4_a1).
body(r_fr4_132,fr4_b2).
body(r_fr4_132,fr4_c4).
body(r_fr4_132,fr4_d5).
body(r_fr4_132,fr4_e5).
body(r_fr4_132,fr4_f1).
head(r_fr4_133,fr4_r5).
body(r_fr4_133,fr4_e3).
body(r_fr4_133,fr4_t5).
head(r_fr4_134,fr4_r5).
body(r_fr4_134,fr4_r3).
body(r_fr4_134,fr5_s1).
head(r_fr4_135,fr4_r5).
body(r_fr4_135,fr4_a4).
body(r_fr4_135,fr12_f1).
body(r_fr4_135,fr4_e2).
body(r_fr4_135,fr4_e3).
body(r_fr4_135,fr18_a1).
body(r_fr4_135,fr4_p5).
body(r_fr4_135,fr4_q4).
body(r_fr4_135,fr4_w3).
body(r_fr4_135,fr17_u1).
head(r_fr4_136,fr4_r5).
body(r_fr4_136,fr4_a4).
body(r_fr4_136,fr4_b5).
body(r_fr4_136,fr4_c5).
body(r_fr4_136,fr4_e3).
body(r_fr4_136,fr4_f2).
body(r_fr4_136,fr4_p1).
body(r_fr4_136,fr4_v1).
body(r_fr4_136,fr4_z3).
head(r_fr4_137,fr4_r5).
head(r_fr4_138,fr4_q5).
body(r_fr4_138,fr4_b3).
body(r_fr4_138,fr4_e3).
body(r_fr4_138,fr18_a1).
body(r_fr4_138,fr4_s5).
body(r_fr4_138,fr4_v4).
head(r_fr4_139,fr4_q5).
body(r_fr4_139,fr4_a3).
body(r_fr4_139,fr4_b1).
body(r_fr4_139,fr4_b5).
body(r_fr4_139,fr4_f1).
head(r_fr4_140,fr4_q4).
body(r_fr4_140,fr3_a1).
body(r_fr4_140,fr4_a5).
body(r_fr4_140,fr4_c1).
body(r_fr4_140,fr4_c2).
body(r_fr4_140,fr4_d2).
body(r_fr4_140,fr4_d3).
body(r_fr4_140,fr4_e1).
body(r_fr4_140,fr4_f3).
body(r_fr4_140,fr4_q2).
body(r_fr4_140,fr4_v4).
head(r_fr4_141,fr4_q4).
body(r_fr4_141,fr4_p1).
body(r_fr4_141,fr4_t4).
body(r_fr4_141,fr4_w1).
body(r_fr4_141,fr17_u1).
head(r_fr4_142,fr4_q4).
body(r_fr4_142,fr4_a3).
body(r_fr4_142,fr4_d5).
body(r_fr4_142,fr4_f3).
body(r_fr4_142,fr7_a1).
body(r_fr4_142,fr25_p3).
body(r_fr4_142,fr4_r2).
body(r_fr4_142,fr4_s3).
body(r_fr4_142,fr4_u1).
body(r_fr4_142,fr4_v1).
body(r_fr4_142,fr4_x1).
body(r_fr4_142,fr4_x3).
head(r_fr4_143,fr4_q4).
body(r_fr4_143,fr4_q1).
body(r_fr4_143,fr4_r2).
body(r_fr4_143,fr23_x4).
head(r_fr4_144,fr5_s1).
body(r_fr4_144,fr4_b2).
body(r_fr4_144,fr4_d3).
body(r_fr4_144,fr4_p3).
body(r_fr4_144,fr4_r3).
body(r_fr4_144,fr4_t4).
body(r_fr4_144,fr4_v1).
head(r_fr4_145,fr5_s1).
body(r_fr4_145,fr4_f3).
body(r_fr4_145,fr4_t1).
body(r_fr4_145,fr4_u3).
head(r_fr4_146,fr5_s1).
body(r_fr4_146,fr4_e4).
body(r_fr4_146,fr18_a1).
body(r_fr4_146,fr4_u5).
head(r_fr4_147,fr5_s1).
body(r_fr4_147,fr3_a1).
body(r_fr4_147,fr4_a3).
body(r_fr4_147,fr4_a5).
body(r_fr4_147,fr4_d2).
body(r_fr4_147,fr4_e1).
body(r_fr4_147,fr4_e2).
body(r_fr4_147,fr4_e3).
body(r_fr4_147,fr4_e4).
body(r_fr4_147,fr18_a1).
body(r_fr4_147,fr4_x3).
head(r_fr4_148,fr5_s1).
body(r_fr4_148,fr4_a1).
body(r_fr4_148,fr4_a5).
body(r_fr4_148,fr4_c5).
body(r_fr4_148,fr4_e2).
body(r_fr4_148,fr4_e5).
head(r_fr4_149,fr5_s1).
body(r_fr4_149,fr4_b3).
body(r_fr4_149,fr4_d3).
body(r_fr4_149,fr4_d5).
body(r_fr4_149,fr4_f1).
body(r_fr4_149,fr4_f2).
body(r_fr4_149,fr18_a1).
body(r_fr4_149,fr23_x4).
body(r_fr4_149,fr4_s5).
head(r_fr4_150,fr4_s4).
body(r_fr4_150,fr4_d4).
body(r_fr4_150,fr4_e1).
body(r_fr4_150,fr4_p3).
body(r_fr4_150,fr4_t3).
body(r_fr4_150,fr4_v1).
head(r_fr4_151,fr4_s4).
body(r_fr4_151,fr4_t3).
body(r_fr4_151,fr4_w3).
body(r_fr4_151,fr4_x4).
body(r_fr4_151,fr4_z3).
head(r_fr4_152,fr25_p3).
body(r_fr4_152,fr4_a3).
body(r_fr4_152,fr4_b4).
body(r_fr4_152,fr4_c2).
body(r_fr4_152,fr4_d3).
body(r_fr4_152,fr4_e3).
body(r_fr4_152,fr4_f2).
body(r_fr4_152,fr4_p1).
body(r_fr4_152,fr4_s2).
body(r_fr4_152,fr4_x2).
body(r_fr4_152,fr4_y4).
head(r_fr4_153,fr25_p3).
body(r_fr4_153,fr4_a3).
body(r_fr4_153,fr4_b5).
body(r_fr4_153,fr4_c4).
body(r_fr4_153,fr4_e4).
body(r_fr4_153,fr4_p3).
body(r_fr4_153,fr23_x4).
body(r_fr4_153,fr4_x1).
head(r_fr4_154,fr25_p3).
body(r_fr4_154,fr4_a1).
body(r_fr4_154,fr3_a1).
body(r_fr4_154,fr4_b1).
body(r_fr4_154,fr4_b2).
body(r_fr4_154,fr4_e5).
body(r_fr4_154,fr4_q5).
body(r_fr4_154,fr4_r4).
body(r_fr4_154,fr5_s1).
body(r_fr4_154,fr4_y4).
head(r_fr4_155,fr25_p3).
body(r_fr4_155,fr4_b1).
body(r_fr4_155,fr4_c2).
body(r_fr4_155,fr4_e4).
body(r_fr4_155,fr18_a1).
body(r_fr4_155,fr4_q5).
head(r_fr4_156,fr25_p3).
body(r_fr4_156,fr4_b2).
body(r_fr4_156,fr4_c2).
body(r_fr4_156,fr4_e2).
body(r_fr4_156,fr4_f2).
body(r_fr4_156,fr4_q2).
body(r_fr4_156,fr4_t3).
body(r_fr4_156,fr4_u3).
head(r_fr4_157,fr25_p3).
body(r_fr4_157,fr4_b1).
body(r_fr4_157,fr7_a1).
body(r_fr4_157,fr4_p5).
body(r_fr4_157,fr4_r3).
body(r_fr4_157,fr4_w2).
body(r_fr4_157,fr25_w1).
body(r_fr4_157,fr4_z2).
body(r_fr4_157,fr4_z3).
head(r_fr4_158,fr25_p3).
body(r_fr4_158,fr3_a1).
body(r_fr4_158,fr4_b1).
body(r_fr4_158,fr4_b3).
body(r_fr4_158,fr4_c2).
body(r_fr4_158,fr4_c5).
body(r_fr4_158,fr4_d3).
body(r_fr4_158,fr4_d5).
body(r_fr4_158,fr4_e4).
body(r_fr4_158,fr4_f1).
body(r_fr4_158,fr7_a1).
head(r_fr4_159,fr23_x4).
body(r_fr4_159,fr4_b1).
body(r_fr4_159,fr4_b4).
body(r_fr4_159,fr4_c4).
body(r_fr4_159,fr12_f1).
body(r_fr4_159,fr4_d4).
body(r_fr4_159,fr4_d5).
body(r_fr4_159,fr4_f2).
body(r_fr4_159,fr18_a1).
body(r_fr4_159,fr4_p2).
body(r_fr4_159,fr4_r2).
head(r_fr4_160,fr23_x4).
body(r_fr4_160,fr3_a1).
body(r_fr4_160,fr4_a5).
body(r_fr4_160,fr4_b1).
body(r_fr4_160,fr4_b3).
body(r_fr4_160,fr4_b4).
body(r_fr4_160,fr3_a3).
body(r_fr4_160,fr12_f1).
body(r_fr4_160,fr7_a1).
body(r_fr4_160,fr4_y4).
head(r_fr4_161,fr23_x4).
body(r_fr4_161,fr4_b4).
body(r_fr4_161,fr4_s2).
head(r_fr4_162,fr23_x4).
body(r_fr4_162,fr4_a3).
body(r_fr4_162,fr4_b4).
body(r_fr4_162,fr4_c1).
body(r_fr4_162,fr3_a3).
body(r_fr4_162,fr4_d2).
body(r_fr4_162,fr4_d5).
body(r_fr4_162,fr4_e1).
body(r_fr4_162,fr4_e5).
body(r_fr4_162,fr7_a1).
body(r_fr4_162,fr4_u3).
head(r_fr4_163,fr23_x4).
body(r_fr4_163,fr3_a1).
body(r_fr4_163,fr4_c4).
body(r_fr4_163,fr4_e1).
body(r_fr4_163,fr4_e5).
body(r_fr4_163,fr18_a1).
body(r_fr4_163,fr25_p3).
body(r_fr4_163,fr4_r5).
head(r_fr4_164,fr23_x4).
body(r_fr4_164,fr4_b3).
body(r_fr4_164,fr4_b5).
body(r_fr4_164,fr4_d5).
body(r_fr4_164,fr18_a1).
body(r_fr4_164,fr4_p5).
body(r_fr4_164,fr4_q4).
body(r_fr4_164,fr4_s2).
body(r_fr4_164,fr4_t2).
body(r_fr4_164,fr4_x3).
body(r_fr4_164,fr4_y3).
head(r_fr4_165,fr23_x4).
body(r_fr4_165,fr4_e2).
body(r_fr4_165,fr4_r2).
body(r_fr4_165,fr4_r5).
body(r_fr4_165,fr4_t3).
body(r_fr4_165,fr4_w3).
body(r_fr4_165,fr17_u1).
head(r_fr4_166,fr23_x4).
head(r_fr4_167,fr23_x4).
body(r_fr4_167,fr4_b5).
body(r_fr4_167,fr4_c2).
body(r_fr4_167,fr4_c4).
body(r_fr4_167,fr12_f1).
body(r_fr4_167,fr4_d5).
body(r_fr4_167,fr4_e4).
body(r_fr4_167,fr4_e5).
body(r_fr4_167,fr7_a1).
body(r_fr4_167,fr4_v1).
head(r_fr4_168,fr4_s2).
body(r_fr4_168,fr4_b1).
body(r_fr4_168,fr4_b2).
body(r_fr4_168,fr4_d5).
body(r_fr4_168,fr4_e4).
body(r_fr4_168,fr4_p1).
body(r_fr4_168,fr4_q2).
body(r_fr4_168,fr4_t2).
body(r_fr4_168,fr4_u3).
body(r_fr4_168,fr4_w3).
body(r_fr4_168,fr4_x4).
body(r_fr4_168,fr4_z4).
head(r_fr4_169,fr4_s2).
head(r_fr4_170,fr4_s2).
body(r_fr4_170,fr4_f1).
body(r_fr4_170,fr4_p1).
body(r_fr4_170,fr25_p3).
body(r_fr4_170,fr4_t4).
body(r_fr4_170,fr4_v2).
head(r_fr4_171,fr4_s2).
body(r_fr4_171,fr4_d5).
head(r_fr4_172,fr4_s2).
body(r_fr4_172,fr4_a3).
body(r_fr4_172,fr4_a4).
body(r_fr4_172,fr4_b5).
body(r_fr4_172,fr4_c4).
body(r_fr4_172,fr12_f1).
body(r_fr4_172,fr4_d5).
body(r_fr4_172,fr4_e3).
body(r_fr4_172,fr4_e5).
body(r_fr4_172,fr4_f1).
body(r_fr4_172,fr4_q4).
body(r_fr4_172,fr4_w2).
head(r_fr4_173,fr4_s2).
body(r_fr4_173,fr4_a3).
body(r_fr4_173,fr4_a4).
body(r_fr4_173,fr4_b1).
body(r_fr4_173,fr4_b3).
body(r_fr4_173,fr3_a3).
body(r_fr4_173,fr4_e4).
body(r_fr4_173,fr4_e5).
body(r_fr4_173,fr4_f1).
body(r_fr4_173,fr7_a1).
body(r_fr4_173,fr4_p3).
body(r_fr4_173,fr4_z3).
head(r_fr4_174,fr4_s2).
body(r_fr4_174,fr4_a1).
body(r_fr4_174,fr4_b4).
body(r_fr4_174,fr4_p1).
body(r_fr4_174,fr4_r5).
body(r_fr4_174,fr4_t1).
body(r_fr4_174,fr4_w1).
body(r_fr4_174,fr17_u1).
head(r_fr4_175,fr4_s2).
body(r_fr4_175,fr4_a3).
body(r_fr4_175,fr4_c2).
body(r_fr4_175,fr3_a3).
body(r_fr4_175,fr4_e5).
body(r_fr4_175,fr4_p3).
body(r_fr4_175,fr4_t5).
body(r_fr4_175,fr4_u5).
body(r_fr4_175,fr4_v1).
body(r_fr4_175,fr4_w2).
body(r_fr4_175,fr25_w1).
body(r_fr4_175,fr4_y4).
head(r_fr4_176,fr4_s2).
body(r_fr4_176,fr4_s4).
body(r_fr4_176,fr4_u3).
body(r_fr4_176,fr4_w2).
body(r_fr4_176,fr25_w1).
body(r_fr4_176,fr4_z2).
head(r_fr4_177,fr4_s2).
body(r_fr4_177,fr4_d4).
body(r_fr4_177,fr4_d5).
body(r_fr4_177,fr4_f2).
body(r_fr4_177,fr18_a1).
body(r_fr4_177,fr4_t3).
head(r_fr4_178,fr4_y4).
body(r_fr4_178,fr4_p2).
body(r_fr4_178,fr4_s1).
body(r_fr4_178,fr4_u1).
head(r_fr4_179,fr4_y4).
body(r_fr4_179,fr4_c2).
body(r_fr4_179,fr4_e5).
body(r_fr4_179,fr4_q1).
body(r_fr4_179,fr4_q2).
body(r_fr4_179,fr4_s2).
body(r_fr4_179,fr4_t2).
body(r_fr4_179,fr4_w2).
body(r_fr4_179,fr4_w3).
body(r_fr4_179,fr4_z4).
head(r_fr4_180,fr4_y4).
body(r_fr4_180,fr23_x4).
body(r_fr4_180,fr25_w1).
body(r_fr4_180,fr4_x4).
body(r_fr4_180,fr4_y3).
head(r_fr4_181,fr4_y4).
body(r_fr4_181,fr4_r2).
body(r_fr4_181,fr4_y3).
body(r_fr4_181,fr4_z3).
body(r_fr4_181,fr4_z4).
head(r_fr4_182,fr4_y4).
body(r_fr4_182,fr3_a1).
body(r_fr4_182,fr4_a3).
body(r_fr4_182,fr4_a4).
body(r_fr4_182,fr4_b2).
body(r_fr4_182,fr4_c1).
body(r_fr4_182,fr4_c4).
body(r_fr4_182,fr4_d3).
body(r_fr4_182,fr4_e2).
body(r_fr4_182,fr18_a1).
body(r_fr4_182,fr4_s4).
body(r_fr4_182,fr4_w3).
head(r_fr4_183,fr4_y4).
body(r_fr4_183,fr4_v1).
head(r_fr4_184,fr4_v4).
body(r_fr4_184,fr4_e1).
body(r_fr4_184,fr4_p1).
body(r_fr4_184,fr4_s1).
body(r_fr4_184,fr4_t5).
body(r_fr4_184,fr4_w2).
head(r_fr4_185,fr4_v4).
head(r_fr4_186,fr4_v4).
body(r_fr4_186,fr3_a1).
body(r_fr4_186,fr4_a3).
body(r_fr4_186,fr4_b1).
body(r_fr4_186,fr4_b3).
body(r_fr4_186,fr4_b4).
body(r_fr4_186,fr4_d5).
body(r_fr4_186,fr4_e3).
body(r_fr4_186,fr4_e4).
body(r_fr4_186,fr7_a1).
head(r_fr4_187,fr4_p1).
body(r_fr4_187,fr4_q1).
body(r_fr4_187,fr23_x4).
body(r_fr4_187,fr4_u1).
body(r_fr4_187,fr5_s1).
body(r_fr4_187,fr4_v3).
head(r_fr4_188,fr4_p1).
body(r_fr4_188,fr3_a1).
body(r_fr4_188,fr4_a4).
body(r_fr4_188,fr4_a5).
body(r_fr4_188,fr4_b2).
body(r_fr4_188,fr4_b5).
body(r_fr4_188,fr4_d3).
body(r_fr4_188,fr4_d4).
body(r_fr4_188,fr4_e1).
body(r_fr4_188,fr4_e3).
body(r_fr4_188,fr4_f2).
body(r_fr4_188,fr4_x2).
head(r_fr4_189,fr4_w1).
body(r_fr4_189,fr4_a3).
body(r_fr4_189,fr4_c2).
body(r_fr4_189,fr3_a3).
body(r_fr4_189,fr7_a1).
body(r_fr4_189,fr4_p1).
body(r_fr4_189,fr4_p3).
body(r_fr4_189,fr4_r5).
body(r_fr4_189,fr4_t5).
body(r_fr4_189,fr4_u5).
body(r_fr4_189,fr4_x1).
head(r_fr4_190,fr4_w1).
body(r_fr4_190,fr4_a4).
body(r_fr4_190,fr4_c2).
body(r_fr4_190,fr4_f3).
body(r_fr4_190,fr4_p5).
body(r_fr4_190,fr4_q4).
body(r_fr4_190,fr4_r4).
body(r_fr4_190,fr4_s2).
body(r_fr4_190,fr4_s4).
body(r_fr4_190,fr4_t3).
body(r_fr4_190,fr4_x2).
head(r_fr4_191,fr4_w1).
body(r_fr4_191,fr4_e1).
body(r_fr4_191,fr4_t1).
body(r_fr4_191,fr4_w2).
body(r_fr4_191,fr4_z4).
head(r_fr4_192,fr4_w1).
body(r_fr4_192,fr4_a4).
body(r_fr4_192,fr12_f1).
body(r_fr4_192,fr4_d2).
body(r_fr4_192,fr4_e1).
body(r_fr4_192,fr4_e2).
body(r_fr4_192,fr7_a1).
head(r_fr4_193,fr4_w1).
body(r_fr4_193,fr4_a4).
body(r_fr4_193,fr4_b1).
body(r_fr4_193,fr4_c2).
body(r_fr4_193,fr4_c5).
head(r_fr4_194,fr4_w1).
body(r_fr4_194,fr4_a3).
body(r_fr4_194,fr4_p2).
body(r_fr4_194,fr4_r3).
body(r_fr4_194,fr4_r5).
head(r_fr4_195,fr4_w1).
head(r_fr4_196,fr4_t5).
body(r_fr4_196,fr3_a1).
body(r_fr4_196,fr4_a5).
body(r_fr4_196,fr4_b2).
body(r_fr4_196,fr4_c4).
body(r_fr4_196,fr4_c5).
body(r_fr4_196,fr4_d4).
body(r_fr4_196,fr4_e5).
body(r_fr4_196,fr25_p3).
body(r_fr4_196,fr4_u1).
body(r_fr4_196,fr4_v1).
head(r_fr4_197,fr4_t5).
body(r_fr4_197,fr18_a1).
body(r_fr4_197,fr23_x4).
body(r_fr4_197,fr4_x4).
body(r_fr4_197,fr4_y1).
body(r_fr4_197,fr4_z3).
head(r_fr4_198,fr4_t5).
body(r_fr4_198,fr4_a5).
body(r_fr4_198,fr4_t4).
body(r_fr4_198,fr4_u5).
body(r_fr4_198,fr4_x4).
body(r_fr4_198,fr4_y3).
head(r_fr4_199,fr4_t5).
body(r_fr4_199,fr4_b5).
body(r_fr4_199,fr4_c1).
body(r_fr4_199,fr4_d2).
body(r_fr4_199,fr4_d3).
body(r_fr4_199,fr4_e3).
body(r_fr4_199,fr4_f1).
body(r_fr4_199,fr4_p1).
body(r_fr4_199,fr4_u3).
body(r_fr4_199,fr4_z2).
head(r_fr4_200,fr4_t5).
body(r_fr4_200,fr4_a5).
body(r_fr4_200,fr4_b3).
body(r_fr4_200,fr4_b4).
body(r_fr4_200,fr4_b5).
body(r_fr4_200,fr4_c2).
body(r_fr4_200,fr4_c5).
body(r_fr4_200,fr12_f1).
body(r_fr4_200,fr4_e3).
body(r_fr4_200,fr4_f1).
body(r_fr4_200,fr7_a1).
head(r_fr4_201,fr4_t5).
body(r_fr4_201,fr3_a1).
body(r_fr4_201,fr4_b2).
body(r_fr4_201,fr4_s5).
body(r_fr4_201,fr4_v4).
head(r_fr4_202,fr4_t5).
body(r_fr4_202,fr4_a3).
body(r_fr4_202,fr4_d4).
body(r_fr4_202,fr4_d5).
body(r_fr4_202,fr4_q4).
head(r_fr4_203,fr4_t5).
body(r_fr4_203,fr4_q2).
body(r_fr4_203,fr4_y4).
head(r_fr4_204,fr4_t5).
body(r_fr4_204,fr4_q3).
body(r_fr4_204,fr25_w1).
body(r_fr4_204,fr4_z3).
body(r_fr4_204,fr4_z4).
head(r_fr4_205,fr4_t5).
head(r_fr4_206,fr4_z2).
body(r_fr4_206,fr4_a5).
body(r_fr4_206,fr4_e4).
body(r_fr4_206,fr4_f3).
head(r_fr4_207,fr4_z2).
body(r_fr4_207,fr12_f1).
body(r_fr4_207,fr4_q3).
body(r_fr4_207,fr4_t3).
body(r_fr4_207,fr4_u1).
body(r_fr4_207,fr4_y4).
body(r_fr4_207,fr4_z1).
head(r_fr4_208,fr4_z2).
body(r_fr4_208,fr4_e1).
body(r_fr4_208,fr4_v2).
head(r_fr4_209,fr4_z2).
head(r_fr4_210,fr4_z2).
body(r_fr4_210,fr4_f2).
body(r_fr4_210,fr4_p1).
body(r_fr4_210,fr5_s1).
head(r_fr4_211,fr4_z2).
body(r_fr4_211,fr4_p2).
body(r_fr4_211,fr4_q2).
body(r_fr4_211,fr4_q4).
body(r_fr4_211,fr23_x4).
body(r_fr4_211,fr4_s5).
body(r_fr4_211,fr4_v4).
body(r_fr4_211,fr4_w2).
head(r_fr4_212,fr4_s1).
body(r_fr4_212,fr4_a3).
body(r_fr4_212,fr4_b3).
body(r_fr4_212,fr4_e2).
body(r_fr4_212,fr4_z4).
head(r_fr4_213,fr4_s1).
body(r_fr4_213,fr4_f1).
body(r_fr4_213,fr4_p1).
body(r_fr4_213,fr4_q2).
body(r_fr4_213,fr23_x4).
body(r_fr4_213,fr4_r3).
body(r_fr4_213,fr4_s5).
body(r_fr4_213,fr4_t1).
body(r_fr4_213,fr4_w1).
body(r_fr4_213,fr4_y3).
head(r_fr4_214,fr4_s1).
body(r_fr4_214,fr4_a4).
body(r_fr4_214,fr4_c4).
body(r_fr4_214,fr4_d3).
body(r_fr4_214,fr18_a1).
body(r_fr4_214,fr4_t1).
body(r_fr4_214,fr4_t4).
body(r_fr4_214,fr4_x3).
body(r_fr4_214,fr4_x4).
head(r_fr4_215,fr4_s1).
body(r_fr4_215,fr4_p5).
body(r_fr4_215,fr4_r5).
body(r_fr4_215,fr4_t3).
body(r_fr4_215,fr4_u3).
body(r_fr4_215,fr4_v2).
body(r_fr4_215,fr4_w1).
body(r_fr4_215,fr4_w3).
body(r_fr4_215,fr17_u1).
body(r_fr4_215,fr4_z4).
head(r_fr4_216,fr4_s1).
body(r_fr4_216,fr4_b3).
body(r_fr4_216,fr4_c4).
body(r_fr4_216,fr4_d2).
body(r_fr4_216,fr4_d3).
body(r_fr4_216,fr4_e1).
body(r_fr4_216,fr4_f3).
body(r_fr4_216,fr4_v2).
head(r_fr4_217,fr4_s1).
body(r_fr4_217,fr4_p5).
body(r_fr4_217,fr4_q5).
body(r_fr4_217,fr23_x4).
body(r_fr4_217,fr4_r5).
body(r_fr4_217,fr4_s3).
body(r_fr4_217,fr4_u3).
body(r_fr4_217,fr25_w1).
body(r_fr4_217,fr4_x1).
body(r_fr4_217,fr4_y3).
head(r_fr4_218,fr4_s1).
body(r_fr4_218,fr4_a1).
body(r_fr4_218,fr3_a3).
body(r_fr4_218,fr25_w1).
head(r_fr4_219,fr4_s1).
body(r_fr4_219,fr4_a1).
body(r_fr4_219,fr4_c5).
body(r_fr4_219,fr4_d2).
body(r_fr4_219,fr4_d3).
body(r_fr4_219,fr4_d4).
body(r_fr4_219,fr4_d5).
body(r_fr4_219,fr4_e1).
body(r_fr4_219,fr4_e3).
body(r_fr4_219,fr4_v2).
body(r_fr4_219,fr4_y1).
head(r_fr4_220,fr4_p3).
body(r_fr4_220,fr4_q1).
body(r_fr4_220,fr23_x4).
head(r_fr4_221,fr4_p3).
body(r_fr4_221,fr4_x4).
head(r_fr4_222,fr4_p3).
body(r_fr4_222,fr3_a1).
body(r_fr4_222,fr4_e1).
body(r_fr4_222,fr4_e5).
body(r_fr4_222,fr25_p3).
body(r_fr4_222,fr4_q4).
body(r_fr4_222,fr4_r5).
body(r_fr4_222,fr4_u1).
body(r_fr4_222,fr4_y1).
body(r_fr4_222,fr4_y4).
body(r_fr4_222,fr4_z3).
head(r_fr4_223,fr4_p3).
body(r_fr4_223,fr4_a1).
body(r_fr4_223,fr4_a5).
body(r_fr4_223,fr4_e2).
body(r_fr4_223,fr4_e5).
body(r_fr4_223,fr4_s4).
body(r_fr4_223,fr17_u1).
head(r_fr4_224,fr4_p3).
body(r_fr4_224,fr4_p5).
body(r_fr4_224,fr23_x4).
head(r_fr4_225,fr4_p3).
body(r_fr4_225,fr4_b3).
body(r_fr4_225,fr4_p1).
body(r_fr4_225,fr4_p2).
body(r_fr4_225,fr4_q3).
body(r_fr4_225,fr23_x4).
body(r_fr4_225,fr4_r2).
body(r_fr4_225,fr4_r3).
body(r_fr4_225,fr4_s3).
body(r_fr4_225,fr4_u1).
body(r_fr4_225,fr17_u1).
body(r_fr4_225,fr4_z3).
head(r_fr4_226,fr4_p3).
body(r_fr4_226,fr4_p5).
body(r_fr4_226,fr23_x4).
body(r_fr4_226,fr4_v2).
body(r_fr4_226,fr17_u1).
head(r_fr4_227,fr4_p3).
head(r_fr4_228,fr4_p3).
body(r_fr4_228,fr4_t2).
body(r_fr4_228,fr4_t5).
head(r_fr4_229,fr4_z1).
body(r_fr4_229,fr4_v4).
head(r_fr4_230,fr4_z1).
body(r_fr4_230,fr4_a3).
body(r_fr4_230,fr4_b4).
body(r_fr4_230,fr4_c2).
body(r_fr4_230,fr4_c5).
body(r_fr4_230,fr4_e3).
body(r_fr4_230,fr4_r4).
body(r_fr4_230,fr4_s4).
body(r_fr4_230,fr4_v1).
body(r_fr4_230,fr4_w2).
body(r_fr4_230,fr4_x1).
head(r_fr4_231,fr4_z1).
body(r_fr4_231,fr3_a1).
body(r_fr4_231,fr4_a5).
head(r_fr4_232,fr4_z1).
body(r_fr4_232,fr4_b1).
body(r_fr4_232,fr4_c1).
body(r_fr4_232,fr4_c2).
body(r_fr4_232,fr4_e5).
head(r_fr4_233,fr4_z1).
body(r_fr4_233,fr4_a1).
body(r_fr4_233,fr4_c4).
body(r_fr4_233,fr4_q4).
body(r_fr4_233,fr4_r2).
body(r_fr4_233,fr4_t1).
body(r_fr4_233,fr4_u3).
body(r_fr4_233,fr4_x2).
head(r_fr4_234,fr4_z1).
head(r_fr4_235,fr4_z1).
body(r_fr4_235,fr4_e2).
body(r_fr4_235,fr4_e5).
body(r_fr4_235,fr4_q5).
body(r_fr4_235,fr4_s4).
body(r_fr4_235,fr4_t3).
body(r_fr4_235,fr4_t5).
body(r_fr4_235,fr4_u3).

assumption(fr5_a1).
assumption(fr12_f1).
assumption(fr22_a1).
assumption(fr5_d1).
assumption(fr9_b1).
assumption(fr5_f1).
contrary(fr5_a1,fr24_v1).
contrary(fr12_f1,fr3_p3).
contrary(fr22_a1,fr5_d1).
contrary(fr5_d1,fr12_f1).
contrary(fr9_b1,fr8_t4).
contrary(fr5_f1,fr3_p3).
head(r_fr5_0,fr12_x2).
head(r_fr5_1,fr12_x2).
body(r_fr5_1,fr24_y2).
head(r_fr5_2,fr3_p3).
head(r_fr5_3,fr3_p3).
body(r_fr5_3,fr12_f1).
head(r_fr5_4,fr9_q2).
body(r_fr5_4,fr12_f1).
head(r_fr5_5,fr9_q2).
body(r_fr5_5,fr5_d1).
body(r_fr5_5,fr25_s2).
head(r_fr5_6,fr24_y2).
body(r_fr5_6,fr3_p3).
head(r_fr5_7,fr24_y2).
head(r_fr5_8,fr25_s2).
body(r_fr5_8,fr5_a1).
body(r_fr5_8,fr5_f1).
head(r_fr5_9,fr25_s2).
head(r_fr5_10,fr24_v1).
body(r_fr5_10,fr5_d1).
head(r_fr5_11,fr24_v1).
head(r_fr5_12,fr5_s1).
body(r_fr5_12,fr12_s3).
head(r_fr5_13,fr5_s1).
head(r_fr5_14,fr8_t4).
body(r_fr5_14,fr5_a1).
body(r_fr5_14,fr12_s3).
head(r_fr5_15,fr8_t4).

assumption(fr6_a1).
assumption(fr2_b2).
assumption(fr17_e1).
assumption(fr12_f1).
assumption(fr6_e1).
assumption(fr6_f1).
assumption(fr6_a2).
assumption(fr6_b2).
assumption(fr6_c2).
assumption(fr6_d2).
assumption(fr6_e2).
assumption(fr6_f2).
assumption(fr7_a1).
assumption(fr6_b3).
assumption(fr17_c1).
contrary(fr6_a1,fr19_v3).
contrary(fr6_a2,fr3_p3).
contrary(fr7_a1,fr6_p3).
contrary(fr2_b2,fr6_b3).
contrary(fr6_b2,fr2_b2).
contrary(fr6_b3,fr6_v1).
contrary(fr17_e1,fr6_t2).
contrary(fr6_c2,fr17_c1).
contrary(fr17_c1,fr2_b2).
contrary(fr12_f1,fr6_p3).
contrary(fr6_d2,fr6_p3).
contrary(fr6_e1,fr6_w2).
contrary(fr6_e2,fr6_z2).
contrary(fr6_f1,fr6_z1).
contrary(fr6_f2,fr6_w2).
head(r_fr6_0,fr6_y2).
body(r_fr6_0,fr6_v2).
body(r_fr6_0,fr6_w1).
body(r_fr6_0,fr6_w2).
body(r_fr6_0,fr6_x2).
body(r_fr6_0,fr6_z1).
head(r_fr6_1,fr6_y2).
body(r_fr6_1,fr6_e1).
head(r_fr6_2,fr6_y2).
body(r_fr6_2,fr2_b2).
body(r_fr6_2,fr17_e1).
body(r_fr6_2,fr6_d2).
body(r_fr6_2,fr6_e2).
body(r_fr6_2,fr6_s1).
head(r_fr6_3,fr6_y2).
body(r_fr6_3,fr6_p1).
body(r_fr6_3,fr9_t1).
body(r_fr6_3,fr6_p3).
body(r_fr6_3,fr12_x2).
body(r_fr6_3,fr6_u1).
head(r_fr6_4,fr6_y2).
body(r_fr6_4,fr17_c1).
body(r_fr6_4,fr6_e1).
body(r_fr6_4,fr6_f2).
body(r_fr6_4,fr6_p1).
body(r_fr6_4,fr6_v2).
body(r_fr6_4,fr6_z1).
head(r_fr6_5,fr6_y2).
body(r_fr6_5,fr6_w2).
head(r_fr6_6,fr6_y2).
body(r_fr6_6,fr6_b3).
body(r_fr6_6,fr6_d2).
body(r_fr6_6,fr6_e1).
head(r_fr6_7,fr6_y2).
body(r_fr6_7,fr12_f1).
body(r_fr6_7,fr6_e2).
head(r_fr6_8,fr6_y2).
body(r_fr6_8,fr6_e2).
body(r_fr6_8,fr9_t1).
body(r_fr6_8,fr6_w2).
head(r_fr6_9,fr6_y2).
body(r_fr6_9,fr6_a2).
body(r_fr6_9,fr6_d2).
body(r_fr6_9,fr6_e1).
head(r_fr6_10,fr6_y2).
body(r_fr6_10,fr6_a1).
body(r_fr6_10,fr6_b3).
body(r_fr6_10,fr12_f1).
head(r_fr6_11,fr6_y2).
body(r_fr6_11,fr6_q2).
body(r_fr6_11,fr6_s2).
body(r_fr6_11,fr6_t2).
body(r_fr6_11,fr3_p3).
head(r_fr6_12,fr6_y2).
body(r_fr6_12,fr6_e1).
body(r_fr6_12,fr6_v1).
head(r_fr6_13,fr6_y2).
body(r_fr6_13,fr6_a1).
body(r_fr6_13,fr7_a1).
body(r_fr6_13,fr6_s1).
body(r_fr6_13,fr6_t1).
body(r_fr6_13,fr6_x1).
body(r_fr6_13,fr6_z2).
head(r_fr6_14,fr6_y2).
body(r_fr6_14,fr6_s2).
head(r_fr6_15,fr6_y2).
body(r_fr6_15,fr17_c1).
head(r_fr6_16,fr6_y2).
head(r_fr6_17,fr6_s2).
body(r_fr6_17,fr6_c2).
body(r_fr6_17,fr6_e2).
head(r_fr6_18,fr6_s2).
body(r_fr6_18,fr6_q3).
body(r_fr6_18,fr6_z1).
head(r_fr6_19,fr6_s2).
body(r_fr6_19,fr6_b3).
body(r_fr6_19,fr6_f2).
head(r_fr6_20,fr6_s2).
body(r_fr6_20,fr7_a1).
body(r_fr6_20,fr6_e1).
body(r_fr6_20,fr6_f1).
head(r_fr6_21,fr6_s2).
body(r_fr6_21,fr7_a1).
body(r_fr6_21,fr6_b2).
body(r_fr6_21,fr17_e1).
body(r_fr6_21,fr6_f2).
head(r_fr6_22,fr6_s2).
body(r_fr6_22,fr7_a1).
body(r_fr6_22,fr6_f1).
body(r_fr6_22,fr12_x2).
body(r_fr6_22,fr6_t1).
body(r_fr6_22,fr6_w1).
body(r_fr6_22,fr6_x1).
head(r_fr6_23,fr6_s2).
body(r_fr6_23,fr6_u1).
body(r_fr6_23,fr6_w1).
head(r_fr6_24,fr6_s2).
body(r_fr6_24,fr6_c2).
body(r_fr6_24,fr6_e1).
head(r_fr6_25,fr6_s2).
body(r_fr6_25,fr6_a1).
body(r_fr6_25,fr6_b2).
body(r_fr6_25,fr12_x2).
body(r_fr6_25,fr6_u1).
body(r_fr6_25,fr6_y2).
head(r_fr6_26,fr6_s2).
body(r_fr6_26,fr9_t1).
body(r_fr6_26,fr6_p3).
body(r_fr6_26,fr6_t1).
body(r_fr6_26,fr6_u1).
body(r_fr6_26,fr3_p3).
body(r_fr6_26,fr6_z2).
head(r_fr6_27,fr6_s2).
head(r_fr6_28,fr6_s2).
body(r_fr6_28,fr6_a2).
body(r_fr6_28,fr6_b3).
body(r_fr6_28,fr6_e1).
body(r_fr6_28,fr6_p1).
body(r_fr6_28,fr6_q2).
body(r_fr6_28,fr6_w1).
head(r_fr6_29,fr6_s2).
body(r_fr6_29,fr6_u1).
head(r_fr6_30,fr6_s2).
body(r_fr6_30,fr9_t1).
body(r_fr6_30,fr6_v1).
head(r_fr6_31,fr6_s2).
body(r_fr6_31,fr17_e1).
body(r_fr6_31,fr6_f2).
head(r_fr6_32,fr6_s2).
body(r_fr6_32,fr12_f1).
body(r_fr6_32,fr6_d2).
head(r_fr6_33,fr6_s2).
body(r_fr6_33,fr6_a2).
body(r_fr6_33,fr6_d2).
head(r_fr6_34,fr6_t2).
body(r_fr6_34,fr6_p1).
body(r_fr6_34,fr6_q3).
body(r_fr6_34,fr6_w1).
head(r_fr6_35,fr6_t2).
body(r_fr6_35,fr6_b2).
body(r_fr6_35,fr6_f2).
body(r_fr6_35,fr6_q3).
head(r_fr6_36,fr6_t2).
body(r_fr6_36,fr2_b2).
body(r_fr6_36,fr6_d2).
body(r_fr6_36,fr6_f1).
body(r_fr6_36,fr6_f2).
head(r_fr6_37,fr6_t2).
body(r_fr6_37,fr6_a1).
body(r_fr6_37,fr6_b2).
body(r_fr6_37,fr6_c2).
body(r_fr6_37,fr6_d2).
body(r_fr6_37,fr6_f1).
body(r_fr6_37,fr6_r2).
head(r_fr6_38,fr6_t2).
body(r_fr6_38,fr6_c2).
body(r_fr6_38,fr6_p1).
body(r_fr6_38,fr9_t1).
body(r_fr6_38,fr6_q2).
body(r_fr6_38,fr6_w2).
head(r_fr6_39,fr6_t2).
head(r_fr6_40,fr6_t2).
body(r_fr6_40,fr6_x1).
head(r_fr6_41,fr6_t2).
body(r_fr6_41,fr6_b2).
body(r_fr6_41,fr17_e1).
body(r_fr6_41,fr6_p3).
head(r_fr6_42,fr6_t2).
body(r_fr6_42,fr6_b2).
body(r_fr6_42,fr6_f2).
head(r_fr6_43,fr6_t2).
body(r_fr6_43,fr6_r3).
body(r_fr6_43,fr6_s2).
body(r_fr6_43,fr6_w2).
body(r_fr6_43,fr6_x2).
head(r_fr6_44,fr6_t2).
body(r_fr6_44,fr6_y2).
head(r_fr6_45,fr6_t2).
body(r_fr6_45,fr2_b2).
body(r_fr6_45,fr12_x2).
body(r_fr6_45,fr3_p3).
body(r_fr6_45,fr6_x2).
body(r_fr6_45,fr6_z1).
head(r_fr6_46,fr6_t2).
body(r_fr6_46,fr6_a2).
body(r_fr6_46,fr7_a1).
body(r_fr6_46,fr6_e1).
body(r_fr6_46,fr6_f2).
body(r_fr6_46,fr6_w1).
body(r_fr6_46,fr6_z2).
head(r_fr6_47,fr6_t2).
body(r_fr6_47,fr6_a2).
body(r_fr6_47,fr6_d2).
body(r_fr6_47,fr6_e1).
body(r_fr6_47,fr6_s2).
body(r_fr6_47,fr6_t1).
body(r_fr6_47,fr6_v1).
head(r_fr6_48,fr6_t2).
body(r_fr6_48,fr6_f1).
head(r_fr6_49,fr6_t2).
body(r_fr6_49,fr6_b3).
body(r_fr6_49,fr6_f1).
body(r_fr6_49,fr6_q3).
body(r_fr6_49,fr19_v3).
head(r_fr6_50,fr6_t2).
body(r_fr6_50,fr6_a2).
body(r_fr6_50,fr2_b2).
body(r_fr6_50,fr6_c2).
body(r_fr6_50,fr6_f2).
body(r_fr6_50,fr6_w2).
body(r_fr6_50,fr6_y2).
head(r_fr6_51,fr6_p3).
body(r_fr6_51,fr6_x1).
head(r_fr6_52,fr6_p3).
body(r_fr6_52,fr6_r1).
body(r_fr6_52,fr6_v1).
body(r_fr6_52,fr6_y2).
body(r_fr6_52,fr6_z2).
head(r_fr6_53,fr6_p3).
body(r_fr6_53,fr6_a1).
body(r_fr6_53,fr7_a1).
body(r_fr6_53,fr2_b2).
body(r_fr6_53,fr6_d2).
body(r_fr6_53,fr6_f1).
head(r_fr6_54,fr6_p3).
body(r_fr6_54,fr6_a1).
body(r_fr6_54,fr7_a1).
body(r_fr6_54,fr6_f2).
body(r_fr6_54,fr6_s2).
head(r_fr6_55,fr6_p3).
body(r_fr6_55,fr12_x2).
body(r_fr6_55,fr6_q3).
body(r_fr6_55,fr6_r3).
body(r_fr6_55,fr6_t1).
body(r_fr6_55,fr6_y2).
body(r_fr6_55,fr6_z2).
head(r_fr6_56,fr6_p3).
body(r_fr6_56,fr17_e1).
body(r_fr6_56,fr6_p1).
body(r_fr6_56,fr6_y2).
body(r_fr6_56,fr6_z1).
body(r_fr6_56,fr6_z2).
head(r_fr6_57,fr6_p3).
body(r_fr6_57,fr6_c2).
body(r_fr6_57,fr6_d2).
head(r_fr6_58,fr6_p3).
body(r_fr6_58,fr17_e1).
body(r_fr6_58,fr6_e2).
body(r_fr6_58,fr6_q3).
body(r_fr6_58,fr6_v1).
body(r_fr6_58,fr6_y2).
head(r_fr6_59,fr6_p3).
body(r_fr6_59,fr6_a2).
body(r_fr6_59,fr6_b3).
body(r_fr6_59,fr12_f1).
body(r_fr6_59,fr6_f2).
body(r_fr6_59,fr6_r1).
head(r_fr6_60,fr6_p3).
body(r_fr6_60,fr17_e1).
body(r_fr6_60,fr6_c2).
body(r_fr6_60,fr12_f1).
body(r_fr6_60,fr6_f1).
body(r_fr6_60,fr6_r1).
head(r_fr6_61,fr6_p3).
head(r_fr6_62,fr6_p3).
body(r_fr6_62,fr6_d2).
body(r_fr6_62,fr6_q3).
body(r_fr6_62,fr6_s2).
body(r_fr6_62,fr6_t1).
head(r_fr6_63,fr6_p3).
body(r_fr6_63,fr7_a1).
body(r_fr6_63,fr17_e1).
body(r_fr6_63,fr6_f2).
body(r_fr6_63,fr6_x2).
head(r_fr6_64,fr6_p3).
body(r_fr6_64,fr6_b2).
body(r_fr6_64,fr6_e2).
body(r_fr6_64,fr6_r1).
body(r_fr6_64,fr6_s1).
head(r_fr6_65,fr6_p3).
body(r_fr6_65,fr6_b2).
body(r_fr6_65,fr6_v1).
head(r_fr6_66,fr6_p3).
body(r_fr6_66,fr6_a1).
body(r_fr6_66,fr6_c2).
body(r_fr6_66,fr6_e1).
body(r_fr6_66,fr6_t2).
body(r_fr6_66,fr19_v3).
body(r_fr6_66,fr6_z2).
head(r_fr6_67,fr6_q3).
body(r_fr6_67,fr6_b3).
body(r_fr6_67,fr6_e1).
head(r_fr6_68,fr6_q3).
body(r_fr6_68,fr7_a1).
body(r_fr6_68,fr2_b2).
body(r_fr6_68,fr6_f2).
head(r_fr6_69,fr6_q3).
body(r_fr6_69,fr6_a2).
body(r_fr6_69,fr6_v2).
body(r_fr6_69,fr6_w1).
body(r_fr6_69,fr6_y2).
head(r_fr6_70,fr6_q3).
body(r_fr6_70,fr6_a1).
body(r_fr6_70,fr6_f2).
body(r_fr6_70,fr6_r2).
head(r_fr6_71,fr6_q3).
body(r_fr6_71,fr2_b2).
body(r_fr6_71,fr6_e1).
body(r_fr6_71,fr6_s2).
body(r_fr6_71,fr6_u1).
body(r_fr6_71,fr6_w2).
body(r_fr6_71,fr19_v3).
head(r_fr6_72,fr6_q3).
body(r_fr6_72,fr6_a2).
body(r_fr6_72,fr6_e1).
body(r_fr6_72,fr6_s1).
body(r_fr6_72,fr6_y2).
head(r_fr6_73,fr6_q3).
body(r_fr6_73,fr6_b3).
body(r_fr6_73,fr6_e2).
body(r_fr6_73,fr6_f1).
body(r_fr6_73,fr6_t2).
head(r_fr6_74,fr6_q3).
head(r_fr6_75,fr6_q3).
body(r_fr6_75,fr6_a2).
body(r_fr6_75,fr17_c1).
body(r_fr6_75,fr6_f1).
body(r_fr6_75,fr6_r1).
body(r_fr6_75,fr6_z2).
head(r_fr6_76,fr6_q3).
body(r_fr6_76,fr6_p1).
body(r_fr6_76,fr6_t1).
body(r_fr6_76,fr6_v2).
head(r_fr6_77,fr6_q3).
body(r_fr6_77,fr6_q2).
body(r_fr6_77,fr6_r1).
body(r_fr6_77,fr6_s2).
head(r_fr6_78,fr6_q3).
body(r_fr6_78,fr6_d2).
body(r_fr6_78,fr6_e2).
body(r_fr6_78,fr6_p1).
body(r_fr6_78,fr12_x2).
body(r_fr6_78,fr6_x1).
head(r_fr6_79,fr6_q3).
body(r_fr6_79,fr6_w1).
head(r_fr6_80,fr6_q3).
body(r_fr6_80,fr17_c1).
body(r_fr6_80,fr6_y2).
head(r_fr6_81,fr6_q3).
body(r_fr6_81,fr6_f2).
head(r_fr6_82,fr6_r1).
body(r_fr6_82,fr6_p3).
body(r_fr6_82,fr6_r2).
body(r_fr6_82,fr6_u1).
body(r_fr6_82,fr3_p3).
head(r_fr6_83,fr6_r1).
body(r_fr6_83,fr9_t1).
body(r_fr6_83,fr6_q3).
body(r_fr6_83,fr6_w1).
body(r_fr6_83,fr6_x2).
head(r_fr6_84,fr6_r1).
body(r_fr6_84,fr6_f1).
body(r_fr6_84,fr9_t1).
body(r_fr6_84,fr3_p3).
body(r_fr6_84,fr6_v1).
body(r_fr6_84,fr6_x1).
head(r_fr6_85,fr6_r1).
body(r_fr6_85,fr2_b2).
body(r_fr6_85,fr6_x2).
head(r_fr6_86,fr6_r1).
body(r_fr6_86,fr6_b2).
head(r_fr6_87,fr6_r1).
body(r_fr6_87,fr6_p1).
body(r_fr6_87,fr12_x2).
body(r_fr6_87,fr6_u1).
body(r_fr6_87,fr6_x1).
body(r_fr6_87,fr19_v3).
head(r_fr6_88,fr6_r1).
body(r_fr6_88,fr6_a2).
body(r_fr6_88,fr7_a1).
body(r_fr6_88,fr6_c2).
body(r_fr6_88,fr6_f2).
body(r_fr6_88,fr6_r3).
head(r_fr6_89,fr6_r1).
body(r_fr6_89,fr2_b2).
body(r_fr6_89,fr6_d2).
body(r_fr6_89,fr9_t1).
body(r_fr6_89,fr6_w1).
body(r_fr6_89,fr6_y2).
head(r_fr6_90,fr6_r1).
body(r_fr6_90,fr7_a1).
body(r_fr6_90,fr6_b2).
body(r_fr6_90,fr6_b3).
body(r_fr6_90,fr6_c2).
body(r_fr6_90,fr6_q2).
body(r_fr6_90,fr6_w1).
head(r_fr6_91,fr6_r1).
body(r_fr6_91,fr2_b2).
body(r_fr6_91,fr17_c1).
body(r_fr6_91,fr12_f1).
body(r_fr6_91,fr6_f2).
body(r_fr6_91,fr12_x2).
body(r_fr6_91,fr6_t2).
head(r_fr6_92,fr6_r1).
body(r_fr6_92,fr12_f1).
body(r_fr6_92,fr6_v2).
body(r_fr6_92,fr6_w1).
head(r_fr6_93,fr6_r1).
body(r_fr6_93,fr6_a2).
body(r_fr6_93,fr2_b2).
body(r_fr6_93,fr17_e1).
body(r_fr6_93,fr6_e1).
body(r_fr6_93,fr6_f2).
head(r_fr6_94,fr6_r1).
body(r_fr6_94,fr6_t2).
head(r_fr6_95,fr6_r1).
body(r_fr6_95,fr6_q3).
body(r_fr6_95,fr6_t1).
body(r_fr6_95,fr6_t2).
head(r_fr6_96,fr6_r1).
body(r_fr6_96,fr2_b2).
head(r_fr6_97,fr6_r1).
body(r_fr6_97,fr6_a2).
head(r_fr6_98,fr6_r1).
body(r_fr6_98,fr17_e1).
head(r_fr6_99,fr6_x2).
body(r_fr6_99,fr6_b2).
body(r_fr6_99,fr17_e1).
body(r_fr6_99,fr12_f1).
body(r_fr6_99,fr6_t2).
body(r_fr6_99,fr6_y2).
head(r_fr6_100,fr6_x2).
body(r_fr6_100,fr6_f1).
body(r_fr6_100,fr6_s1).
head(r_fr6_101,fr6_x2).
head(r_fr6_102,fr6_x2).
body(r_fr6_102,fr6_a1).
body(r_fr6_102,fr17_e1).
head(r_fr6_103,fr6_x2).
body(r_fr6_103,fr7_a1).
body(r_fr6_103,fr17_c1).
body(r_fr6_103,fr6_e1).
body(r_fr6_103,fr6_y2).
head(r_fr6_104,fr6_x2).
body(r_fr6_104,fr6_c2).
body(r_fr6_104,fr6_p1).
body(r_fr6_104,fr6_r1).
body(r_fr6_104,fr6_t1).
head(r_fr6_105,fr6_x2).
body(r_fr6_105,fr6_a2).
body(r_fr6_105,fr7_a1).
body(r_fr6_105,fr2_b2).
body(r_fr6_105,fr6_e2).
head(r_fr6_106,fr6_x2).
body(r_fr6_106,fr6_b2).
body(r_fr6_106,fr6_e2).
body(r_fr6_106,fr6_s1).
head(r_fr6_107,fr6_x2).
body(r_fr6_107,fr6_a2).
body(r_fr6_107,fr6_f1).
head(r_fr6_108,fr6_x2).
body(r_fr6_108,fr6_a2).
body(r_fr6_108,fr7_a1).
body(r_fr6_108,fr6_e2).
head(r_fr6_109,fr6_x2).
body(r_fr6_109,fr6_a2).
body(r_fr6_109,fr17_e1).
body(r_fr6_109,fr6_f1).
head(r_fr6_110,fr6_x2).
body(r_fr6_110,fr6_a1).
body(r_fr6_110,fr6_a2).
body(r_fr6_110,fr17_e1).
body(r_fr6_110,fr6_c2).
body(r_fr6_110,fr6_e2).
head(r_fr6_111,fr6_x2).
body(r_fr6_111,fr6_c2).
body(r_fr6_111,fr6_e2).
body(r_fr6_111,fr6_q2).
body(r_fr6_111,fr6_q3).
head(r_fr6_112,fr6_x2).
body(r_fr6_112,fr6_e1).
body(r_fr6_112,fr6_f1).
body(r_fr6_112,fr6_p3).
body(r_fr6_112,fr6_q3).
body(r_fr6_112,fr6_w2).
body(r_fr6_112,fr19_v3).
head(r_fr6_113,fr6_x2).
body(r_fr6_113,fr6_p1).
body(r_fr6_113,fr6_s1).
body(r_fr6_113,fr6_w1).
body(r_fr6_113,fr6_w2).
head(r_fr6_114,fr6_x2).
body(r_fr6_114,fr6_a1).
body(r_fr6_114,fr17_e1).
body(r_fr6_114,fr6_f2).
body(r_fr6_114,fr9_t1).
body(r_fr6_114,fr12_x2).
head(r_fr6_115,fr9_t1).
body(r_fr6_115,fr6_v1).
body(r_fr6_115,fr6_y2).
head(r_fr6_116,fr9_t1).
body(r_fr6_116,fr17_e1).
body(r_fr6_116,fr6_f2).
body(r_fr6_116,fr6_p1).
body(r_fr6_116,fr6_p3).
body(r_fr6_116,fr6_v2).
body(r_fr6_116,fr6_w2).
head(r_fr6_117,fr9_t1).
body(r_fr6_117,fr6_p3).
body(r_fr6_117,fr6_s2).
head(r_fr6_118,fr9_t1).
body(r_fr6_118,fr6_a1).
body(r_fr6_118,fr6_b2).
body(r_fr6_118,fr17_e1).
body(r_fr6_118,fr6_f1).
body(r_fr6_118,fr19_v3).
head(r_fr6_119,fr9_t1).
body(r_fr6_119,fr6_a1).
body(r_fr6_119,fr6_b2).
head(r_fr6_120,fr9_t1).
body(r_fr6_120,fr6_a2).
body(r_fr6_120,fr17_e1).
body(r_fr6_120,fr6_z2).
head(r_fr6_121,fr9_t1).
body(r_fr6_121,fr6_c2).
body(r_fr6_121,fr6_p1).
body(r_fr6_121,fr6_p3).
body(r_fr6_121,fr6_s1).
body(r_fr6_121,fr6_x2).
head(r_fr6_122,fr9_t1).
body(r_fr6_122,fr12_x2).
head(r_fr6_123,fr9_t1).
head(r_fr6_124,fr9_t1).
body(r_fr6_124,fr6_b3).
body(r_fr6_124,fr6_p3).
body(r_fr6_124,fr6_r1).
body(r_fr6_124,fr6_s1).
body(r_fr6_124,fr6_u1).
head(r_fr6_125,fr9_t1).
body(r_fr6_125,fr6_a1).
body(r_fr6_125,fr17_e1).
body(r_fr6_125,fr3_p3).
body(r_fr6_125,fr6_w2).
head(r_fr6_126,fr9_t1).
body(r_fr6_126,fr6_r2).
body(r_fr6_126,fr6_t1).
body(r_fr6_126,fr3_p3).
head(r_fr6_127,fr9_t1).
body(r_fr6_127,fr6_a1).
body(r_fr6_127,fr6_d2).
body(r_fr6_127,fr6_e2).
body(r_fr6_127,fr6_r2).
body(r_fr6_127,fr6_r3).
head(r_fr6_128,fr9_t1).
body(r_fr6_128,fr2_b2).
body(r_fr6_128,fr6_e1).
body(r_fr6_128,fr6_e2).
head(r_fr6_129,fr9_t1).
body(r_fr6_129,fr3_p3).
head(r_fr6_130,fr9_t1).
body(r_fr6_130,fr6_a2).
body(r_fr6_130,fr2_b2).
body(r_fr6_130,fr6_b2).
body(r_fr6_130,fr17_e1).
body(r_fr6_130,fr6_w1).
head(r_fr6_131,fr6_w2).
body(r_fr6_131,fr6_r3).
body(r_fr6_131,fr6_t2).
body(r_fr6_131,fr6_v1).
body(r_fr6_131,fr6_v2).
body(r_fr6_131,fr19_v3).
head(r_fr6_132,fr6_w2).
body(r_fr6_132,fr2_b2).
body(r_fr6_132,fr6_b2).
body(r_fr6_132,fr17_c1).
body(r_fr6_132,fr6_x2).
head(r_fr6_133,fr6_w2).
body(r_fr6_133,fr6_a2).
body(r_fr6_133,fr7_a1).
body(r_fr6_133,fr6_b3).
head(r_fr6_134,fr6_w2).
body(r_fr6_134,fr6_c2).
body(r_fr6_134,fr6_d2).
body(r_fr6_134,fr6_f1).
head(r_fr6_135,fr6_w2).
body(r_fr6_135,fr7_a1).
body(r_fr6_135,fr17_e1).
body(r_fr6_135,fr6_f1).
body(r_fr6_135,fr6_q2).
head(r_fr6_136,fr6_w2).
body(r_fr6_136,fr6_b3).
body(r_fr6_136,fr12_x2).
body(r_fr6_136,fr6_q2).
body(r_fr6_136,fr6_u1).
body(r_fr6_136,fr6_v2).
head(r_fr6_137,fr6_w2).
body(r_fr6_137,fr6_b3).
head(r_fr6_138,fr6_w2).
head(r_fr6_139,fr6_w2).
body(r_fr6_139,fr6_b3).
body(r_fr6_139,fr6_c2).
body(r_fr6_139,fr6_d2).
head(r_fr6_140,fr6_w2).
body(r_fr6_140,fr6_a1).
body(r_fr6_140,fr2_b2).
body(r_fr6_140,fr6_b3).
body(r_fr6_140,fr17_c1).
head(r_fr6_141,fr6_w2).
body(r_fr6_141,fr6_b2).
body(r_fr6_141,fr17_e1).
body(r_fr6_141,fr6_x1).
head(r_fr6_142,fr6_w2).
body(r_fr6_142,fr6_a2).
head(r_fr6_143,fr6_w2).
body(r_fr6_143,fr6_q3).
head(r_fr6_144,fr6_w2).
body(r_fr6_144,fr7_a1).
body(r_fr6_144,fr17_e1).
body(r_fr6_144,fr17_c1).
body(r_fr6_144,fr6_f1).
head(r_fr6_145,fr6_r2).
body(r_fr6_145,fr6_b2).
body(r_fr6_145,fr6_e2).
body(r_fr6_145,fr6_t2).
body(r_fr6_145,fr6_u1).
body(r_fr6_145,fr3_p3).
head(r_fr6_146,fr6_r2).
body(r_fr6_146,fr6_a2).
body(r_fr6_146,fr6_b3).
body(r_fr6_146,fr17_e1).
body(r_fr6_146,fr17_c1).
body(r_fr6_146,fr12_f1).
body(r_fr6_146,fr19_v3).
head(r_fr6_147,fr6_r2).
body(r_fr6_147,fr12_x2).
body(r_fr6_147,fr6_r1).
body(r_fr6_147,fr6_w2).
body(r_fr6_147,fr6_x1).
body(r_fr6_147,fr6_z2).
head(r_fr6_148,fr6_r2).
body(r_fr6_148,fr6_p1).
body(r_fr6_148,fr6_w1).
head(r_fr6_149,fr6_r2).
body(r_fr6_149,fr6_q3).
body(r_fr6_149,fr3_p3).
body(r_fr6_149,fr6_w1).
body(r_fr6_149,fr6_w2).
body(r_fr6_149,fr19_v3).
body(r_fr6_149,fr6_z1).
head(r_fr6_150,fr6_r2).
body(r_fr6_150,fr6_t1).
head(r_fr6_151,fr6_r2).
body(r_fr6_151,fr6_a1).
body(r_fr6_151,fr6_b2).
body(r_fr6_151,fr6_b3).
body(r_fr6_151,fr6_e2).
body(r_fr6_151,fr6_f1).
body(r_fr6_151,fr6_f2).
head(r_fr6_152,fr6_r2).
body(r_fr6_152,fr6_a1).
body(r_fr6_152,fr7_a1).
body(r_fr6_152,fr6_e2).
body(r_fr6_152,fr6_q2).
body(r_fr6_152,fr6_t2).
head(r_fr6_153,fr6_r2).
body(r_fr6_153,fr17_e1).
body(r_fr6_153,fr6_w2).
head(r_fr6_154,fr6_r2).
body(r_fr6_154,fr6_a1).
body(r_fr6_154,fr12_x2).
body(r_fr6_154,fr6_s2).
body(r_fr6_154,fr3_p3).
head(r_fr6_155,fr6_r2).
body(r_fr6_155,fr6_b2).
body(r_fr6_155,fr17_c1).
body(r_fr6_155,fr6_f1).
body(r_fr6_155,fr6_q2).
body(r_fr6_155,fr6_r1).
body(r_fr6_155,fr6_r3).
head(r_fr6_156,fr6_r2).
body(r_fr6_156,fr6_y2).
head(r_fr6_157,fr6_r2).
body(r_fr6_157,fr7_a1).
body(r_fr6_157,fr6_f2).
head(r_fr6_158,fr6_r2).
body(r_fr6_158,fr17_e1).
head(r_fr6_159,fr6_r2).
body(r_fr6_159,fr6_a1).
head(r_fr6_160,fr6_s1).
body(r_fr6_160,fr7_a1).
body(r_fr6_160,fr6_c2).
body(r_fr6_160,fr17_c1).
body(r_fr6_160,fr6_u1).
body(r_fr6_160,fr6_z1).
body(r_fr6_160,fr6_z2).
head(r_fr6_161,fr6_s1).
body(r_fr6_161,fr6_a2).
body(r_fr6_161,fr6_c2).
body(r_fr6_161,fr12_f1).
body(r_fr6_161,fr6_f1).
body(r_fr6_161,fr6_w2).
body(r_fr6_161,fr6_z2).
head(r_fr6_162,fr6_s1).
body(r_fr6_162,fr17_c1).
body(r_fr6_162,fr6_e1).
body(r_fr6_162,fr6_t2).
body(r_fr6_162,fr6_v1).
head(r_fr6_163,fr6_s1).
body(r_fr6_163,fr6_w1).
head(r_fr6_164,fr6_s1).
body(r_fr6_164,fr6_a1).
body(r_fr6_164,fr6_d2).
body(r_fr6_164,fr6_e1).
body(r_fr6_164,fr6_e2).
body(r_fr6_164,fr6_r1).
body(r_fr6_164,fr6_t1).
head(r_fr6_165,fr6_s1).
body(r_fr6_165,fr6_e2).
head(r_fr6_166,fr6_s1).
body(r_fr6_166,fr6_c2).
body(r_fr6_166,fr12_f1).
body(r_fr6_166,fr6_p3).
head(r_fr6_167,fr6_s1).
body(r_fr6_167,fr6_a1).
head(r_fr6_168,fr6_s1).
body(r_fr6_168,fr6_x2).
head(r_fr6_169,fr6_s1).
body(r_fr6_169,fr12_f1).
body(r_fr6_169,fr6_s2).
body(r_fr6_169,fr6_w2).
head(r_fr6_170,fr6_s1).
body(r_fr6_170,fr6_e2).
body(r_fr6_170,fr6_q2).
body(r_fr6_170,fr6_u1).
body(r_fr6_170,fr6_v1).
body(r_fr6_170,fr6_v2).
head(r_fr6_171,fr6_s1).
head(r_fr6_172,fr6_s1).
body(r_fr6_172,fr6_a2).
body(r_fr6_172,fr6_b2).
body(r_fr6_172,fr6_b3).
body(r_fr6_172,fr17_c1).
body(r_fr6_172,fr12_f1).
body(r_fr6_172,fr6_f2).
head(r_fr6_173,fr6_s1).
body(r_fr6_173,fr9_t1).
body(r_fr6_173,fr6_p3).
body(r_fr6_173,fr6_s2).
body(r_fr6_173,fr6_v2).
body(r_fr6_173,fr19_v3).
body(r_fr6_173,fr6_z2).
head(r_fr6_174,fr6_s1).
body(r_fr6_174,fr6_b2).
body(r_fr6_174,fr6_c2).
body(r_fr6_174,fr6_f1).
body(r_fr6_174,fr6_t2).
head(r_fr6_175,fr6_s1).
body(r_fr6_175,fr6_a2).
body(r_fr6_175,fr6_b3).
body(r_fr6_175,fr6_q2).
head(r_fr6_176,fr19_v3).
body(r_fr6_176,fr6_a2).
body(r_fr6_176,fr17_c1).
body(r_fr6_176,fr12_f1).
body(r_fr6_176,fr6_d2).
body(r_fr6_176,fr6_e2).
head(r_fr6_177,fr19_v3).
body(r_fr6_177,fr6_q2).
head(r_fr6_178,fr19_v3).
body(r_fr6_178,fr12_x2).
body(r_fr6_178,fr6_y2).
head(r_fr6_179,fr19_v3).
body(r_fr6_179,fr12_x2).
body(r_fr6_179,fr6_s2).
body(r_fr6_179,fr6_t1).
body(r_fr6_179,fr6_v2).
body(r_fr6_179,fr6_y2).
head(r_fr6_180,fr19_v3).
body(r_fr6_180,fr6_d2).
body(r_fr6_180,fr6_t1).
head(r_fr6_181,fr19_v3).
body(r_fr6_181,fr6_f1).
head(r_fr6_182,fr19_v3).
body(r_fr6_182,fr6_q3).
body(r_fr6_182,fr6_z2).
head(r_fr6_183,fr19_v3).
body(r_fr6_183,fr7_a1).
body(r_fr6_183,fr17_c1).
body(r_fr6_183,fr6_v1).
head(r_fr6_184,fr19_v3).
body(r_fr6_184,fr17_c1).
body(r_fr6_184,fr6_w1).
head(r_fr6_185,fr19_v3).
body(r_fr6_185,fr6_b3).
body(r_fr6_185,fr6_q3).
body(r_fr6_185,fr6_w1).
head(r_fr6_186,fr19_v3).
body(r_fr6_186,fr6_b3).
body(r_fr6_186,fr6_c2).
head(r_fr6_187,fr19_v3).
head(r_fr6_188,fr19_v3).
body(r_fr6_188,fr17_e1).
body(r_fr6_188,fr17_c1).
body(r_fr6_188,fr6_e1).
body(r_fr6_188,fr6_y2).
head(r_fr6_189,fr19_v3).
body(r_fr6_189,fr6_r1).
body(r_fr6_189,fr3_p3).
body(r_fr6_189,fr6_y2).
head(r_fr6_190,fr19_v3).
body(r_fr6_190,fr6_p3).
body(r_fr6_190,fr12_x2).
head(r_fr6_191,fr6_p1).
body(r_fr6_191,fr6_b3).
body(r_fr6_191,fr6_f2).
body(r_fr6_191,fr6_q2).
body(r_fr6_191,fr3_p3).
body(r_fr6_191,fr6_z2).
head(r_fr6_192,fr6_p1).
body(r_fr6_192,fr6_a1).
body(r_fr6_192,fr17_e1).
body(r_fr6_192,fr12_f1).
body(r_fr6_192,fr6_e1).
body(r_fr6_192,fr6_e2).
body(r_fr6_192,fr6_f1).
head(r_fr6_193,fr6_p1).
body(r_fr6_193,fr6_q3).
body(r_fr6_193,fr6_v2).
body(r_fr6_193,fr6_w1).
body(r_fr6_193,fr6_z2).
head(r_fr6_194,fr6_p1).
body(r_fr6_194,fr2_b2).
body(r_fr6_194,fr6_b2).
body(r_fr6_194,fr6_b3).
head(r_fr6_195,fr6_p1).
body(r_fr6_195,fr6_v1).
head(r_fr6_196,fr6_p1).
body(r_fr6_196,fr6_a1).
body(r_fr6_196,fr6_a2).
body(r_fr6_196,fr7_a1).
body(r_fr6_196,fr2_b2).
body(r_fr6_196,fr12_f1).
body(r_fr6_196,fr6_f1).
head(r_fr6_197,fr6_p1).
body(r_fr6_197,fr17_c1).
body(r_fr6_197,fr6_f1).
head(r_fr6_198,fr6_p1).
body(r_fr6_198,fr2_b2).
body(r_fr6_198,fr6_q3).
body(r_fr6_198,fr6_x1).
body(r_fr6_198,fr19_v3).
body(r_fr6_198,fr6_z1).
head(r_fr6_199,fr6_p1).
body(r_fr6_199,fr6_c2).
body(r_fr6_199,fr6_d2).
body(r_fr6_199,fr6_e1).
body(r_fr6_199,fr6_f1).
body(r_fr6_199,fr12_x2).
head(r_fr6_200,fr6_p1).
body(r_fr6_200,fr6_c2).
body(r_fr6_200,fr6_f1).
head(r_fr6_201,fr6_p1).
body(r_fr6_201,fr6_a2).
body(r_fr6_201,fr17_e1).
body(r_fr6_201,fr12_f1).
body(r_fr6_201,fr6_d2).
body(r_fr6_201,fr6_f2).
body(r_fr6_201,fr6_u1).
head(r_fr6_202,fr6_p1).
body(r_fr6_202,fr7_a1).
body(r_fr6_202,fr6_b2).
body(r_fr6_202,fr12_f1).
body(r_fr6_202,fr6_d2).
body(r_fr6_202,fr6_w2).
body(r_fr6_202,fr19_v3).
head(r_fr6_203,fr6_p1).
body(r_fr6_203,fr6_q3).
body(r_fr6_203,fr6_r3).
body(r_fr6_203,fr6_t1).
body(r_fr6_203,fr6_t2).
body(r_fr6_203,fr6_u1).
body(r_fr6_203,fr6_x1).
head(r_fr6_204,fr6_p1).
body(r_fr6_204,fr6_x2).
head(r_fr6_205,fr6_p1).
body(r_fr6_205,fr6_b2).
body(r_fr6_205,fr12_f1).
body(r_fr6_205,fr6_t1).
body(r_fr6_205,fr6_y2).
head(r_fr6_206,fr6_p1).
body(r_fr6_206,fr6_d2).
head(r_fr6_207,fr6_x1).
body(r_fr6_207,fr6_b2).
body(r_fr6_207,fr6_q3).
body(r_fr6_207,fr6_s2).
body(r_fr6_207,fr19_v3).
head(r_fr6_208,fr6_x1).
body(r_fr6_208,fr6_a1).
head(r_fr6_209,fr6_x1).
body(r_fr6_209,fr6_a1).
body(r_fr6_209,fr6_a2).
body(r_fr6_209,fr2_b2).
body(r_fr6_209,fr6_b2).
body(r_fr6_209,fr6_e1).
body(r_fr6_209,fr6_f2).
head(r_fr6_210,fr6_x1).
body(r_fr6_210,fr6_q2).
body(r_fr6_210,fr19_v3).
head(r_fr6_211,fr6_x1).
body(r_fr6_211,fr2_b2).
body(r_fr6_211,fr12_x2).
head(r_fr6_212,fr6_x1).
head(r_fr6_213,fr6_x1).
body(r_fr6_213,fr6_p3).
body(r_fr6_213,fr6_q2).
body(r_fr6_213,fr6_s2).
body(r_fr6_213,fr6_w1).
body(r_fr6_213,fr6_y2).
head(r_fr6_214,fr6_x1).
body(r_fr6_214,fr6_a1).
body(r_fr6_214,fr6_q2).
body(r_fr6_214,fr6_w1).
head(r_fr6_215,fr6_x1).
body(r_fr6_215,fr6_r2).
body(r_fr6_215,fr6_s1).
body(r_fr6_215,fr6_w2).
body(r_fr6_215,fr19_v3).
head(r_fr6_216,fr6_x1).
body(r_fr6_216,fr2_b2).
body(r_fr6_216,fr6_b2).
body(r_fr6_216,fr17_e1).
body(r_fr6_216,fr6_c2).
body(r_fr6_216,fr6_f2).
body(r_fr6_216,fr6_p3).
head(r_fr6_217,fr6_x1).
body(r_fr6_217,fr6_b3).
body(r_fr6_217,fr6_e1).
body(r_fr6_217,fr6_e2).
body(r_fr6_217,fr6_z2).
head(r_fr6_218,fr6_x1).
body(r_fr6_218,fr6_b3).
body(r_fr6_218,fr6_p1).
body(r_fr6_218,fr6_u1).
body(r_fr6_218,fr6_v1).
body(r_fr6_218,fr6_z1).
head(r_fr6_219,fr6_x1).
body(r_fr6_219,fr2_b2).
body(r_fr6_219,fr6_b3).
body(r_fr6_219,fr6_d2).
body(r_fr6_219,fr6_e2).
body(r_fr6_219,fr6_r3).
body(r_fr6_219,fr6_v1).
head(r_fr6_220,fr6_x1).
body(r_fr6_220,fr7_a1).
body(r_fr6_220,fr6_u1).
head(r_fr6_221,fr6_x1).
body(r_fr6_221,fr6_r2).
head(r_fr6_222,fr6_x1).
body(r_fr6_222,fr6_a2).
body(r_fr6_222,fr3_p3).
head(r_fr6_223,fr6_x1).
body(r_fr6_223,fr6_e1).
body(r_fr6_223,fr6_r2).
body(r_fr6_223,fr6_t2).
body(r_fr6_223,fr6_w2).
head(r_fr6_224,fr6_q2).
body(r_fr6_224,fr6_a2).
body(r_fr6_224,fr7_a1).
body(r_fr6_224,fr17_e1).
body(r_fr6_224,fr12_f1).
body(r_fr6_224,fr6_f1).
body(r_fr6_224,fr6_r1).
head(r_fr6_225,fr6_q2).
body(r_fr6_225,fr6_a1).
body(r_fr6_225,fr17_c1).
body(r_fr6_225,fr6_d2).
body(r_fr6_225,fr6_f1).
head(r_fr6_226,fr6_q2).
body(r_fr6_226,fr6_w2).
body(r_fr6_226,fr6_x2).
body(r_fr6_226,fr6_z1).
body(r_fr6_226,fr6_z2).
head(r_fr6_227,fr6_q2).
body(r_fr6_227,fr6_b3).
body(r_fr6_227,fr6_e2).
body(r_fr6_227,fr12_x2).
body(r_fr6_227,fr6_t2).
body(r_fr6_227,fr6_v2).
head(r_fr6_228,fr6_q2).
body(r_fr6_228,fr6_c2).
body(r_fr6_228,fr6_d2).
head(r_fr6_229,fr6_q2).
body(r_fr6_229,fr6_e1).
body(r_fr6_229,fr6_s1).
body(r_fr6_229,fr6_v1).
body(r_fr6_229,fr6_z1).
head(r_fr6_230,fr6_q2).
body(r_fr6_230,fr6_b3).
body(r_fr6_230,fr6_e1).
body(r_fr6_230,fr6_p1).
body(r_fr6_230,fr6_p3).
body(r_fr6_230,fr6_v2).
body(r_fr6_230,fr19_v3).
head(r_fr6_231,fr6_q2).
body(r_fr6_231,fr6_a1).
body(r_fr6_231,fr6_e1).
body(r_fr6_231,fr6_f1).
body(r_fr6_231,fr6_q3).
body(r_fr6_231,fr6_v1).
body(r_fr6_231,fr6_w2).
head(r_fr6_232,fr6_q2).
body(r_fr6_232,fr12_x2).
body(r_fr6_232,fr6_v2).
head(r_fr6_233,fr6_q2).
body(r_fr6_233,fr6_b2).
body(r_fr6_233,fr6_r2).
body(r_fr6_233,fr6_t2).
body(r_fr6_233,fr6_u1).
body(r_fr6_233,fr6_w2).
body(r_fr6_233,fr19_v3).
head(r_fr6_234,fr6_q2).
head(r_fr6_235,fr6_q2).
body(r_fr6_235,fr7_a1).
body(r_fr6_235,fr17_e1).
head(r_fr6_236,fr6_q2).
body(r_fr6_236,fr6_a1).
body(r_fr6_236,fr9_t1).
body(r_fr6_236,fr6_p3).
body(r_fr6_236,fr6_z1).
head(r_fr6_237,fr6_q2).
body(r_fr6_237,fr6_p3).
body(r_fr6_237,fr6_r1).
body(r_fr6_237,fr6_t2).
body(r_fr6_237,fr3_p3).
body(r_fr6_237,fr6_z2).
head(r_fr6_238,fr6_v2).
body(r_fr6_238,fr6_b2).
head(r_fr6_239,fr6_v2).
body(r_fr6_239,fr6_a1).
body(r_fr6_239,fr6_b2).
body(r_fr6_239,fr6_b3).
body(r_fr6_239,fr17_c1).
body(r_fr6_239,fr6_f1).
head(r_fr6_240,fr6_v2).
body(r_fr6_240,fr2_b2).
body(r_fr6_240,fr6_c2).
body(r_fr6_240,fr6_q3).
body(r_fr6_240,fr6_s2).
body(r_fr6_240,fr6_y2).
head(r_fr6_241,fr6_v2).
body(r_fr6_241,fr7_a1).
body(r_fr6_241,fr6_e2).
body(r_fr6_241,fr6_z2).
head(r_fr6_242,fr6_v2).
body(r_fr6_242,fr2_b2).
body(r_fr6_242,fr17_e1).
body(r_fr6_242,fr6_f2).
body(r_fr6_242,fr6_w1).
body(r_fr6_242,fr6_x2).
head(r_fr6_243,fr6_v2).
body(r_fr6_243,fr6_p1).
body(r_fr6_243,fr6_q3).
body(r_fr6_243,fr6_s1).
body(r_fr6_243,fr6_u1).
body(r_fr6_243,fr6_x1).
head(r_fr6_244,fr6_v2).
body(r_fr6_244,fr6_f1).
body(r_fr6_244,fr6_q2).
head(r_fr6_245,fr6_v2).
body(r_fr6_245,fr6_v1).
body(r_fr6_245,fr6_w2).
head(r_fr6_246,fr6_v2).
body(r_fr6_246,fr7_a1).
body(r_fr6_246,fr17_c1).
body(r_fr6_246,fr6_e2).
body(r_fr6_246,fr6_f2).
body(r_fr6_246,fr6_t1).
head(r_fr6_247,fr6_v2).
head(r_fr6_248,fr6_v2).
body(r_fr6_248,fr2_b2).
body(r_fr6_248,fr17_e1).
body(r_fr6_248,fr12_f1).
body(r_fr6_248,fr6_f1).
body(r_fr6_248,fr6_z1).
head(r_fr6_249,fr6_v2).
body(r_fr6_249,fr6_z2).
head(r_fr6_250,fr6_v2).
body(r_fr6_250,fr6_b2).
body(r_fr6_250,fr12_f1).
body(r_fr6_250,fr6_d2).
body(r_fr6_250,fr6_f1).
body(r_fr6_250,fr6_f2).
body(r_fr6_250,fr9_t1).
head(r_fr6_251,fr6_v2).
body(r_fr6_251,fr6_u1).
head(r_fr6_252,fr6_v2).
body(r_fr6_252,fr6_a1).
head(r_fr6_253,fr6_v2).
body(r_fr6_253,fr6_p1).
body(r_fr6_253,fr9_t1).
head(r_fr6_254,fr6_v2).
body(r_fr6_254,fr2_b2).
body(r_fr6_254,fr6_b3).
body(r_fr6_254,fr17_c1).
body(r_fr6_254,fr6_r1).
body(r_fr6_254,fr6_x2).
head(r_fr6_255,fr6_u1).
body(r_fr6_255,fr6_a1).
body(r_fr6_255,fr6_b2).
body(r_fr6_255,fr6_b3).
body(r_fr6_255,fr6_f1).
body(r_fr6_255,fr6_t2).
head(r_fr6_256,fr6_u1).
body(r_fr6_256,fr6_a1).
body(r_fr6_256,fr7_a1).
body(r_fr6_256,fr6_c2).
body(r_fr6_256,fr12_f1).
body(r_fr6_256,fr6_e1).
body(r_fr6_256,fr6_x1).
head(r_fr6_257,fr6_u1).
body(r_fr6_257,fr2_b2).
body(r_fr6_257,fr17_e1).
body(r_fr6_257,fr6_d2).
body(r_fr6_257,fr12_x2).
head(r_fr6_258,fr6_u1).
body(r_fr6_258,fr6_r3).
body(r_fr6_258,fr6_w2).
head(r_fr6_259,fr6_u1).
body(r_fr6_259,fr6_b3).
head(r_fr6_260,fr6_u1).
body(r_fr6_260,fr12_f1).
body(r_fr6_260,fr6_e2).
body(r_fr6_260,fr6_s1).
body(r_fr6_260,fr6_v2).
body(r_fr6_260,fr6_w2).
head(r_fr6_261,fr6_u1).
body(r_fr6_261,fr7_a1).
body(r_fr6_261,fr17_c1).
body(r_fr6_261,fr6_f1).
body(r_fr6_261,fr6_p1).
body(r_fr6_261,fr6_r1).
body(r_fr6_261,fr6_s2).
head(r_fr6_262,fr6_u1).
body(r_fr6_262,fr7_a1).
body(r_fr6_262,fr17_e1).
head(r_fr6_263,fr6_u1).
body(r_fr6_263,fr2_b2).
body(r_fr6_263,fr17_c1).
body(r_fr6_263,fr6_e1).
body(r_fr6_263,fr6_e2).
body(r_fr6_263,fr6_f2).
body(r_fr6_263,fr6_v2).
head(r_fr6_264,fr6_u1).
body(r_fr6_264,fr6_a2).
body(r_fr6_264,fr6_e2).
body(r_fr6_264,fr12_x2).
body(r_fr6_264,fr6_x2).
body(r_fr6_264,fr6_z1).
body(r_fr6_264,fr6_z2).
head(r_fr6_265,fr6_u1).
body(r_fr6_265,fr6_d2).
body(r_fr6_265,fr6_e2).
body(r_fr6_265,fr6_t2).
head(r_fr6_266,fr6_u1).
body(r_fr6_266,fr6_v2).
body(r_fr6_266,fr6_w1).
body(r_fr6_266,fr6_x2).
head(r_fr6_267,fr6_u1).
body(r_fr6_267,fr6_a2).
body(r_fr6_267,fr6_c2).
body(r_fr6_267,fr17_c1).
body(r_fr6_267,fr12_f1).
body(r_fr6_267,fr12_x2).
body(r_fr6_267,fr6_s2).
head(r_fr6_268,fr6_u1).
body(r_fr6_268,fr6_q3).
body(r_fr6_268,fr6_t2).
body(r_fr6_268,fr6_z2).
head(r_fr6_269,fr6_u1).
body(r_fr6_269,fr12_x2).
body(r_fr6_269,fr6_v2).
body(r_fr6_269,fr19_v3).
head(r_fr6_270,fr6_u1).
head(r_fr6_271,fr6_u1).
body(r_fr6_271,fr6_f2).
head(r_fr6_272,fr6_v1).
body(r_fr6_272,fr12_f1).
body(r_fr6_272,fr6_e1).
body(r_fr6_272,fr6_f1).
body(r_fr6_272,fr6_f2).
head(r_fr6_273,fr6_v1).
body(r_fr6_273,fr7_a1).
body(r_fr6_273,fr2_b2).
body(r_fr6_273,fr6_b3).
body(r_fr6_273,fr17_e1).
body(r_fr6_273,fr6_e2).
body(r_fr6_273,fr6_f2).
head(r_fr6_274,fr6_v1).
body(r_fr6_274,fr6_r2).
head(r_fr6_275,fr6_v1).
body(r_fr6_275,fr6_q2).
body(r_fr6_275,fr6_r2).
body(r_fr6_275,fr6_t1).
body(r_fr6_275,fr6_u1).
body(r_fr6_275,fr3_p3).
body(r_fr6_275,fr6_w2).
head(r_fr6_276,fr6_v1).
body(r_fr6_276,fr2_b2).
body(r_fr6_276,fr6_b2).
body(r_fr6_276,fr17_c1).
head(r_fr6_277,fr6_v1).
body(r_fr6_277,fr6_c2).
body(r_fr6_277,fr6_u1).
body(r_fr6_277,fr6_v2).
head(r_fr6_278,fr6_v1).
head(r_fr6_279,fr6_v1).
body(r_fr6_279,fr2_b2).
body(r_fr6_279,fr6_e2).
body(r_fr6_279,fr6_t1).
body(r_fr6_279,fr6_w2).
body(r_fr6_279,fr6_x1).
body(r_fr6_279,fr6_z2).
head(r_fr6_280,fr6_v1).
body(r_fr6_280,fr6_e1).
body(r_fr6_280,fr9_t1).
head(r_fr6_281,fr6_v1).
body(r_fr6_281,fr6_p1).
body(r_fr6_281,fr6_s1).
head(r_fr6_282,fr6_v1).
body(r_fr6_282,fr6_q2).
head(r_fr6_283,fr6_v1).
body(r_fr6_283,fr6_a1).
body(r_fr6_283,fr6_a2).
body(r_fr6_283,fr17_e1).
body(r_fr6_283,fr17_c1).
body(r_fr6_283,fr6_e1).
body(r_fr6_283,fr6_f1).
head(r_fr6_284,fr6_v1).
body(r_fr6_284,fr6_a1).
body(r_fr6_284,fr6_b2).
body(r_fr6_284,fr6_d2).
head(r_fr6_285,fr6_v1).
body(r_fr6_285,fr6_z2).
head(r_fr6_286,fr6_v1).
body(r_fr6_286,fr6_p1).
body(r_fr6_286,fr9_t1).
head(r_fr6_287,fr6_t1).
body(r_fr6_287,fr17_e1).
body(r_fr6_287,fr6_c2).
body(r_fr6_287,fr6_d2).
head(r_fr6_288,fr6_t1).
body(r_fr6_288,fr6_a1).
body(r_fr6_288,fr7_a1).
body(r_fr6_288,fr6_u1).
body(r_fr6_288,fr6_x1).
head(r_fr6_289,fr6_t1).
body(r_fr6_289,fr6_b2).
body(r_fr6_289,fr6_f1).
body(r_fr6_289,fr6_r3).
head(r_fr6_290,fr6_t1).
body(r_fr6_290,fr6_r1).
body(r_fr6_290,fr6_r2).
body(r_fr6_290,fr6_z1).
head(r_fr6_291,fr6_t1).
body(r_fr6_291,fr6_b3).
body(r_fr6_291,fr12_f1).
body(r_fr6_291,fr6_r2).
body(r_fr6_291,fr6_r3).
body(r_fr6_291,fr6_s2).
body(r_fr6_291,fr6_x1).
head(r_fr6_292,fr6_t1).
body(r_fr6_292,fr7_a1).
head(r_fr6_293,fr6_t1).
body(r_fr6_293,fr6_d2).
body(r_fr6_293,fr6_f2).
head(r_fr6_294,fr6_t1).
body(r_fr6_294,fr7_a1).
body(r_fr6_294,fr6_b3).
body(r_fr6_294,fr6_c2).
body(r_fr6_294,fr17_c1).
body(r_fr6_294,fr6_e1).
body(r_fr6_294,fr6_r2).
head(r_fr6_295,fr6_t1).
body(r_fr6_295,fr6_b3).
head(r_fr6_296,fr6_t1).
body(r_fr6_296,fr6_p3).
body(r_fr6_296,fr6_r2).
body(r_fr6_296,fr6_s2).
body(r_fr6_296,fr6_u1).
head(r_fr6_297,fr6_t1).
body(r_fr6_297,fr6_a1).
body(r_fr6_297,fr6_a2).
body(r_fr6_297,fr6_b3).
body(r_fr6_297,fr6_e1).
body(r_fr6_297,fr6_f1).
head(r_fr6_298,fr6_t1).
body(r_fr6_298,fr6_b2).
body(r_fr6_298,fr6_u1).
body(r_fr6_298,fr6_w1).
body(r_fr6_298,fr6_y2).
head(r_fr6_299,fr6_t1).
body(r_fr6_299,fr6_w2).
head(r_fr6_300,fr6_t1).
body(r_fr6_300,fr6_a2).
body(r_fr6_300,fr12_x2).
body(r_fr6_300,fr6_v2).
body(r_fr6_300,fr6_z2).
head(r_fr6_301,fr6_t1).
head(r_fr6_302,fr6_t1).
body(r_fr6_302,fr7_a1).
body(r_fr6_302,fr6_b2).
body(r_fr6_302,fr6_p1).
body(r_fr6_302,fr19_v3).
body(r_fr6_302,fr6_z2).
head(r_fr6_303,fr6_t1).
body(r_fr6_303,fr6_a1).
body(r_fr6_303,fr6_d2).
body(r_fr6_303,fr6_e2).
body(r_fr6_303,fr6_w1).
head(r_fr6_304,fr6_z1).
body(r_fr6_304,fr6_b2).
body(r_fr6_304,fr6_e2).
head(r_fr6_305,fr6_z1).
body(r_fr6_305,fr7_a1).
body(r_fr6_305,fr6_b3).
body(r_fr6_305,fr6_f1).
head(r_fr6_306,fr6_z1).
body(r_fr6_306,fr17_e1).
body(r_fr6_306,fr6_e2).
body(r_fr6_306,fr9_t1).
head(r_fr6_307,fr6_z1).
body(r_fr6_307,fr6_a2).
body(r_fr6_307,fr17_c1).
body(r_fr6_307,fr19_v3).
head(r_fr6_308,fr6_z1).
body(r_fr6_308,fr6_q3).
body(r_fr6_308,fr6_t1).
body(r_fr6_308,fr6_z2).
head(r_fr6_309,fr6_z1).
body(r_fr6_309,fr6_p3).
body(r_fr6_309,fr6_q2).
body(r_fr6_309,fr6_r1).
body(r_fr6_309,fr6_x2).
body(r_fr6_309,fr19_v3).
head(r_fr6_310,fr6_z1).
body(r_fr6_310,fr6_c2).
body(r_fr6_310,fr12_f1).
body(r_fr6_310,fr6_d2).
body(r_fr6_310,fr12_x2).
body(r_fr6_310,fr6_s2).
body(r_fr6_310,fr6_v1).
head(r_fr6_311,fr6_z1).
body(r_fr6_311,fr6_a2).
body(r_fr6_311,fr6_b3).
body(r_fr6_311,fr6_c2).
body(r_fr6_311,fr6_d2).
body(r_fr6_311,fr6_t1).
body(r_fr6_311,fr6_w2).
head(r_fr6_312,fr6_z1).
body(r_fr6_312,fr6_c2).
body(r_fr6_312,fr6_x2).
head(r_fr6_313,fr6_z1).
body(r_fr6_313,fr7_a1).
body(r_fr6_313,fr17_c1).
body(r_fr6_313,fr6_p1).
head(r_fr6_314,fr6_z1).
body(r_fr6_314,fr6_a2).
body(r_fr6_314,fr17_c1).
body(r_fr6_314,fr6_f1).
body(r_fr6_314,fr6_s1).
head(r_fr6_315,fr6_z1).
body(r_fr6_315,fr7_a1).
head(r_fr6_316,fr6_z1).
head(r_fr6_317,fr6_z1).
body(r_fr6_317,fr7_a1).
body(r_fr6_317,fr6_c2).
body(r_fr6_317,fr6_t2).

assumption(fr7_a1).
assumption(fr18_a1).
assumption(fr10_e1).
assumption(fr18_a1).
assumption(fr2_b2).
assumption(fr7_a1).
contrary(fr7_a1,fr21_p3).
contrary(fr18_a1,fr2_b2).
contrary(fr10_e1,fr3_p3).
contrary(fr18_a1,fr14_t1).
contrary(fr2_b2,fr3_p3).
contrary(fr7_a1,fr12_x2).
head(r_fr7_0,fr20_y1).
body(r_fr7_0,fr2_b2).
head(r_fr7_1,fr20_y1).
body(r_fr7_1,fr18_a1).
head(r_fr7_2,fr23_x4).
body(r_fr7_2,fr10_e1).
body(r_fr7_2,fr25_s2).
head(r_fr7_3,fr23_x4).
head(r_fr7_4,fr25_s2).
body(r_fr7_4,fr3_p3).
body(r_fr7_4,fr25_p3).
head(r_fr7_5,fr25_s2).
head(r_fr7_6,fr3_p3).
body(r_fr7_6,fr18_a1).
body(r_fr7_6,fr10_e1).
head(r_fr7_7,fr3_p3).
body(r_fr7_7,fr7_a1).
head(r_fr7_8,fr14_t1).
head(r_fr7_9,fr14_t1).
body(r_fr7_9,fr7_a1).
head(r_fr7_10,fr12_x2).
body(r_fr7_10,fr21_p3).
head(r_fr7_11,fr12_x2).
head(r_fr7_12,fr25_p3).
head(r_fr7_13,fr25_p3).
body(r_fr7_13,fr18_a1).
body(r_fr7_13,fr10_e1).
head(r_fr7_14,fr17_u1).
body(r_fr7_14,fr7_t1).
body(r_fr7_14,fr21_p3).
head(r_fr7_15,fr17_u1).

assumption(fr8_a1).
assumption(fr8_b1).
assumption(fr8_c1).
assumption(fr8_d1).
assumption(fr8_e1).
assumption(fr8_f1).
assumption(fr8_a2).
assumption(fr8_b2).
assumption(fr8_c2).
assumption(fr8_d2).
assumption(fr8_e2).
assumption(fr8_f2).
assumption(fr8_a3).
assumption(fr8_b3).
assumption(fr8_c3).
assumption(fr8_d3).
assumption(fr8_e3).
assumption(fr8_f3).
assumption(fr8_a4).
assumption(fr8_b4).
assumption(fr8_c4).
assumption(fr8_d4).
assumption(fr8_e4).
assumption(fr8_f4).
assumption(fr8_a5).
assumption(fr8_b5).
assumption(fr8_c5).
assumption(fr8_d5).
assumption(fr8_e5).
assumption(fr8_f5).
assumption(fr8_a6).
assumption(fr8_b6).
assumption(fr8_c6).
contrary(fr8_a1,fr8_r4).
contrary(fr8_a2,fr8_f1).
contrary(fr8_a3,fr8_z4).
contrary(fr8_a4,fr8_f3).
contrary(fr8_a5,fr8_b2).
contrary(fr8_a6,fr8_a4).
contrary(fr8_b1,fr8_q3).
contrary(fr8_b2,fr8_c5).
contrary(fr8_b3,fr8_a2).
contrary(fr8_b4,fr8_w3).
contrary(fr8_b5,fr8_v2).
contrary(fr8_b6,fr8_t3).
contrary(fr8_c1,fr8_y3).
contrary(fr8_c2,fr8_v4).
contrary(fr8_c3,fr8_e1).
contrary(fr8_c4,fr8_q4).
contrary(fr8_c5,fr8_b3).
contrary(fr8_c6,fr8_t4).
contrary(fr8_d1,fr8_y2).
contrary(fr8_d2,fr8_w1).
contrary(fr8_d3,fr8_a5).
contrary(fr8_d4,fr8_c6).
contrary(fr8_d5,fr4_t3).
contrary(fr8_e1,fr8_u4).
contrary(fr8_e2,fr8_t1).
contrary(fr8_e3,fr24_t2).
contrary(fr8_e4,fr8_b3).
contrary(fr8_e5,fr8_s2).
contrary(fr8_f1,fr8_d2).
contrary(fr8_f2,fr8_y1).
contrary(fr8_f3,fr8_r5).
contrary(fr8_f4,fr8_x5).
contrary(fr8_f5,fr8_q4).
head(r_fr8_0,fr8_y5).
body(r_fr8_0,fr8_b3).
body(r_fr8_0,fr8_b5).
body(r_fr8_0,fr8_d3).
body(r_fr8_0,fr8_d5).
body(r_fr8_0,fr8_e1).
head(r_fr8_1,fr8_y5).
head(r_fr8_2,fr8_y5).
body(r_fr8_2,fr8_b2).
body(r_fr8_2,fr8_c3).
body(r_fr8_2,fr8_c4).
body(r_fr8_2,fr8_d3).
body(r_fr8_2,fr8_e1).
body(r_fr8_2,fr8_e2).
body(r_fr8_2,fr8_f1).
body(r_fr8_2,fr8_p4).
body(r_fr8_2,fr8_q3).
body(r_fr8_2,fr8_t2).
body(r_fr8_2,fr8_v1).
body(r_fr8_2,fr8_w2).
body(r_fr8_2,fr8_x5).
head(r_fr8_3,fr8_y5).
body(r_fr8_3,fr8_a2).
body(r_fr8_3,fr8_d3).
body(r_fr8_3,fr8_e2).
body(r_fr8_3,fr8_f3).
body(r_fr8_3,fr8_f5).
body(r_fr8_3,fr8_z4).
head(r_fr8_4,fr8_y5).
body(r_fr8_4,fr8_q1).
body(r_fr8_4,fr8_r4).
head(r_fr8_5,fr24_t2).
body(r_fr8_5,fr8_a6).
body(r_fr8_5,fr8_b1).
body(r_fr8_5,fr8_b6).
body(r_fr8_5,fr8_c3).
body(r_fr8_5,fr8_d5).
body(r_fr8_5,fr8_e5).
head(r_fr8_6,fr24_t2).
body(r_fr8_6,fr8_b2).
body(r_fr8_6,fr8_e2).
body(r_fr8_6,fr8_e5).
body(r_fr8_6,fr22_p2).
head(r_fr8_7,fr24_t2).
body(r_fr8_7,fr8_f5).
body(r_fr8_7,fr8_r2).
body(r_fr8_7,fr8_t5).
body(r_fr8_7,fr8_u3).
body(r_fr8_7,fr8_v3).
body(r_fr8_7,fr4_s2).
body(r_fr8_7,fr8_y5).
body(r_fr8_7,fr8_z1).
head(r_fr8_8,fr24_t2).
body(r_fr8_8,fr8_a3).
body(r_fr8_8,fr8_a4).
body(r_fr8_8,fr8_b1).
body(r_fr8_8,fr8_b6).
body(r_fr8_8,fr8_c2).
body(r_fr8_8,fr8_c4).
body(r_fr8_8,fr8_c5).
body(r_fr8_8,fr8_d3).
body(r_fr8_8,fr8_d5).
body(r_fr8_8,fr8_e4).
body(r_fr8_8,fr8_t1).
head(r_fr8_9,fr24_t2).
body(r_fr8_9,fr8_a2).
body(r_fr8_9,fr8_a5).
body(r_fr8_9,fr8_b3).
body(r_fr8_9,fr8_c1).
body(r_fr8_9,fr8_d2).
body(r_fr8_9,fr8_e3).
body(r_fr8_9,fr8_f3).
body(r_fr8_9,fr8_f5).
body(r_fr8_9,fr8_s4).
body(r_fr8_9,fr8_t1).
body(r_fr8_9,fr8_w3).
body(r_fr8_9,fr8_x1).
body(r_fr8_9,fr8_x3).
head(r_fr8_10,fr8_w3).
body(r_fr8_10,fr8_a2).
body(r_fr8_10,fr8_a4).
body(r_fr8_10,fr8_e3).
body(r_fr8_10,fr8_e5).
head(r_fr8_11,fr8_w3).
body(r_fr8_11,fr8_f4).
body(r_fr8_11,fr24_r2).
body(r_fr8_11,fr8_u5).
body(r_fr8_11,fr8_v1).
body(r_fr8_11,fr8_w2).
body(r_fr8_11,fr8_w4).
body(r_fr8_11,fr8_x5).
body(r_fr8_11,fr8_y1).
body(r_fr8_11,fr8_z1).
body(r_fr8_11,fr8_z2).
head(r_fr8_12,fr8_w3).
body(r_fr8_12,fr8_a1).
body(r_fr8_12,fr8_b1).
body(r_fr8_12,fr8_d2).
body(r_fr8_12,fr8_e2).
body(r_fr8_12,fr24_t2).
body(r_fr8_12,fr8_s5).
body(r_fr8_12,fr8_v1).
body(r_fr8_12,fr8_w1).
body(r_fr8_12,fr8_x5).
body(r_fr8_12,fr8_y3).
body(r_fr8_12,fr8_z2).
body(r_fr8_12,fr4_t3).
head(r_fr8_13,fr8_v1).
body(r_fr8_13,fr8_b4).
body(r_fr8_13,fr8_b6).
body(r_fr8_13,fr8_d4).
body(r_fr8_13,fr4_t1).
body(r_fr8_13,fr9_t1).
body(r_fr8_13,fr8_y1).
head(r_fr8_14,fr8_v1).
body(r_fr8_14,fr8_a4).
body(r_fr8_14,fr8_c1).
body(r_fr8_14,fr8_c2).
body(r_fr8_14,fr8_d1).
body(r_fr8_14,fr8_e4).
body(r_fr8_14,fr8_f1).
body(r_fr8_14,fr8_f5).
body(r_fr8_14,fr8_r3).
body(r_fr8_14,fr8_t1).
body(r_fr8_14,fr4_s2).
body(r_fr8_14,fr8_x1).
body(r_fr8_14,fr8_y2).
body(r_fr8_14,fr8_z4).
head(r_fr8_15,fr8_t4).
body(r_fr8_15,fr8_b3).
body(r_fr8_15,fr8_c3).
body(r_fr8_15,fr8_f5).
body(r_fr8_15,fr8_s4).
head(r_fr8_16,fr8_t4).
body(r_fr8_16,fr8_a6).
body(r_fr8_16,fr8_b2).
body(r_fr8_16,fr8_c5).
body(r_fr8_16,fr8_e1).
body(r_fr8_16,fr8_e2).
body(r_fr8_16,fr24_r2).
body(r_fr8_16,fr22_p2).
body(r_fr8_16,fr8_r4).
body(r_fr8_16,fr8_x2).
head(r_fr8_17,fr8_t4).
body(r_fr8_17,fr8_a2).
body(r_fr8_17,fr8_b5).
body(r_fr8_17,fr8_d4).
body(r_fr8_17,fr24_r2).
body(r_fr8_17,fr19_p3).
body(r_fr8_17,fr8_t2).
head(r_fr8_18,fr8_t4).
body(r_fr8_18,fr8_a6).
body(r_fr8_18,fr8_b1).
body(r_fr8_18,fr8_b6).
body(r_fr8_18,fr8_e5).
body(r_fr8_18,fr8_y4).
head(r_fr8_19,fr8_t4).
body(r_fr8_19,fr8_a1).
body(r_fr8_19,fr8_a2).
body(r_fr8_19,fr8_a3).
body(r_fr8_19,fr8_a6).
body(r_fr8_19,fr8_b2).
body(r_fr8_19,fr8_c2).
body(r_fr8_19,fr8_c6).
body(r_fr8_19,fr8_d5).
body(r_fr8_19,fr8_e3).
body(r_fr8_19,fr8_f1).
body(r_fr8_19,fr8_f4).
head(r_fr8_20,fr8_t4).
body(r_fr8_20,fr8_a2).
body(r_fr8_20,fr8_a3).
body(r_fr8_20,fr8_b2).
body(r_fr8_20,fr8_s1).
body(r_fr8_20,fr8_u1).
body(r_fr8_20,fr8_u3).
body(r_fr8_20,fr8_u4).
body(r_fr8_20,fr9_t1).
body(r_fr8_20,fr8_x2).
head(r_fr8_21,fr8_z2).
body(r_fr8_21,fr8_a1).
body(r_fr8_21,fr8_a6).
body(r_fr8_21,fr8_b1).
body(r_fr8_21,fr8_b2).
body(r_fr8_21,fr8_b3).
body(r_fr8_21,fr8_b5).
body(r_fr8_21,fr8_c4).
body(r_fr8_21,fr8_e1).
body(r_fr8_21,fr8_e4).
body(r_fr8_21,fr8_f2).
head(r_fr8_22,fr8_z2).
body(r_fr8_22,fr8_q3).
body(r_fr8_22,fr8_s1).
body(r_fr8_22,fr9_t1).
body(r_fr8_22,fr4_t3).
head(r_fr8_23,fr8_z2).
body(r_fr8_23,fr8_a2).
body(r_fr8_23,fr8_a6).
body(r_fr8_23,fr8_b2).
body(r_fr8_23,fr8_b4).
body(r_fr8_23,fr8_c4).
body(r_fr8_23,fr8_d1).
body(r_fr8_23,fr8_d2).
body(r_fr8_23,fr9_t1).
body(r_fr8_23,fr8_y2).
body(r_fr8_23,fr8_y3).
body(r_fr8_23,fr19_r3).
head(r_fr8_24,fr8_r2).
body(r_fr8_24,fr8_q3).
head(r_fr8_25,fr8_r2).
body(r_fr8_25,fr8_d4).
body(r_fr8_25,fr8_f2).
body(r_fr8_25,fr19_p3).
body(r_fr8_25,fr8_q4).
body(r_fr8_25,fr8_v1).
body(r_fr8_25,fr8_v4).
body(r_fr8_25,fr8_w1).
body(r_fr8_25,fr8_w3).
body(r_fr8_25,fr8_w4).
body(r_fr8_25,fr8_x1).
body(r_fr8_25,fr8_y4).
body(r_fr8_25,fr8_z2).
head(r_fr8_26,fr8_r2).
body(r_fr8_26,fr8_a4).
body(r_fr8_26,fr8_a6).
body(r_fr8_26,fr8_c2).
body(r_fr8_26,fr8_c4).
body(r_fr8_26,fr8_c5).
body(r_fr8_26,fr8_c6).
body(r_fr8_26,fr8_d4).
body(r_fr8_26,fr8_e5).
body(r_fr8_26,fr8_f2).
body(r_fr8_26,fr8_f3).
body(r_fr8_26,fr8_f5).
body(r_fr8_26,fr8_p4).
body(r_fr8_26,fr8_x4).
head(r_fr8_27,fr8_r2).
body(r_fr8_27,fr8_a3).
body(r_fr8_27,fr8_b3).
body(r_fr8_27,fr8_b5).
body(r_fr8_27,fr8_c2).
body(r_fr8_27,fr8_d3).
body(r_fr8_27,fr8_d4).
body(r_fr8_27,fr8_f3).
body(r_fr8_27,fr8_f4).
body(r_fr8_27,fr8_p1).
body(r_fr8_27,fr8_q1).
body(r_fr8_27,fr8_w3).
body(r_fr8_27,fr9_t1).
head(r_fr8_28,fr8_r2).
body(r_fr8_28,fr8_a3).
body(r_fr8_28,fr8_a6).
body(r_fr8_28,fr8_b1).
body(r_fr8_28,fr8_b3).
body(r_fr8_28,fr8_s4).
body(r_fr8_28,fr8_w1).
body(r_fr8_28,fr8_w2).
body(r_fr8_28,fr8_w3).
head(r_fr8_29,fr8_r2).
head(r_fr8_30,fr8_r2).
body(r_fr8_30,fr8_d5).
head(r_fr8_31,fr8_p1).
head(r_fr8_32,fr8_p1).
body(r_fr8_32,fr8_a1).
body(r_fr8_32,fr8_a2).
body(r_fr8_32,fr8_a3).
body(r_fr8_32,fr8_a4).
body(r_fr8_32,fr8_b2).
body(r_fr8_32,fr8_b6).
body(r_fr8_32,fr8_c1).
body(r_fr8_32,fr8_c3).
body(r_fr8_32,fr8_d1).
body(r_fr8_32,fr8_e4).
body(r_fr8_32,fr8_e5).
body(r_fr8_32,fr8_f5).
body(r_fr8_32,fr8_w1).
head(r_fr8_33,fr8_t5).
body(r_fr8_33,fr8_b5).
body(r_fr8_33,fr8_c3).
body(r_fr8_33,fr8_c4).
body(r_fr8_33,fr8_s1).
body(r_fr8_33,fr8_z2).
head(r_fr8_34,fr8_t5).
body(r_fr8_34,fr8_b5).
body(r_fr8_34,fr8_f5).
head(r_fr8_35,fr8_t5).
body(r_fr8_35,fr8_b5).
body(r_fr8_35,fr8_d1).
body(r_fr8_35,fr8_e1).
head(r_fr8_36,fr8_t5).
body(r_fr8_36,fr8_b5).
body(r_fr8_36,fr8_e1).
body(r_fr8_36,fr8_e2).
body(r_fr8_36,fr8_t3).
body(r_fr8_36,fr8_u1).
body(r_fr8_36,fr8_v2).
body(r_fr8_36,fr4_s2).
head(r_fr8_37,fr8_t5).
body(r_fr8_37,fr8_a4).
body(r_fr8_37,fr8_a6).
body(r_fr8_37,fr8_b3).
body(r_fr8_37,fr8_b4).
body(r_fr8_37,fr8_b5).
body(r_fr8_37,fr8_c3).
body(r_fr8_37,fr8_c5).
body(r_fr8_37,fr8_d1).
body(r_fr8_37,fr8_d2).
body(r_fr8_37,fr8_e5).
body(r_fr8_37,fr8_f4).
body(r_fr8_37,fr8_u3).
head(r_fr8_38,fr8_t5).
body(r_fr8_38,fr8_c4).
body(r_fr8_38,fr8_p5).
body(r_fr8_38,fr8_r4).
body(r_fr8_38,fr8_v2).
body(r_fr8_38,fr8_v3).
body(r_fr8_38,fr8_x2).
body(r_fr8_38,fr8_y1).
body(r_fr8_38,fr8_y5).
body(r_fr8_38,fr4_t3).
head(r_fr8_39,fr8_t5).
body(r_fr8_39,fr8_a3).
body(r_fr8_39,fr8_b1).
body(r_fr8_39,fr8_b4).
body(r_fr8_39,fr8_c6).
body(r_fr8_39,fr8_d3).
body(r_fr8_39,fr8_e5).
body(r_fr8_39,fr8_y1).
head(r_fr8_40,fr8_t5).
body(r_fr8_40,fr8_a3).
body(r_fr8_40,fr22_p2).
body(r_fr8_40,fr8_q5).
body(r_fr8_40,fr8_s2).
body(r_fr8_40,fr24_t2).
body(r_fr8_40,fr8_v4).
body(r_fr8_40,fr19_r3).
head(r_fr8_41,fr8_t5).
body(r_fr8_41,fr8_a1).
body(r_fr8_41,fr8_a2).
body(r_fr8_41,fr8_b3).
body(r_fr8_41,fr8_b5).
body(r_fr8_41,fr8_b6).
body(r_fr8_41,fr8_c3).
body(r_fr8_41,fr8_c4).
body(r_fr8_41,fr8_c5).
body(r_fr8_41,fr8_d1).
body(r_fr8_41,fr8_f3).
body(r_fr8_41,fr8_f5).
head(r_fr8_42,fr8_t5).
body(r_fr8_42,fr8_r3).
body(r_fr8_42,fr8_s1).
body(r_fr8_42,fr24_t2).
body(r_fr8_42,fr8_t4).
body(r_fr8_42,fr8_x4).
body(r_fr8_42,fr19_r3).
head(r_fr8_43,fr8_v3).
body(r_fr8_43,fr8_c4).
body(r_fr8_43,fr24_r2).
body(r_fr8_43,fr8_x5).
body(r_fr8_43,fr19_r3).
head(r_fr8_44,fr8_v3).
body(r_fr8_44,fr8_a1).
head(r_fr8_45,fr8_v3).
head(r_fr8_46,fr8_v3).
body(r_fr8_46,fr8_a5).
body(r_fr8_46,fr8_a6).
body(r_fr8_46,fr8_b3).
body(r_fr8_46,fr8_b6).
body(r_fr8_46,fr8_c1).
body(r_fr8_46,fr8_d1).
body(r_fr8_46,fr8_e1).
body(r_fr8_46,fr8_q5).
body(r_fr8_46,fr8_s5).
body(r_fr8_46,fr19_r3).
head(r_fr8_47,fr8_v3).
body(r_fr8_47,fr8_a4).
body(r_fr8_47,fr8_c5).
body(r_fr8_47,fr8_e1).
body(r_fr8_47,fr8_t2).
body(r_fr8_47,fr8_u2).
head(r_fr8_48,fr8_v3).
body(r_fr8_48,fr8_f3).
body(r_fr8_48,fr8_p1).
body(r_fr8_48,fr4_t1).
body(r_fr8_48,fr8_r4).
body(r_fr8_48,fr8_s5).
body(r_fr8_48,fr8_v2).
body(r_fr8_48,fr4_s2).
body(r_fr8_48,fr8_x3).
body(r_fr8_48,fr8_x4).
body(r_fr8_48,fr8_y3).
body(r_fr8_48,fr8_z2).
body(r_fr8_48,fr8_z4).
head(r_fr8_49,fr8_v3).
body(r_fr8_49,fr8_c2).
body(r_fr8_49,fr8_c4).
body(r_fr8_49,fr8_d1).
body(r_fr8_49,fr8_f5).
head(r_fr8_50,fr8_v3).
body(r_fr8_50,fr8_a1).
body(r_fr8_50,fr8_a3).
body(r_fr8_50,fr8_a4).
body(r_fr8_50,fr8_a6).
body(r_fr8_50,fr8_b4).
body(r_fr8_50,fr8_d4).
body(r_fr8_50,fr8_e4).
body(r_fr8_50,fr8_f5).
body(r_fr8_50,fr8_q4).
body(r_fr8_50,fr8_s4).
body(r_fr8_50,fr8_u3).
head(r_fr8_51,fr8_u1).
body(r_fr8_51,fr8_a2).
body(r_fr8_51,fr8_b3).
body(r_fr8_51,fr8_b4).
body(r_fr8_51,fr8_d3).
body(r_fr8_51,fr8_d4).
body(r_fr8_51,fr8_e5).
body(r_fr8_51,fr8_t2).
body(r_fr8_51,fr4_t3).
head(r_fr8_52,fr8_u1).
body(r_fr8_52,fr8_a1).
body(r_fr8_52,fr8_c3).
body(r_fr8_52,fr8_e4).
body(r_fr8_52,fr8_f2).
body(r_fr8_52,fr8_q5).
body(r_fr8_52,fr8_r2).
body(r_fr8_52,fr8_v3).
body(r_fr8_52,fr8_w4).
head(r_fr8_53,fr8_u1).
body(r_fr8_53,fr8_a1).
body(r_fr8_53,fr8_b5).
body(r_fr8_53,fr8_f5).
body(r_fr8_53,fr19_p3).
body(r_fr8_53,fr8_q1).
body(r_fr8_53,fr8_r5).
body(r_fr8_53,fr8_s4).
body(r_fr8_53,fr8_t4).
body(r_fr8_53,fr8_v2).
head(r_fr8_54,fr8_u1).
body(r_fr8_54,fr22_p2).
body(r_fr8_54,fr8_r4).
body(r_fr8_54,fr8_s1).
body(r_fr8_54,fr8_t3).
body(r_fr8_54,fr8_v3).
body(r_fr8_54,fr8_w2).
body(r_fr8_54,fr8_w3).
body(r_fr8_54,fr8_x2).
body(r_fr8_54,fr8_y4).
head(r_fr8_55,fr8_r5).
body(r_fr8_55,fr8_b3).
body(r_fr8_55,fr8_d4).
body(r_fr8_55,fr8_d5).
body(r_fr8_55,fr8_f5).
body(r_fr8_55,fr19_p3).
body(r_fr8_55,fr8_q4).
body(r_fr8_55,fr8_u5).
body(r_fr8_55,fr8_v4).
body(r_fr8_55,fr4_s2).
body(r_fr8_55,fr8_w2).
body(r_fr8_55,fr8_x1).
body(r_fr8_55,fr8_x5).
body(r_fr8_55,fr8_y1).
head(r_fr8_56,fr8_r5).
body(r_fr8_56,fr8_r2).
body(r_fr8_56,fr8_v1).
body(r_fr8_56,fr8_w4).
body(r_fr8_56,fr8_x5).
body(r_fr8_56,fr8_z1).
body(r_fr8_56,fr8_z4).
body(r_fr8_56,fr19_r3).
head(r_fr8_57,fr8_r5).
body(r_fr8_57,fr8_p1).
body(r_fr8_57,fr8_t1).
body(r_fr8_57,fr8_v4).
body(r_fr8_57,fr8_x5).
body(r_fr8_57,fr8_y1).
head(r_fr8_58,fr8_r5).
body(r_fr8_58,fr8_q4).
body(r_fr8_58,fr8_t3).
body(r_fr8_58,fr8_v1).
body(r_fr8_58,fr8_v3).
body(r_fr8_58,fr8_w2).
body(r_fr8_58,fr8_x2).
body(r_fr8_58,fr8_x3).
body(r_fr8_58,fr8_z2).
body(r_fr8_58,fr4_t3).
head(r_fr8_59,fr8_r5).
body(r_fr8_59,fr8_a5).
body(r_fr8_59,fr8_c1).
body(r_fr8_59,fr8_c4).
body(r_fr8_59,fr8_e5).
body(r_fr8_59,fr8_f2).
body(r_fr8_59,fr8_p4).
body(r_fr8_59,fr4_t1).
body(r_fr8_59,fr8_s5).
body(r_fr8_59,fr8_v2).
body(r_fr8_59,fr8_y4).
head(r_fr8_60,fr8_r5).
body(r_fr8_60,fr19_p3).
body(r_fr8_60,fr8_p4).
body(r_fr8_60,fr8_p5).
body(r_fr8_60,fr8_s1).
body(r_fr8_60,fr8_s5).
body(r_fr8_60,fr8_t4).
body(r_fr8_60,fr8_v1).
body(r_fr8_60,fr8_y2).
body(r_fr8_60,fr8_z1).
head(r_fr8_61,fr8_r5).
body(r_fr8_61,fr8_a5).
body(r_fr8_61,fr8_b5).
body(r_fr8_61,fr8_u2).
body(r_fr8_61,fr8_w4).
body(r_fr8_61,fr4_t3).
head(r_fr8_62,fr8_r5).
body(r_fr8_62,fr8_a4).
body(r_fr8_62,fr8_b3).
body(r_fr8_62,fr8_b4).
body(r_fr8_62,fr24_r2).
body(r_fr8_62,fr8_t5).
body(r_fr8_62,fr8_u4).
body(r_fr8_62,fr8_v1).
head(r_fr8_63,fr4_t1).
body(r_fr8_63,fr8_a2).
body(r_fr8_63,fr8_a5).
body(r_fr8_63,fr8_b1).
body(r_fr8_63,fr8_b6).
body(r_fr8_63,fr8_c1).
body(r_fr8_63,fr8_c5).
body(r_fr8_63,fr8_d2).
body(r_fr8_63,fr8_d5).
body(r_fr8_63,fr8_f3).
body(r_fr8_63,fr22_p2).
body(r_fr8_63,fr8_t3).
body(r_fr8_63,fr8_v3).
head(r_fr8_64,fr4_t1).
body(r_fr8_64,fr8_u2).
body(r_fr8_64,fr8_z4).
head(r_fr8_65,fr4_t1).
body(r_fr8_65,fr8_b2).
body(r_fr8_65,fr8_e4).
body(r_fr8_65,fr8_x2).
head(r_fr8_66,fr4_t1).
body(r_fr8_66,fr8_p1).
body(r_fr8_66,fr22_p2).
body(r_fr8_66,fr8_q5).
body(r_fr8_66,fr8_u1).
body(r_fr8_66,fr8_u4).
body(r_fr8_66,fr8_u5).
body(r_fr8_66,fr8_z1).
head(r_fr8_67,fr4_t1).
body(r_fr8_67,fr8_a5).
body(r_fr8_67,fr8_b3).
body(r_fr8_67,fr8_b6).
body(r_fr8_67,fr8_c4).
body(r_fr8_67,fr8_e1).
body(r_fr8_67,fr8_e5).
body(r_fr8_67,fr8_p4).
body(r_fr8_67,fr8_t2).
body(r_fr8_67,fr8_t5).
body(r_fr8_67,fr8_v4).
body(r_fr8_67,fr8_y4).
body(r_fr8_67,fr4_t3).
head(r_fr8_68,fr4_t1).
body(r_fr8_68,fr8_a4).
body(r_fr8_68,fr8_a5).
body(r_fr8_68,fr8_a6).
body(r_fr8_68,fr8_b3).
body(r_fr8_68,fr8_b4).
body(r_fr8_68,fr8_b5).
body(r_fr8_68,fr8_c1).
body(r_fr8_68,fr8_c5).
body(r_fr8_68,fr8_f1).
body(r_fr8_68,fr8_f5).
body(r_fr8_68,fr8_r5).
body(r_fr8_68,fr8_s1).
head(r_fr8_69,fr4_t1).
body(r_fr8_69,fr8_a2).
body(r_fr8_69,fr8_a6).
body(r_fr8_69,fr8_d5).
body(r_fr8_69,fr8_e4).
body(r_fr8_69,fr8_e5).
body(r_fr8_69,fr8_f5).
body(r_fr8_69,fr8_p5).
body(r_fr8_69,fr8_v3).
body(r_fr8_69,fr8_w2).
body(r_fr8_69,fr8_x2).
body(r_fr8_69,fr8_x5).
body(r_fr8_69,fr8_z4).
head(r_fr8_70,fr4_t1).
body(r_fr8_70,fr8_q5).
body(r_fr8_70,fr8_s1).
body(r_fr8_70,fr8_u4).
body(r_fr8_70,fr8_u5).
body(r_fr8_70,fr8_v1).
body(r_fr8_70,fr8_y5).
body(r_fr8_70,fr8_z4).
head(r_fr8_71,fr4_t1).
body(r_fr8_71,fr8_b6).
body(r_fr8_71,fr8_c5).
body(r_fr8_71,fr8_e4).
head(r_fr8_72,fr4_t1).
body(r_fr8_72,fr8_a1).
body(r_fr8_72,fr8_c1).
body(r_fr8_72,fr8_c2).
body(r_fr8_72,fr8_f4).
body(r_fr8_72,fr8_p4).
body(r_fr8_72,fr8_q3).
body(r_fr8_72,fr24_t2).
body(r_fr8_72,fr8_t4).
body(r_fr8_72,fr8_v3).
body(r_fr8_72,fr8_w1).
body(r_fr8_72,fr9_t1).
body(r_fr8_72,fr8_x3).
body(r_fr8_72,fr8_y2).
head(r_fr8_73,fr8_s1).
body(r_fr8_73,fr8_c6).
body(r_fr8_73,fr8_q1).
body(r_fr8_73,fr4_t1).
body(r_fr8_73,fr8_w1).
head(r_fr8_74,fr8_s1).
body(r_fr8_74,fr8_a5).
body(r_fr8_74,fr8_b1).
body(r_fr8_74,fr8_b4).
body(r_fr8_74,fr8_b6).
body(r_fr8_74,fr8_c3).
body(r_fr8_74,fr8_c4).
body(r_fr8_74,fr8_c6).
body(r_fr8_74,fr8_e2).
body(r_fr8_74,fr8_f1).
body(r_fr8_74,fr4_t1).
body(r_fr8_74,fr8_r2).
body(r_fr8_74,fr8_x5).
head(r_fr8_75,fr8_s1).
body(r_fr8_75,fr8_a4).
body(r_fr8_75,fr8_e2).
body(r_fr8_75,fr8_p5).
body(r_fr8_75,fr4_s2).
head(r_fr8_76,fr8_s1).
body(r_fr8_76,fr8_a2).
body(r_fr8_76,fr8_b4).
body(r_fr8_76,fr8_c4).
body(r_fr8_76,fr8_f5).
head(r_fr8_77,fr8_s1).
body(r_fr8_77,fr8_a4).
body(r_fr8_77,fr8_c3).
body(r_fr8_77,fr19_p3).
body(r_fr8_77,fr8_q1).
body(r_fr8_77,fr22_p2).
body(r_fr8_77,fr8_t3).
body(r_fr8_77,fr8_u5).
body(r_fr8_77,fr8_v4).
body(r_fr8_77,fr9_t1).
body(r_fr8_77,fr8_x5).
body(r_fr8_77,fr8_y3).
head(r_fr8_78,fr8_s1).
body(r_fr8_78,fr24_r2).
body(r_fr8_78,fr8_q4).
body(r_fr8_78,fr8_r4).
body(r_fr8_78,fr8_v1).
body(r_fr8_78,fr8_v4).
body(r_fr8_78,fr19_r3).
head(r_fr8_79,fr8_s1).
body(r_fr8_79,fr8_b4).
body(r_fr8_79,fr8_c2).
body(r_fr8_79,fr8_d1).
body(r_fr8_79,fr8_f2).
body(r_fr8_79,fr8_f4).
body(r_fr8_79,fr8_q4).
body(r_fr8_79,fr8_t5).
body(r_fr8_79,fr8_y3).
body(r_fr8_79,fr8_y4).
body(r_fr8_79,fr8_z2).
head(r_fr8_80,fr8_s1).
body(r_fr8_80,fr8_c3).
body(r_fr8_80,fr8_c4).
body(r_fr8_80,fr8_t2).
body(r_fr8_80,fr8_w2).
body(r_fr8_80,fr8_z1).
head(r_fr8_81,fr8_x1).
body(r_fr8_81,fr8_a6).
body(r_fr8_81,fr8_b1).
body(r_fr8_81,fr8_b3).
body(r_fr8_81,fr24_r2).
body(r_fr8_81,fr8_q5).
body(r_fr8_81,fr8_t4).
body(r_fr8_81,fr8_u5).
body(r_fr8_81,fr4_s2).
body(r_fr8_81,fr8_w2).
body(r_fr8_81,fr8_x2).
head(r_fr8_82,fr8_x1).
body(r_fr8_82,fr8_a5).
body(r_fr8_82,fr8_d2).
body(r_fr8_82,fr8_d3).
body(r_fr8_82,fr19_p3).
body(r_fr8_82,fr8_t2).
body(r_fr8_82,fr4_t3).
head(r_fr8_83,fr8_x1).
body(r_fr8_83,fr8_b4).
body(r_fr8_83,fr8_c1).
body(r_fr8_83,fr8_c3).
body(r_fr8_83,fr8_f4).
body(r_fr8_83,fr22_p2).
body(r_fr8_83,fr8_q3).
body(r_fr8_83,fr4_t1).
body(r_fr8_83,fr8_s1).
body(r_fr8_83,fr8_v2).
body(r_fr8_83,fr8_w3).
body(r_fr8_83,fr8_x4).
head(r_fr8_84,fr8_x1).
body(r_fr8_84,fr8_w2).
body(r_fr8_84,fr8_z4).
head(r_fr8_85,fr8_x1).
body(r_fr8_85,fr8_a1).
body(r_fr8_85,fr8_a3).
body(r_fr8_85,fr8_c6).
body(r_fr8_85,fr8_d2).
body(r_fr8_85,fr8_q4).
body(r_fr8_85,fr24_t2).
body(r_fr8_85,fr8_s4).
body(r_fr8_85,fr8_u3).
body(r_fr8_85,fr8_w1).
body(r_fr8_85,fr8_x5).
body(r_fr8_85,fr8_y5).
head(r_fr8_86,fr8_x3).
body(r_fr8_86,fr8_a1).
body(r_fr8_86,fr8_b1).
body(r_fr8_86,fr8_b5).
body(r_fr8_86,fr8_c2).
body(r_fr8_86,fr8_c6).
body(r_fr8_86,fr8_d4).
body(r_fr8_86,fr8_d5).
body(r_fr8_86,fr8_e2).
body(r_fr8_86,fr8_f2).
body(r_fr8_86,fr8_f5).
body(r_fr8_86,fr8_u4).
head(r_fr8_87,fr8_x3).
body(r_fr8_87,fr8_p1).
body(r_fr8_87,fr22_p2).
body(r_fr8_87,fr8_r3).
body(r_fr8_87,fr8_s1).
body(r_fr8_87,fr8_u3).
body(r_fr8_87,fr8_w1).
body(r_fr8_87,fr8_z4).
body(r_fr8_87,fr19_r3).
head(r_fr8_88,fr8_x3).
body(r_fr8_88,fr8_c4).
body(r_fr8_88,fr8_c6).
body(r_fr8_88,fr8_e2).
body(r_fr8_88,fr8_f1).
body(r_fr8_88,fr8_f3).
body(r_fr8_88,fr19_p3).
body(r_fr8_88,fr8_q5).
body(r_fr8_88,fr8_r4).
body(r_fr8_88,fr8_t2).
body(r_fr8_88,fr8_y4).
body(r_fr8_88,fr8_z2).
head(r_fr8_89,fr8_x3).
body(r_fr8_89,fr8_q5).
body(r_fr8_89,fr8_s4).
body(r_fr8_89,fr8_t5).
body(r_fr8_89,fr8_v3).
body(r_fr8_89,fr4_s2).
body(r_fr8_89,fr8_y3).
body(r_fr8_89,fr8_z1).
head(r_fr8_90,fr8_x3).
body(r_fr8_90,fr8_a2).
body(r_fr8_90,fr8_a3).
body(r_fr8_90,fr8_b4).
body(r_fr8_90,fr8_c1).
body(r_fr8_90,fr8_c3).
body(r_fr8_90,fr8_c5).
body(r_fr8_90,fr8_f4).
body(r_fr8_90,fr8_f5).
body(r_fr8_90,fr8_q5).
body(r_fr8_90,fr8_u4).
body(r_fr8_90,fr8_v4).
body(r_fr8_90,fr8_y2).
body(r_fr8_90,fr8_y3).
head(r_fr8_91,fr8_x3).
body(r_fr8_91,fr8_e2).
body(r_fr8_91,fr8_r3).
body(r_fr8_91,fr8_t2).
head(r_fr8_92,fr22_p2).
body(r_fr8_92,fr8_b6).
body(r_fr8_92,fr8_e1).
body(r_fr8_92,fr8_f1).
body(r_fr8_92,fr8_f3).
body(r_fr8_92,fr8_f4).
body(r_fr8_92,fr8_q1).
head(r_fr8_93,fr22_p2).
body(r_fr8_93,fr8_r4).
body(r_fr8_93,fr8_r5).
body(r_fr8_93,fr8_s2).
body(r_fr8_93,fr8_u3).
body(r_fr8_93,fr8_u5).
body(r_fr8_93,fr4_s2).
body(r_fr8_93,fr8_w4).
body(r_fr8_93,fr8_x3).
body(r_fr8_93,fr8_x5).
body(r_fr8_93,fr8_y1).
body(r_fr8_93,fr8_z4).
body(r_fr8_93,fr19_r3).
head(r_fr8_94,fr22_p2).
body(r_fr8_94,fr8_f3).
body(r_fr8_94,fr8_q5).
body(r_fr8_94,fr8_r4).
body(r_fr8_94,fr8_s2).
body(r_fr8_94,fr8_t2).
body(r_fr8_94,fr8_t4).
body(r_fr8_94,fr4_s2).
body(r_fr8_94,fr8_w1).
body(r_fr8_94,fr8_x4).
body(r_fr8_94,fr8_x5).
body(r_fr8_94,fr8_z1).
body(r_fr8_94,fr19_r3).
head(r_fr8_95,fr8_s2).
body(r_fr8_95,fr8_a3).
body(r_fr8_95,fr8_a5).
body(r_fr8_95,fr8_b5).
body(r_fr8_95,fr8_b6).
body(r_fr8_95,fr8_c6).
body(r_fr8_95,fr8_f1).
body(r_fr8_95,fr8_u5).
body(r_fr8_95,fr9_t1).
body(r_fr8_95,fr8_x2).
body(r_fr8_95,fr8_y5).
head(r_fr8_96,fr8_s2).
body(r_fr8_96,fr8_a1).
body(r_fr8_96,fr8_a6).
body(r_fr8_96,fr8_b1).
body(r_fr8_96,fr8_c2).
body(r_fr8_96,fr8_d1).
body(r_fr8_96,fr8_d5).
body(r_fr8_96,fr8_e4).
body(r_fr8_96,fr8_e5).
body(r_fr8_96,fr8_f4).
head(r_fr8_97,fr9_t1).
body(r_fr8_97,fr8_b3).
body(r_fr8_97,fr8_b5).
body(r_fr8_97,fr8_f5).
head(r_fr8_98,fr9_t1).
body(r_fr8_98,fr8_d2).
body(r_fr8_98,fr8_e1).
body(r_fr8_98,fr8_f3).
body(r_fr8_98,fr8_q4).
body(r_fr8_98,fr8_q5).
body(r_fr8_98,fr8_u2).
body(r_fr8_98,fr8_v2).
body(r_fr8_98,fr8_x3).
body(r_fr8_98,fr8_y2).
body(r_fr8_98,fr8_y4).
head(r_fr8_99,fr9_t1).
body(r_fr8_99,fr8_a5).
body(r_fr8_99,fr8_b5).
body(r_fr8_99,fr8_f1).
body(r_fr8_99,fr8_r2).
body(r_fr8_99,fr8_v4).
body(r_fr8_99,fr8_x2).
head(r_fr8_100,fr9_t1).
head(r_fr8_101,fr9_t1).
body(r_fr8_101,fr8_a6).
body(r_fr8_101,fr8_c3).
body(r_fr8_101,fr8_d2).
body(r_fr8_101,fr8_d3).
body(r_fr8_101,fr8_e4).
body(r_fr8_101,fr8_f3).
body(r_fr8_101,fr8_p4).
body(r_fr8_101,fr8_u4).
body(r_fr8_101,fr8_v3).
body(r_fr8_101,fr8_y2).
head(r_fr8_102,fr9_t1).
body(r_fr8_102,fr8_p4).
body(r_fr8_102,fr8_q4).
body(r_fr8_102,fr8_r5).
body(r_fr8_102,fr8_x3).
body(r_fr8_102,fr8_z1).
head(r_fr8_103,fr8_v4).
body(r_fr8_103,fr8_a1).
body(r_fr8_103,fr8_f3).
body(r_fr8_103,fr8_p4).
body(r_fr8_103,fr8_t1).
body(r_fr8_103,fr8_u1).
body(r_fr8_103,fr8_u2).
body(r_fr8_103,fr8_z1).
head(r_fr8_104,fr8_v4).
body(r_fr8_104,fr8_b4).
body(r_fr8_104,fr8_b5).
head(r_fr8_105,fr8_v4).
body(r_fr8_105,fr8_f5).
body(r_fr8_105,fr8_p1).
body(r_fr8_105,fr8_q1).
body(r_fr8_105,fr8_r5).
body(r_fr8_105,fr24_t2).
body(r_fr8_105,fr8_t3).
body(r_fr8_105,fr8_u1).
body(r_fr8_105,fr8_u4).
body(r_fr8_105,fr8_v2).
body(r_fr8_105,fr8_y1).
body(r_fr8_105,fr8_y3).
body(r_fr8_105,fr8_z2).
head(r_fr8_106,fr8_v4).
body(r_fr8_106,fr8_e5).
body(r_fr8_106,fr24_r2).
body(r_fr8_106,fr22_p2).
body(r_fr8_106,fr8_u3).
body(r_fr8_106,fr8_w3).
body(r_fr8_106,fr9_t1).
body(r_fr8_106,fr8_x2).
body(r_fr8_106,fr8_x5).
body(r_fr8_106,fr8_y5).
head(r_fr8_107,fr8_v4).
body(r_fr8_107,fr8_f3).
body(r_fr8_107,fr8_v1).
head(r_fr8_108,fr8_v4).
body(r_fr8_108,fr8_p1).
body(r_fr8_108,fr4_t1).
body(r_fr8_108,fr8_u3).
body(r_fr8_108,fr8_w3).
head(r_fr8_109,fr8_v4).
body(r_fr8_109,fr8_a4).
body(r_fr8_109,fr8_q4).
head(r_fr8_110,fr8_v4).
body(r_fr8_110,fr8_a1).
body(r_fr8_110,fr8_b2).
body(r_fr8_110,fr8_c3).
body(r_fr8_110,fr8_e1).
body(r_fr8_110,fr8_s4).
body(r_fr8_110,fr8_t1).
body(r_fr8_110,fr8_t3).
body(r_fr8_110,fr8_u3).
body(r_fr8_110,fr8_u4).
body(r_fr8_110,fr8_u5).
body(r_fr8_110,fr8_v1).
body(r_fr8_110,fr8_y5).
head(r_fr8_111,fr8_q5).
body(r_fr8_111,fr8_c4).
head(r_fr8_112,fr8_q5).
body(r_fr8_112,fr8_a2).
body(r_fr8_112,fr8_b5).
body(r_fr8_112,fr8_d2).
body(r_fr8_112,fr8_e5).
body(r_fr8_112,fr8_f4).
body(r_fr8_112,fr8_q3).
body(r_fr8_112,fr8_t1).
body(r_fr8_112,fr4_t3).
head(r_fr8_113,fr8_q5).
head(r_fr8_114,fr8_q5).
body(r_fr8_114,fr8_a4).
body(r_fr8_114,fr8_b2).
body(r_fr8_114,fr8_b5).
body(r_fr8_114,fr8_c6).
body(r_fr8_114,fr8_e5).
body(r_fr8_114,fr8_f5).
body(r_fr8_114,fr4_t1).
body(r_fr8_114,fr8_s5).
body(r_fr8_114,fr8_x2).
head(r_fr8_115,fr8_p4).
body(r_fr8_115,fr8_p1).
body(r_fr8_115,fr8_z4).
head(r_fr8_116,fr8_p4).
body(r_fr8_116,fr8_b4).
body(r_fr8_116,fr8_d4).
body(r_fr8_116,fr8_p1).
body(r_fr8_116,fr22_p2).
body(r_fr8_116,fr8_r5).
body(r_fr8_116,fr8_v3).
body(r_fr8_116,fr4_s2).
body(r_fr8_116,fr8_x2).
body(r_fr8_116,fr8_y4).
body(r_fr8_116,fr8_z1).
head(r_fr8_117,fr8_p4).
body(r_fr8_117,fr8_d1).
body(r_fr8_117,fr24_r2).
head(r_fr8_118,fr8_p4).
body(r_fr8_118,fr8_c6).
body(r_fr8_118,fr8_f3).
body(r_fr8_118,fr8_p5).
body(r_fr8_118,fr8_r2).
body(r_fr8_118,fr24_t2).
body(r_fr8_118,fr8_t5).
body(r_fr8_118,fr8_v2).
body(r_fr8_118,fr8_w2).
body(r_fr8_118,fr8_y1).
head(r_fr8_119,fr8_p4).
body(r_fr8_119,fr8_a1).
body(r_fr8_119,fr8_a2).
body(r_fr8_119,fr8_c5).
body(r_fr8_119,fr8_u5).
head(r_fr8_120,fr8_p4).
body(r_fr8_120,fr8_c1).
body(r_fr8_120,fr8_e1).
body(r_fr8_120,fr8_e4).
body(r_fr8_120,fr8_e5).
body(r_fr8_120,fr8_p1).
body(r_fr8_120,fr8_p5).
body(r_fr8_120,fr8_v3).
body(r_fr8_120,fr8_v4).
body(r_fr8_120,fr8_w4).
body(r_fr8_120,fr8_x5).
body(r_fr8_120,fr8_y1).
body(r_fr8_120,fr8_y2).
body(r_fr8_120,fr8_z2).
head(r_fr8_121,fr8_p4).
body(r_fr8_121,fr8_a5).
body(r_fr8_121,fr8_c4).
body(r_fr8_121,fr8_c5).
body(r_fr8_121,fr8_d1).
body(r_fr8_121,fr8_d3).
body(r_fr8_121,fr19_p3).
body(r_fr8_121,fr8_p5).
body(r_fr8_121,fr22_p2).
body(r_fr8_121,fr8_t1).
body(r_fr8_121,fr8_w4).
body(r_fr8_121,fr8_x1).
body(r_fr8_121,fr8_y5).
head(r_fr8_122,fr8_p4).
body(r_fr8_122,fr8_p5).
body(r_fr8_122,fr4_t1).
body(r_fr8_122,fr8_t3).
body(r_fr8_122,fr8_v4).
body(r_fr8_122,fr8_x2).
body(r_fr8_122,fr8_y2).
body(r_fr8_122,fr8_y4).
head(r_fr8_123,fr8_p4).
body(r_fr8_123,fr8_a1).
body(r_fr8_123,fr8_a2).
body(r_fr8_123,fr8_a4).
body(r_fr8_123,fr8_b6).
body(r_fr8_123,fr8_d2).
body(r_fr8_123,fr8_q5).
body(r_fr8_123,fr8_r5).
body(r_fr8_123,fr8_t3).
body(r_fr8_123,fr8_v4).
head(r_fr8_124,fr8_p4).
body(r_fr8_124,fr8_d5).
body(r_fr8_124,fr19_p3).
body(r_fr8_124,fr8_s1).
body(r_fr8_124,fr8_w2).
head(r_fr8_125,fr8_p4).
body(r_fr8_125,fr8_c6).
body(r_fr8_125,fr8_d2).
body(r_fr8_125,fr24_t2).
body(r_fr8_125,fr8_s5).
body(r_fr8_125,fr8_v1).
head(r_fr8_126,fr8_u3).
body(r_fr8_126,fr8_a2).
body(r_fr8_126,fr8_a5).
body(r_fr8_126,fr8_b2).
body(r_fr8_126,fr8_b4).
body(r_fr8_126,fr8_c1).
body(r_fr8_126,fr8_c3).
body(r_fr8_126,fr8_c4).
body(r_fr8_126,fr8_e3).
body(r_fr8_126,fr8_e4).
body(r_fr8_126,fr8_f5).
body(r_fr8_126,fr8_p4).
body(r_fr8_126,fr8_x1).
head(r_fr8_127,fr8_u3).
body(r_fr8_127,fr8_e4).
body(r_fr8_127,fr8_f2).
body(r_fr8_127,fr8_p5).
body(r_fr8_127,fr8_q4).
body(r_fr8_127,fr8_q5).
body(r_fr8_127,fr8_t2).
body(r_fr8_127,fr8_v2).
body(r_fr8_127,fr8_y4).
body(r_fr8_127,fr8_z1).
head(r_fr8_128,fr8_u3).
body(r_fr8_128,fr8_a5).
body(r_fr8_128,fr8_b3).
body(r_fr8_128,fr8_b5).
body(r_fr8_128,fr8_c5).
body(r_fr8_128,fr8_c6).
body(r_fr8_128,fr8_d2).
body(r_fr8_128,fr8_d3).
body(r_fr8_128,fr8_d5).
head(r_fr8_129,fr8_u3).
body(r_fr8_129,fr8_a2).
body(r_fr8_129,fr8_a6).
body(r_fr8_129,fr8_b1).
body(r_fr8_129,fr8_c3).
body(r_fr8_129,fr8_c5).
body(r_fr8_129,fr8_d3).
body(r_fr8_129,fr8_d5).
body(r_fr8_129,fr8_e2).
body(r_fr8_129,fr8_e4).
body(r_fr8_129,fr8_f1).
body(r_fr8_129,fr8_f5).
body(r_fr8_129,fr8_x2).
body(r_fr8_129,fr8_z4).
head(r_fr8_130,fr8_u3).
body(r_fr8_130,fr8_c1).
body(r_fr8_130,fr8_d3).
body(r_fr8_130,fr8_s4).
body(r_fr8_130,fr8_w2).
head(r_fr8_131,fr8_w1).
body(r_fr8_131,fr8_c3).
body(r_fr8_131,fr8_e2).
body(r_fr8_131,fr8_f4).
body(r_fr8_131,fr8_v1).
body(r_fr8_131,fr8_x3).
head(r_fr8_132,fr8_w1).
body(r_fr8_132,fr8_c5).
body(r_fr8_132,fr8_x4).
head(r_fr8_133,fr8_w1).
body(r_fr8_133,fr8_a2).
body(r_fr8_133,fr8_a5).
body(r_fr8_133,fr8_b3).
body(r_fr8_133,fr8_e3).
body(r_fr8_133,fr8_f3).
head(r_fr8_134,fr8_w1).
body(r_fr8_134,fr8_a4).
body(r_fr8_134,fr8_c5).
body(r_fr8_134,fr8_f3).
head(r_fr8_135,fr8_w1).
body(r_fr8_135,fr8_s1).
body(r_fr8_135,fr8_s5).
body(r_fr8_135,fr8_u4).
head(r_fr8_136,fr8_w1).
body(r_fr8_136,fr8_b3).
body(r_fr8_136,fr8_b6).
body(r_fr8_136,fr8_e3).
body(r_fr8_136,fr8_f2).
body(r_fr8_136,fr8_t2).
body(r_fr8_136,fr8_z1).
head(r_fr8_137,fr8_w1).
body(r_fr8_137,fr8_b2).
body(r_fr8_137,fr8_e5).
body(r_fr8_137,fr19_p3).
body(r_fr8_137,fr8_q1).
body(r_fr8_137,fr8_q5).
body(r_fr8_137,fr8_r3).
body(r_fr8_137,fr8_s5).
body(r_fr8_137,fr8_u1).
body(r_fr8_137,fr8_u3).
body(r_fr8_137,fr8_z1).
body(r_fr8_137,fr8_z2).
head(r_fr8_138,fr8_w1).
body(r_fr8_138,fr8_t4).
body(r_fr8_138,fr8_x1).
body(r_fr8_138,fr8_y3).
head(r_fr8_139,fr8_q1).
body(r_fr8_139,fr8_p4).
body(r_fr8_139,fr8_r2).
body(r_fr8_139,fr8_r3).
body(r_fr8_139,fr8_u4).
body(r_fr8_139,fr8_v2).
body(r_fr8_139,fr4_s2).
body(r_fr8_139,fr8_w2).
body(r_fr8_139,fr8_x2).
head(r_fr8_140,fr8_q1).
body(r_fr8_140,fr8_b2).
body(r_fr8_140,fr8_p4).
body(r_fr8_140,fr8_p5).
body(r_fr8_140,fr4_t1).
body(r_fr8_140,fr24_t2).
body(r_fr8_140,fr8_w1).
body(r_fr8_140,fr8_w2).
head(r_fr8_141,fr8_q1).
body(r_fr8_141,fr8_c1).
body(r_fr8_141,fr8_e3).
head(r_fr8_142,fr8_q1).
body(r_fr8_142,fr8_a3).
body(r_fr8_142,fr8_a4).
body(r_fr8_142,fr8_b3).
body(r_fr8_142,fr8_b6).
body(r_fr8_142,fr8_c3).
body(r_fr8_142,fr8_d4).
body(r_fr8_142,fr8_d5).
body(r_fr8_142,fr8_q5).
body(r_fr8_142,fr8_x1).
head(r_fr8_143,fr8_q1).
body(r_fr8_143,fr8_a1).
body(r_fr8_143,fr8_a6).
body(r_fr8_143,fr8_b2).
body(r_fr8_143,fr8_b5).
body(r_fr8_143,fr8_c6).
body(r_fr8_143,fr8_f2).
body(r_fr8_143,fr8_u1).
body(r_fr8_143,fr8_u2).
body(r_fr8_143,fr8_v3).
body(r_fr8_143,fr4_s2).
body(r_fr8_143,fr8_w1).
body(r_fr8_143,fr8_x3).
head(r_fr8_144,fr8_q1).
body(r_fr8_144,fr4_t1).
body(r_fr8_144,fr8_v2).
body(r_fr8_144,fr4_s2).
body(r_fr8_144,fr8_x5).
head(r_fr8_145,fr8_q1).
body(r_fr8_145,fr8_b3).
body(r_fr8_145,fr8_z4).
head(r_fr8_146,fr8_q1).
body(r_fr8_146,fr8_b3).
body(r_fr8_146,fr8_d5).
body(r_fr8_146,fr8_f2).
head(r_fr8_147,fr8_q1).
body(r_fr8_147,fr8_p1).
body(r_fr8_147,fr19_p3).
body(r_fr8_147,fr8_q3).
body(r_fr8_147,fr8_q5).
body(r_fr8_147,fr4_t1).
body(r_fr8_147,fr8_r2).
body(r_fr8_147,fr8_r3).
body(r_fr8_147,fr8_s2).
body(r_fr8_147,fr8_s4).
body(r_fr8_147,fr8_s5).
body(r_fr8_147,fr8_u5).
body(r_fr8_147,fr8_v1).
body(r_fr8_147,fr8_v3).
head(r_fr8_148,fr8_q1).
body(r_fr8_148,fr8_a6).
body(r_fr8_148,fr8_b3).
body(r_fr8_148,fr24_r2).
body(r_fr8_148,fr8_v3).
body(r_fr8_148,fr8_v4).
body(r_fr8_148,fr8_y2).
body(r_fr8_148,fr8_y4).
head(r_fr8_149,fr8_x2).
body(r_fr8_149,fr8_f3).
body(r_fr8_149,fr8_p1).
body(r_fr8_149,fr8_p4).
body(r_fr8_149,fr8_r3).
body(r_fr8_149,fr8_s4).
body(r_fr8_149,fr8_t3).
body(r_fr8_149,fr8_t4).
body(r_fr8_149,fr8_u4).
body(r_fr8_149,fr8_u5).
body(r_fr8_149,fr8_v4).
body(r_fr8_149,fr8_y4).
head(r_fr8_150,fr8_x2).
body(r_fr8_150,fr8_p1).
head(r_fr8_151,fr8_x2).
body(r_fr8_151,fr8_b3).
body(r_fr8_151,fr8_b4).
body(r_fr8_151,fr8_b6).
body(r_fr8_151,fr8_d5).
body(r_fr8_151,fr8_e3).
body(r_fr8_151,fr8_p4).
body(r_fr8_151,fr8_q5).
body(r_fr8_151,fr8_r4).
body(r_fr8_151,fr8_y3).
body(r_fr8_151,fr8_z2).
head(r_fr8_152,fr8_x2).
head(r_fr8_153,fr8_x2).
body(r_fr8_153,fr8_a1).
body(r_fr8_153,fr8_a5).
body(r_fr8_153,fr8_b4).
body(r_fr8_153,fr8_c4).
body(r_fr8_153,fr8_c6).
body(r_fr8_153,fr8_e1).
body(r_fr8_153,fr8_f1).
body(r_fr8_153,fr8_f4).
body(r_fr8_153,fr8_v3).
body(r_fr8_153,fr19_r3).
head(r_fr8_154,fr8_x2).
body(r_fr8_154,fr8_c1).
body(r_fr8_154,fr8_c3).
body(r_fr8_154,fr8_v4).
body(r_fr8_154,fr8_w3).
body(r_fr8_154,fr8_x4).
body(r_fr8_154,fr8_y5).
body(r_fr8_154,fr8_z4).
head(r_fr8_155,fr8_x2).
body(r_fr8_155,fr8_a5).
body(r_fr8_155,fr8_c6).
body(r_fr8_155,fr8_r5).
body(r_fr8_155,fr8_s2).
body(r_fr8_155,fr8_v4).
head(r_fr8_156,fr8_x2).
body(r_fr8_156,fr8_a3).
body(r_fr8_156,fr8_b4).
body(r_fr8_156,fr8_c2).
body(r_fr8_156,fr8_c5).
body(r_fr8_156,fr8_e3).
head(r_fr8_157,fr8_x2).
body(r_fr8_157,fr8_c2).
body(r_fr8_157,fr8_c4).
body(r_fr8_157,fr8_c5).
body(r_fr8_157,fr8_d5).
body(r_fr8_157,fr8_e2).
body(r_fr8_157,fr8_f3).
body(r_fr8_157,fr8_f5).
body(r_fr8_157,fr22_p2).
body(r_fr8_157,fr8_w2).
body(r_fr8_157,fr9_t1).
head(r_fr8_158,fr8_x2).
body(r_fr8_158,fr8_c5).
body(r_fr8_158,fr8_d5).
head(r_fr8_159,fr8_r4).
body(r_fr8_159,fr8_a1).
body(r_fr8_159,fr8_a6).
body(r_fr8_159,fr8_b1).
body(r_fr8_159,fr8_b4).
body(r_fr8_159,fr8_c2).
body(r_fr8_159,fr8_e3).
body(r_fr8_159,fr8_s2).
body(r_fr8_159,fr8_u3).
body(r_fr8_159,fr4_s2).
body(r_fr8_159,fr9_t1).
body(r_fr8_159,fr8_x1).
body(r_fr8_159,fr8_y1).
head(r_fr8_160,fr8_r4).
body(r_fr8_160,fr8_b4).
body(r_fr8_160,fr8_c1).
body(r_fr8_160,fr8_c2).
body(r_fr8_160,fr8_c3).
body(r_fr8_160,fr8_c4).
body(r_fr8_160,fr8_d2).
body(r_fr8_160,fr22_p2).
body(r_fr8_160,fr8_x5).
head(r_fr8_161,fr8_r4).
body(r_fr8_161,fr8_u1).
body(r_fr8_161,fr8_x2).
head(r_fr8_162,fr8_r4).
body(r_fr8_162,fr8_b4).
body(r_fr8_162,fr8_b6).
body(r_fr8_162,fr8_c3).
body(r_fr8_162,fr8_c6).
body(r_fr8_162,fr8_d1).
body(r_fr8_162,fr8_e5).
body(r_fr8_162,fr8_f5).
head(r_fr8_163,fr8_r4).
body(r_fr8_163,fr4_t1).
body(r_fr8_163,fr8_x2).
body(r_fr8_163,fr8_x5).
body(r_fr8_163,fr8_y2).
body(r_fr8_163,fr19_r3).
head(r_fr8_164,fr8_r4).
head(r_fr8_165,fr8_r4).
body(r_fr8_165,fr8_a3).
body(r_fr8_165,fr8_a4).
body(r_fr8_165,fr8_a6).
body(r_fr8_165,fr8_b5).
body(r_fr8_165,fr8_c2).
body(r_fr8_165,fr8_c5).
body(r_fr8_165,fr8_c6).
body(r_fr8_165,fr8_e2).
body(r_fr8_165,fr8_e3).
body(r_fr8_165,fr8_f1).
body(r_fr8_165,fr8_f2).
body(r_fr8_165,fr8_x2).
head(r_fr8_166,fr8_r4).
body(r_fr8_166,fr8_b6).
body(r_fr8_166,fr8_c3).
body(r_fr8_166,fr8_c5).
body(r_fr8_166,fr8_d3).
body(r_fr8_166,fr8_e2).
body(r_fr8_166,fr8_e4).
body(r_fr8_166,fr8_f5).
body(r_fr8_166,fr19_p3).
body(r_fr8_166,fr8_q5).
body(r_fr8_166,fr8_r3).
body(r_fr8_166,fr8_x2).
body(r_fr8_166,fr8_x5).
body(r_fr8_166,fr8_z4).
head(r_fr8_167,fr8_r4).
body(r_fr8_167,fr8_b5).
body(r_fr8_167,fr8_c5).
body(r_fr8_167,fr8_d4).
body(r_fr8_167,fr8_e3).
body(r_fr8_167,fr8_e4).
body(r_fr8_167,fr8_e5).
body(r_fr8_167,fr8_f5).
body(r_fr8_167,fr8_r5).
body(r_fr8_167,fr8_w4).
head(r_fr8_168,fr8_r4).
body(r_fr8_168,fr8_a4).
body(r_fr8_168,fr8_b4).
body(r_fr8_168,fr8_c5).
body(r_fr8_168,fr8_d2).
body(r_fr8_168,fr8_d4).
body(r_fr8_168,fr8_e2).
body(r_fr8_168,fr8_f4).
body(r_fr8_168,fr8_f5).
body(r_fr8_168,fr8_p4).
body(r_fr8_168,fr4_t1).
body(r_fr8_168,fr8_y3).
head(r_fr8_169,fr8_r4).
body(r_fr8_169,fr4_t1).
body(r_fr8_169,fr8_t4).
body(r_fr8_169,fr8_v3).
body(r_fr8_169,fr8_x3).
body(r_fr8_169,fr8_x4).
head(r_fr8_170,fr8_t1).
body(r_fr8_170,fr8_a5).
body(r_fr8_170,fr8_b2).
body(r_fr8_170,fr8_f3).
body(r_fr8_170,fr8_f5).
body(r_fr8_170,fr8_r2).
body(r_fr8_170,fr8_u2).
body(r_fr8_170,fr8_v4).
body(r_fr8_170,fr4_t3).
head(r_fr8_171,fr8_t1).
body(r_fr8_171,fr8_a2).
body(r_fr8_171,fr8_a4).
body(r_fr8_171,fr8_c6).
body(r_fr8_171,fr8_e2).
body(r_fr8_171,fr8_e5).
body(r_fr8_171,fr8_f2).
body(r_fr8_171,fr8_f4).
head(r_fr8_172,fr8_t1).
head(r_fr8_173,fr8_t1).
body(r_fr8_173,fr8_c2).
body(r_fr8_173,fr8_d1).
body(r_fr8_173,fr8_d2).
body(r_fr8_173,fr8_d4).
body(r_fr8_173,fr8_d5).
body(r_fr8_173,fr8_e5).
head(r_fr8_174,fr8_t1).
body(r_fr8_174,fr8_a4).
body(r_fr8_174,fr8_a6).
body(r_fr8_174,fr8_b2).
body(r_fr8_174,fr8_b3).
body(r_fr8_174,fr8_b4).
body(r_fr8_174,fr8_b6).
body(r_fr8_174,fr8_c2).
body(r_fr8_174,fr8_c5).
body(r_fr8_174,fr8_d2).
body(r_fr8_174,fr8_d5).
body(r_fr8_174,fr8_e2).
body(r_fr8_174,fr8_e5).
body(r_fr8_174,fr8_w2).
head(r_fr8_175,fr8_t1).
body(r_fr8_175,fr8_b5).
body(r_fr8_175,fr8_e1).
body(r_fr8_175,fr8_e5).
body(r_fr8_175,fr8_w2).
head(r_fr8_176,fr8_t1).
body(r_fr8_176,fr19_p3).
body(r_fr8_176,fr8_r3).
body(r_fr8_176,fr8_r4).
body(r_fr8_176,fr8_z1).
head(r_fr8_177,fr8_t1).
body(r_fr8_177,fr8_c5).
body(r_fr8_177,fr8_e1).
body(r_fr8_177,fr8_e5).
body(r_fr8_177,fr8_f1).
body(r_fr8_177,fr8_r2).
body(r_fr8_177,fr8_u1).
body(r_fr8_177,fr8_x3).
head(r_fr8_178,fr19_p3).
body(r_fr8_178,fr8_b1).
body(r_fr8_178,fr8_d5).
body(r_fr8_178,fr8_f1).
body(r_fr8_178,fr8_u2).
body(r_fr8_178,fr8_y3).
head(r_fr8_179,fr19_p3).
body(r_fr8_179,fr8_a6).
body(r_fr8_179,fr8_c6).
body(r_fr8_179,fr8_f5).
body(r_fr8_179,fr4_t1).
body(r_fr8_179,fr8_r2).
body(r_fr8_179,fr8_x3).
body(r_fr8_179,fr8_x4).
body(r_fr8_179,fr8_z2).
body(r_fr8_179,fr4_t3).
head(r_fr8_180,fr19_p3).
body(r_fr8_180,fr8_a1).
body(r_fr8_180,fr8_b3).
body(r_fr8_180,fr8_d5).
body(r_fr8_180,fr8_f4).
body(r_fr8_180,fr8_u5).
body(r_fr8_180,fr8_x2).
head(r_fr8_181,fr19_p3).
body(r_fr8_181,fr8_a4).
body(r_fr8_181,fr8_b4).
body(r_fr8_181,fr8_c2).
body(r_fr8_181,fr8_c5).
body(r_fr8_181,fr8_f4).
body(r_fr8_181,fr8_u3).
body(r_fr8_181,fr8_w4).
body(r_fr8_181,fr8_x1).
head(r_fr8_182,fr19_p3).
body(r_fr8_182,fr8_b6).
body(r_fr8_182,fr8_d1).
body(r_fr8_182,fr8_e3).
body(r_fr8_182,fr8_e4).
body(r_fr8_182,fr8_v2).
head(r_fr8_183,fr19_p3).
body(r_fr8_183,fr8_a2).
body(r_fr8_183,fr8_a3).
body(r_fr8_183,fr8_b1).
body(r_fr8_183,fr8_c1).
body(r_fr8_183,fr8_c3).
body(r_fr8_183,fr8_e2).
body(r_fr8_183,fr8_f3).
body(r_fr8_183,fr8_r2).
body(r_fr8_183,fr8_s2).
body(r_fr8_183,fr8_v1).
body(r_fr8_183,fr9_t1).
body(r_fr8_183,fr8_z4).
head(r_fr8_184,fr19_r3).
body(r_fr8_184,fr8_c6).
body(r_fr8_184,fr8_e3).
body(r_fr8_184,fr8_e5).
body(r_fr8_184,fr8_f3).
body(r_fr8_184,fr8_v2).
head(r_fr8_185,fr19_r3).
body(r_fr8_185,fr8_u4).
body(r_fr8_185,fr8_v2).
body(r_fr8_185,fr8_w4).
body(r_fr8_185,fr8_y4).
head(r_fr8_186,fr19_r3).
body(r_fr8_186,fr8_p5).
body(r_fr8_186,fr8_q4).
body(r_fr8_186,fr8_r2).
body(r_fr8_186,fr8_r5).
body(r_fr8_186,fr8_t2).
body(r_fr8_186,fr8_u4).
body(r_fr8_186,fr8_x1).
head(r_fr8_187,fr19_r3).
body(r_fr8_187,fr8_f5).
head(r_fr8_188,fr19_r3).
head(r_fr8_189,fr19_r3).
body(r_fr8_189,fr8_a6).
body(r_fr8_189,fr8_b6).
body(r_fr8_189,fr8_w2).
head(r_fr8_190,fr19_r3).
body(r_fr8_190,fr8_b5).
body(r_fr8_190,fr8_b6).
body(r_fr8_190,fr8_e3).
body(r_fr8_190,fr8_f3).
body(r_fr8_190,fr8_s4).
body(r_fr8_190,fr8_v2).
body(r_fr8_190,fr8_w4).
body(r_fr8_190,fr9_t1).
body(r_fr8_190,fr8_x1).
body(r_fr8_190,fr8_z2).
head(r_fr8_191,fr19_r3).
body(r_fr8_191,fr8_a5).
body(r_fr8_191,fr8_c3).
body(r_fr8_191,fr8_c4).
body(r_fr8_191,fr8_d4).
body(r_fr8_191,fr8_f5).
body(r_fr8_191,fr19_p3).
body(r_fr8_191,fr8_u1).
body(r_fr8_191,fr9_t1).
body(r_fr8_191,fr8_y1).
body(r_fr8_191,fr8_y4).
head(r_fr8_192,fr19_r3).
body(r_fr8_192,fr8_a1).
body(r_fr8_192,fr8_f1).
body(r_fr8_192,fr8_u4).
head(r_fr8_193,fr8_u2).
body(r_fr8_193,fr8_a2).
body(r_fr8_193,fr8_a3).
body(r_fr8_193,fr8_a5).
body(r_fr8_193,fr8_a6).
body(r_fr8_193,fr8_b2).
body(r_fr8_193,fr8_c3).
body(r_fr8_193,fr8_c6).
body(r_fr8_193,fr8_e5).
body(r_fr8_193,fr8_f5).
body(r_fr8_193,fr8_p5).
body(r_fr8_193,fr8_v2).
body(r_fr8_193,fr8_x4).
head(r_fr8_194,fr8_u2).
body(r_fr8_194,fr8_a3).
body(r_fr8_194,fr8_c2).
body(r_fr8_194,fr8_s4).
body(r_fr8_194,fr8_v3).
body(r_fr8_194,fr8_w3).
body(r_fr8_194,fr8_y3).
head(r_fr8_195,fr8_u2).
body(r_fr8_195,fr19_p3).
body(r_fr8_195,fr8_p4).
body(r_fr8_195,fr8_q3).
body(r_fr8_195,fr8_r4).
body(r_fr8_195,fr8_s2).
body(r_fr8_195,fr24_t2).
body(r_fr8_195,fr8_s4).
body(r_fr8_195,fr8_u4).
body(r_fr8_195,fr8_u5).
body(r_fr8_195,fr8_x5).
body(r_fr8_195,fr8_y2).
body(r_fr8_195,fr8_z2).
head(r_fr8_196,fr8_u2).
body(r_fr8_196,fr8_a6).
body(r_fr8_196,fr8_b2).
body(r_fr8_196,fr8_c2).
head(r_fr8_197,fr8_u2).
body(r_fr8_197,fr8_e2).
body(r_fr8_197,fr8_q5).
head(r_fr8_198,fr8_p5).
body(r_fr8_198,fr8_c1).
body(r_fr8_198,fr8_d5).
body(r_fr8_198,fr8_f2).
body(r_fr8_198,fr8_u1).
body(r_fr8_198,fr8_u3).
body(r_fr8_198,fr8_v1).
body(r_fr8_198,fr8_x3).
body(r_fr8_198,fr8_y3).
head(r_fr8_199,fr8_p5).
body(r_fr8_199,fr8_a1).
body(r_fr8_199,fr8_a4).
body(r_fr8_199,fr8_b1).
body(r_fr8_199,fr8_b2).
body(r_fr8_199,fr8_b5).
body(r_fr8_199,fr8_b6).
body(r_fr8_199,fr8_c1).
body(r_fr8_199,fr8_c3).
body(r_fr8_199,fr8_d2).
body(r_fr8_199,fr8_d3).
body(r_fr8_199,fr8_e1).
body(r_fr8_199,fr8_f3).
body(r_fr8_199,fr8_f4).
head(r_fr8_200,fr8_p5).
body(r_fr8_200,fr8_a2).
body(r_fr8_200,fr8_a5).
body(r_fr8_200,fr8_a6).
body(r_fr8_200,fr8_c4).
body(r_fr8_200,fr8_f2).
body(r_fr8_200,fr8_t5).
body(r_fr8_200,fr8_z2).
head(r_fr8_201,fr8_p5).
body(r_fr8_201,fr8_b2).
body(r_fr8_201,fr8_c3).
body(r_fr8_201,fr8_c5).
body(r_fr8_201,fr8_f1).
body(r_fr8_201,fr8_f3).
body(r_fr8_201,fr8_q3).
body(r_fr8_201,fr8_s4).
body(r_fr8_201,fr8_t2).
body(r_fr8_201,fr8_u1).
body(r_fr8_201,fr8_u4).
body(r_fr8_201,fr8_y3).
head(r_fr8_202,fr8_p5).
body(r_fr8_202,fr8_e5).
body(r_fr8_202,fr8_s2).
head(r_fr8_203,fr8_p5).
body(r_fr8_203,fr8_c6).
body(r_fr8_203,fr8_d3).
body(r_fr8_203,fr8_e3).
body(r_fr8_203,fr8_f5).
body(r_fr8_203,fr8_p4).
body(r_fr8_203,fr22_p2).
body(r_fr8_203,fr8_q4).
body(r_fr8_203,fr4_t1).
body(r_fr8_203,fr8_t1).
body(r_fr8_203,fr8_v2).
body(r_fr8_203,fr8_w2).
body(r_fr8_203,fr8_y5).
head(r_fr8_204,fr8_p5).
body(r_fr8_204,fr8_q1).
body(r_fr8_204,fr8_r2).
body(r_fr8_204,fr8_w2).
body(r_fr8_204,fr8_x3).
body(r_fr8_204,fr8_x4).
body(r_fr8_204,fr4_t3).
head(r_fr8_205,fr8_p5).
body(r_fr8_205,fr8_a2).
body(r_fr8_205,fr8_c2).
body(r_fr8_205,fr8_e5).
body(r_fr8_205,fr8_y5).
head(r_fr8_206,fr8_p5).
head(r_fr8_207,fr8_p5).
body(r_fr8_207,fr8_b3).
body(r_fr8_207,fr8_b5).
body(r_fr8_207,fr8_c3).
body(r_fr8_207,fr8_c4).
body(r_fr8_207,fr8_c6).
body(r_fr8_207,fr8_e4).
body(r_fr8_207,fr8_r2).
body(r_fr8_207,fr8_t2).
body(r_fr8_207,fr8_u3).
head(r_fr8_208,fr4_t3).
body(r_fr8_208,fr8_c1).
head(r_fr8_209,fr4_t3).
body(r_fr8_209,fr8_f4).
head(r_fr8_210,fr8_w2).
body(r_fr8_210,fr24_t2).
body(r_fr8_210,fr8_t4).
body(r_fr8_210,fr8_t5).
body(r_fr8_210,fr8_v3).
head(r_fr8_211,fr8_w2).
body(r_fr8_211,fr8_a2).
body(r_fr8_211,fr8_c5).
body(r_fr8_211,fr8_d2).
body(r_fr8_211,fr8_d3).
body(r_fr8_211,fr8_d5).
body(r_fr8_211,fr8_f3).
body(r_fr8_211,fr8_f5).
body(r_fr8_211,fr8_s1).
body(r_fr8_211,fr8_w4).
head(r_fr8_212,fr8_w2).
body(r_fr8_212,fr8_a5).
body(r_fr8_212,fr8_a6).
body(r_fr8_212,fr8_b4).
body(r_fr8_212,fr8_b6).
body(r_fr8_212,fr8_d1).
body(r_fr8_212,fr8_d3).
body(r_fr8_212,fr8_e1).
body(r_fr8_212,fr8_e4).
body(r_fr8_212,fr8_f2).
body(r_fr8_212,fr8_t5).
body(r_fr8_212,fr8_u3).
head(r_fr8_213,fr8_w2).
body(r_fr8_213,fr8_a5).
body(r_fr8_213,fr8_b3).
body(r_fr8_213,fr8_c2).
body(r_fr8_213,fr8_q4).
body(r_fr8_213,fr8_v1).
body(r_fr8_213,fr8_x4).
head(r_fr8_214,fr8_w2).
body(r_fr8_214,fr8_b4).
body(r_fr8_214,fr8_c1).
head(r_fr8_215,fr8_w2).
body(r_fr8_215,fr8_u1).
head(r_fr8_216,fr8_w2).
body(r_fr8_216,fr8_b4).
body(r_fr8_216,fr8_c2).
body(r_fr8_216,fr8_d5).
body(r_fr8_216,fr8_p1).
body(r_fr8_216,fr8_p5).
head(r_fr8_217,fr8_w2).
body(r_fr8_217,fr8_a4).
body(r_fr8_217,fr8_c4).
body(r_fr8_217,fr22_p2).
body(r_fr8_217,fr8_q5).
body(r_fr8_217,fr8_u4).
body(r_fr8_217,fr8_u5).
body(r_fr8_217,fr8_v3).
body(r_fr8_217,fr4_s2).
body(r_fr8_217,fr9_t1).
body(r_fr8_217,fr8_x2).
body(r_fr8_217,fr8_x4).
head(r_fr8_218,fr8_w2).
body(r_fr8_218,fr8_r3).
body(r_fr8_218,fr8_t1).
body(r_fr8_218,fr8_v4).
body(r_fr8_218,fr8_w3).
body(r_fr8_218,fr8_x4).
head(r_fr8_219,fr8_t3).
body(r_fr8_219,fr8_b2).
body(r_fr8_219,fr8_c1).
body(r_fr8_219,fr8_e5).
body(r_fr8_219,fr8_f1).
body(r_fr8_219,fr8_p1).
body(r_fr8_219,fr8_u2).
body(r_fr8_219,fr8_w2).
body(r_fr8_219,fr8_z2).
head(r_fr8_220,fr8_t3).
body(r_fr8_220,fr8_e2).
body(r_fr8_220,fr8_e3).
body(r_fr8_220,fr8_f1).
body(r_fr8_220,fr8_r5).
head(r_fr8_221,fr8_t3).
body(r_fr8_221,fr8_c3).
body(r_fr8_221,fr8_d2).
body(r_fr8_221,fr8_p5).
body(r_fr8_221,fr8_r2).
body(r_fr8_221,fr8_r4).
body(r_fr8_221,fr8_r5).
head(r_fr8_222,fr8_t3).
body(r_fr8_222,fr8_a5).
body(r_fr8_222,fr8_b1).
body(r_fr8_222,fr8_f3).
body(r_fr8_222,fr19_p3).
body(r_fr8_222,fr8_r3).
body(r_fr8_222,fr8_s5).
body(r_fr8_222,fr8_t1).
body(r_fr8_222,fr8_t2).
body(r_fr8_222,fr8_t5).
body(r_fr8_222,fr8_w1).
body(r_fr8_222,fr8_z1).
head(r_fr8_223,fr8_t3).
body(r_fr8_223,fr8_d5).
body(r_fr8_223,fr8_r4).
body(r_fr8_223,fr8_v4).
body(r_fr8_223,fr8_x4).
head(r_fr8_224,fr8_t3).
body(r_fr8_224,fr8_c6).
body(r_fr8_224,fr8_d2).
body(r_fr8_224,fr8_d5).
body(r_fr8_224,fr8_e1).
body(r_fr8_224,fr8_e2).
body(r_fr8_224,fr24_r2).
body(r_fr8_224,fr8_p5).
body(r_fr8_224,fr8_y4).
body(r_fr8_224,fr8_z4).
body(r_fr8_224,fr19_r3).
head(r_fr8_225,fr8_s5).
body(r_fr8_225,fr8_c4).
body(r_fr8_225,fr8_d1).
body(r_fr8_225,fr8_e3).
body(r_fr8_225,fr22_p2).
body(r_fr8_225,fr8_q4).
body(r_fr8_225,fr8_s1).
body(r_fr8_225,fr8_s4).
body(r_fr8_225,fr8_t5).
body(r_fr8_225,fr8_w3).
body(r_fr8_225,fr8_x5).
body(r_fr8_225,fr8_y3).
body(r_fr8_225,fr8_y4).
head(r_fr8_226,fr8_s5).
body(r_fr8_226,fr8_e2).
head(r_fr8_227,fr8_s5).
body(r_fr8_227,fr8_q4).
body(r_fr8_227,fr8_q5).
body(r_fr8_227,fr8_u2).
body(r_fr8_227,fr8_u4).
body(r_fr8_227,fr8_u5).
body(r_fr8_227,fr8_x3).
body(r_fr8_227,fr8_y1).
body(r_fr8_227,fr8_y2).
body(r_fr8_227,fr19_r3).
head(r_fr8_228,fr8_s5).
body(r_fr8_228,fr8_a5).
body(r_fr8_228,fr8_b1).
body(r_fr8_228,fr8_b3).
body(r_fr8_228,fr8_b6).
body(r_fr8_228,fr8_c4).
body(r_fr8_228,fr8_d5).
body(r_fr8_228,fr8_r2).
body(r_fr8_228,fr8_r3).
body(r_fr8_228,fr8_u3).
body(r_fr8_228,fr9_t1).
body(r_fr8_228,fr8_x4).
body(r_fr8_228,fr8_z4).
head(r_fr8_229,fr24_r2).
body(r_fr8_229,fr8_a4).
body(r_fr8_229,fr8_c4).
head(r_fr8_230,fr24_r2).
body(r_fr8_230,fr8_a3).
body(r_fr8_230,fr8_b5).
body(r_fr8_230,fr22_p2).
body(r_fr8_230,fr8_s5).
body(r_fr8_230,fr8_u1).
body(r_fr8_230,fr4_t3).
body(r_fr8_230,fr8_z4).
head(r_fr8_231,fr24_r2).
body(r_fr8_231,fr8_a4).
body(r_fr8_231,fr8_e1).
body(r_fr8_231,fr8_e4).
body(r_fr8_231,fr8_e5).
body(r_fr8_231,fr8_r2).
body(r_fr8_231,fr8_s4).
body(r_fr8_231,fr8_t3).
body(r_fr8_231,fr8_u1).
body(r_fr8_231,fr8_u2).
head(r_fr8_232,fr24_r2).
body(r_fr8_232,fr8_a5).
body(r_fr8_232,fr8_p4).
body(r_fr8_232,fr8_p5).
body(r_fr8_232,fr8_r2).
body(r_fr8_232,fr8_s1).
body(r_fr8_232,fr8_u2).
body(r_fr8_232,fr8_w1).
body(r_fr8_232,fr8_w3).
body(r_fr8_232,fr8_x3).
head(r_fr8_233,fr24_r2).
body(r_fr8_233,fr8_w2).
head(r_fr8_234,fr8_r3).
body(r_fr8_234,fr8_a4).
body(r_fr8_234,fr8_c1).
body(r_fr8_234,fr8_c4).
body(r_fr8_234,fr8_e4).
body(r_fr8_234,fr8_s1).
body(r_fr8_234,fr8_u2).
body(r_fr8_234,fr4_s2).
head(r_fr8_235,fr8_r3).
body(r_fr8_235,fr24_r2).
body(r_fr8_235,fr22_p2).
body(r_fr8_235,fr4_t1).
body(r_fr8_235,fr8_s1).
body(r_fr8_235,fr8_t1).
body(r_fr8_235,fr8_w1).
body(r_fr8_235,fr8_x5).
body(r_fr8_235,fr8_z2).
head(r_fr8_236,fr8_z1).
body(r_fr8_236,fr8_b3).
body(r_fr8_236,fr8_b5).
body(r_fr8_236,fr8_c5).
body(r_fr8_236,fr8_c6).
body(r_fr8_236,fr8_e2).
body(r_fr8_236,fr8_f5).
head(r_fr8_237,fr8_z1).
body(r_fr8_237,fr8_c6).
body(r_fr8_237,fr8_d4).
body(r_fr8_237,fr8_p1).
body(r_fr8_237,fr19_p3).
body(r_fr8_237,fr8_q5).
body(r_fr8_237,fr8_t3).
body(r_fr8_237,fr8_u1).
body(r_fr8_237,fr8_u4).
body(r_fr8_237,fr8_v4).
body(r_fr8_237,fr8_w1).
body(r_fr8_237,fr8_w2).
body(r_fr8_237,fr9_t1).
body(r_fr8_237,fr8_z2).
head(r_fr8_238,fr8_z1).
body(r_fr8_238,fr8_a5).
body(r_fr8_238,fr8_b3).
body(r_fr8_238,fr8_b6).
body(r_fr8_238,fr8_c1).
body(r_fr8_238,fr8_c6).
body(r_fr8_238,fr8_e1).
body(r_fr8_238,fr8_q1).
body(r_fr8_238,fr8_r4).
body(r_fr8_238,fr8_u4).
body(r_fr8_238,fr8_x3).
body(r_fr8_238,fr8_y3).
head(r_fr8_239,fr8_z1).
body(r_fr8_239,fr22_p2).
body(r_fr8_239,fr8_v4).
body(r_fr8_239,fr8_x5).
body(r_fr8_239,fr8_y1).
head(r_fr8_240,fr8_z1).
head(r_fr8_241,fr8_z1).
body(r_fr8_241,fr8_c2).
body(r_fr8_241,fr8_c3).
body(r_fr8_241,fr8_c4).
body(r_fr8_241,fr8_c6).
body(r_fr8_241,fr8_d2).
body(r_fr8_241,fr8_f3).
body(r_fr8_241,fr8_p1).
body(r_fr8_241,fr8_s2).
body(r_fr8_241,fr9_t1).
body(r_fr8_241,fr8_x5).
body(r_fr8_241,fr8_y3).
head(r_fr8_242,fr8_z1).
body(r_fr8_242,fr8_b2).
body(r_fr8_242,fr8_d3).
body(r_fr8_242,fr8_p5).
body(r_fr8_242,fr8_w3).
body(r_fr8_242,fr8_w4).
body(r_fr8_242,fr8_y1).
head(r_fr8_243,fr8_z1).
body(r_fr8_243,fr8_b1).
body(r_fr8_243,fr24_r2).
body(r_fr8_243,fr8_q1).
body(r_fr8_243,fr8_s5).
body(r_fr8_243,fr4_s2).
body(r_fr8_243,fr8_z2).
head(r_fr8_244,fr8_u5).
body(r_fr8_244,fr8_a4).
body(r_fr8_244,fr8_b1).
body(r_fr8_244,fr8_b6).
body(r_fr8_244,fr8_d1).
body(r_fr8_244,fr8_d5).
body(r_fr8_244,fr8_e2).
body(r_fr8_244,fr8_e3).
body(r_fr8_244,fr8_e5).
body(r_fr8_244,fr8_f1).
body(r_fr8_244,fr8_f2).
body(r_fr8_244,fr8_f5).
body(r_fr8_244,fr8_p1).
body(r_fr8_244,fr4_t3).
head(r_fr8_245,fr8_u5).
body(r_fr8_245,fr8_a1).
body(r_fr8_245,fr8_a2).
body(r_fr8_245,fr8_a6).
body(r_fr8_245,fr8_b2).
body(r_fr8_245,fr8_b6).
body(r_fr8_245,fr8_c1).
body(r_fr8_245,fr8_e2).
body(r_fr8_245,fr8_f1).
body(r_fr8_245,fr8_f5).
body(r_fr8_245,fr8_q1).
body(r_fr8_245,fr8_u2).
body(r_fr8_245,fr8_x4).
head(r_fr8_246,fr8_u5).
body(r_fr8_246,fr8_c3).
body(r_fr8_246,fr22_p2).
body(r_fr8_246,fr8_q5).
body(r_fr8_246,fr8_r2).
body(r_fr8_246,fr8_t3).
body(r_fr8_246,fr8_v2).
body(r_fr8_246,fr8_w2).
body(r_fr8_246,fr8_y2).
body(r_fr8_246,fr8_y3).
body(r_fr8_246,fr8_z2).
body(r_fr8_246,fr4_t3).
head(r_fr8_247,fr8_u5).
body(r_fr8_247,fr8_b6).
body(r_fr8_247,fr8_c1).
body(r_fr8_247,fr8_d1).
body(r_fr8_247,fr8_d3).
body(r_fr8_247,fr8_d4).
body(r_fr8_247,fr8_f4).
head(r_fr8_248,fr8_u5).
body(r_fr8_248,fr8_a4).
body(r_fr8_248,fr8_b3).
body(r_fr8_248,fr8_c3).
body(r_fr8_248,fr8_c6).
body(r_fr8_248,fr8_f1).
body(r_fr8_248,fr8_p1).
body(r_fr8_248,fr8_q4).
body(r_fr8_248,fr8_u3).
head(r_fr8_249,fr8_u5).
head(r_fr8_250,fr8_u5).
body(r_fr8_250,fr8_a6).
body(r_fr8_250,fr8_b6).
body(r_fr8_250,fr8_c5).
body(r_fr8_250,fr8_e2).
body(r_fr8_250,fr8_e3).
body(r_fr8_250,fr8_f2).
body(r_fr8_250,fr8_f3).
body(r_fr8_250,fr8_s4).
head(r_fr8_251,fr8_u5).
body(r_fr8_251,fr8_f4).
head(r_fr8_252,fr8_u5).
body(r_fr8_252,fr8_z4).
head(r_fr8_253,fr8_z4).
body(r_fr8_253,fr8_a5).
body(r_fr8_253,fr8_x3).
body(r_fr8_253,fr8_y5).
body(r_fr8_253,fr19_r3).
head(r_fr8_254,fr8_z4).
body(r_fr8_254,fr8_a1).
body(r_fr8_254,fr8_b1).
body(r_fr8_254,fr8_b4).
body(r_fr8_254,fr8_c3).
body(r_fr8_254,fr8_e4).
body(r_fr8_254,fr8_f3).
body(r_fr8_254,fr8_r3).
body(r_fr8_254,fr8_x2).
body(r_fr8_254,fr4_t3).
head(r_fr8_255,fr8_z4).
body(r_fr8_255,fr8_c6).
body(r_fr8_255,fr8_d4).
body(r_fr8_255,fr8_f4).
body(r_fr8_255,fr24_t2).
body(r_fr8_255,fr8_v4).
body(r_fr8_255,fr8_w1).
body(r_fr8_255,fr8_y4).
head(r_fr8_256,fr8_z4).
body(r_fr8_256,fr8_c6).
body(r_fr8_256,fr8_d4).
body(r_fr8_256,fr8_f2).
body(r_fr8_256,fr8_x5).
body(r_fr8_256,fr8_y3).
head(r_fr8_257,fr8_z4).
body(r_fr8_257,fr8_a2).
body(r_fr8_257,fr8_c2).
body(r_fr8_257,fr8_c3).
body(r_fr8_257,fr8_d5).
body(r_fr8_257,fr8_e1).
body(r_fr8_257,fr8_e2).
body(r_fr8_257,fr8_e4).
body(r_fr8_257,fr8_e5).
body(r_fr8_257,fr8_p1).
body(r_fr8_257,fr8_r2).
body(r_fr8_257,fr8_x3).
head(r_fr8_258,fr8_z4).
body(r_fr8_258,fr8_f3).
body(r_fr8_258,fr8_t1).
body(r_fr8_258,fr8_t2).
body(r_fr8_258,fr8_x4).
body(r_fr8_258,fr8_y4).
head(r_fr8_259,fr8_u4).
body(r_fr8_259,fr8_a3).
body(r_fr8_259,fr8_b1).
body(r_fr8_259,fr8_b4).
body(r_fr8_259,fr8_c3).
body(r_fr8_259,fr8_d2).
body(r_fr8_259,fr8_e1).
body(r_fr8_259,fr8_e2).
body(r_fr8_259,fr8_f5).
body(r_fr8_259,fr8_v1).
body(r_fr8_259,fr8_w3).
body(r_fr8_259,fr9_t1).
body(r_fr8_259,fr8_y1).
head(r_fr8_260,fr8_u4).
body(r_fr8_260,fr8_d5).
body(r_fr8_260,fr8_p4).
body(r_fr8_260,fr8_q4).
body(r_fr8_260,fr8_s2).
body(r_fr8_260,fr8_s5).
body(r_fr8_260,fr8_w1).
body(r_fr8_260,fr8_x5).
body(r_fr8_260,fr8_y1).
body(r_fr8_260,fr8_z2).
body(r_fr8_260,fr19_r3).
head(r_fr8_261,fr8_u4).
body(r_fr8_261,fr8_a1).
body(r_fr8_261,fr8_b5).
body(r_fr8_261,fr8_c4).
head(r_fr8_262,fr8_u4).
body(r_fr8_262,fr8_a4).
body(r_fr8_262,fr8_a6).
body(r_fr8_262,fr8_b5).
body(r_fr8_262,fr8_e4).
body(r_fr8_262,fr8_f3).
body(r_fr8_262,fr8_s2).
body(r_fr8_262,fr8_w3).
body(r_fr8_262,fr8_w4).
head(r_fr8_263,fr8_y3).
body(r_fr8_263,fr8_e2).
head(r_fr8_264,fr8_y3).
body(r_fr8_264,fr8_b3).
body(r_fr8_264,fr8_e2).
head(r_fr8_265,fr8_y3).
body(r_fr8_265,fr8_a1).
body(r_fr8_265,fr8_b6).
body(r_fr8_265,fr8_d1).
body(r_fr8_265,fr8_e1).
body(r_fr8_265,fr8_f4).
body(r_fr8_265,fr8_q1).
body(r_fr8_265,fr8_r2).
body(r_fr8_265,fr8_s1).
body(r_fr8_265,fr8_s5).
body(r_fr8_265,fr8_u3).
body(r_fr8_265,fr9_t1).
body(r_fr8_265,fr8_x2).
body(r_fr8_265,fr8_y1).
head(r_fr8_266,fr8_y3).
body(r_fr8_266,fr8_a1).
body(r_fr8_266,fr8_a5).
body(r_fr8_266,fr8_b5).
body(r_fr8_266,fr8_b6).
body(r_fr8_266,fr8_c2).
body(r_fr8_266,fr8_d1).
head(r_fr8_267,fr8_y3).
body(r_fr8_267,fr8_d1).
body(r_fr8_267,fr8_p1).
body(r_fr8_267,fr8_q3).
body(r_fr8_267,fr8_u4).
body(r_fr8_267,fr4_s2).
body(r_fr8_267,fr8_x1).
head(r_fr8_268,fr8_y3).
body(r_fr8_268,fr8_a4).
body(r_fr8_268,fr8_c1).
body(r_fr8_268,fr8_c3).
body(r_fr8_268,fr8_c6).
body(r_fr8_268,fr8_d2).
body(r_fr8_268,fr8_d5).
body(r_fr8_268,fr8_e1).
body(r_fr8_268,fr8_e4).
body(r_fr8_268,fr8_f4).
body(r_fr8_268,fr8_r3).
body(r_fr8_268,fr8_u1).
body(r_fr8_268,fr8_y2).
head(r_fr8_269,fr8_y3).
body(r_fr8_269,fr8_a5).
body(r_fr8_269,fr8_t1).
head(r_fr8_270,fr8_y3).
body(r_fr8_270,fr8_q5).
body(r_fr8_270,fr4_t1).
body(r_fr8_270,fr8_t2).
body(r_fr8_270,fr8_u4).
body(r_fr8_270,fr4_s2).
body(r_fr8_270,fr9_t1).
body(r_fr8_270,fr8_y4).
body(r_fr8_270,fr8_z2).
head(r_fr8_271,fr8_w4).
body(r_fr8_271,fr8_b3).
body(r_fr8_271,fr8_c2).
body(r_fr8_271,fr8_c6).
head(r_fr8_272,fr8_w4).
body(r_fr8_272,fr8_a5).
body(r_fr8_272,fr8_b1).
body(r_fr8_272,fr8_b2).
body(r_fr8_272,fr8_c1).
body(r_fr8_272,fr8_c3).
body(r_fr8_272,fr8_c4).
body(r_fr8_272,fr8_c5).
body(r_fr8_272,fr8_d3).
body(r_fr8_272,fr8_f4).
body(r_fr8_272,fr8_p1).
body(r_fr8_272,fr4_t3).
head(r_fr8_273,fr8_w4).
body(r_fr8_273,fr24_r2).
body(r_fr8_273,fr8_q5).
body(r_fr8_273,fr8_r4).
body(r_fr8_273,fr8_r5).
body(r_fr8_273,fr8_s5).
body(r_fr8_273,fr8_v1).
body(r_fr8_273,fr8_z2).
body(r_fr8_273,fr4_t3).
head(r_fr8_274,fr8_w4).
body(r_fr8_274,fr8_a4).
body(r_fr8_274,fr8_f2).
head(r_fr8_275,fr8_w4).
body(r_fr8_275,fr8_b4).
body(r_fr8_275,fr8_e5).
body(r_fr8_275,fr8_f2).
body(r_fr8_275,fr8_p1).
body(r_fr8_275,fr8_t3).
body(r_fr8_275,fr8_t5).
body(r_fr8_275,fr8_v1).
body(r_fr8_275,fr8_v4).
body(r_fr8_275,fr8_x3).
body(r_fr8_275,fr8_x5).
body(r_fr8_275,fr8_y3).
body(r_fr8_275,fr8_z2).
head(r_fr8_276,fr8_w4).
body(r_fr8_276,fr8_d2).
body(r_fr8_276,fr8_p4).
body(r_fr8_276,fr8_p5).
body(r_fr8_276,fr24_t2).
body(r_fr8_276,fr8_v3).
body(r_fr8_276,fr8_y1).
body(r_fr8_276,fr8_y4).
body(r_fr8_276,fr8_y5).
head(r_fr8_277,fr8_w4).
body(r_fr8_277,fr8_a2).
body(r_fr8_277,fr8_f3).
body(r_fr8_277,fr8_p4).
body(r_fr8_277,fr22_p2).
body(r_fr8_277,fr8_q4).
body(r_fr8_277,fr8_t1).
body(r_fr8_277,fr8_v3).
body(r_fr8_277,fr8_v4).
body(r_fr8_277,fr8_x1).
body(r_fr8_277,fr8_x2).
body(r_fr8_277,fr8_x4).
body(r_fr8_277,fr8_y2).

assumption(fr9_a1).
assumption(fr9_b1).
assumption(fr9_c1).
assumption(fr9_d1).
assumption(fr12_f1).
assumption(fr21_e1).
assumption(fr12_f1).
assumption(fr9_b2).
assumption(fr9_c2).
assumption(fr9_d2).
assumption(fr16_e1).
assumption(fr25_c1).
contrary(fr9_a1,fr13_z1).
contrary(fr12_f1,fr9_s2).
contrary(fr9_b1,fr9_t2).
contrary(fr9_b2,fr9_b1).
contrary(fr9_c1,fr9_w1).
contrary(fr9_c2,fr13_y1).
contrary(fr9_d1,fr9_s2).
contrary(fr9_d2,fr9_c2).
contrary(fr12_f1,fr9_c1).
contrary(fr16_e1,fr9_d2).
contrary(fr21_e1,fr9_q1).
contrary(fr25_c1,fr9_x2).
head(r_fr9_0,fr13_z1).
body(r_fr9_0,fr9_c2).
body(r_fr9_0,fr9_d1).
body(r_fr9_0,fr9_d2).
body(r_fr9_0,fr16_e1).
head(r_fr9_1,fr13_z1).
body(r_fr9_1,fr12_f1).
body(r_fr9_1,fr21_e1).
head(r_fr9_2,fr4_q2).
head(r_fr9_3,fr4_q2).
body(r_fr9_3,fr12_f1).
body(r_fr9_3,fr25_c1).
head(r_fr9_4,fr9_q1).
body(r_fr9_4,fr9_b1).
body(r_fr9_4,fr20_y1).
body(r_fr9_4,fr9_q2).
body(r_fr9_4,fr13_z1).
body(r_fr9_4,fr9_y1).
head(r_fr9_5,fr9_q1).
body(r_fr9_5,fr9_t1).
head(r_fr9_6,fr9_q1).
body(r_fr9_6,fr9_b2).
body(r_fr9_6,fr9_c1).
body(r_fr9_6,fr9_d1).
body(r_fr9_6,fr12_f1).
body(r_fr9_6,fr20_y1).
head(r_fr9_7,fr9_q2).
head(r_fr9_8,fr9_q2).
body(r_fr9_8,fr9_a1).
body(r_fr9_8,fr9_b1).
body(r_fr9_8,fr9_b2).
body(r_fr9_8,fr4_q2).
head(r_fr9_9,fr9_x2).
body(r_fr9_9,fr9_q1).
body(r_fr9_9,fr9_t2).
head(r_fr9_10,fr9_x2).
head(r_fr9_11,fr9_x2).
body(r_fr9_11,fr9_v1).
head(r_fr9_12,fr9_x2).
body(r_fr9_12,fr9_b1).
body(r_fr9_12,fr9_c1).
body(r_fr9_12,fr16_e1).
body(r_fr9_12,fr25_c1).
head(r_fr9_13,fr9_z1).
body(r_fr9_13,fr25_c1).
body(r_fr9_13,fr9_r1).
body(r_fr9_13,fr9_y1).
head(r_fr9_14,fr9_z1).
head(r_fr9_15,fr9_y1).
head(r_fr9_16,fr9_y1).
body(r_fr9_16,fr9_b1).
body(r_fr9_16,fr9_c1).
body(r_fr9_16,fr21_e1).
body(r_fr9_16,fr9_t1).
body(r_fr9_16,fr9_z1).
head(r_fr9_17,fr9_y1).
body(r_fr9_17,fr9_a1).
head(r_fr9_18,fr9_x1).
head(r_fr9_19,fr9_x1).
body(r_fr9_19,fr21_e1).
body(r_fr9_19,fr20_y1).
head(r_fr9_20,fr20_y1).
head(r_fr9_21,fr20_y1).
body(r_fr9_21,fr9_u1).
body(r_fr9_21,fr16_y2).
body(r_fr9_21,fr9_x1).
head(r_fr9_22,fr20_y1).
body(r_fr9_22,fr9_c2).
body(r_fr9_22,fr9_q1).
body(r_fr9_22,fr9_q2).
head(r_fr9_23,fr20_y1).
body(r_fr9_23,fr16_e1).
body(r_fr9_23,fr20_y1).
body(r_fr9_23,fr9_q1).
body(r_fr9_23,fr9_t2).
body(r_fr9_23,fr9_x1).
head(r_fr9_24,fr20_y1).
body(r_fr9_24,fr12_f1).
head(r_fr9_25,fr20_y1).
body(r_fr9_25,fr9_b1).
body(r_fr9_25,fr9_c1).
body(r_fr9_25,fr12_f1).
body(r_fr9_25,fr25_c1).
head(r_fr9_26,fr20_y1).
body(r_fr9_26,fr12_f1).
body(r_fr9_26,fr9_b2).
body(r_fr9_26,fr9_c1).
body(r_fr9_26,fr9_d2).
body(r_fr9_26,fr13_z1).
head(r_fr9_27,fr9_r1).
body(r_fr9_27,fr9_p2).
body(r_fr9_27,fr9_v1).
head(r_fr9_28,fr9_r1).
body(r_fr9_28,fr16_e1).
body(r_fr9_28,fr13_z1).
body(r_fr9_28,fr9_x2).
head(r_fr9_29,fr9_r1).
body(r_fr9_29,fr9_b1).
body(r_fr9_29,fr9_u1).
body(r_fr9_29,fr16_y2).
body(r_fr9_29,fr13_z1).
body(r_fr9_29,fr9_z1).
head(r_fr9_30,fr9_r1).
body(r_fr9_30,fr13_z1).
head(r_fr9_31,fr9_t2).
body(r_fr9_31,fr9_b1).
body(r_fr9_31,fr21_e1).
body(r_fr9_31,fr9_r1).
body(r_fr9_31,fr20_y1).
body(r_fr9_31,fr9_s2).
head(r_fr9_32,fr9_t2).
head(r_fr9_33,fr9_t2).
body(r_fr9_33,fr9_d2).
body(r_fr9_33,fr9_q1).
head(r_fr9_34,fr9_t2).
body(r_fr9_34,fr9_a1).
body(r_fr9_34,fr9_b1).
body(r_fr9_34,fr9_p2).
body(r_fr9_34,fr9_q2).
body(r_fr9_34,fr9_x1).
head(r_fr9_35,fr9_t1).
body(r_fr9_35,fr9_a1).
body(r_fr9_35,fr9_d1).
body(r_fr9_35,fr9_v1).
head(r_fr9_36,fr9_t1).
head(r_fr9_37,fr9_t1).
body(r_fr9_37,fr9_s2).
head(r_fr9_38,fr9_t1).
body(r_fr9_38,fr9_b1).
body(r_fr9_38,fr9_t2).
body(r_fr9_38,fr4_q2).
body(r_fr9_38,fr9_x2).
head(r_fr9_39,fr9_v1).
body(r_fr9_39,fr16_e1).
body(r_fr9_39,fr25_c1).
body(r_fr9_39,fr16_y2).
head(r_fr9_40,fr9_v1).
body(r_fr9_40,fr20_y1).
body(r_fr9_40,fr13_z1).
head(r_fr9_41,fr13_y1).
body(r_fr9_41,fr12_f1).
body(r_fr9_41,fr9_d2).
body(r_fr9_41,fr12_f1).
body(r_fr9_41,fr9_x1).
head(r_fr9_42,fr13_y1).
body(r_fr9_42,fr9_a1).
head(r_fr9_43,fr13_y1).
body(r_fr9_43,fr9_t2).
body(r_fr9_43,fr16_y2).
head(r_fr9_44,fr9_p2).
body(r_fr9_44,fr9_b2).
body(r_fr9_44,fr9_c2).
body(r_fr9_44,fr21_e1).
body(r_fr9_44,fr9_s2).
head(r_fr9_45,fr9_p2).
body(r_fr9_45,fr9_b2).
body(r_fr9_45,fr9_c2).
body(r_fr9_45,fr9_d1).
body(r_fr9_45,fr9_x1).
head(r_fr9_46,fr9_p2).
body(r_fr9_46,fr9_r1).

assumption(fr10_a1).
assumption(fr10_b1).
assumption(fr10_c1).
assumption(fr2_b2).
assumption(fr10_e1).
assumption(fr10_f1).
assumption(fr17_e1).
assumption(fr25_c1).
assumption(fr10_c2).
assumption(fr10_d2).
assumption(fr10_e2).
assumption(fr10_f2).
assumption(fr10_a3).
assumption(fr10_b3).
assumption(fr10_c3).
contrary(fr10_a1,fr10_b1).
contrary(fr17_e1,fr25_s2).
contrary(fr10_a3,fr10_e2).
contrary(fr10_b1,fr25_s2).
contrary(fr25_c1,fr10_a3).
contrary(fr10_b3,fr25_c1).
contrary(fr10_c1,fr2_b2).
contrary(fr10_c2,fr20_y1).
contrary(fr10_c3,fr2_b2).
contrary(fr2_b2,fr10_f2).
contrary(fr10_d2,fr25_s2).
contrary(fr10_e1,fr20_y1).
contrary(fr10_e2,fr10_b1).
contrary(fr10_f1,fr25_c1).
contrary(fr10_f2,fr25_s2).
head(r_fr10_0,fr20_y1).
body(r_fr10_0,fr25_c1).
body(r_fr10_0,fr10_c2).
head(r_fr10_1,fr20_y1).
body(r_fr10_1,fr25_s2).
head(r_fr10_2,fr20_y1).
body(r_fr10_2,fr10_a1).
body(r_fr10_2,fr2_b2).
head(r_fr10_3,fr20_x2).
body(r_fr10_3,fr20_y1).
body(r_fr10_3,fr20_y1).
head(r_fr10_4,fr20_x2).
body(r_fr10_4,fr17_e1).
body(r_fr10_4,fr2_b2).
body(r_fr10_4,fr10_e2).
body(r_fr10_4,fr10_f1).
body(r_fr10_4,fr3_p3).
body(r_fr10_4,fr20_y1).
head(r_fr10_5,fr20_x2).
body(r_fr10_5,fr20_y1).
head(r_fr10_6,fr20_x2).
body(r_fr10_6,fr10_f1).
body(r_fr10_6,fr3_p3).
body(r_fr10_6,fr25_s2).
head(r_fr10_7,fr20_x2).
body(r_fr10_7,fr25_c1).
body(r_fr10_7,fr10_d2).
body(r_fr10_7,fr10_f2).
body(r_fr10_7,fr25_s2).
body(r_fr10_7,fr20_y1).
body(r_fr10_7,fr20_y1).
head(r_fr10_8,fr25_s2).
body(r_fr10_8,fr10_a1).
body(r_fr10_8,fr10_c1).
body(r_fr10_8,fr10_f1).
body(r_fr10_8,fr10_f2).
body(r_fr10_8,fr20_y1).
body(r_fr10_8,fr20_y1).
head(r_fr10_9,fr25_s2).
body(r_fr10_9,fr10_b1).
body(r_fr10_9,fr10_b3).
body(r_fr10_9,fr10_e1).
body(r_fr10_9,fr10_f1).
body(r_fr10_9,fr20_x2).
body(r_fr10_9,fr3_p3).
head(r_fr10_10,fr25_s2).
head(r_fr10_11,fr25_s2).
body(r_fr10_11,fr10_b1).
body(r_fr10_11,fr10_c3).
body(r_fr10_11,fr20_x2).
body(r_fr10_11,fr3_p3).
head(r_fr10_12,fr25_s2).
body(r_fr10_12,fr10_a3).
body(r_fr10_12,fr10_c2).
body(r_fr10_12,fr20_x2).
body(r_fr10_12,fr20_y1).
head(r_fr10_13,fr20_y1).
head(r_fr10_14,fr20_y1).
body(r_fr10_14,fr2_b2).
body(r_fr10_14,fr10_e1).
head(r_fr10_15,fr20_y1).
body(r_fr10_15,fr17_e1).
body(r_fr10_15,fr25_c1).
body(r_fr10_15,fr10_e2).
body(r_fr10_15,fr3_p3).
body(r_fr10_15,fr25_s2).
head(r_fr10_16,fr20_y1).
body(r_fr10_16,fr20_x2).
body(r_fr10_16,fr25_s2).
body(r_fr10_16,fr20_y1).
head(r_fr10_17,fr3_p3).
head(r_fr10_18,fr3_p3).
body(r_fr10_18,fr17_e1).
body(r_fr10_18,fr10_c3).

assumption(fr11_a1).
assumption(fr11_b1).
assumption(fr9_c1).
assumption(fr11_d1).
assumption(fr11_e1).
assumption(fr11_f1).
assumption(fr11_a2).
assumption(fr10_e1).
assumption(fr11_c2).
assumption(fr11_d2).
assumption(fr11_e2).
assumption(fr11_f2).
assumption(fr18_a1).
assumption(fr11_b3).
assumption(fr11_c3).
contrary(fr11_a1,fr6_r1).
contrary(fr11_a2,fr24_y2).
contrary(fr18_a1,fr11_t1).
contrary(fr11_b1,fr11_d1).
contrary(fr10_e1,fr11_b3).
contrary(fr11_b3,fr11_a1).
contrary(fr9_c1,fr11_r3).
contrary(fr11_c2,fr11_y2).
contrary(fr11_c3,fr11_s2).
contrary(fr11_d1,fr11_c2).
contrary(fr11_d2,fr9_t1).
contrary(fr11_e1,fr11_b1).
contrary(fr11_e2,fr11_r1).
contrary(fr11_f1,fr25_s2).
contrary(fr11_f2,fr11_w1).
head(r_fr11_0,fr11_y2).
body(r_fr11_0,fr11_e2).
body(r_fr11_0,fr11_f2).
body(r_fr11_0,fr11_q3).
body(r_fr11_0,fr11_t1).
head(r_fr11_1,fr11_y2).
body(r_fr11_1,fr11_b1).
body(r_fr11_1,fr9_t1).
body(r_fr11_1,fr11_q3).
body(r_fr11_1,fr11_r3).
body(r_fr11_1,fr21_p3).
body(r_fr11_1,fr6_r1).
head(r_fr11_2,fr11_y2).
body(r_fr11_2,fr11_r2).
body(r_fr11_2,fr11_u1).
body(r_fr11_2,fr13_z1).
body(r_fr11_2,fr21_p3).
head(r_fr11_3,fr11_y2).
body(r_fr11_3,fr11_a2).
body(r_fr11_3,fr9_c1).
body(r_fr11_3,fr11_c3).
body(r_fr11_3,fr11_e2).
head(r_fr11_4,fr11_y2).
body(r_fr11_4,fr11_p1).
body(r_fr11_4,fr6_r1).
body(r_fr11_4,fr11_z2).
head(r_fr11_5,fr11_y2).
body(r_fr11_5,fr11_b1).
body(r_fr11_5,fr11_b3).
body(r_fr11_5,fr11_c2).
body(r_fr11_5,fr11_c3).
body(r_fr11_5,fr11_d1).
body(r_fr11_5,fr25_s2).
head(r_fr11_6,fr11_y2).
head(r_fr11_7,fr11_y2).
body(r_fr11_7,fr18_a1).
body(r_fr11_7,fr25_s2).
body(r_fr11_7,fr6_r1).
head(r_fr11_8,fr11_y2).
body(r_fr11_8,fr11_f1).
body(r_fr11_8,fr11_t2).
body(r_fr11_8,fr11_u2).
head(r_fr11_9,fr11_s2).
body(r_fr11_9,fr11_a1).
body(r_fr11_9,fr11_b1).
body(r_fr11_9,fr11_b3).
body(r_fr11_9,fr11_d2).
body(r_fr11_9,fr11_f1).
head(r_fr11_10,fr11_s2).
body(r_fr11_10,fr11_t1).
body(r_fr11_10,fr11_w1).
body(r_fr11_10,fr6_r1).
head(r_fr11_11,fr11_s2).
body(r_fr11_11,fr11_c2).
head(r_fr11_12,fr11_s2).
body(r_fr11_12,fr11_b3).
body(r_fr11_12,fr11_c3).
body(r_fr11_12,fr11_d1).
body(r_fr11_12,fr6_r1).
head(r_fr11_13,fr11_s2).
body(r_fr11_13,fr18_a1).
body(r_fr11_13,fr10_e1).
body(r_fr11_13,fr11_d2).
body(r_fr11_13,fr11_f1).
body(r_fr11_13,fr11_s1).
head(r_fr11_14,fr11_s2).
body(r_fr11_14,fr11_d1).
body(r_fr11_14,fr25_s2).
body(r_fr11_14,fr11_r3).
body(r_fr11_14,fr11_t1).
body(r_fr11_14,fr11_w1).
body(r_fr11_14,fr11_y1).
head(r_fr11_15,fr11_s2).
body(r_fr11_15,fr11_d1).
body(r_fr11_15,fr11_r2).
body(r_fr11_15,fr11_r3).
head(r_fr11_16,fr11_s2).
body(r_fr11_16,fr11_d1).
body(r_fr11_16,fr18_s1).
body(r_fr11_16,fr12_x3).
head(r_fr11_17,fr11_s2).
body(r_fr11_17,fr11_q2).
body(r_fr11_17,fr11_t2).
body(r_fr11_17,fr11_u2).
body(r_fr11_17,fr21_p3).
body(r_fr11_17,fr11_w1).
head(r_fr11_18,fr11_s2).
body(r_fr11_18,fr9_c1).
body(r_fr11_18,fr11_d2).
body(r_fr11_18,fr11_f2).
body(r_fr11_18,fr18_s1).
body(r_fr11_18,fr12_x3).
head(r_fr11_19,fr11_w1).
body(r_fr11_19,fr10_e1).
body(r_fr11_19,fr11_c3).
body(r_fr11_19,fr11_f2).
head(r_fr11_20,fr11_w1).
body(r_fr11_20,fr9_c1).
body(r_fr11_20,fr11_e1).
body(r_fr11_20,fr11_f2).
head(r_fr11_21,fr11_w1).
body(r_fr11_21,fr18_a1).
body(r_fr11_21,fr9_c1).
body(r_fr11_21,fr11_c2).
body(r_fr11_21,fr24_y2).
head(r_fr11_22,fr11_w1).
body(r_fr11_22,fr10_e1).
body(r_fr11_22,fr11_b3).
body(r_fr11_22,fr11_d2).
body(r_fr11_22,fr11_f2).
body(r_fr11_22,fr11_q3).
body(r_fr11_22,fr11_y1).
head(r_fr11_23,fr11_w1).
body(r_fr11_23,fr11_c2).
body(r_fr11_23,fr25_s2).
body(r_fr11_23,fr11_t2).
body(r_fr11_23,fr6_r1).
body(r_fr11_23,fr11_y1).
body(r_fr11_23,fr11_z2).
head(r_fr11_24,fr11_w1).
body(r_fr11_24,fr9_c1).
body(r_fr11_24,fr9_t1).
head(r_fr11_25,fr11_w1).
body(r_fr11_25,fr9_c1).
body(r_fr11_25,fr11_d2).
body(r_fr11_25,fr11_e2).
body(r_fr11_25,fr11_f2).
head(r_fr11_26,fr11_w1).
body(r_fr11_26,fr25_s2).
body(r_fr11_26,fr11_t2).
body(r_fr11_26,fr11_u1).
body(r_fr11_26,fr12_x3).
body(r_fr11_26,fr11_y1).
head(r_fr11_27,fr11_r2).
body(r_fr11_27,fr11_a2).
body(r_fr11_27,fr11_b1).
body(r_fr11_27,fr11_c2).
body(r_fr11_27,fr11_d2).
body(r_fr11_27,fr11_f2).
body(r_fr11_27,fr11_u1).
head(r_fr11_28,fr11_r2).
body(r_fr11_28,fr11_f2).
body(r_fr11_28,fr15_z2).
head(r_fr11_29,fr11_r2).
body(r_fr11_29,fr11_a1).
body(r_fr11_29,fr11_e2).
body(r_fr11_29,fr11_u2).
body(r_fr11_29,fr13_z1).
body(r_fr11_29,fr11_y1).
body(r_fr11_29,fr11_z2).
head(r_fr11_30,fr11_r2).
body(r_fr11_30,fr9_c1).
body(r_fr11_30,fr11_f1).
head(r_fr11_31,fr11_r2).
body(r_fr11_31,fr11_b1).
body(r_fr11_31,fr11_b3).
body(r_fr11_31,fr11_c3).
body(r_fr11_31,fr11_e2).
body(r_fr11_31,fr15_z2).
body(r_fr11_31,fr25_s2).
head(r_fr11_32,fr11_r2).
body(r_fr11_32,fr11_b3).
body(r_fr11_32,fr11_c2).
body(r_fr11_32,fr11_e1).
body(r_fr11_32,fr11_f2).
head(r_fr11_33,fr11_r2).
body(r_fr11_33,fr11_f2).
head(r_fr11_34,fr11_r2).
body(r_fr11_34,fr11_c2).
body(r_fr11_34,fr15_z2).
body(r_fr11_34,fr11_t1).
body(r_fr11_34,fr13_z1).
body(r_fr11_34,fr18_s1).
body(r_fr11_34,fr24_y2).
head(r_fr11_35,fr11_r2).
body(r_fr11_35,fr25_s2).
body(r_fr11_35,fr11_q3).
body(r_fr11_35,fr21_p3).
body(r_fr11_35,fr11_z2).
head(r_fr11_36,fr11_r2).
head(r_fr11_37,fr18_s1).
body(r_fr11_37,fr11_b1).
body(r_fr11_37,fr11_f1).
body(r_fr11_37,fr25_s2).
body(r_fr11_37,fr6_r1).
head(r_fr11_38,fr18_s1).
body(r_fr11_38,fr10_e1).
body(r_fr11_38,fr11_b3).
body(r_fr11_38,fr9_c1).
body(r_fr11_38,fr11_c3).
body(r_fr11_38,fr11_d1).
body(r_fr11_38,fr11_d2).
head(r_fr11_39,fr18_s1).
body(r_fr11_39,fr11_a2).
body(r_fr11_39,fr9_c1).
body(r_fr11_39,fr11_d1).
body(r_fr11_39,fr11_e2).
head(r_fr11_40,fr18_s1).
body(r_fr11_40,fr11_a1).
body(r_fr11_40,fr11_d1).
body(r_fr11_40,fr11_p1).
body(r_fr11_40,fr11_s1).
body(r_fr11_40,fr11_t2).
body(r_fr11_40,fr13_z1).
head(r_fr11_41,fr18_s1).
body(r_fr11_41,fr11_a1).
body(r_fr11_41,fr10_e1).
body(r_fr11_41,fr9_c1).
body(r_fr11_41,fr11_c3).
body(r_fr11_41,fr11_d2).
body(r_fr11_41,fr11_p1).
head(r_fr11_42,fr18_s1).
head(r_fr11_43,fr18_s1).
body(r_fr11_43,fr25_s2).
body(r_fr11_43,fr9_t1).
head(r_fr11_44,fr18_s1).
body(r_fr11_44,fr11_a1).
body(r_fr11_44,fr11_a2).
body(r_fr11_44,fr18_a1).
body(r_fr11_44,fr11_b1).
body(r_fr11_44,fr11_c2).
body(r_fr11_44,fr11_f1).
head(r_fr11_45,fr18_s1).
body(r_fr11_45,fr11_b3).
body(r_fr11_45,fr11_c3).
head(r_fr11_46,fr18_s1).
body(r_fr11_46,fr18_a1).
body(r_fr11_46,fr11_b1).
body(r_fr11_46,fr10_e1).
body(r_fr11_46,fr11_e1).
body(r_fr11_46,fr11_y1).
head(r_fr11_47,fr18_s1).
body(r_fr11_47,fr11_b3).
body(r_fr11_47,fr11_c3).
body(r_fr11_47,fr11_e1).
body(r_fr11_47,fr11_f1).
head(r_fr11_48,fr13_z1).
body(r_fr11_48,fr11_d2).
body(r_fr11_48,fr9_t1).
head(r_fr11_49,fr13_z1).
head(r_fr11_50,fr13_z1).
body(r_fr11_50,fr25_s2).
body(r_fr11_50,fr11_s1).
body(r_fr11_50,fr11_u2).
body(r_fr11_50,fr12_x3).
body(r_fr11_50,fr11_z2).
head(r_fr11_51,fr13_z1).
body(r_fr11_51,fr11_b1).
body(r_fr11_51,fr9_c1).
body(r_fr11_51,fr11_c3).
body(r_fr11_51,fr11_e1).
head(r_fr11_52,fr13_z1).
body(r_fr11_52,fr11_a1).
head(r_fr11_53,fr13_z1).
body(r_fr11_53,fr11_a1).
body(r_fr11_53,fr11_e1).
head(r_fr11_54,fr13_z1).
body(r_fr11_54,fr9_c1).
body(r_fr11_54,fr11_p1).
body(r_fr11_54,fr11_u1).
head(r_fr11_55,fr13_z1).
body(r_fr11_55,fr11_a1).
body(r_fr11_55,fr11_a2).
body(r_fr11_55,fr11_b3).
body(r_fr11_55,fr25_s2).
body(r_fr11_55,fr11_z2).
head(r_fr11_56,fr11_r1).
body(r_fr11_56,fr11_a1).
body(r_fr11_56,fr11_c2).
head(r_fr11_57,fr11_r1).
body(r_fr11_57,fr11_a1).
body(r_fr11_57,fr11_a2).
body(r_fr11_57,fr11_c2).
body(r_fr11_57,fr11_e2).
body(r_fr11_57,fr11_f2).
head(r_fr11_58,fr11_r1).
body(r_fr11_58,fr10_e1).
body(r_fr11_58,fr11_e1).
head(r_fr11_59,fr11_r1).
body(r_fr11_59,fr10_e1).
body(r_fr11_59,fr11_p1).
body(r_fr11_59,fr11_u1).
body(r_fr11_59,fr6_r1).
head(r_fr11_60,fr11_r1).
body(r_fr11_60,fr9_t1).
body(r_fr11_60,fr11_q3).
body(r_fr11_60,fr11_t2).
body(r_fr11_60,fr11_u1).
body(r_fr11_60,fr21_p3).
body(r_fr11_60,fr11_z2).
head(r_fr11_61,fr11_r1).
body(r_fr11_61,fr11_a2).
body(r_fr11_61,fr11_f1).
body(r_fr11_61,fr11_f2).
body(r_fr11_61,fr11_u1).
head(r_fr11_62,fr11_r1).
body(r_fr11_62,fr11_s1).
body(r_fr11_62,fr6_r1).
body(r_fr11_62,fr12_x3).
body(r_fr11_62,fr24_y2).
head(r_fr11_63,fr11_r1).
head(r_fr11_64,fr11_r1).
body(r_fr11_64,fr11_q3).
head(r_fr11_65,fr11_r1).
body(r_fr11_65,fr11_p1).
body(r_fr11_65,fr11_r3).
body(r_fr11_65,fr11_z2).
head(r_fr11_66,fr11_r1).
body(r_fr11_66,fr21_p3).
head(r_fr11_67,fr11_t2).
body(r_fr11_67,fr11_q2).
body(r_fr11_67,fr11_u1).
body(r_fr11_67,fr21_p3).
body(r_fr11_67,fr6_r1).
head(r_fr11_68,fr11_t2).
body(r_fr11_68,fr25_s2).
head(r_fr11_69,fr11_t2).
body(r_fr11_69,fr9_c1).
head(r_fr11_70,fr11_t2).
body(r_fr11_70,fr11_a2).
body(r_fr11_70,fr11_p1).
body(r_fr11_70,fr11_q3).
body(r_fr11_70,fr11_s1).
body(r_fr11_70,fr11_u2).
body(r_fr11_70,fr12_x3).
head(r_fr11_71,fr11_t2).
body(r_fr11_71,fr11_z2).
head(r_fr11_72,fr11_t2).
body(r_fr11_72,fr11_b1).
body(r_fr11_72,fr11_c2).
body(r_fr11_72,fr11_e2).
body(r_fr11_72,fr11_t1).
body(r_fr11_72,fr11_y1).
head(r_fr11_73,fr11_t2).
body(r_fr11_73,fr11_b3).
body(r_fr11_73,fr11_f1).
body(r_fr11_73,fr11_s1).
body(r_fr11_73,fr11_t1).
head(r_fr11_74,fr11_t2).
body(r_fr11_74,fr18_a1).
body(r_fr11_74,fr11_f2).
body(r_fr11_74,fr21_p3).
head(r_fr11_75,fr11_t2).
head(r_fr11_76,fr11_t2).
body(r_fr11_76,fr11_e2).
head(r_fr11_77,fr11_y1).
body(r_fr11_77,fr11_b1).
head(r_fr11_78,fr11_y1).
body(r_fr11_78,fr11_a1).
body(r_fr11_78,fr11_a2).
body(r_fr11_78,fr11_b1).
body(r_fr11_78,fr11_p1).
body(r_fr11_78,fr11_q3).
head(r_fr11_79,fr11_y1).
body(r_fr11_79,fr11_e2).
body(r_fr11_79,fr11_z2).
head(r_fr11_80,fr11_y1).
body(r_fr11_80,fr11_p1).
body(r_fr11_80,fr15_z2).
head(r_fr11_81,fr11_y1).
body(r_fr11_81,fr11_a1).
body(r_fr11_81,fr18_a1).
body(r_fr11_81,fr10_e1).
body(r_fr11_81,fr11_e1).
body(r_fr11_81,fr11_e2).
body(r_fr11_81,fr11_f2).
head(r_fr11_82,fr11_y1).
body(r_fr11_82,fr11_b3).
body(r_fr11_82,fr11_p1).
body(r_fr11_82,fr15_z2).
body(r_fr11_82,fr25_s2).
body(r_fr11_82,fr11_q2).
body(r_fr11_82,fr11_s1).
head(r_fr11_83,fr11_y1).
head(r_fr11_84,fr11_y1).
body(r_fr11_84,fr18_a1).
body(r_fr11_84,fr11_c3).
body(r_fr11_84,fr15_z2).
body(r_fr11_84,fr11_q3).
body(r_fr11_84,fr11_s1).
body(r_fr11_84,fr11_t1).
head(r_fr11_85,fr11_y1).
body(r_fr11_85,fr11_e1).
head(r_fr11_86,fr11_u2).
body(r_fr11_86,fr11_c2).
body(r_fr11_86,fr11_e2).
body(r_fr11_86,fr11_f1).
head(r_fr11_87,fr11_u2).
body(r_fr11_87,fr11_b1).
body(r_fr11_87,fr10_e1).
head(r_fr11_88,fr11_u2).
body(r_fr11_88,fr25_s2).
head(r_fr11_89,fr11_u2).
body(r_fr11_89,fr11_a1).
body(r_fr11_89,fr11_f2).
body(r_fr11_89,fr25_s2).
body(r_fr11_89,fr11_t1).
body(r_fr11_89,fr6_r1).
head(r_fr11_90,fr11_u2).
body(r_fr11_90,fr11_b3).
body(r_fr11_90,fr9_c1).
body(r_fr11_90,fr11_c3).
body(r_fr11_90,fr11_d2).
body(r_fr11_90,fr11_s1).
body(r_fr11_90,fr11_u1).
head(r_fr11_91,fr11_u2).
body(r_fr11_91,fr11_q2).
head(r_fr11_92,fr11_u2).
body(r_fr11_92,fr11_d1).
body(r_fr11_92,fr11_f1).
body(r_fr11_92,fr15_z2).
body(r_fr11_92,fr9_t1).
body(r_fr11_92,fr11_s1).
head(r_fr11_93,fr11_u2).
body(r_fr11_93,fr18_a1).
body(r_fr11_93,fr11_f1).
body(r_fr11_93,fr11_p1).
body(r_fr11_93,fr25_s2).
body(r_fr11_93,fr11_q2).
head(r_fr11_94,fr11_u2).
head(r_fr11_95,fr11_u2).
body(r_fr11_95,fr11_b1).
body(r_fr11_95,fr11_b3).
body(r_fr11_95,fr11_q3).
body(r_fr11_95,fr11_u1).
head(r_fr11_96,fr11_q2).
body(r_fr11_96,fr11_e2).
body(r_fr11_96,fr11_f1).
body(r_fr11_96,fr15_z2).
head(r_fr11_97,fr11_q2).
body(r_fr11_97,fr11_a1).
body(r_fr11_97,fr10_e1).
body(r_fr11_97,fr11_b3).
body(r_fr11_97,fr11_e1).
body(r_fr11_97,fr11_e2).
body(r_fr11_97,fr11_f2).
head(r_fr11_98,fr11_q2).
body(r_fr11_98,fr10_e1).
body(r_fr11_98,fr9_c1).
body(r_fr11_98,fr11_c2).
body(r_fr11_98,fr11_s1).
body(r_fr11_98,fr24_y2).
body(r_fr11_98,fr11_z2).
head(r_fr11_99,fr11_q2).
body(r_fr11_99,fr11_a2).
body(r_fr11_99,fr10_e1).
body(r_fr11_99,fr11_b3).
body(r_fr11_99,fr11_d1).
body(r_fr11_99,fr11_e1).
body(r_fr11_99,fr11_f2).
head(r_fr11_100,fr11_q2).
body(r_fr11_100,fr11_a2).
body(r_fr11_100,fr11_b1).
body(r_fr11_100,fr11_d1).
body(r_fr11_100,fr11_e1).
body(r_fr11_100,fr9_t1).
body(r_fr11_100,fr12_x3).
head(r_fr11_101,fr11_q2).
body(r_fr11_101,fr11_p1).
body(r_fr11_101,fr15_z2).
body(r_fr11_101,fr9_t1).
body(r_fr11_101,fr11_q3).
body(r_fr11_101,fr11_s1).
body(r_fr11_101,fr6_r1).
head(r_fr11_102,fr11_q2).
body(r_fr11_102,fr11_b1).
body(r_fr11_102,fr9_c1).
body(r_fr11_102,fr11_c3).
body(r_fr11_102,fr11_r3).
body(r_fr11_102,fr11_s1).
head(r_fr11_103,fr11_q2).
body(r_fr11_103,fr11_b1).
head(r_fr11_104,fr24_y2).
body(r_fr11_104,fr11_q3).
body(r_fr11_104,fr6_r1).
body(r_fr11_104,fr12_x3).
head(r_fr11_105,fr24_y2).
body(r_fr11_105,fr9_c1).
head(r_fr11_106,fr24_y2).
body(r_fr11_106,fr11_p1).
head(r_fr11_107,fr24_y2).
body(r_fr11_107,fr11_b1).
body(r_fr11_107,fr9_c1).
body(r_fr11_107,fr11_c3).
body(r_fr11_107,fr11_f1).
head(r_fr11_108,fr24_y2).
body(r_fr11_108,fr11_b1).
body(r_fr11_108,fr11_b3).
body(r_fr11_108,fr11_d1).
body(r_fr11_108,fr11_e1).
body(r_fr11_108,fr11_f1).
body(r_fr11_108,fr11_p1).
head(r_fr11_109,fr24_y2).
body(r_fr11_109,fr11_e2).
head(r_fr11_110,fr24_y2).
body(r_fr11_110,fr11_d1).
body(r_fr11_110,fr11_d2).
head(r_fr11_111,fr24_y2).
body(r_fr11_111,fr10_e1).
body(r_fr11_111,fr11_z2).
head(r_fr11_112,fr24_y2).
head(r_fr11_113,fr11_z2).
body(r_fr11_113,fr11_b1).
body(r_fr11_113,fr11_d1).
body(r_fr11_113,fr11_d2).
body(r_fr11_113,fr11_p1).
body(r_fr11_113,fr11_r3).
body(r_fr11_113,fr6_r1).
head(r_fr11_114,fr11_z2).
body(r_fr11_114,fr11_f2).
head(r_fr11_115,fr11_z2).
body(r_fr11_115,fr11_q3).
body(r_fr11_115,fr11_t1).
body(r_fr11_115,fr21_p3).
body(r_fr11_115,fr12_x3).
head(r_fr11_116,fr11_z2).
body(r_fr11_116,fr11_q3).
body(r_fr11_116,fr11_s1).
body(r_fr11_116,fr11_u1).
body(r_fr11_116,fr21_p3).
body(r_fr11_116,fr6_r1).
head(r_fr11_117,fr11_z2).
body(r_fr11_117,fr11_c2).
body(r_fr11_117,fr11_d2).
head(r_fr11_118,fr11_z2).
body(r_fr11_118,fr10_e1).
body(r_fr11_118,fr11_e1).
body(r_fr11_118,fr25_s2).
body(r_fr11_118,fr11_r3).
head(r_fr11_119,fr11_z2).
body(r_fr11_119,fr11_a1).
body(r_fr11_119,fr11_f1).
head(r_fr11_120,fr11_z2).
body(r_fr11_120,fr11_a1).
body(r_fr11_120,fr10_e1).
body(r_fr11_120,fr11_d1).
body(r_fr11_120,fr6_r1).
head(r_fr11_121,fr11_z2).
body(r_fr11_121,fr18_a1).
body(r_fr11_121,fr11_c2).
body(r_fr11_121,fr15_z2).
body(r_fr11_121,fr9_t1).
body(r_fr11_121,fr11_u1).
body(r_fr11_121,fr21_p3).
head(r_fr11_122,fr11_s1).
body(r_fr11_122,fr11_a2).
body(r_fr11_122,fr11_d2).
head(r_fr11_123,fr11_s1).
body(r_fr11_123,fr18_a1).
body(r_fr11_123,fr11_d1).
body(r_fr11_123,fr21_p3).
head(r_fr11_124,fr11_s1).
body(r_fr11_124,fr11_d2).
body(r_fr11_124,fr15_z2).
body(r_fr11_124,fr11_q3).
body(r_fr11_124,fr11_u1).
body(r_fr11_124,fr21_p3).
head(r_fr11_125,fr11_s1).
head(r_fr11_126,fr11_s1).
body(r_fr11_126,fr11_a2).
body(r_fr11_126,fr11_d2).
body(r_fr11_126,fr11_q3).
head(r_fr11_127,fr11_s1).
body(r_fr11_127,fr11_a2).
body(r_fr11_127,fr11_b3).
body(r_fr11_127,fr11_e1).
body(r_fr11_127,fr11_f2).
head(r_fr11_128,fr11_s1).
body(r_fr11_128,fr11_a2).
body(r_fr11_128,fr11_b3).
body(r_fr11_128,fr11_c2).
body(r_fr11_128,fr11_e2).
body(r_fr11_128,fr11_t1).
body(r_fr11_128,fr11_u1).
head(r_fr11_129,fr11_s1).
body(r_fr11_129,fr11_p1).
body(r_fr11_129,fr11_q3).
body(r_fr11_129,fr11_t1).
body(r_fr11_129,fr21_p3).
body(r_fr11_129,fr12_x3).
head(r_fr11_130,fr11_s1).
body(r_fr11_130,fr9_c1).
body(r_fr11_130,fr11_c2).
body(r_fr11_130,fr25_s2).
body(r_fr11_130,fr11_q3).
body(r_fr11_130,fr11_t1).
head(r_fr11_131,fr11_s1).
body(r_fr11_131,fr11_a2).
body(r_fr11_131,fr11_b1).
body(r_fr11_131,fr9_c1).
body(r_fr11_131,fr11_c2).
body(r_fr11_131,fr11_r3).
body(r_fr11_131,fr11_t1).
head(r_fr11_132,fr6_r1).
body(r_fr11_132,fr11_r3).
body(r_fr11_132,fr11_u1).
body(r_fr11_132,fr21_p3).
body(r_fr11_132,fr12_x3).
head(r_fr11_133,fr6_r1).
body(r_fr11_133,fr11_p1).
body(r_fr11_133,fr21_p3).
head(r_fr11_134,fr6_r1).
body(r_fr11_134,fr11_p1).
body(r_fr11_134,fr11_q3).
body(r_fr11_134,fr11_r3).
head(r_fr11_135,fr6_r1).
head(r_fr11_136,fr6_r1).
body(r_fr11_136,fr11_a2).
body(r_fr11_136,fr11_b3).
body(r_fr11_136,fr11_c3).
body(r_fr11_136,fr11_d2).
body(r_fr11_136,fr11_f1).
head(r_fr11_137,fr6_r1).
body(r_fr11_137,fr9_c1).
body(r_fr11_137,fr11_p1).
body(r_fr11_137,fr15_z2).
body(r_fr11_137,fr25_s2).
body(r_fr11_137,fr11_r3).
body(r_fr11_137,fr21_p3).
head(r_fr11_138,fr6_r1).
body(r_fr11_138,fr11_p1).
head(r_fr11_139,fr6_r1).
body(r_fr11_139,fr25_s2).
body(r_fr11_139,fr11_u1).
head(r_fr11_140,fr6_r1).
body(r_fr11_140,fr11_a1).
body(r_fr11_140,fr11_b1).
body(r_fr11_140,fr11_b3).
body(r_fr11_140,fr11_e1).
body(r_fr11_140,fr25_s2).
body(r_fr11_140,fr11_t1).
head(r_fr11_141,fr25_s2).
body(r_fr11_141,fr15_z2).
body(r_fr11_141,fr11_r3).
body(r_fr11_141,fr12_x3).
head(r_fr11_142,fr25_s2).
body(r_fr11_142,fr11_b1).
body(r_fr11_142,fr11_f2).
body(r_fr11_142,fr11_q3).
body(r_fr11_142,fr11_r3).
body(r_fr11_142,fr11_t1).
body(r_fr11_142,fr21_p3).
head(r_fr11_143,fr25_s2).
body(r_fr11_143,fr9_c1).
body(r_fr11_143,fr11_p1).
body(r_fr11_143,fr11_q3).
body(r_fr11_143,fr11_t1).
body(r_fr11_143,fr21_p3).
head(r_fr11_144,fr25_s2).
body(r_fr11_144,fr9_t1).
body(r_fr11_144,fr11_r3).
body(r_fr11_144,fr21_p3).
head(r_fr11_145,fr25_s2).
body(r_fr11_145,fr11_d2).
head(r_fr11_146,fr25_s2).
head(r_fr11_147,fr25_s2).
body(r_fr11_147,fr11_a1).
body(r_fr11_147,fr11_b3).
body(r_fr11_147,fr11_d1).
body(r_fr11_147,fr11_e2).
body(r_fr11_147,fr11_f2).
head(r_fr11_148,fr25_s2).
body(r_fr11_148,fr15_z2).
body(r_fr11_148,fr11_q3).
body(r_fr11_148,fr12_x3).
head(r_fr11_149,fr11_q3).
body(r_fr11_149,fr11_b3).
head(r_fr11_150,fr11_q3).
body(r_fr11_150,fr10_e1).
body(r_fr11_150,fr11_b3).
body(r_fr11_150,fr11_e2).
body(r_fr11_150,fr11_r3).
body(r_fr11_150,fr21_p3).
head(r_fr11_151,fr11_q3).
body(r_fr11_151,fr11_u1).
body(r_fr11_151,fr12_x3).
head(r_fr11_152,fr11_q3).
body(r_fr11_152,fr18_a1).
body(r_fr11_152,fr11_c3).
body(r_fr11_152,fr11_d1).
body(r_fr11_152,fr11_p1).
body(r_fr11_152,fr11_r3).
head(r_fr11_153,fr11_q3).
body(r_fr11_153,fr11_a1).
body(r_fr11_153,fr11_c2).
body(r_fr11_153,fr11_f2).
head(r_fr11_154,fr11_q3).
head(r_fr11_155,fr11_q3).
body(r_fr11_155,fr11_a1).
body(r_fr11_155,fr10_e1).
body(r_fr11_155,fr11_c3).
head(r_fr11_156,fr11_q3).
body(r_fr11_156,fr9_c1).
head(r_fr11_157,fr11_q3).
body(r_fr11_157,fr15_z2).
body(r_fr11_157,fr9_t1).
body(r_fr11_157,fr11_r3).
body(r_fr11_157,fr11_u1).
body(r_fr11_157,fr21_p3).
head(r_fr11_158,fr11_q3).
body(r_fr11_158,fr11_p1).
body(r_fr11_158,fr11_u1).
head(r_fr11_159,fr15_z2).
body(r_fr11_159,fr11_f2).
body(r_fr11_159,fr9_t1).
body(r_fr11_159,fr11_r3).
body(r_fr11_159,fr11_t1).
body(r_fr11_159,fr11_u1).
head(r_fr11_160,fr15_z2).
body(r_fr11_160,fr18_a1).
body(r_fr11_160,fr9_c1).
body(r_fr11_160,fr11_d1).
body(r_fr11_160,fr11_f2).
head(r_fr11_161,fr15_z2).
body(r_fr11_161,fr11_b1).
head(r_fr11_162,fr15_z2).
body(r_fr11_162,fr9_t1).
body(r_fr11_162,fr11_r3).
body(r_fr11_162,fr11_u1).
body(r_fr11_162,fr12_x3).
head(r_fr11_163,fr15_z2).
body(r_fr11_163,fr11_a1).
body(r_fr11_163,fr11_c3).
body(r_fr11_163,fr11_d1).
body(r_fr11_163,fr11_d2).
body(r_fr11_163,fr12_x3).
head(r_fr11_164,fr15_z2).
body(r_fr11_164,fr11_r3).
body(r_fr11_164,fr11_t1).
body(r_fr11_164,fr11_u1).
head(r_fr11_165,fr15_z2).
body(r_fr11_165,fr11_c3).
body(r_fr11_165,fr11_p1).
body(r_fr11_165,fr11_t1).
head(r_fr11_166,fr15_z2).
body(r_fr11_166,fr11_t1).
body(r_fr11_166,fr21_p3).
head(r_fr11_167,fr15_z2).
body(r_fr11_167,fr11_b1).
body(r_fr11_167,fr11_r3).
head(r_fr11_168,fr15_z2).
body(r_fr11_168,fr21_p3).
head(r_fr11_169,fr15_z2).
head(r_fr11_170,fr11_p1).
body(r_fr11_170,fr11_b1).
body(r_fr11_170,fr11_c2).
body(r_fr11_170,fr11_f2).
head(r_fr11_171,fr11_p1).
body(r_fr11_171,fr18_a1).
body(r_fr11_171,fr10_e1).
body(r_fr11_171,fr11_c2).
body(r_fr11_171,fr11_d2).
body(r_fr11_171,fr11_e1).
body(r_fr11_171,fr11_e2).
head(r_fr11_172,fr11_p1).
body(r_fr11_172,fr11_a1).
body(r_fr11_172,fr9_c1).
body(r_fr11_172,fr11_c3).
body(r_fr11_172,fr11_f1).
head(r_fr11_173,fr11_p1).
head(r_fr11_174,fr11_p1).
body(r_fr11_174,fr11_r3).
body(r_fr11_174,fr11_u1).
body(r_fr11_174,fr21_p3).
body(r_fr11_174,fr12_x3).
head(r_fr11_175,fr11_p1).
body(r_fr11_175,fr9_t1).
body(r_fr11_175,fr11_r3).
body(r_fr11_175,fr11_u1).
body(r_fr11_175,fr12_x3).
head(r_fr11_176,fr11_p1).
body(r_fr11_176,fr11_b3).
body(r_fr11_176,fr11_d2).
body(r_fr11_176,fr9_t1).
body(r_fr11_176,fr11_u1).
head(r_fr11_177,fr11_p1).
body(r_fr11_177,fr9_t1).
body(r_fr11_177,fr11_u1).
body(r_fr11_177,fr21_p3).
head(r_fr11_178,fr11_u1).
body(r_fr11_178,fr11_r3).
body(r_fr11_178,fr12_x3).
head(r_fr11_179,fr11_u1).
body(r_fr11_179,fr11_e1).
body(r_fr11_179,fr12_x3).
head(r_fr11_180,fr11_u1).
body(r_fr11_180,fr9_t1).
head(r_fr11_181,fr11_u1).
head(r_fr11_182,fr11_u1).
body(r_fr11_182,fr11_a1).
body(r_fr11_182,fr9_t1).
body(r_fr11_182,fr11_t1).
body(r_fr11_182,fr21_p3).
body(r_fr11_182,fr12_x3).
head(r_fr11_183,fr11_u1).
body(r_fr11_183,fr11_a1).
body(r_fr11_183,fr11_b1).
body(r_fr11_183,fr11_e1).
body(r_fr11_183,fr21_p3).
head(r_fr11_184,fr11_u1).
body(r_fr11_184,fr11_r3).
head(r_fr11_185,fr11_u1).
body(r_fr11_185,fr9_c1).
body(r_fr11_185,fr11_c3).
body(r_fr11_185,fr9_t1).
body(r_fr11_185,fr11_r3).
body(r_fr11_185,fr21_p3).
body(r_fr11_185,fr12_x3).
head(r_fr11_186,fr11_u1).
body(r_fr11_186,fr9_t1).
body(r_fr11_186,fr11_r3).
body(r_fr11_186,fr21_p3).
body(r_fr11_186,fr12_x3).
head(r_fr11_187,fr11_u1).
body(r_fr11_187,fr11_t1).
body(r_fr11_187,fr21_p3).

assumption(fr12_a1).
assumption(fr12_b1).
assumption(fr12_c1).
assumption(fr2_b2).
assumption(fr21_e2).
assumption(fr12_f1).
assumption(fr12_a2).
assumption(fr12_b2).
assumption(fr12_c2).
assumption(fr14_f1).
assumption(fr9_c2).
assumption(fr12_f1).
assumption(fr25_c1).
assumption(fr12_b3).
assumption(fr3_a3).
contrary(fr12_a1,fr12_v3).
contrary(fr12_a2,fr15_s2).
contrary(fr25_c1,fr12_v1).
contrary(fr12_b1,fr12_q4).
contrary(fr12_b2,fr9_c2).
contrary(fr12_b3,fr12_q1).
contrary(fr12_c1,fr21_e2).
contrary(fr12_c2,fr14_x1).
contrary(fr3_a3,fr2_w2).
contrary(fr2_b2,fr15_s2).
contrary(fr14_f1,fr12_p4).
contrary(fr21_e2,fr12_y1).
contrary(fr9_c2,fr4_p3).
contrary(fr12_f1,fr21_e2).
contrary(fr12_f1,fr12_x3).
head(r_fr12_0,fr2_w2).
body(r_fr12_0,fr12_b3).
body(r_fr12_0,fr12_c1).
body(r_fr12_0,fr14_f1).
body(r_fr12_0,fr13_v3).
body(r_fr12_0,fr16_z1).
body(r_fr12_0,fr12_p3).
body(r_fr12_0,fr12_q1).
body(r_fr12_0,fr12_q2).
body(r_fr12_0,fr12_q3).
body(r_fr12_0,fr12_q4).
body(r_fr12_0,fr12_r1).
body(r_fr12_0,fr12_r3).
body(r_fr12_0,fr12_s1).
body(r_fr12_0,fr12_s2).
body(r_fr12_0,fr15_s2).
body(r_fr12_0,fr12_u1).
body(r_fr12_0,fr20_x2).
body(r_fr12_0,fr12_v1).
body(r_fr12_0,fr12_v2).
body(r_fr12_0,fr12_w1).
body(r_fr12_0,fr12_x2).
body(r_fr12_0,fr13_u1).
head(r_fr12_1,fr2_w2).
body(r_fr12_1,fr12_b1).
body(r_fr12_1,fr12_b3).
body(r_fr12_1,fr14_f1).
body(r_fr12_1,fr16_z1).
body(r_fr12_1,fr12_p3).
body(r_fr12_1,fr12_p4).
body(r_fr12_1,fr12_q2).
body(r_fr12_1,fr14_x1).
body(r_fr12_1,fr12_r3).
body(r_fr12_1,fr12_s1).
body(r_fr12_1,fr12_s2).
body(r_fr12_1,fr12_t2).
body(r_fr12_1,fr4_p3).
body(r_fr12_1,fr12_u1).
body(r_fr12_1,fr12_u3).
body(r_fr12_1,fr12_v1).
body(r_fr12_1,fr12_v2).
body(r_fr12_1,fr12_w1).
body(r_fr12_1,fr17_y1).
body(r_fr12_1,fr13_y1).
body(r_fr12_1,fr12_x2).
body(r_fr12_1,fr12_x3).
body(r_fr12_1,fr12_y1).
body(r_fr12_1,fr12_y2).
head(r_fr12_2,fr16_z1).
body(r_fr12_2,fr12_p3).
body(r_fr12_2,fr12_p4).
body(r_fr12_2,fr12_q3).
body(r_fr12_2,fr12_q4).
body(r_fr12_2,fr12_r3).
body(r_fr12_2,fr12_s1).
body(r_fr12_2,fr15_s2).
body(r_fr12_2,fr12_t2).
body(r_fr12_2,fr4_p3).
body(r_fr12_2,fr12_u1).
body(r_fr12_2,fr20_x2).
body(r_fr12_2,fr12_v1).
body(r_fr12_2,fr12_v2).
body(r_fr12_2,fr17_y1).
body(r_fr12_2,fr12_w3).
body(r_fr12_2,fr13_y1).
body(r_fr12_2,fr12_x2).
body(r_fr12_2,fr12_y1).
body(r_fr12_2,fr12_y2).
body(r_fr12_2,fr13_u1).
body(r_fr12_2,fr25_s2).
head(r_fr12_3,fr16_z1).
body(r_fr12_3,fr12_a1).
body(r_fr12_3,fr12_b1).
body(r_fr12_3,fr12_b3).
body(r_fr12_3,fr3_a3).
body(r_fr12_3,fr12_f1).
body(r_fr12_3,fr13_v3).
body(r_fr12_3,fr12_p3).
body(r_fr12_3,fr12_q3).
body(r_fr12_3,fr12_q4).
body(r_fr12_3,fr12_r3).
body(r_fr12_3,fr12_s2).
body(r_fr12_3,fr12_s3).
body(r_fr12_3,fr15_s2).
body(r_fr12_3,fr4_p3).
body(r_fr12_3,fr12_u3).
body(r_fr12_3,fr12_v1).
body(r_fr12_3,fr12_v2).
body(r_fr12_3,fr12_w1).
body(r_fr12_3,fr13_y1).
body(r_fr12_3,fr12_x2).
body(r_fr12_3,fr12_x3).
body(r_fr12_3,fr13_u1).
body(r_fr12_3,fr12_z1).
head(r_fr12_4,fr16_z1).
body(r_fr12_4,fr12_a1).
body(r_fr12_4,fr12_a2).
body(r_fr12_4,fr21_e2).
body(r_fr12_4,fr9_c2).
body(r_fr12_4,fr13_v3).
body(r_fr12_4,fr12_p4).
body(r_fr12_4,fr12_q2).
body(r_fr12_4,fr14_x1).
body(r_fr12_4,fr12_r3).
body(r_fr12_4,fr12_s2).
body(r_fr12_4,fr12_s3).
body(r_fr12_4,fr15_s2).
body(r_fr12_4,fr12_t2).
body(r_fr12_4,fr4_p3).
body(r_fr12_4,fr12_u1).
body(r_fr12_4,fr12_v1).
body(r_fr12_4,fr13_y1).
body(r_fr12_4,fr12_x2).
body(r_fr12_4,fr12_y1).
body(r_fr12_4,fr13_u1).
body(r_fr12_4,fr12_z1).
body(r_fr12_4,fr25_s2).
head(r_fr12_5,fr16_z1).
body(r_fr12_5,fr12_c2).
body(r_fr12_5,fr14_f1).
body(r_fr12_5,fr21_e2).
body(r_fr12_5,fr13_v3).
body(r_fr12_5,fr12_p3).
body(r_fr12_5,fr12_p4).
body(r_fr12_5,fr12_q2).
body(r_fr12_5,fr12_q4).
body(r_fr12_5,fr14_x1).
body(r_fr12_5,fr12_r3).
body(r_fr12_5,fr12_s1).
body(r_fr12_5,fr12_s2).
body(r_fr12_5,fr15_s2).
body(r_fr12_5,fr12_t2).
body(r_fr12_5,fr4_p3).
body(r_fr12_5,fr12_u1).
body(r_fr12_5,fr12_u3).
body(r_fr12_5,fr12_w1).
body(r_fr12_5,fr17_y1).
body(r_fr12_5,fr13_y1).
body(r_fr12_5,fr12_y1).
body(r_fr12_5,fr12_y2).
head(r_fr12_6,fr12_w3).
body(r_fr12_6,fr12_b1).
body(r_fr12_6,fr21_e2).
body(r_fr12_6,fr12_f1).
body(r_fr12_6,fr12_p3).
body(r_fr12_6,fr12_p4).
body(r_fr12_6,fr12_q1).
body(r_fr12_6,fr12_q2).
body(r_fr12_6,fr12_q3).
body(r_fr12_6,fr12_s1).
body(r_fr12_6,fr12_s2).
body(r_fr12_6,fr15_s2).
body(r_fr12_6,fr12_t2).
body(r_fr12_6,fr4_p3).
body(r_fr12_6,fr12_u1).
body(r_fr12_6,fr20_x2).
body(r_fr12_6,fr12_u3).
body(r_fr12_6,fr12_v1).
body(r_fr12_6,fr12_v2).
body(r_fr12_6,fr12_w1).
body(r_fr12_6,fr12_x2).
body(r_fr12_6,fr12_y1).
body(r_fr12_6,fr12_y2).
body(r_fr12_6,fr13_u1).
head(r_fr12_7,fr12_w3).
body(r_fr12_7,fr12_a1).
body(r_fr12_7,fr12_a2).
body(r_fr12_7,fr25_c1).
body(r_fr12_7,fr12_b1).
body(r_fr12_7,fr12_b2).
body(r_fr12_7,fr12_c2).
body(r_fr12_7,fr12_p4).
body(r_fr12_7,fr12_q1).
body(r_fr12_7,fr12_q2).
body(r_fr12_7,fr12_q3).
body(r_fr12_7,fr12_r1).
body(r_fr12_7,fr12_r3).
body(r_fr12_7,fr12_s1).
body(r_fr12_7,fr12_s3).
body(r_fr12_7,fr12_u3).
body(r_fr12_7,fr12_v3).
body(r_fr12_7,fr17_y1).
body(r_fr12_7,fr13_y1).
body(r_fr12_7,fr12_x2).
body(r_fr12_7,fr12_y2).
body(r_fr12_7,fr12_z1).
head(r_fr12_8,fr12_q2).
body(r_fr12_8,fr12_a1).
body(r_fr12_8,fr14_f1).
body(r_fr12_8,fr9_c2).
body(r_fr12_8,fr12_f1).
body(r_fr12_8,fr13_v3).
body(r_fr12_8,fr12_p3).
body(r_fr12_8,fr12_p4).
body(r_fr12_8,fr12_q3).
body(r_fr12_8,fr12_q4).
body(r_fr12_8,fr12_s2).
body(r_fr12_8,fr12_s3).
body(r_fr12_8,fr4_p3).
body(r_fr12_8,fr20_x2).
body(r_fr12_8,fr12_v1).
body(r_fr12_8,fr12_v2).
body(r_fr12_8,fr12_v3).
body(r_fr12_8,fr17_y1).
body(r_fr12_8,fr13_y1).
body(r_fr12_8,fr12_x2).
body(r_fr12_8,fr12_y1).
body(r_fr12_8,fr13_u1).
head(r_fr12_9,fr12_q2).
body(r_fr12_9,fr12_b1).
body(r_fr12_9,fr2_b2).
body(r_fr12_9,fr13_v3).
body(r_fr12_9,fr12_q1).
body(r_fr12_9,fr12_r1).
body(r_fr12_9,fr14_x1).
body(r_fr12_9,fr12_r3).
body(r_fr12_9,fr12_s1).
body(r_fr12_9,fr12_s2).
body(r_fr12_9,fr12_s3).
body(r_fr12_9,fr15_s2).
body(r_fr12_9,fr4_p3).
body(r_fr12_9,fr12_u1).
body(r_fr12_9,fr20_x2).
body(r_fr12_9,fr12_u3).
body(r_fr12_9,fr12_v2).
body(r_fr12_9,fr12_v3).
body(r_fr12_9,fr17_y1).
body(r_fr12_9,fr13_y1).
body(r_fr12_9,fr12_x2).
body(r_fr12_9,fr12_x3).
body(r_fr12_9,fr12_y1).
body(r_fr12_9,fr12_y2).
body(r_fr12_9,fr25_s2).
head(r_fr12_10,fr12_q2).
body(r_fr12_10,fr12_a1).
body(r_fr12_10,fr12_c1).
body(r_fr12_10,fr3_a3).
body(r_fr12_10,fr14_f1).
body(r_fr12_10,fr9_c2).
body(r_fr12_10,fr12_f1).
body(r_fr12_10,fr12_q1).
body(r_fr12_10,fr12_q3).
body(r_fr12_10,fr12_s1).
body(r_fr12_10,fr12_s2).
body(r_fr12_10,fr12_s3).
body(r_fr12_10,fr12_t2).
body(r_fr12_10,fr4_p3).
body(r_fr12_10,fr20_x2).
body(r_fr12_10,fr17_y1).
body(r_fr12_10,fr12_x2).
body(r_fr12_10,fr12_y1).
body(r_fr12_10,fr12_y2).
body(r_fr12_10,fr13_u1).
body(r_fr12_10,fr12_z1).
body(r_fr12_10,fr25_s2).
head(r_fr12_11,fr12_q2).
body(r_fr12_11,fr12_a1).
body(r_fr12_11,fr13_v3).
body(r_fr12_11,fr12_p3).
body(r_fr12_11,fr12_q3).
body(r_fr12_11,fr12_q4).
body(r_fr12_11,fr14_x1).
body(r_fr12_11,fr12_s1).
body(r_fr12_11,fr12_s2).
body(r_fr12_11,fr12_t2).
body(r_fr12_11,fr4_p3).
body(r_fr12_11,fr12_u1).
body(r_fr12_11,fr20_x2).
body(r_fr12_11,fr12_u3).
body(r_fr12_11,fr12_v2).
body(r_fr12_11,fr12_v3).
body(r_fr12_11,fr12_w1).
body(r_fr12_11,fr17_y1).
body(r_fr12_11,fr13_y1).
body(r_fr12_11,fr12_x2).
body(r_fr12_11,fr12_x3).
body(r_fr12_11,fr12_y1).
body(r_fr12_11,fr12_y2).
body(r_fr12_11,fr13_u1).
body(r_fr12_11,fr25_s2).
head(r_fr12_12,fr12_q2).
body(r_fr12_12,fr13_v3).
body(r_fr12_12,fr12_p4).
body(r_fr12_12,fr12_q1).
body(r_fr12_12,fr12_q4).
body(r_fr12_12,fr12_r1).
body(r_fr12_12,fr14_x1).
body(r_fr12_12,fr12_r3).
body(r_fr12_12,fr12_s2).
body(r_fr12_12,fr12_s3).
body(r_fr12_12,fr4_p3).
body(r_fr12_12,fr12_u1).
body(r_fr12_12,fr20_x2).
body(r_fr12_12,fr12_v1).
body(r_fr12_12,fr12_v2).
body(r_fr12_12,fr12_v3).
body(r_fr12_12,fr13_y1).
body(r_fr12_12,fr12_x2).
body(r_fr12_12,fr12_x3).
body(r_fr12_12,fr12_y1).
body(r_fr12_12,fr13_u1).
body(r_fr12_12,fr25_s2).
head(r_fr12_13,fr12_x2).
body(r_fr12_13,fr12_c1).
body(r_fr12_13,fr13_v3).
body(r_fr12_13,fr12_p4).
body(r_fr12_13,fr12_q4).
body(r_fr12_13,fr12_r1).
body(r_fr12_13,fr12_r3).
body(r_fr12_13,fr12_s1).
body(r_fr12_13,fr12_s2).
body(r_fr12_13,fr12_s3).
body(r_fr12_13,fr4_p3).
body(r_fr12_13,fr12_u1).
body(r_fr12_13,fr20_x2).
body(r_fr12_13,fr12_u3).
body(r_fr12_13,fr12_v1).
body(r_fr12_13,fr12_v2).
body(r_fr12_13,fr12_v3).
body(r_fr12_13,fr12_w1).
body(r_fr12_13,fr13_y1).
body(r_fr12_13,fr12_x3).
body(r_fr12_13,fr12_y1).
body(r_fr12_13,fr12_y2).
body(r_fr12_13,fr13_u1).
body(r_fr12_13,fr12_z1).
body(r_fr12_13,fr25_s2).
head(r_fr12_14,fr12_x2).
body(r_fr12_14,fr12_a1).
body(r_fr12_14,fr12_b2).
body(r_fr12_14,fr12_c2).
body(r_fr12_14,fr2_b2).
body(r_fr12_14,fr12_f1).
body(r_fr12_14,fr12_f1).
body(r_fr12_14,fr12_p4).
body(r_fr12_14,fr12_q1).
body(r_fr12_14,fr12_r1).
body(r_fr12_14,fr14_x1).
body(r_fr12_14,fr12_r3).
body(r_fr12_14,fr12_s3).
body(r_fr12_14,fr15_s2).
body(r_fr12_14,fr4_p3).
body(r_fr12_14,fr12_u1).
body(r_fr12_14,fr20_x2).
body(r_fr12_14,fr17_y1).
body(r_fr12_14,fr13_y1).
body(r_fr12_14,fr12_x3).
body(r_fr12_14,fr12_y1).
body(r_fr12_14,fr12_y2).
body(r_fr12_14,fr13_u1).
body(r_fr12_14,fr25_s2).
head(r_fr12_15,fr12_x2).
body(r_fr12_15,fr12_c1).
body(r_fr12_15,fr21_e2).
body(r_fr12_15,fr9_c2).
body(r_fr12_15,fr12_f1).
body(r_fr12_15,fr13_v3).
body(r_fr12_15,fr12_p3).
body(r_fr12_15,fr12_q1).
body(r_fr12_15,fr12_q3).
body(r_fr12_15,fr12_r1).
body(r_fr12_15,fr12_r3).
body(r_fr12_15,fr12_s2).
body(r_fr12_15,fr12_s3).
body(r_fr12_15,fr15_s2).
body(r_fr12_15,fr12_t2).
body(r_fr12_15,fr12_u1).
body(r_fr12_15,fr12_u3).
body(r_fr12_15,fr12_v1).
body(r_fr12_15,fr12_w1).
body(r_fr12_15,fr12_x3).
body(r_fr12_15,fr12_y1).
body(r_fr12_15,fr12_y2).
body(r_fr12_15,fr13_u1).
body(r_fr12_15,fr12_z1).
head(r_fr12_16,fr12_x2).
body(r_fr12_16,fr13_v3).
body(r_fr12_16,fr12_p3).
body(r_fr12_16,fr12_q1).
body(r_fr12_16,fr12_q3).
body(r_fr12_16,fr12_q4).
body(r_fr12_16,fr12_r3).
body(r_fr12_16,fr12_s1).
body(r_fr12_16,fr12_s2).
body(r_fr12_16,fr12_s3).
body(r_fr12_16,fr15_s2).
body(r_fr12_16,fr12_t2).
body(r_fr12_16,fr4_p3).
body(r_fr12_16,fr20_x2).
body(r_fr12_16,fr12_u3).
body(r_fr12_16,fr12_v1).
body(r_fr12_16,fr12_v2).
body(r_fr12_16,fr12_v3).
body(r_fr12_16,fr12_w1).
body(r_fr12_16,fr17_y1).
body(r_fr12_16,fr12_x3).
body(r_fr12_16,fr12_y1).
body(r_fr12_16,fr13_u1).
body(r_fr12_16,fr12_z1).
body(r_fr12_16,fr25_s2).
head(r_fr12_17,fr20_x2).
body(r_fr12_17,fr13_v3).
body(r_fr12_17,fr12_p3).
body(r_fr12_17,fr12_q3).
body(r_fr12_17,fr12_q4).
body(r_fr12_17,fr12_r1).
body(r_fr12_17,fr12_s1).
body(r_fr12_17,fr12_s2).
body(r_fr12_17,fr12_s3).
body(r_fr12_17,fr15_s2).
body(r_fr12_17,fr4_p3).
body(r_fr12_17,fr12_u1).
body(r_fr12_17,fr12_u3).
body(r_fr12_17,fr12_v1).
body(r_fr12_17,fr12_v2).
body(r_fr12_17,fr12_v3).
body(r_fr12_17,fr12_w1).
body(r_fr12_17,fr17_y1).
body(r_fr12_17,fr13_y1).
body(r_fr12_17,fr12_x3).
body(r_fr12_17,fr13_u1).
body(r_fr12_17,fr12_z1).
body(r_fr12_17,fr25_s2).
head(r_fr12_18,fr20_x2).
body(r_fr12_18,fr12_c1).
body(r_fr12_18,fr21_e2).
body(r_fr12_18,fr9_c2).
body(r_fr12_18,fr13_v3).
body(r_fr12_18,fr12_p3).
body(r_fr12_18,fr12_p4).
body(r_fr12_18,fr12_q1).
body(r_fr12_18,fr12_q3).
body(r_fr12_18,fr12_q4).
body(r_fr12_18,fr12_r1).
body(r_fr12_18,fr12_s2).
body(r_fr12_18,fr12_s3).
body(r_fr12_18,fr15_s2).
body(r_fr12_18,fr12_t2).
body(r_fr12_18,fr4_p3).
body(r_fr12_18,fr12_u3).
body(r_fr12_18,fr12_v2).
body(r_fr12_18,fr13_y1).
body(r_fr12_18,fr12_x3).
body(r_fr12_18,fr12_y1).
body(r_fr12_18,fr13_u1).
body(r_fr12_18,fr12_z1).
body(r_fr12_18,fr25_s2).
head(r_fr12_19,fr12_v1).
body(r_fr12_19,fr12_a1).
body(r_fr12_19,fr25_c1).
body(r_fr12_19,fr12_b1).
body(r_fr12_19,fr12_c1).
body(r_fr12_19,fr12_c2).
body(r_fr12_19,fr3_a3).
body(r_fr12_19,fr13_v3).
body(r_fr12_19,fr12_p3).
body(r_fr12_19,fr14_x1).
body(r_fr12_19,fr15_s2).
body(r_fr12_19,fr12_t2).
body(r_fr12_19,fr4_p3).
body(r_fr12_19,fr12_u1).
body(r_fr12_19,fr12_v2).
body(r_fr12_19,fr12_v3).
body(r_fr12_19,fr12_w1).
body(r_fr12_19,fr13_y1).
body(r_fr12_19,fr12_x3).
body(r_fr12_19,fr12_y1).
body(r_fr12_19,fr12_y2).
body(r_fr12_19,fr25_s2).
head(r_fr12_20,fr12_v1).
body(r_fr12_20,fr12_a2).
body(r_fr12_20,fr12_b2).
body(r_fr12_20,fr12_c1).
body(r_fr12_20,fr2_b2).
body(r_fr12_20,fr21_e2).
body(r_fr12_20,fr9_c2).
body(r_fr12_20,fr13_v3).
body(r_fr12_20,fr12_p3).
body(r_fr12_20,fr12_p4).
body(r_fr12_20,fr12_q1).
body(r_fr12_20,fr12_q3).
body(r_fr12_20,fr12_r1).
body(r_fr12_20,fr14_x1).
body(r_fr12_20,fr12_r3).
body(r_fr12_20,fr12_s2).
body(r_fr12_20,fr12_s3).
body(r_fr12_20,fr12_t2).
body(r_fr12_20,fr4_p3).
body(r_fr12_20,fr12_u1).
body(r_fr12_20,fr12_v3).
body(r_fr12_20,fr13_y1).
body(r_fr12_20,fr12_x3).
body(r_fr12_20,fr13_u1).
body(r_fr12_20,fr25_s2).
head(r_fr12_21,fr12_v1).
body(r_fr12_21,fr25_c1).
body(r_fr12_21,fr12_b3).
body(r_fr12_21,fr12_c2).
body(r_fr12_21,fr2_b2).
body(r_fr12_21,fr9_c2).
body(r_fr12_21,fr12_q1).
body(r_fr12_21,fr12_q3).
body(r_fr12_21,fr12_r1).
body(r_fr12_21,fr12_s1).
body(r_fr12_21,fr12_s2).
body(r_fr12_21,fr12_s3).
body(r_fr12_21,fr15_s2).
body(r_fr12_21,fr12_u3).
body(r_fr12_21,fr12_v2).
body(r_fr12_21,fr12_v3).
body(r_fr12_21,fr17_y1).
body(r_fr12_21,fr13_y1).
body(r_fr12_21,fr12_x3).
body(r_fr12_21,fr12_y2).
body(r_fr12_21,fr13_u1).
body(r_fr12_21,fr12_z1).
body(r_fr12_21,fr25_s2).
head(r_fr12_22,fr17_y1).
body(r_fr12_22,fr12_a2).
body(r_fr12_22,fr13_v3).
body(r_fr12_22,fr12_p3).
body(r_fr12_22,fr12_p4).
body(r_fr12_22,fr12_q4).
body(r_fr12_22,fr12_r1).
body(r_fr12_22,fr14_x1).
body(r_fr12_22,fr12_r3).
body(r_fr12_22,fr12_s1).
body(r_fr12_22,fr12_s2).
body(r_fr12_22,fr12_s3).
body(r_fr12_22,fr12_u3).
body(r_fr12_22,fr12_v2).
body(r_fr12_22,fr12_v3).
body(r_fr12_22,fr12_w1).
body(r_fr12_22,fr13_y1).
body(r_fr12_22,fr12_x3).
body(r_fr12_22,fr12_y1).
body(r_fr12_22,fr12_y2).
body(r_fr12_22,fr13_u1).
body(r_fr12_22,fr25_s2).
head(r_fr12_23,fr17_y1).
body(r_fr12_23,fr13_v3).
body(r_fr12_23,fr12_p3).
body(r_fr12_23,fr12_p4).
body(r_fr12_23,fr12_q1).
body(r_fr12_23,fr12_q3).
body(r_fr12_23,fr14_x1).
body(r_fr12_23,fr12_r3).
body(r_fr12_23,fr12_s2).
body(r_fr12_23,fr12_s3).
body(r_fr12_23,fr15_s2).
body(r_fr12_23,fr12_t2).
body(r_fr12_23,fr4_p3).
body(r_fr12_23,fr12_u1).
body(r_fr12_23,fr12_v3).
body(r_fr12_23,fr12_w1).
body(r_fr12_23,fr13_y1).
body(r_fr12_23,fr12_x3).
body(r_fr12_23,fr12_y1).
body(r_fr12_23,fr12_y2).
body(r_fr12_23,fr13_u1).
body(r_fr12_23,fr25_s2).
head(r_fr12_24,fr17_y1).
body(r_fr12_24,fr12_a2).
body(r_fr12_24,fr12_b2).
body(r_fr12_24,fr12_c1).
body(r_fr12_24,fr2_b2).
body(r_fr12_24,fr9_c2).
body(r_fr12_24,fr12_f1).
body(r_fr12_24,fr13_v3).
body(r_fr12_24,fr12_q1).
body(r_fr12_24,fr12_q4).
body(r_fr12_24,fr12_r1).
body(r_fr12_24,fr14_x1).
body(r_fr12_24,fr12_r3).
body(r_fr12_24,fr12_s1).
body(r_fr12_24,fr15_s2).
body(r_fr12_24,fr4_p3).
body(r_fr12_24,fr12_u1).
body(r_fr12_24,fr12_v2).
body(r_fr12_24,fr12_x3).
body(r_fr12_24,fr12_y1).
body(r_fr12_24,fr12_y2).
body(r_fr12_24,fr13_u1).
head(r_fr12_25,fr17_y1).
body(r_fr12_25,fr12_c1).
body(r_fr12_25,fr14_f1).
body(r_fr12_25,fr13_v3).
body(r_fr12_25,fr12_p3).
body(r_fr12_25,fr12_q1).
body(r_fr12_25,fr12_q4).
body(r_fr12_25,fr12_r1).
body(r_fr12_25,fr14_x1).
body(r_fr12_25,fr12_r3).
body(r_fr12_25,fr12_s1).
body(r_fr12_25,fr12_s2).
body(r_fr12_25,fr15_s2).
body(r_fr12_25,fr12_t2).
body(r_fr12_25,fr12_u1).
body(r_fr12_25,fr12_u3).
body(r_fr12_25,fr12_v3).
body(r_fr12_25,fr12_w1).
body(r_fr12_25,fr12_x3).
body(r_fr12_25,fr12_y1).
body(r_fr12_25,fr13_u1).
body(r_fr12_25,fr12_z1).
body(r_fr12_25,fr25_s2).
head(r_fr12_26,fr17_y1).
body(r_fr12_26,fr12_a2).
body(r_fr12_26,fr12_b1).
body(r_fr12_26,fr12_c1).
body(r_fr12_26,fr12_c2).
body(r_fr12_26,fr3_a3).
body(r_fr12_26,fr21_e2).
body(r_fr12_26,fr13_v3).
body(r_fr12_26,fr12_q1).
body(r_fr12_26,fr12_r1).
body(r_fr12_26,fr14_x1).
body(r_fr12_26,fr12_r3).
body(r_fr12_26,fr12_s1).
body(r_fr12_26,fr12_s3).
body(r_fr12_26,fr15_s2).
body(r_fr12_26,fr4_p3).
body(r_fr12_26,fr12_u1).
body(r_fr12_26,fr12_u3).
body(r_fr12_26,fr12_v2).
body(r_fr12_26,fr12_w1).
body(r_fr12_26,fr13_y1).
body(r_fr12_26,fr12_x3).
body(r_fr12_26,fr12_y1).
body(r_fr12_26,fr13_u1).
body(r_fr12_26,fr12_z1).
head(r_fr12_27,fr12_y1).
body(r_fr12_27,fr12_b2).
body(r_fr12_27,fr12_c1).
body(r_fr12_27,fr12_c2).
body(r_fr12_27,fr3_a3).
body(r_fr12_27,fr9_c2).
body(r_fr12_27,fr13_v3).
body(r_fr12_27,fr12_p3).
body(r_fr12_27,fr12_p4).
body(r_fr12_27,fr12_q1).
body(r_fr12_27,fr12_q3).
body(r_fr12_27,fr12_q4).
body(r_fr12_27,fr14_x1).
body(r_fr12_27,fr12_s2).
body(r_fr12_27,fr12_s3).
body(r_fr12_27,fr12_t2).
body(r_fr12_27,fr12_u3).
body(r_fr12_27,fr12_v2).
body(r_fr12_27,fr12_w1).
body(r_fr12_27,fr12_x3).
body(r_fr12_27,fr12_y2).
body(r_fr12_27,fr25_s2).
head(r_fr12_28,fr12_y1).
body(r_fr12_28,fr12_a1).
body(r_fr12_28,fr12_b3).
body(r_fr12_28,fr3_a3).
body(r_fr12_28,fr2_b2).
body(r_fr12_28,fr14_f1).
body(r_fr12_28,fr12_f1).
body(r_fr12_28,fr13_v3).
body(r_fr12_28,fr12_p4).
body(r_fr12_28,fr12_q1).
body(r_fr12_28,fr12_q3).
body(r_fr12_28,fr12_r1).
body(r_fr12_28,fr14_x1).
body(r_fr12_28,fr12_r3).
body(r_fr12_28,fr12_s3).
body(r_fr12_28,fr15_s2).
body(r_fr12_28,fr12_v2).
body(r_fr12_28,fr12_v3).
body(r_fr12_28,fr12_w1).
body(r_fr12_28,fr13_y1).
body(r_fr12_28,fr12_x3).
body(r_fr12_28,fr13_u1).
body(r_fr12_28,fr12_z1).
body(r_fr12_28,fr25_s2).
head(r_fr12_29,fr12_y1).
body(r_fr12_29,fr25_c1).
body(r_fr12_29,fr12_b3).
body(r_fr12_29,fr12_c2).
body(r_fr12_29,fr2_b2).
body(r_fr12_29,fr14_f1).
body(r_fr12_29,fr12_f1).
body(r_fr12_29,fr12_p4).
body(r_fr12_29,fr12_q1).
body(r_fr12_29,fr12_q3).
body(r_fr12_29,fr12_r1).
body(r_fr12_29,fr14_x1).
body(r_fr12_29,fr12_r3).
body(r_fr12_29,fr12_s2).
body(r_fr12_29,fr15_s2).
body(r_fr12_29,fr12_t2).
body(r_fr12_29,fr4_p3).
body(r_fr12_29,fr12_u1).
body(r_fr12_29,fr12_u3).
body(r_fr12_29,fr12_v2).
body(r_fr12_29,fr13_y1).
body(r_fr12_29,fr13_u1).
body(r_fr12_29,fr12_z1).
body(r_fr12_29,fr25_s2).
head(r_fr12_30,fr12_y1).
body(r_fr12_30,fr13_v3).
body(r_fr12_30,fr12_p3).
body(r_fr12_30,fr12_p4).
body(r_fr12_30,fr12_q1).
body(r_fr12_30,fr12_q3).
body(r_fr12_30,fr12_q4).
body(r_fr12_30,fr12_r1).
body(r_fr12_30,fr14_x1).
body(r_fr12_30,fr12_r3).
body(r_fr12_30,fr12_s1).
body(r_fr12_30,fr12_s2).
body(r_fr12_30,fr12_s3).
body(r_fr12_30,fr15_s2).
body(r_fr12_30,fr4_p3).
body(r_fr12_30,fr12_u1).
body(r_fr12_30,fr12_u3).
body(r_fr12_30,fr12_v2).
body(r_fr12_30,fr12_v3).
body(r_fr12_30,fr12_w1).
body(r_fr12_30,fr13_y1).
body(r_fr12_30,fr12_y2).
body(r_fr12_30,fr13_u1).
body(r_fr12_30,fr12_z1).
body(r_fr12_30,fr25_s2).
head(r_fr12_31,fr12_y1).
body(r_fr12_31,fr9_c2).
body(r_fr12_31,fr13_v3).
body(r_fr12_31,fr12_p3).
body(r_fr12_31,fr12_p4).
body(r_fr12_31,fr12_q1).
body(r_fr12_31,fr12_q4).
body(r_fr12_31,fr12_r1).
body(r_fr12_31,fr14_x1).
body(r_fr12_31,fr12_r3).
body(r_fr12_31,fr12_s2).
body(r_fr12_31,fr12_s3).
body(r_fr12_31,fr15_s2).
body(r_fr12_31,fr4_p3).
body(r_fr12_31,fr12_u1).
body(r_fr12_31,fr12_u3).
body(r_fr12_31,fr12_v2).
body(r_fr12_31,fr12_v3).
body(r_fr12_31,fr12_w1).
body(r_fr12_31,fr13_y1).
body(r_fr12_31,fr12_x3).
body(r_fr12_31,fr12_y2).
body(r_fr12_31,fr12_z1).
body(r_fr12_31,fr25_s2).
head(r_fr12_32,fr12_u3).
body(r_fr12_32,fr12_a1).
body(r_fr12_32,fr2_b2).
body(r_fr12_32,fr9_c2).
body(r_fr12_32,fr13_v3).
body(r_fr12_32,fr12_p3).
body(r_fr12_32,fr12_p4).
body(r_fr12_32,fr12_q1).
body(r_fr12_32,fr12_q3).
body(r_fr12_32,fr14_x1).
body(r_fr12_32,fr12_r3).
body(r_fr12_32,fr12_s1).
body(r_fr12_32,fr12_s2).
body(r_fr12_32,fr12_s3).
body(r_fr12_32,fr15_s2).
body(r_fr12_32,fr12_t2).
body(r_fr12_32,fr12_v2).
body(r_fr12_32,fr12_v3).
body(r_fr12_32,fr12_y2).
body(r_fr12_32,fr13_u1).
body(r_fr12_32,fr12_z1).
body(r_fr12_32,fr25_s2).
head(r_fr12_33,fr12_u3).
body(r_fr12_33,fr12_c2).
body(r_fr12_33,fr21_e2).
body(r_fr12_33,fr9_c2).
body(r_fr12_33,fr13_v3).
body(r_fr12_33,fr12_p3).
body(r_fr12_33,fr12_p4).
body(r_fr12_33,fr12_q3).
body(r_fr12_33,fr12_r1).
body(r_fr12_33,fr14_x1).
body(r_fr12_33,fr12_r3).
body(r_fr12_33,fr12_s1).
body(r_fr12_33,fr12_s2).
body(r_fr12_33,fr15_s2).
body(r_fr12_33,fr12_t2).
body(r_fr12_33,fr4_p3).
body(r_fr12_33,fr12_u1).
body(r_fr12_33,fr12_v3).
body(r_fr12_33,fr12_w1).
body(r_fr12_33,fr13_y1).
body(r_fr12_33,fr12_x3).
body(r_fr12_33,fr13_u1).
body(r_fr12_33,fr12_z1).
body(r_fr12_33,fr25_s2).
head(r_fr12_34,fr12_u3).
body(r_fr12_34,fr13_v3).
body(r_fr12_34,fr12_p3).
body(r_fr12_34,fr12_p4).
body(r_fr12_34,fr12_q1).
body(r_fr12_34,fr12_q3).
body(r_fr12_34,fr12_q4).
body(r_fr12_34,fr14_x1).
body(r_fr12_34,fr12_r3).
body(r_fr12_34,fr12_s2).
body(r_fr12_34,fr12_s3).
body(r_fr12_34,fr15_s2).
body(r_fr12_34,fr12_t2).
body(r_fr12_34,fr4_p3).
body(r_fr12_34,fr12_u1).
body(r_fr12_34,fr12_v2).
body(r_fr12_34,fr12_v3).
body(r_fr12_34,fr12_w1).
body(r_fr12_34,fr13_y1).
body(r_fr12_34,fr12_x3).
body(r_fr12_34,fr13_u1).
body(r_fr12_34,fr25_s2).
head(r_fr12_35,fr12_u3).
body(r_fr12_35,fr25_c1).
body(r_fr12_35,fr12_b2).
body(r_fr12_35,fr12_b3).
body(r_fr12_35,fr2_b2).
body(r_fr12_35,fr21_e2).
body(r_fr12_35,fr13_v3).
body(r_fr12_35,fr12_p3).
body(r_fr12_35,fr12_p4).
body(r_fr12_35,fr12_q3).
body(r_fr12_35,fr12_q4).
body(r_fr12_35,fr14_x1).
body(r_fr12_35,fr12_r3).
body(r_fr12_35,fr12_s2).
body(r_fr12_35,fr12_s3).
body(r_fr12_35,fr15_s2).
body(r_fr12_35,fr12_t2).
body(r_fr12_35,fr4_p3).
body(r_fr12_35,fr12_u1).
body(r_fr12_35,fr12_v2).
body(r_fr12_35,fr12_w1).
body(r_fr12_35,fr13_y1).
body(r_fr12_35,fr13_u1).
body(r_fr12_35,fr12_z1).
head(r_fr12_36,fr12_s1).
body(r_fr12_36,fr12_a1).
body(r_fr12_36,fr12_c1).
body(r_fr12_36,fr12_f1).
body(r_fr12_36,fr12_f1).
body(r_fr12_36,fr13_v3).
body(r_fr12_36,fr12_p3).
body(r_fr12_36,fr12_q1).
body(r_fr12_36,fr12_q3).
body(r_fr12_36,fr12_q4).
body(r_fr12_36,fr12_r1).
body(r_fr12_36,fr14_x1).
body(r_fr12_36,fr12_r3).
body(r_fr12_36,fr12_s3).
body(r_fr12_36,fr15_s2).
body(r_fr12_36,fr12_t2).
body(r_fr12_36,fr12_u1).
body(r_fr12_36,fr12_v3).
body(r_fr12_36,fr13_y1).
body(r_fr12_36,fr12_x3).
body(r_fr12_36,fr12_y2).
body(r_fr12_36,fr12_z1).
body(r_fr12_36,fr25_s2).
head(r_fr12_37,fr12_s1).
body(r_fr12_37,fr12_b2).
body(r_fr12_37,fr2_b2).
body(r_fr12_37,fr13_v3).
body(r_fr12_37,fr12_p3).
body(r_fr12_37,fr12_p4).
body(r_fr12_37,fr12_q1).
body(r_fr12_37,fr12_q4).
body(r_fr12_37,fr12_r1).
body(r_fr12_37,fr14_x1).
body(r_fr12_37,fr12_r3).
body(r_fr12_37,fr12_s3).
body(r_fr12_37,fr15_s2).
body(r_fr12_37,fr4_p3).
body(r_fr12_37,fr12_u1).
body(r_fr12_37,fr12_v2).
body(r_fr12_37,fr12_w1).
body(r_fr12_37,fr13_y1).
body(r_fr12_37,fr12_x3).
body(r_fr12_37,fr12_y2).
body(r_fr12_37,fr12_z1).
body(r_fr12_37,fr25_s2).
head(r_fr12_38,fr12_s1).
body(r_fr12_38,fr25_c1).
body(r_fr12_38,fr14_f1).
body(r_fr12_38,fr12_f1).
body(r_fr12_38,fr13_v3).
body(r_fr12_38,fr12_p3).
body(r_fr12_38,fr12_p4).
body(r_fr12_38,fr12_q1).
body(r_fr12_38,fr12_q4).
body(r_fr12_38,fr12_r1).
body(r_fr12_38,fr12_r3).
body(r_fr12_38,fr12_s2).
body(r_fr12_38,fr12_s3).
body(r_fr12_38,fr15_s2).
body(r_fr12_38,fr12_t2).
body(r_fr12_38,fr4_p3).
body(r_fr12_38,fr12_u1).
body(r_fr12_38,fr12_v2).
body(r_fr12_38,fr12_w1).
body(r_fr12_38,fr13_y1).
body(r_fr12_38,fr12_x3).
body(r_fr12_38,fr12_y2).
body(r_fr12_38,fr12_z1).
body(r_fr12_38,fr25_s2).
head(r_fr12_39,fr12_t2).
body(r_fr12_39,fr12_b2).
body(r_fr12_39,fr9_c2).
body(r_fr12_39,fr13_v3).
body(r_fr12_39,fr12_p3).
body(r_fr12_39,fr12_p4).
body(r_fr12_39,fr12_q1).
body(r_fr12_39,fr12_q3).
body(r_fr12_39,fr12_q4).
body(r_fr12_39,fr12_r1).
body(r_fr12_39,fr14_x1).
body(r_fr12_39,fr12_r3).
body(r_fr12_39,fr12_s3).
body(r_fr12_39,fr15_s2).
body(r_fr12_39,fr4_p3).
body(r_fr12_39,fr12_u1).
body(r_fr12_39,fr12_v2).
body(r_fr12_39,fr12_v3).
body(r_fr12_39,fr12_w1).
body(r_fr12_39,fr13_y1).
body(r_fr12_39,fr12_x3).
body(r_fr12_39,fr12_y2).
body(r_fr12_39,fr13_u1).
body(r_fr12_39,fr12_z1).
body(r_fr12_39,fr25_s2).
head(r_fr12_40,fr12_t2).
body(r_fr12_40,fr13_v3).
body(r_fr12_40,fr12_p3).
body(r_fr12_40,fr12_p4).
body(r_fr12_40,fr12_q3).
body(r_fr12_40,fr12_q4).
body(r_fr12_40,fr12_r1).
body(r_fr12_40,fr14_x1).
body(r_fr12_40,fr12_r3).
body(r_fr12_40,fr12_s2).
body(r_fr12_40,fr12_s3).
body(r_fr12_40,fr4_p3).
body(r_fr12_40,fr12_u1).
body(r_fr12_40,fr12_v2).
body(r_fr12_40,fr12_v3).
body(r_fr12_40,fr12_w1).
body(r_fr12_40,fr13_y1).
body(r_fr12_40,fr12_x3).
body(r_fr12_40,fr12_y2).
body(r_fr12_40,fr13_u1).
body(r_fr12_40,fr12_z1).
body(r_fr12_40,fr25_s2).
head(r_fr12_41,fr12_t2).
body(r_fr12_41,fr12_c2).
body(r_fr12_41,fr12_f1).
body(r_fr12_41,fr13_v3).
body(r_fr12_41,fr12_p3).
body(r_fr12_41,fr12_p4).
body(r_fr12_41,fr12_q1).
body(r_fr12_41,fr12_q3).
body(r_fr12_41,fr12_q4).
body(r_fr12_41,fr12_r1).
body(r_fr12_41,fr12_r3).
body(r_fr12_41,fr12_s2).
body(r_fr12_41,fr12_s3).
body(r_fr12_41,fr4_p3).
body(r_fr12_41,fr12_u1).
body(r_fr12_41,fr12_v2).
body(r_fr12_41,fr12_v3).
body(r_fr12_41,fr12_w1).
body(r_fr12_41,fr12_x3).
body(r_fr12_41,fr12_y2).
body(r_fr12_41,fr13_u1).
body(r_fr12_41,fr25_s2).
head(r_fr12_42,fr12_t2).
body(r_fr12_42,fr12_a2).
body(r_fr12_42,fr12_c1).
body(r_fr12_42,fr12_f1).
body(r_fr12_42,fr13_v3).
body(r_fr12_42,fr12_p3).
body(r_fr12_42,fr12_p4).
body(r_fr12_42,fr12_q1).
body(r_fr12_42,fr12_q3).
body(r_fr12_42,fr12_q4).
body(r_fr12_42,fr12_r1).
body(r_fr12_42,fr14_x1).
body(r_fr12_42,fr12_r3).
body(r_fr12_42,fr12_s3).
body(r_fr12_42,fr15_s2).
body(r_fr12_42,fr4_p3).
body(r_fr12_42,fr12_u1).
body(r_fr12_42,fr12_v2).
body(r_fr12_42,fr12_v3).
body(r_fr12_42,fr12_w1).
body(r_fr12_42,fr13_y1).
body(r_fr12_42,fr12_x3).
body(r_fr12_42,fr12_y2).
body(r_fr12_42,fr13_u1).
body(r_fr12_42,fr12_z1).
head(r_fr12_43,fr12_v3).
body(r_fr12_43,fr12_a1).
body(r_fr12_43,fr2_b2).
body(r_fr12_43,fr9_c2).
body(r_fr12_43,fr12_f1).
body(r_fr12_43,fr13_v3).
body(r_fr12_43,fr12_p3).
body(r_fr12_43,fr12_p4).
body(r_fr12_43,fr12_q1).
body(r_fr12_43,fr12_q3).
body(r_fr12_43,fr12_q4).
body(r_fr12_43,fr12_r1).
body(r_fr12_43,fr14_x1).
body(r_fr12_43,fr12_r3).
body(r_fr12_43,fr12_s2).
body(r_fr12_43,fr12_s3).
body(r_fr12_43,fr4_p3).
body(r_fr12_43,fr12_u1).
body(r_fr12_43,fr12_w1).
body(r_fr12_43,fr13_y1).
body(r_fr12_43,fr12_x3).
body(r_fr12_43,fr12_y2).
body(r_fr12_43,fr13_u1).
body(r_fr12_43,fr12_z1).
body(r_fr12_43,fr25_s2).
head(r_fr12_44,fr12_v3).
body(r_fr12_44,fr12_a2).
body(r_fr12_44,fr12_b1).
body(r_fr12_44,fr12_b3).
body(r_fr12_44,fr14_f1).
body(r_fr12_44,fr9_c2).
body(r_fr12_44,fr13_v3).
body(r_fr12_44,fr12_q1).
body(r_fr12_44,fr12_q4).
body(r_fr12_44,fr12_r1).
body(r_fr12_44,fr14_x1).
body(r_fr12_44,fr12_s2).
body(r_fr12_44,fr15_s2).
body(r_fr12_44,fr4_p3).
body(r_fr12_44,fr12_u1).
body(r_fr12_44,fr12_v2).
body(r_fr12_44,fr12_w1).
body(r_fr12_44,fr13_y1).
body(r_fr12_44,fr12_y2).
body(r_fr12_44,fr13_u1).
body(r_fr12_44,fr12_z1).
body(r_fr12_44,fr25_s2).
head(r_fr12_45,fr12_v3).
body(r_fr12_45,fr25_c1).
body(r_fr12_45,fr12_b1).
body(r_fr12_45,fr2_b2).
body(r_fr12_45,fr9_c2).
body(r_fr12_45,fr13_v3).
body(r_fr12_45,fr12_p3).
body(r_fr12_45,fr12_p4).
body(r_fr12_45,fr12_q1).
body(r_fr12_45,fr12_q3).
body(r_fr12_45,fr12_r1).
body(r_fr12_45,fr14_x1).
body(r_fr12_45,fr12_s2).
body(r_fr12_45,fr12_s3).
body(r_fr12_45,fr15_s2).
body(r_fr12_45,fr4_p3).
body(r_fr12_45,fr12_u1).
body(r_fr12_45,fr12_w1).
body(r_fr12_45,fr13_y1).
body(r_fr12_45,fr12_y2).
body(r_fr12_45,fr13_u1).
body(r_fr12_45,fr12_z1).
body(r_fr12_45,fr25_s2).
head(r_fr12_46,fr12_v3).
body(r_fr12_46,fr25_c1).
body(r_fr12_46,fr12_b1).
body(r_fr12_46,fr12_b3).
body(r_fr12_46,fr12_c2).
body(r_fr12_46,fr14_f1).
body(r_fr12_46,fr21_e2).
body(r_fr12_46,fr13_v3).
body(r_fr12_46,fr12_p4).
body(r_fr12_46,fr12_q1).
body(r_fr12_46,fr12_q3).
body(r_fr12_46,fr12_r1).
body(r_fr12_46,fr14_x1).
body(r_fr12_46,fr12_r3).
body(r_fr12_46,fr4_p3).
body(r_fr12_46,fr12_u1).
body(r_fr12_46,fr12_v2).
body(r_fr12_46,fr12_w1).
body(r_fr12_46,fr12_x3).
body(r_fr12_46,fr13_u1).
body(r_fr12_46,fr12_z1).
body(r_fr12_46,fr25_s2).
head(r_fr12_47,fr12_q1).
body(r_fr12_47,fr12_c2).
body(r_fr12_47,fr3_a3).
body(r_fr12_47,fr14_f1).
body(r_fr12_47,fr13_v3).
body(r_fr12_47,fr12_p3).
body(r_fr12_47,fr12_p4).
body(r_fr12_47,fr12_q3).
body(r_fr12_47,fr12_q4).
body(r_fr12_47,fr14_x1).
body(r_fr12_47,fr12_r3).
body(r_fr12_47,fr12_s2).
body(r_fr12_47,fr12_s3).
body(r_fr12_47,fr15_s2).
body(r_fr12_47,fr4_p3).
body(r_fr12_47,fr12_u1).
body(r_fr12_47,fr13_y1).
body(r_fr12_47,fr12_x3).
body(r_fr12_47,fr12_y2).
body(r_fr12_47,fr13_u1).
body(r_fr12_47,fr12_z1).
body(r_fr12_47,fr25_s2).
head(r_fr12_48,fr12_q1).
body(r_fr12_48,fr12_b3).
body(r_fr12_48,fr2_b2).
body(r_fr12_48,fr12_f1).
body(r_fr12_48,fr12_p3).
body(r_fr12_48,fr12_p4).
body(r_fr12_48,fr12_q3).
body(r_fr12_48,fr12_q4).
body(r_fr12_48,fr12_r1).
body(r_fr12_48,fr12_s2).
body(r_fr12_48,fr12_s3).
body(r_fr12_48,fr15_s2).
body(r_fr12_48,fr4_p3).
body(r_fr12_48,fr12_u1).
body(r_fr12_48,fr12_v2).
body(r_fr12_48,fr12_w1).
body(r_fr12_48,fr13_y1).
body(r_fr12_48,fr12_x3).
body(r_fr12_48,fr12_y2).
body(r_fr12_48,fr13_u1).
body(r_fr12_48,fr12_z1).
body(r_fr12_48,fr25_s2).
head(r_fr12_49,fr13_u1).
body(r_fr12_49,fr25_c1).
body(r_fr12_49,fr12_c1).
body(r_fr12_49,fr2_b2).
body(r_fr12_49,fr13_v3).
body(r_fr12_49,fr12_p3).
body(r_fr12_49,fr12_p4).
body(r_fr12_49,fr12_q3).
body(r_fr12_49,fr12_q4).
body(r_fr12_49,fr12_r1).
body(r_fr12_49,fr14_x1).
body(r_fr12_49,fr12_r3).
body(r_fr12_49,fr12_s2).
body(r_fr12_49,fr12_s3).
body(r_fr12_49,fr15_s2).
body(r_fr12_49,fr4_p3).
body(r_fr12_49,fr12_u1).
body(r_fr12_49,fr12_v2).
body(r_fr12_49,fr12_w1).
body(r_fr12_49,fr13_y1).
body(r_fr12_49,fr12_x3).
body(r_fr12_49,fr12_y2).
body(r_fr12_49,fr12_z1).
body(r_fr12_49,fr25_s2).
head(r_fr12_50,fr13_u1).
body(r_fr12_50,fr12_b1).
body(r_fr12_50,fr12_f1).
body(r_fr12_50,fr13_v3).
body(r_fr12_50,fr12_p3).
body(r_fr12_50,fr12_p4).
body(r_fr12_50,fr12_q3).
body(r_fr12_50,fr12_q4).
body(r_fr12_50,fr12_r1).
body(r_fr12_50,fr14_x1).
body(r_fr12_50,fr12_r3).
body(r_fr12_50,fr12_s2).
body(r_fr12_50,fr12_s3).
body(r_fr12_50,fr15_s2).
body(r_fr12_50,fr4_p3).
body(r_fr12_50,fr12_u1).
body(r_fr12_50,fr12_v2).
body(r_fr12_50,fr12_w1).
body(r_fr12_50,fr13_y1).
body(r_fr12_50,fr12_x3).
body(r_fr12_50,fr12_y2).
body(r_fr12_50,fr12_z1).
body(r_fr12_50,fr25_s2).
head(r_fr12_51,fr13_u1).
body(r_fr12_51,fr12_b1).
body(r_fr12_51,fr12_c1).
body(r_fr12_51,fr2_b2).
body(r_fr12_51,fr21_e2).
body(r_fr12_51,fr9_c2).
body(r_fr12_51,fr12_f1).
body(r_fr12_51,fr13_v3).
body(r_fr12_51,fr12_p3).
body(r_fr12_51,fr12_p4).
body(r_fr12_51,fr12_q3).
body(r_fr12_51,fr12_q4).
body(r_fr12_51,fr14_x1).
body(r_fr12_51,fr12_r3).
body(r_fr12_51,fr12_s2).
body(r_fr12_51,fr12_s3).
body(r_fr12_51,fr15_s2).
body(r_fr12_51,fr4_p3).
body(r_fr12_51,fr12_u1).
body(r_fr12_51,fr12_w1).
body(r_fr12_51,fr12_x3).
body(r_fr12_51,fr12_y2).
body(r_fr12_51,fr12_z1).
body(r_fr12_51,fr25_s2).
head(r_fr12_52,fr15_s2).
body(r_fr12_52,fr12_b3).
body(r_fr12_52,fr12_c1).
body(r_fr12_52,fr14_f1).
body(r_fr12_52,fr13_v3).
body(r_fr12_52,fr12_p3).
body(r_fr12_52,fr12_p4).
body(r_fr12_52,fr12_q3).
body(r_fr12_52,fr12_q4).
body(r_fr12_52,fr14_x1).
body(r_fr12_52,fr12_r3).
body(r_fr12_52,fr12_s2).
body(r_fr12_52,fr12_s3).
body(r_fr12_52,fr4_p3).
body(r_fr12_52,fr12_u1).
body(r_fr12_52,fr12_v2).
body(r_fr12_52,fr12_w1).
body(r_fr12_52,fr13_y1).
body(r_fr12_52,fr12_x3).
body(r_fr12_52,fr12_y2).
body(r_fr12_52,fr12_z1).
body(r_fr12_52,fr25_s2).
head(r_fr12_53,fr15_s2).
body(r_fr12_53,fr12_a1).
body(r_fr12_53,fr12_c1).
body(r_fr12_53,fr12_c2).
body(r_fr12_53,fr3_a3).
body(r_fr12_53,fr12_f1).
body(r_fr12_53,fr13_v3).
body(r_fr12_53,fr12_p3).
body(r_fr12_53,fr12_p4).
body(r_fr12_53,fr12_q3).
body(r_fr12_53,fr12_q4).
body(r_fr12_53,fr12_r1).
body(r_fr12_53,fr14_x1).
body(r_fr12_53,fr12_r3).
body(r_fr12_53,fr12_s2).
body(r_fr12_53,fr12_s3).
body(r_fr12_53,fr4_p3).
body(r_fr12_53,fr12_u1).
body(r_fr12_53,fr12_v2).
body(r_fr12_53,fr12_w1).
body(r_fr12_53,fr13_y1).
body(r_fr12_53,fr12_x3).
body(r_fr12_53,fr12_y2).
body(r_fr12_53,fr12_z1).
body(r_fr12_53,fr25_s2).
head(r_fr12_54,fr15_s2).
body(r_fr12_54,fr12_a2).
body(r_fr12_54,fr12_b2).
body(r_fr12_54,fr12_b3).
body(r_fr12_54,fr12_f1).
body(r_fr12_54,fr13_v3).
body(r_fr12_54,fr12_p3).
body(r_fr12_54,fr12_p4).
body(r_fr12_54,fr12_q3).
body(r_fr12_54,fr12_q4).
body(r_fr12_54,fr12_r1).
body(r_fr12_54,fr12_r3).
body(r_fr12_54,fr12_s2).
body(r_fr12_54,fr12_s3).
body(r_fr12_54,fr4_p3).
body(r_fr12_54,fr12_u1).
body(r_fr12_54,fr12_v2).
body(r_fr12_54,fr12_w1).
body(r_fr12_54,fr13_y1).
body(r_fr12_54,fr12_x3).
body(r_fr12_54,fr12_y2).
body(r_fr12_54,fr12_z1).
head(r_fr12_55,fr15_s2).
body(r_fr12_55,fr12_a1).
body(r_fr12_55,fr25_c1).
body(r_fr12_55,fr2_b2).
body(r_fr12_55,fr21_e2).
body(r_fr12_55,fr9_c2).
body(r_fr12_55,fr12_f1).
body(r_fr12_55,fr12_p3).
body(r_fr12_55,fr12_p4).
body(r_fr12_55,fr12_q3).
body(r_fr12_55,fr12_q4).
body(r_fr12_55,fr12_r1).
body(r_fr12_55,fr14_x1).
body(r_fr12_55,fr12_r3).
body(r_fr12_55,fr12_s2).
body(r_fr12_55,fr12_s3).
body(r_fr12_55,fr4_p3).
body(r_fr12_55,fr12_u1).
body(r_fr12_55,fr12_v2).
body(r_fr12_55,fr12_w1).
body(r_fr12_55,fr13_y1).
body(r_fr12_55,fr12_x3).
body(r_fr12_55,fr12_y2).
body(r_fr12_55,fr12_z1).
body(r_fr12_55,fr25_s2).
head(r_fr12_56,fr15_s2).
body(r_fr12_56,fr25_c1).
body(r_fr12_56,fr12_c1).
body(r_fr12_56,fr21_e2).
body(r_fr12_56,fr9_c2).
body(r_fr12_56,fr12_f1).
body(r_fr12_56,fr13_v3).
body(r_fr12_56,fr12_p3).
body(r_fr12_56,fr12_p4).
body(r_fr12_56,fr12_q3).
body(r_fr12_56,fr12_q4).
body(r_fr12_56,fr12_r1).
body(r_fr12_56,fr14_x1).
body(r_fr12_56,fr12_r3).
body(r_fr12_56,fr12_s2).
body(r_fr12_56,fr4_p3).
body(r_fr12_56,fr12_u1).
body(r_fr12_56,fr12_v2).
body(r_fr12_56,fr12_w1).
body(r_fr12_56,fr13_y1).
body(r_fr12_56,fr12_y2).
body(r_fr12_56,fr12_z1).
body(r_fr12_56,fr25_s2).
head(r_fr12_57,fr12_r3).
body(r_fr12_57,fr12_a1).
body(r_fr12_57,fr12_b3).
body(r_fr12_57,fr12_c1).
body(r_fr12_57,fr12_f1).
body(r_fr12_57,fr13_v3).
body(r_fr12_57,fr12_p3).
body(r_fr12_57,fr12_p4).
body(r_fr12_57,fr12_q3).
body(r_fr12_57,fr12_q4).
body(r_fr12_57,fr12_r1).
body(r_fr12_57,fr14_x1).
body(r_fr12_57,fr12_s2).
body(r_fr12_57,fr12_s3).
body(r_fr12_57,fr4_p3).
body(r_fr12_57,fr12_u1).
body(r_fr12_57,fr12_v2).
body(r_fr12_57,fr12_w1).
body(r_fr12_57,fr13_y1).
body(r_fr12_57,fr12_x3).
body(r_fr12_57,fr12_y2).
body(r_fr12_57,fr25_s2).
head(r_fr12_58,fr12_r3).
body(r_fr12_58,fr12_a2).
body(r_fr12_58,fr12_b1).
body(r_fr12_58,fr12_b3).
body(r_fr12_58,fr12_c2).
body(r_fr12_58,fr14_f1).
body(r_fr12_58,fr13_v3).
body(r_fr12_58,fr12_p3).
body(r_fr12_58,fr12_p4).
body(r_fr12_58,fr12_q3).
body(r_fr12_58,fr12_q4).
body(r_fr12_58,fr12_r1).
body(r_fr12_58,fr14_x1).
body(r_fr12_58,fr12_s2).
body(r_fr12_58,fr12_s3).
body(r_fr12_58,fr4_p3).
body(r_fr12_58,fr12_u1).
body(r_fr12_58,fr12_v2).
body(r_fr12_58,fr12_w1).
body(r_fr12_58,fr13_y1).
body(r_fr12_58,fr12_x3).
body(r_fr12_58,fr12_y2).
body(r_fr12_58,fr12_z1).
body(r_fr12_58,fr25_s2).
head(r_fr12_59,fr12_r3).
body(r_fr12_59,fr12_a2).
body(r_fr12_59,fr12_b2).
body(r_fr12_59,fr12_b3).
body(r_fr12_59,fr3_a3).
body(r_fr12_59,fr12_f1).
body(r_fr12_59,fr12_f1).
body(r_fr12_59,fr13_v3).
body(r_fr12_59,fr12_p3).
body(r_fr12_59,fr12_p4).
body(r_fr12_59,fr12_q3).
body(r_fr12_59,fr12_q4).
body(r_fr12_59,fr12_r1).
body(r_fr12_59,fr14_x1).
body(r_fr12_59,fr12_s2).
body(r_fr12_59,fr12_s3).
body(r_fr12_59,fr4_p3).
body(r_fr12_59,fr12_u1).
body(r_fr12_59,fr12_w1).
body(r_fr12_59,fr13_y1).
body(r_fr12_59,fr12_x3).
body(r_fr12_59,fr12_y2).
body(r_fr12_59,fr12_z1).
body(r_fr12_59,fr25_s2).
head(r_fr12_60,fr12_r3).
body(r_fr12_60,fr25_c1).
body(r_fr12_60,fr12_b1).
body(r_fr12_60,fr12_c1).
body(r_fr12_60,fr3_a3).
body(r_fr12_60,fr14_f1).
body(r_fr12_60,fr13_v3).
body(r_fr12_60,fr12_p3).
body(r_fr12_60,fr12_p4).
body(r_fr12_60,fr12_q3).
body(r_fr12_60,fr12_q4).
body(r_fr12_60,fr12_r1).
body(r_fr12_60,fr14_x1).
body(r_fr12_60,fr12_s3).
body(r_fr12_60,fr4_p3).
body(r_fr12_60,fr12_u1).
body(r_fr12_60,fr12_v2).
body(r_fr12_60,fr12_w1).
body(r_fr12_60,fr13_y1).
body(r_fr12_60,fr12_x3).
body(r_fr12_60,fr12_y2).
body(r_fr12_60,fr25_s2).
head(r_fr12_61,fr12_u1).
body(r_fr12_61,fr12_a2).
body(r_fr12_61,fr12_b2).
body(r_fr12_61,fr21_e2).
body(r_fr12_61,fr9_c2).
body(r_fr12_61,fr13_v3).
body(r_fr12_61,fr12_p3).
body(r_fr12_61,fr12_p4).
body(r_fr12_61,fr12_q3).
body(r_fr12_61,fr12_q4).
body(r_fr12_61,fr12_r1).
body(r_fr12_61,fr14_x1).
body(r_fr12_61,fr12_s2).
body(r_fr12_61,fr12_s3).
body(r_fr12_61,fr4_p3).
body(r_fr12_61,fr12_v2).
body(r_fr12_61,fr12_w1).
body(r_fr12_61,fr13_y1).
body(r_fr12_61,fr12_x3).
body(r_fr12_61,fr12_y2).
body(r_fr12_61,fr12_z1).
body(r_fr12_61,fr25_s2).
head(r_fr12_62,fr12_u1).
body(r_fr12_62,fr12_a1).
body(r_fr12_62,fr25_c1).
body(r_fr12_62,fr12_b1).
body(r_fr12_62,fr12_b3).
body(r_fr12_62,fr9_c2).
body(r_fr12_62,fr13_v3).
body(r_fr12_62,fr12_p3).
body(r_fr12_62,fr12_p4).
body(r_fr12_62,fr12_q3).
body(r_fr12_62,fr12_q4).
body(r_fr12_62,fr12_r1).
body(r_fr12_62,fr14_x1).
body(r_fr12_62,fr12_s2).
body(r_fr12_62,fr12_s3).
body(r_fr12_62,fr4_p3).
body(r_fr12_62,fr12_v2).
body(r_fr12_62,fr12_w1).
body(r_fr12_62,fr13_y1).
body(r_fr12_62,fr12_x3).
body(r_fr12_62,fr12_y2).
body(r_fr12_62,fr12_z1).
body(r_fr12_62,fr25_s2).
head(r_fr12_63,fr12_u1).
body(r_fr12_63,fr25_c1).
body(r_fr12_63,fr12_b3).
body(r_fr12_63,fr12_c1).
body(r_fr12_63,fr3_a3).
body(r_fr12_63,fr2_b2).
body(r_fr12_63,fr13_v3).
body(r_fr12_63,fr12_p3).
body(r_fr12_63,fr12_p4).
body(r_fr12_63,fr12_q4).
body(r_fr12_63,fr12_r1).
body(r_fr12_63,fr14_x1).
body(r_fr12_63,fr12_s2).
body(r_fr12_63,fr12_s3).
body(r_fr12_63,fr4_p3).
body(r_fr12_63,fr12_v2).
body(r_fr12_63,fr12_w1).
body(r_fr12_63,fr13_y1).
body(r_fr12_63,fr12_x3).
body(r_fr12_63,fr12_y2).
body(r_fr12_63,fr12_z1).
body(r_fr12_63,fr25_s2).
head(r_fr12_64,fr12_u1).
body(r_fr12_64,fr12_a1).
body(r_fr12_64,fr25_c1).
body(r_fr12_64,fr3_a3).
body(r_fr12_64,fr2_b2).
body(r_fr12_64,fr9_c2).
body(r_fr12_64,fr12_f1).
body(r_fr12_64,fr13_v3).
body(r_fr12_64,fr12_p3).
body(r_fr12_64,fr12_p4).
body(r_fr12_64,fr12_q3).
body(r_fr12_64,fr12_q4).
body(r_fr12_64,fr12_r1).
body(r_fr12_64,fr14_x1).
body(r_fr12_64,fr12_s2).
body(r_fr12_64,fr12_s3).
body(r_fr12_64,fr4_p3).
body(r_fr12_64,fr12_v2).
body(r_fr12_64,fr12_w1).
body(r_fr12_64,fr13_y1).
body(r_fr12_64,fr12_x3).
body(r_fr12_64,fr12_y2).
body(r_fr12_64,fr12_z1).
body(r_fr12_64,fr25_s2).
head(r_fr12_65,fr4_p3).
body(r_fr12_65,fr25_c1).
body(r_fr12_65,fr12_b3).
body(r_fr12_65,fr3_a3).
body(r_fr12_65,fr2_b2).
body(r_fr12_65,fr14_f1).
body(r_fr12_65,fr9_c2).
body(r_fr12_65,fr13_v3).
body(r_fr12_65,fr12_p3).
body(r_fr12_65,fr12_p4).
body(r_fr12_65,fr12_q3).
body(r_fr12_65,fr12_q4).
body(r_fr12_65,fr12_r1).
body(r_fr12_65,fr14_x1).
body(r_fr12_65,fr12_s2).
body(r_fr12_65,fr12_s3).
body(r_fr12_65,fr12_v2).
body(r_fr12_65,fr12_w1).
body(r_fr12_65,fr13_y1).
body(r_fr12_65,fr12_x3).
body(r_fr12_65,fr12_y2).
body(r_fr12_65,fr12_z1).
body(r_fr12_65,fr25_s2).
head(r_fr12_66,fr4_p3).
body(r_fr12_66,fr12_b2).
body(r_fr12_66,fr12_b3).
body(r_fr12_66,fr2_b2).
body(r_fr12_66,fr14_f1).
body(r_fr12_66,fr21_e2).
body(r_fr12_66,fr9_c2).
body(r_fr12_66,fr13_v3).
body(r_fr12_66,fr12_p3).
body(r_fr12_66,fr12_p4).
body(r_fr12_66,fr12_q3).
body(r_fr12_66,fr12_q4).
body(r_fr12_66,fr12_r1).
body(r_fr12_66,fr14_x1).
body(r_fr12_66,fr12_s2).
body(r_fr12_66,fr12_s3).
body(r_fr12_66,fr12_v2).
body(r_fr12_66,fr12_w1).
body(r_fr12_66,fr13_y1).
body(r_fr12_66,fr12_x3).
body(r_fr12_66,fr12_y2).
body(r_fr12_66,fr12_z1).
body(r_fr12_66,fr25_s2).
head(r_fr12_67,fr4_p3).
body(r_fr12_67,fr12_a2).
body(r_fr12_67,fr12_b3).
body(r_fr12_67,fr3_a3).
body(r_fr12_67,fr2_b2).
body(r_fr12_67,fr14_f1).
body(r_fr12_67,fr13_v3).
body(r_fr12_67,fr12_p3).
body(r_fr12_67,fr12_p4).
body(r_fr12_67,fr12_q3).
body(r_fr12_67,fr12_q4).
body(r_fr12_67,fr12_r1).
body(r_fr12_67,fr14_x1).
body(r_fr12_67,fr12_s2).
body(r_fr12_67,fr12_s3).
body(r_fr12_67,fr12_v2).
body(r_fr12_67,fr12_w1).
body(r_fr12_67,fr13_y1).
body(r_fr12_67,fr12_x3).
body(r_fr12_67,fr12_y2).
body(r_fr12_67,fr12_z1).
body(r_fr12_67,fr25_s2).
head(r_fr12_68,fr4_p3).
body(r_fr12_68,fr25_c1).
body(r_fr12_68,fr12_b1).
body(r_fr12_68,fr3_a3).
body(r_fr12_68,fr21_e2).
body(r_fr12_68,fr12_f1).
body(r_fr12_68,fr13_v3).
body(r_fr12_68,fr12_p3).
body(r_fr12_68,fr12_p4).
body(r_fr12_68,fr12_q3).
body(r_fr12_68,fr12_q4).
body(r_fr12_68,fr12_r1).
body(r_fr12_68,fr14_x1).
body(r_fr12_68,fr12_s2).
body(r_fr12_68,fr12_s3).
body(r_fr12_68,fr12_v2).
body(r_fr12_68,fr12_w1).
body(r_fr12_68,fr13_y1).
body(r_fr12_68,fr12_x3).
body(r_fr12_68,fr12_y2).
body(r_fr12_68,fr12_z1).
body(r_fr12_68,fr25_s2).
head(r_fr12_69,fr12_s2).
body(r_fr12_69,fr12_b1).
body(r_fr12_69,fr12_b3).
body(r_fr12_69,fr12_c1).
body(r_fr12_69,fr12_c2).
body(r_fr12_69,fr9_c2).
body(r_fr12_69,fr12_f1).
body(r_fr12_69,fr13_v3).
body(r_fr12_69,fr12_p3).
body(r_fr12_69,fr12_p4).
body(r_fr12_69,fr12_q3).
body(r_fr12_69,fr12_q4).
body(r_fr12_69,fr12_r1).
body(r_fr12_69,fr14_x1).
body(r_fr12_69,fr12_s3).
body(r_fr12_69,fr12_v2).
body(r_fr12_69,fr12_w1).
body(r_fr12_69,fr13_y1).
body(r_fr12_69,fr12_x3).
body(r_fr12_69,fr12_y2).
body(r_fr12_69,fr12_z1).
body(r_fr12_69,fr25_s2).
head(r_fr12_70,fr12_s2).
body(r_fr12_70,fr25_c1).
body(r_fr12_70,fr12_b1).
body(r_fr12_70,fr12_b3).
body(r_fr12_70,fr2_b2).
body(r_fr12_70,fr14_f1).
body(r_fr12_70,fr9_c2).
body(r_fr12_70,fr13_v3).
body(r_fr12_70,fr12_p3).
body(r_fr12_70,fr12_p4).
body(r_fr12_70,fr12_q3).
body(r_fr12_70,fr12_q4).
body(r_fr12_70,fr12_r1).
body(r_fr12_70,fr14_x1).
body(r_fr12_70,fr12_s3).
body(r_fr12_70,fr12_v2).
body(r_fr12_70,fr12_w1).
body(r_fr12_70,fr13_y1).
body(r_fr12_70,fr12_x3).
body(r_fr12_70,fr12_y2).
body(r_fr12_70,fr12_z1).
body(r_fr12_70,fr25_s2).
head(r_fr12_71,fr12_s2).
body(r_fr12_71,fr25_c1).
body(r_fr12_71,fr12_b1).
body(r_fr12_71,fr12_b2).
body(r_fr12_71,fr12_c1).
body(r_fr12_71,fr21_e2).
body(r_fr12_71,fr12_f1).
body(r_fr12_71,fr13_v3).
body(r_fr12_71,fr12_p3).
body(r_fr12_71,fr12_p4).
body(r_fr12_71,fr12_q3).
body(r_fr12_71,fr12_q4).
body(r_fr12_71,fr12_r1).
body(r_fr12_71,fr14_x1).
body(r_fr12_71,fr12_s3).
body(r_fr12_71,fr12_v2).
body(r_fr12_71,fr12_w1).
body(r_fr12_71,fr13_y1).
body(r_fr12_71,fr12_x3).
body(r_fr12_71,fr12_y2).
body(r_fr12_71,fr12_z1).
body(r_fr12_71,fr25_s2).
head(r_fr12_72,fr12_s2).
body(r_fr12_72,fr12_a1).
body(r_fr12_72,fr12_b3).
body(r_fr12_72,fr12_c1).
body(r_fr12_72,fr12_c2).
body(r_fr12_72,fr14_f1).
body(r_fr12_72,fr12_f1).
body(r_fr12_72,fr13_v3).
body(r_fr12_72,fr12_p3).
body(r_fr12_72,fr12_p4).
body(r_fr12_72,fr12_q3).
body(r_fr12_72,fr12_q4).
body(r_fr12_72,fr12_r1).
body(r_fr12_72,fr14_x1).
body(r_fr12_72,fr12_s3).
body(r_fr12_72,fr12_v2).
body(r_fr12_72,fr12_w1).
body(r_fr12_72,fr13_y1).
body(r_fr12_72,fr12_x3).
body(r_fr12_72,fr12_y2).
body(r_fr12_72,fr12_z1).
body(r_fr12_72,fr25_s2).

assumption(fr13_a1).
assumption(fr13_b1).
assumption(fr13_c1).
assumption(fr13_d1).
assumption(fr13_e1).
assumption(fr13_f1).
assumption(fr4_a1).
assumption(fr13_b2).
assumption(fr13_c2).
assumption(fr13_d2).
assumption(fr10_b3).
assumption(fr2_c1).
assumption(fr13_a3).
assumption(fr13_b3).
assumption(fr13_c3).
assumption(fr13_d3).
assumption(fr12_f1).
assumption(fr9_c2).
contrary(fr13_a1,fr13_r1).
contrary(fr4_a1,fr13_t1).
contrary(fr13_a3,fr13_v2).
contrary(fr13_b1,fr13_q2).
contrary(fr13_b2,fr13_t3).
contrary(fr13_b3,fr13_t1).
contrary(fr13_c1,fr8_x2).
contrary(fr13_c2,fr13_a3).
contrary(fr13_c3,fr13_v2).
contrary(fr13_d1,fr13_u3).
contrary(fr13_d2,fr13_y2).
contrary(fr13_d3,fr2_c1).
contrary(fr13_e1,fr13_c1).
contrary(fr10_b3,fr1_s2).
contrary(fr12_f1,fr9_c2).
contrary(fr13_f1,fr13_d1).
contrary(fr2_c1,fr13_q1).
contrary(fr9_c2,fr13_x2).
head(r_fr13_0,fr13_q2).
body(r_fr13_0,fr13_a1).
body(r_fr13_0,fr4_a1).
body(r_fr13_0,fr13_d2).
body(r_fr13_0,fr13_r1).
body(r_fr13_0,fr13_y2).
body(r_fr13_0,fr13_z1).
head(r_fr13_1,fr13_q2).
body(r_fr13_1,fr13_a3).
body(r_fr13_1,fr10_b3).
body(r_fr13_1,fr13_r1).
head(r_fr13_2,fr13_q2).
body(r_fr13_2,fr11_p1).
body(r_fr13_2,fr13_t1).
body(r_fr13_2,fr25_u1).
head(r_fr13_3,fr13_q2).
body(r_fr13_3,fr13_b3).
body(r_fr13_3,fr13_t3).
body(r_fr13_3,fr13_z1).
head(r_fr13_4,fr13_q2).
body(r_fr13_4,fr13_a1).
head(r_fr13_5,fr8_x2).
body(r_fr13_5,fr13_a1).
body(r_fr13_5,fr13_q3).
body(r_fr13_5,fr13_t3).
body(r_fr13_5,fr13_v2).
body(r_fr13_5,fr13_v3).
body(r_fr13_5,fr13_w2).
body(r_fr13_5,fr13_w3).
head(r_fr13_6,fr8_x2).
body(r_fr13_6,fr13_p2).
body(r_fr13_6,fr13_t1).
head(r_fr13_7,fr8_x2).
body(r_fr13_7,fr13_a1).
body(r_fr13_7,fr13_a3).
body(r_fr13_7,fr13_b2).
body(r_fr13_7,fr13_c1).
body(r_fr13_7,fr13_d2).
body(r_fr13_7,fr13_e1).
body(r_fr13_7,fr13_f1).
head(r_fr13_8,fr8_x2).
body(r_fr13_8,fr13_c3).
body(r_fr13_8,fr10_b3).
body(r_fr13_8,fr2_c1).
head(r_fr13_9,fr13_u3).
body(r_fr13_9,fr13_a3).
body(r_fr13_9,fr13_c1).
body(r_fr13_9,fr13_d1).
body(r_fr13_9,fr13_e1).
body(r_fr13_9,fr9_c2).
body(r_fr13_9,fr13_v2).
head(r_fr13_10,fr13_u3).
head(r_fr13_11,fr13_u3).
body(r_fr13_11,fr13_b3).
body(r_fr13_11,fr13_c3).
body(r_fr13_11,fr13_w2).
head(r_fr13_12,fr13_u3).
body(r_fr13_12,fr13_q2).
head(r_fr13_13,fr13_u3).
body(r_fr13_13,fr13_d1).
body(r_fr13_13,fr13_r2).
body(r_fr13_13,fr11_p1).
body(r_fr13_13,fr13_w2).
body(r_fr13_13,fr13_w3).
body(r_fr13_13,fr8_q1).
head(r_fr13_14,fr13_u3).
body(r_fr13_14,fr2_c1).
body(r_fr13_14,fr13_r1).
body(r_fr13_14,fr13_r3).
body(r_fr13_14,fr13_t1).
head(r_fr13_15,fr13_r1).
body(r_fr13_15,fr4_a1).
body(r_fr13_15,fr13_d1).
body(r_fr13_15,fr13_e1).
body(r_fr13_15,fr10_b3).
body(r_fr13_15,fr13_t1).
body(r_fr13_15,fr13_u1).
body(r_fr13_15,fr13_w2).
head(r_fr13_16,fr13_r1).
body(r_fr13_16,fr13_q2).
body(r_fr13_16,fr13_q3).
body(r_fr13_16,fr13_u2).
body(r_fr13_16,fr13_u3).
body(r_fr13_16,fr13_x2).
body(r_fr13_16,fr8_q1).
head(r_fr13_17,fr13_p3).
body(r_fr13_17,fr13_c3).
head(r_fr13_18,fr13_p3).
body(r_fr13_18,fr13_q1).
body(r_fr13_18,fr13_r1).
head(r_fr13_19,fr13_p3).
body(r_fr13_19,fr13_d3).
body(r_fr13_19,fr13_e1).
body(r_fr13_19,fr12_f1).
body(r_fr13_19,fr13_t3).
body(r_fr13_19,fr13_w2).
head(r_fr13_20,fr13_p3).
body(r_fr13_20,fr13_t1).
head(r_fr13_21,fr13_p3).
body(r_fr13_21,fr4_a1).
body(r_fr13_21,fr13_b1).
body(r_fr13_21,fr13_b3).
body(r_fr13_21,fr13_c2).
body(r_fr13_21,fr12_f1).
head(r_fr13_22,fr13_p3).
body(r_fr13_22,fr13_b1).
head(r_fr13_23,fr13_v3).
body(r_fr13_23,fr13_b2).
body(r_fr13_23,fr13_c2).
body(r_fr13_23,fr13_c3).
body(r_fr13_23,fr13_d3).
body(r_fr13_23,fr9_c2).
head(r_fr13_24,fr13_v3).
body(r_fr13_24,fr13_a3).
body(r_fr13_24,fr13_b2).
body(r_fr13_24,fr13_c2).
body(r_fr13_24,fr2_c1).
body(r_fr13_24,fr13_q1).
body(r_fr13_24,fr13_r2).
body(r_fr13_24,fr13_y2).
head(r_fr13_25,fr13_v3).
body(r_fr13_25,fr13_c1).
body(r_fr13_25,fr13_q2).
body(r_fr13_25,fr13_q3).
body(r_fr13_25,fr11_p1).
body(r_fr13_25,fr13_u1).
body(r_fr13_25,fr13_u3).
body(r_fr13_25,fr13_z1).
head(r_fr13_26,fr13_v3).
body(r_fr13_26,fr13_x2).
body(r_fr13_26,fr8_q1).
head(r_fr13_27,fr13_y2).
body(r_fr13_27,fr11_p1).
body(r_fr13_27,fr13_t2).
body(r_fr13_27,fr13_w3).
head(r_fr13_28,fr13_y2).
body(r_fr13_28,fr13_b3).
body(r_fr13_28,fr13_c1).
body(r_fr13_28,fr13_c2).
body(r_fr13_28,fr13_e1).
body(r_fr13_28,fr9_c2).
body(r_fr13_28,fr13_r3).
body(r_fr13_28,fr13_z1).
head(r_fr13_29,fr13_y2).
body(r_fr13_29,fr12_f1).
body(r_fr13_29,fr13_q2).
body(r_fr13_29,fr11_p1).
body(r_fr13_29,fr13_t1).
body(r_fr13_29,fr25_u1).
head(r_fr13_30,fr13_y2).
head(r_fr13_31,fr13_t3).
body(r_fr13_31,fr13_b3).
body(r_fr13_31,fr13_c3).
body(r_fr13_31,fr13_q1).
body(r_fr13_31,fr13_x2).
head(r_fr13_32,fr13_t3).
head(r_fr13_33,fr13_t3).
body(r_fr13_33,fr13_r3).
head(r_fr13_34,fr25_u1).
body(r_fr13_34,fr13_a1).
body(r_fr13_34,fr13_b2).
body(r_fr13_34,fr13_b3).
body(r_fr13_34,fr10_b3).
body(r_fr13_34,fr13_f1).
body(r_fr13_34,fr13_v3).
head(r_fr13_35,fr25_u1).
body(r_fr13_35,fr13_b2).
body(r_fr13_35,fr13_d1).
body(r_fr13_35,fr13_d3).
body(r_fr13_35,fr12_f1).
body(r_fr13_35,fr8_x2).
body(r_fr13_35,fr8_q1).
head(r_fr13_36,fr13_t2).
body(r_fr13_36,fr4_a1).
body(r_fr13_36,fr13_c3).
body(r_fr13_36,fr13_w2).
head(r_fr13_37,fr13_t2).
body(r_fr13_37,fr4_a1).
body(r_fr13_37,fr13_c3).
body(r_fr13_37,fr13_d1).
body(r_fr13_37,fr13_d3).
body(r_fr13_37,fr12_f1).
body(r_fr13_37,fr11_p1).
head(r_fr13_38,fr13_t2).
body(r_fr13_38,fr13_v2).
head(r_fr13_39,fr13_t2).
body(r_fr13_39,fr11_p1).
body(r_fr13_39,fr13_u2).
body(r_fr13_39,fr13_w3).
body(r_fr13_39,fr13_x2).
head(r_fr13_40,fr13_t2).
head(r_fr13_41,fr13_t2).
body(r_fr13_41,fr13_a3).
body(r_fr13_41,fr13_d3).
body(r_fr13_41,fr13_q2).
body(r_fr13_41,fr13_w2).
body(r_fr13_41,fr13_x2).
body(r_fr13_41,fr13_y2).
head(r_fr13_42,fr1_s2).
body(r_fr13_42,fr13_a1).
body(r_fr13_42,fr13_d3).
body(r_fr13_42,fr13_v2).
head(r_fr13_43,fr1_s2).
body(r_fr13_43,fr13_d2).
body(r_fr13_43,fr13_t2).
body(r_fr13_43,fr13_z1).
head(r_fr13_44,fr1_s2).
head(r_fr13_45,fr13_y1).
body(r_fr13_45,fr13_a1).
body(r_fr13_45,fr4_a1).
body(r_fr13_45,fr13_a3).
body(r_fr13_45,fr13_d3).
head(r_fr13_46,fr13_y1).
body(r_fr13_46,fr13_c1).
body(r_fr13_46,fr12_f1).
body(r_fr13_46,fr11_p1).
body(r_fr13_46,fr13_t1).
body(r_fr13_46,fr13_t2).
body(r_fr13_46,fr13_u1).
body(r_fr13_46,fr8_q1).
head(r_fr13_47,fr13_y1).
body(r_fr13_47,fr4_a1).
body(r_fr13_47,fr13_b1).
body(r_fr13_47,fr13_b3).
body(r_fr13_47,fr13_c3).
body(r_fr13_47,fr13_d3).
body(r_fr13_47,fr10_b3).
body(r_fr13_47,fr12_f1).
head(r_fr13_48,fr13_r3).
body(r_fr13_48,fr13_t2).
body(r_fr13_48,fr13_v2).
head(r_fr13_49,fr13_r3).
body(r_fr13_49,fr10_b3).
body(r_fr13_49,fr13_p1).
body(r_fr13_49,fr13_t3).
body(r_fr13_49,fr13_u2).
body(r_fr13_49,fr25_u1).
body(r_fr13_49,fr13_x2).
head(r_fr13_50,fr13_u1).
body(r_fr13_50,fr13_c2).
body(r_fr13_50,fr13_d1).
body(r_fr13_50,fr10_b3).
body(r_fr13_50,fr13_z1).
head(r_fr13_51,fr13_u1).
body(r_fr13_51,fr13_b1).
body(r_fr13_51,fr13_b3).
head(r_fr13_52,fr13_u1).
body(r_fr13_52,fr13_c2).
head(r_fr13_53,fr13_u1).
body(r_fr13_53,fr13_a1).
body(r_fr13_53,fr13_d1).
head(r_fr13_54,fr13_u1).
head(r_fr13_55,fr13_u1).
body(r_fr13_55,fr9_c2).
body(r_fr13_55,fr13_q1).
body(r_fr13_55,fr13_r3).
body(r_fr13_55,fr13_u2).
body(r_fr13_55,fr13_v3).
head(r_fr13_56,fr13_q1).
body(r_fr13_56,fr4_a1).
body(r_fr13_56,fr13_c1).
body(r_fr13_56,fr13_c2).
body(r_fr13_56,fr13_c3).
body(r_fr13_56,fr13_e1).
body(r_fr13_56,fr13_f1).
body(r_fr13_56,fr13_y2).
head(r_fr13_57,fr13_q1).
head(r_fr13_58,fr13_q1).
body(r_fr13_58,fr13_c2).
body(r_fr13_58,fr10_b3).
head(r_fr13_59,fr13_q1).
body(r_fr13_59,fr13_p2).
body(r_fr13_59,fr11_p1).
body(r_fr13_59,fr13_t3).
body(r_fr13_59,fr13_u2).
body(r_fr13_59,fr13_v2).
body(r_fr13_59,fr13_w1).
body(r_fr13_59,fr13_w3).
head(r_fr13_60,fr13_q1).
body(r_fr13_60,fr13_a1).
body(r_fr13_60,fr13_d3).
body(r_fr13_60,fr13_p3).
body(r_fr13_60,fr13_t2).
head(r_fr13_61,fr13_q1).
body(r_fr13_61,fr13_a3).
body(r_fr13_61,fr13_p2).
body(r_fr13_61,fr13_y2).
head(r_fr13_62,fr13_w1).
body(r_fr13_62,fr13_v3).
body(r_fr13_62,fr13_w2).
body(r_fr13_62,fr13_w3).
head(r_fr13_63,fr13_w1).
body(r_fr13_63,fr13_p3).
body(r_fr13_63,fr13_q2).
body(r_fr13_63,fr13_r3).
body(r_fr13_63,fr13_t3).
body(r_fr13_63,fr13_u1).
body(r_fr13_63,fr13_w3).
head(r_fr13_64,fr13_w3).
body(r_fr13_64,fr13_b2).
body(r_fr13_64,fr13_b3).
body(r_fr13_64,fr13_c3).
body(r_fr13_64,fr13_t3).
head(r_fr13_65,fr13_w3).
head(r_fr13_66,fr13_w3).
body(r_fr13_66,fr13_a1).
body(r_fr13_66,fr10_b3).
body(r_fr13_66,fr2_c1).
body(r_fr13_66,fr13_q1).
body(r_fr13_66,fr13_y1).
body(r_fr13_66,fr13_t2).
head(r_fr13_67,fr13_v2).
body(r_fr13_67,fr10_b3).
body(r_fr13_67,fr13_p3).
body(r_fr13_67,fr13_q1).
body(r_fr13_67,fr13_t3).
body(r_fr13_67,fr13_u1).
body(r_fr13_67,fr13_w2).
body(r_fr13_67,fr13_w3).
head(r_fr13_68,fr13_v2).
head(r_fr13_69,fr13_v2).
body(r_fr13_69,fr11_p1).
head(r_fr13_70,fr13_p1).
body(r_fr13_70,fr13_p3).
body(r_fr13_70,fr13_y1).
body(r_fr13_70,fr8_x2).
body(r_fr13_70,fr13_x2).
body(r_fr13_70,fr13_y1).
body(r_fr13_70,fr8_q1).
head(r_fr13_71,fr13_p1).
body(r_fr13_71,fr8_q1).
head(r_fr13_72,fr13_p1).
head(r_fr13_73,fr13_p1).
body(r_fr13_73,fr13_c1).
body(r_fr13_73,fr9_c2).
body(r_fr13_73,fr13_q2).
body(r_fr13_73,fr13_q3).
body(r_fr13_73,fr13_u2).
body(r_fr13_73,fr13_x2).
head(r_fr13_74,fr13_x2).
body(r_fr13_74,fr13_c3).
body(r_fr13_74,fr13_f1).
head(r_fr13_75,fr13_x2).
body(r_fr13_75,fr13_b2).
body(r_fr13_75,fr13_d2).
body(r_fr13_75,fr13_f1).
head(r_fr13_76,fr13_x2).
body(r_fr13_76,fr13_d3).
body(r_fr13_76,fr13_q2).
body(r_fr13_76,fr13_q3).
body(r_fr13_76,fr8_q1).
head(r_fr13_77,fr13_x2).
body(r_fr13_77,fr13_z1).
head(r_fr13_78,fr13_x2).
body(r_fr13_78,fr13_a1).
body(r_fr13_78,fr4_a1).
body(r_fr13_78,fr13_a3).
body(r_fr13_78,fr13_c1).
body(r_fr13_78,fr10_b3).
body(r_fr13_78,fr12_f1).
body(r_fr13_78,fr8_q1).
head(r_fr13_79,fr13_x2).
body(r_fr13_79,fr13_d1).
body(r_fr13_79,fr13_q3).
body(r_fr13_79,fr13_v2).
body(r_fr13_79,fr13_v3).
body(r_fr13_79,fr13_w3).
head(r_fr13_80,fr11_p1).
body(r_fr13_80,fr13_p1).
body(r_fr13_80,fr13_q3).
body(r_fr13_80,fr13_u1).
body(r_fr13_80,fr13_w2).
body(r_fr13_80,fr13_x2).
head(r_fr13_81,fr11_p1).
head(r_fr13_82,fr8_q1).
body(r_fr13_82,fr13_p2).
body(r_fr13_82,fr13_p3).
body(r_fr13_82,fr13_q1).
body(r_fr13_82,fr13_r1).
body(r_fr13_82,fr13_r3).
body(r_fr13_82,fr13_w2).
body(r_fr13_82,fr13_y2).
head(r_fr13_83,fr8_q1).
body(r_fr13_83,fr13_a1).
body(r_fr13_83,fr13_a3).
body(r_fr13_83,fr13_c1).
body(r_fr13_83,fr13_c2).
body(r_fr13_83,fr13_d1).
body(r_fr13_83,fr2_c1).
body(r_fr13_83,fr13_r1).
head(r_fr13_84,fr8_q1).
body(r_fr13_84,fr13_c1).
body(r_fr13_84,fr13_c3).
body(r_fr13_84,fr13_r3).
body(r_fr13_84,fr25_u1).
head(r_fr13_85,fr8_q1).
body(r_fr13_85,fr13_b2).
body(r_fr13_85,fr13_q3).
head(r_fr13_86,fr8_q1).
body(r_fr13_86,fr4_a1).
body(r_fr13_86,fr13_a3).
body(r_fr13_86,fr13_c2).
body(r_fr13_86,fr12_f1).
body(r_fr13_86,fr9_c2).
body(r_fr13_86,fr13_p2).
head(r_fr13_87,fr13_r2).
body(r_fr13_87,fr13_p3).
body(r_fr13_87,fr13_t1).
body(r_fr13_87,fr13_u1).
body(r_fr13_87,fr13_u2).
body(r_fr13_87,fr13_y1).
body(r_fr13_87,fr13_y2).
head(r_fr13_88,fr13_r2).
body(r_fr13_88,fr4_a1).
body(r_fr13_88,fr13_q3).
body(r_fr13_88,fr11_p1).
body(r_fr13_88,fr13_v3).
head(r_fr13_89,fr13_r2).
body(r_fr13_89,fr2_c1).
head(r_fr13_90,fr13_q3).
body(r_fr13_90,fr13_a1).
body(r_fr13_90,fr13_b1).
body(r_fr13_90,fr13_b3).
body(r_fr13_90,fr13_c1).
body(r_fr13_90,fr13_c2).
body(r_fr13_90,fr13_w1).
head(r_fr13_91,fr13_q3).
body(r_fr13_91,fr4_a1).
body(r_fr13_91,fr13_f1).
head(r_fr13_92,fr13_q3).
body(r_fr13_92,fr13_b3).
body(r_fr13_92,fr13_y1).
body(r_fr13_92,fr13_t1).
body(r_fr13_92,fr13_u1).
body(r_fr13_92,fr13_u2).
body(r_fr13_92,fr8_x2).
body(r_fr13_92,fr13_w1).
head(r_fr13_93,fr13_q3).
body(r_fr13_93,fr13_a3).
body(r_fr13_93,fr13_d3).
body(r_fr13_93,fr13_f1).
body(r_fr13_93,fr11_p1).
body(r_fr13_93,fr13_u3).
head(r_fr13_94,fr13_q3).

assumption(fr10_b3).
assumption(fr14_b1).
assumption(fr25_c1).
assumption(fr14_d1).
assumption(fr14_e1).
assumption(fr14_f1).
assumption(fr14_a2).
assumption(fr14_b2).
assumption(fr14_c2).
assumption(fr18_a1).
assumption(fr14_e2).
assumption(fr3_b3).
assumption(fr18_a1).
assumption(fr14_b3).
assumption(fr14_c3).
contrary(fr10_b3,fr14_e1).
contrary(fr14_a2,fr14_q1).
contrary(fr18_a1,fr2_w2).
contrary(fr14_b1,fr14_p2).
contrary(fr14_b2,fr14_c3).
contrary(fr14_b3,fr9_q2).
contrary(fr25_c1,fr14_u1).
contrary(fr14_c2,fr22_w2).
contrary(fr14_c3,fr14_z1).
contrary(fr14_d1,fr14_a2).
contrary(fr18_a1,fr14_t1).
contrary(fr14_e1,fr14_x1).
contrary(fr14_e2,fr22_w2).
contrary(fr14_f1,fr18_a1).
contrary(fr3_b3,fr14_x1).
head(r_fr14_0,fr14_v2).
body(r_fr14_0,fr14_b1).
body(r_fr14_0,fr24_r3).
body(r_fr14_0,fr14_r3).
body(r_fr14_0,fr23_x4).
body(r_fr14_0,fr14_z2).
head(r_fr14_1,fr14_v2).
body(r_fr14_1,fr14_e2).
body(r_fr14_1,fr14_t1).
body(r_fr14_1,fr14_x1).
body(r_fr14_1,fr14_z2).
head(r_fr14_2,fr14_v2).
body(r_fr14_2,fr10_b3).
body(r_fr14_2,fr14_c3).
body(r_fr14_2,fr3_p3).
head(r_fr14_3,fr14_v2).
body(r_fr14_3,fr10_b3).
body(r_fr14_3,fr18_a1).
body(r_fr14_3,fr14_b1).
body(r_fr14_3,fr14_b3).
body(r_fr14_3,fr14_e2).
body(r_fr14_3,fr14_t1).
head(r_fr14_4,fr14_v2).
body(r_fr14_4,fr14_b1).
body(r_fr14_4,fr14_b3).
head(r_fr14_5,fr14_v2).
body(r_fr14_5,fr14_c2).
body(r_fr14_5,fr14_u1).
head(r_fr14_6,fr14_v2).
body(r_fr14_6,fr14_b1).
body(r_fr14_6,fr14_q1).
body(r_fr14_6,fr9_q2).
head(r_fr14_7,fr14_v2).
body(r_fr14_7,fr18_a1).
body(r_fr14_7,fr14_c2).
body(r_fr14_7,fr14_d1).
body(r_fr14_7,fr14_f1).
body(r_fr14_7,fr3_b3).
body(r_fr14_7,fr14_t1).
head(r_fr14_8,fr14_v2).
body(r_fr14_8,fr24_r3).
head(r_fr14_9,fr14_v2).
body(r_fr14_9,fr10_b3).
body(r_fr14_9,fr18_a1).
body(r_fr14_9,fr14_b2).
body(r_fr14_9,fr14_b3).
body(r_fr14_9,fr14_c2).
head(r_fr14_10,fr14_v2).
body(r_fr14_10,fr3_b3).
head(r_fr14_11,fr14_v2).
body(r_fr14_11,fr14_e2).
body(r_fr14_11,fr14_p2).
body(r_fr14_11,fr14_r3).
body(r_fr14_11,fr15_y3).
head(r_fr14_12,fr14_v2).
body(r_fr14_12,fr14_c3).
body(r_fr14_12,fr23_x4).
body(r_fr14_12,fr14_x1).
head(r_fr14_13,fr14_v2).
body(r_fr14_13,fr9_q2).
body(r_fr14_13,fr23_x4).
body(r_fr14_13,fr14_x2).
head(r_fr14_14,fr14_v2).
body(r_fr14_14,fr18_a1).
body(r_fr14_14,fr20_y1).
head(r_fr14_15,fr14_v2).
body(r_fr14_15,fr10_b3).
body(r_fr14_15,fr14_a2).
body(r_fr14_15,fr14_b3).
body(r_fr14_15,fr3_b3).
body(r_fr14_15,fr14_t1).
head(r_fr14_16,fr14_v2).
body(r_fr14_16,fr18_a1).
body(r_fr14_16,fr14_c3).
body(r_fr14_16,fr14_e2).
body(r_fr14_16,fr2_w2).
body(r_fr14_16,fr20_y1).
head(r_fr14_17,fr14_v2).
body(r_fr14_17,fr14_b3).
body(r_fr14_17,fr25_c1).
body(r_fr14_17,fr14_c2).
body(r_fr14_17,fr14_c3).
body(r_fr14_17,fr14_e2).
head(r_fr14_18,fr14_v2).
body(r_fr14_18,fr14_p2).
body(r_fr14_18,fr24_r3).
body(r_fr14_18,fr14_u1).
head(r_fr14_19,fr14_v2).
body(r_fr14_19,fr14_b3).
body(r_fr14_19,fr14_d1).
body(r_fr14_19,fr3_b3).
body(r_fr14_19,fr14_y1).
head(r_fr14_20,fr14_z1).
body(r_fr14_20,fr14_a2).
body(r_fr14_20,fr14_c2).
body(r_fr14_20,fr14_f1).
head(r_fr14_21,fr14_z1).
body(r_fr14_21,fr3_p3).
body(r_fr14_21,fr14_s2).
body(r_fr14_21,fr14_u1).
body(r_fr14_21,fr20_y1).
body(r_fr14_21,fr14_y1).
body(r_fr14_21,fr20_y1).
head(r_fr14_22,fr14_z1).
body(r_fr14_22,fr14_b3).
body(r_fr14_22,fr22_w2).
body(r_fr14_22,fr14_u1).
body(r_fr14_22,fr20_y1).
body(r_fr14_22,fr14_z2).
head(r_fr14_23,fr14_z1).
body(r_fr14_23,fr18_a1).
body(r_fr14_23,fr25_c1).
body(r_fr14_23,fr14_c2).
body(r_fr14_23,fr14_c3).
body(r_fr14_23,fr20_y1).
body(r_fr14_23,fr14_z2).
head(r_fr14_24,fr14_z1).
body(r_fr14_24,fr14_a2).
body(r_fr14_24,fr14_c2).
body(r_fr14_24,fr14_c3).
body(r_fr14_24,fr18_a1).
body(r_fr14_24,fr3_b3).
body(r_fr14_24,fr14_x2).
head(r_fr14_25,fr14_z1).
body(r_fr14_25,fr14_b3).
body(r_fr14_25,fr14_q1).
body(r_fr14_25,fr15_y3).
body(r_fr14_25,fr14_x2).
head(r_fr14_26,fr14_z1).
body(r_fr14_26,fr14_c3).
body(r_fr14_26,fr23_x4).
body(r_fr14_26,fr14_u2).
body(r_fr14_26,fr14_w2).
body(r_fr14_26,fr14_y1).
head(r_fr14_27,fr14_z1).
body(r_fr14_27,fr18_a1).
body(r_fr14_27,fr14_p2).
body(r_fr14_27,fr21_v2).
body(r_fr14_27,fr14_t1).
head(r_fr14_28,fr14_z1).
body(r_fr14_28,fr14_b3).
body(r_fr14_28,fr14_r3).
body(r_fr14_28,fr14_x2).
head(r_fr14_29,fr14_z1).
body(r_fr14_29,fr3_p3).
body(r_fr14_29,fr24_r3).
body(r_fr14_29,fr23_x4).
body(r_fr14_29,fr14_u1).
body(r_fr14_29,fr14_u2).
body(r_fr14_29,fr14_z2).
head(r_fr14_30,fr14_z1).
body(r_fr14_30,fr14_a2).
body(r_fr14_30,fr14_b1).
body(r_fr14_30,fr14_b3).
body(r_fr14_30,fr14_s2).
body(r_fr14_30,fr15_y3).
head(r_fr14_31,fr14_z1).
body(r_fr14_31,fr14_e1).
body(r_fr14_31,fr2_w2).
body(r_fr14_31,fr20_y1).
head(r_fr14_32,fr14_z1).
body(r_fr14_32,fr10_b3).
body(r_fr14_32,fr14_b3).
body(r_fr14_32,fr25_c1).
body(r_fr14_32,fr14_d1).
body(r_fr14_32,fr14_e1).
body(r_fr14_32,fr14_e2).
head(r_fr14_33,fr14_z1).
body(r_fr14_33,fr18_a1).
body(r_fr14_33,fr14_b1).
body(r_fr14_33,fr14_c2).
body(r_fr14_33,fr3_b3).
body(r_fr14_33,fr14_q1).
head(r_fr14_34,fr14_z1).
body(r_fr14_34,fr14_b1).
body(r_fr14_34,fr14_e2).
body(r_fr14_34,fr14_r3).
body(r_fr14_34,fr15_y3).
body(r_fr14_34,fr20_y1).
head(r_fr14_35,fr14_z1).
body(r_fr14_35,fr14_b1).
body(r_fr14_35,fr14_b3).
body(r_fr14_35,fr14_c3).
body(r_fr14_35,fr14_e1).
head(r_fr14_36,fr14_z1).
body(r_fr14_36,fr14_e2).
body(r_fr14_36,fr14_f1).
body(r_fr14_36,fr14_r3).
body(r_fr14_36,fr14_s2).
body(r_fr14_36,fr14_x2).
body(r_fr14_36,fr14_z2).
head(r_fr14_37,fr14_z1).
body(r_fr14_37,fr25_c1).
head(r_fr14_38,fr14_z1).
head(r_fr14_39,fr14_z1).
body(r_fr14_39,fr14_a2).
body(r_fr14_39,fr14_b2).
body(r_fr14_39,fr14_e1).
body(r_fr14_39,fr14_u2).
body(r_fr14_39,fr14_w2).
head(r_fr14_40,fr14_x1).
body(r_fr14_40,fr14_d1).
head(r_fr14_41,fr14_x1).
body(r_fr14_41,fr14_b1).
body(r_fr14_41,fr14_b2).
body(r_fr14_41,fr25_c1).
body(r_fr14_41,fr14_d1).
body(r_fr14_41,fr3_b3).
head(r_fr14_42,fr14_x1).
body(r_fr14_42,fr14_a2).
body(r_fr14_42,fr18_a1).
body(r_fr14_42,fr14_e1).
body(r_fr14_42,fr14_f1).
body(r_fr14_42,fr2_w2).
body(r_fr14_42,fr14_r3).
head(r_fr14_43,fr14_x1).
body(r_fr14_43,fr14_d1).
body(r_fr14_43,fr14_q1).
body(r_fr14_43,fr14_u2).
body(r_fr14_43,fr14_w2).
head(r_fr14_44,fr14_x1).
body(r_fr14_44,fr14_a2).
body(r_fr14_44,fr18_a1).
body(r_fr14_44,fr14_e2).
body(r_fr14_44,fr14_r3).
body(r_fr14_44,fr14_x2).
head(r_fr14_45,fr14_x1).
body(r_fr14_45,fr14_x2).
head(r_fr14_46,fr14_x1).
body(r_fr14_46,fr14_y1).
body(r_fr14_46,fr20_y1).
head(r_fr14_47,fr14_x1).
body(r_fr14_47,fr14_a2).
body(r_fr14_47,fr25_c1).
body(r_fr14_47,fr14_d1).
body(r_fr14_47,fr24_r3).
body(r_fr14_47,fr14_u2).
body(r_fr14_47,fr20_y1).
head(r_fr14_48,fr14_x1).
body(r_fr14_48,fr14_b1).
body(r_fr14_48,fr14_e2).
body(r_fr14_48,fr14_p2).
body(r_fr14_48,fr14_r3).
body(r_fr14_48,fr14_t1).
body(r_fr14_48,fr14_z2).
head(r_fr14_49,fr14_x1).
body(r_fr14_49,fr14_b3).
body(r_fr14_49,fr14_y1).
head(r_fr14_50,fr14_x1).
body(r_fr14_50,fr3_p3).
body(r_fr14_50,fr24_r3).
body(r_fr14_50,fr14_w2).
body(r_fr14_50,fr14_x2).
head(r_fr14_51,fr14_x1).
body(r_fr14_51,fr14_b1).
body(r_fr14_51,fr14_b2).
body(r_fr14_51,fr14_b3).
body(r_fr14_51,fr14_c2).
head(r_fr14_52,fr14_x1).
body(r_fr14_52,fr14_d1).
body(r_fr14_52,fr14_e1).
body(r_fr14_52,fr14_u2).
body(r_fr14_52,fr14_w2).
body(r_fr14_52,fr14_z2).
head(r_fr14_53,fr14_x1).
head(r_fr14_54,fr14_x1).
body(r_fr14_54,fr14_p1).
body(r_fr14_54,fr9_q2).
body(r_fr14_54,fr14_u2).
body(r_fr14_54,fr20_y1).
head(r_fr14_55,fr14_x1).
body(r_fr14_55,fr14_c3).
body(r_fr14_55,fr14_p2).
body(r_fr14_55,fr21_v2).
body(r_fr14_55,fr14_t1).
body(r_fr14_55,fr14_x2).
head(r_fr14_56,fr14_x1).
body(r_fr14_56,fr14_e2).
head(r_fr14_57,fr14_y1).
body(r_fr14_57,fr14_s2).
head(r_fr14_58,fr14_y1).
body(r_fr14_58,fr14_c2).
head(r_fr14_59,fr14_y1).
body(r_fr14_59,fr14_b3).
body(r_fr14_59,fr14_f1).
body(r_fr14_59,fr3_p3).
head(r_fr14_60,fr14_y1).
body(r_fr14_60,fr3_p3).
body(r_fr14_60,fr22_w2).
body(r_fr14_60,fr9_q2).
body(r_fr14_60,fr24_r3).
body(r_fr14_60,fr14_r3).
body(r_fr14_60,fr14_z2).
head(r_fr14_61,fr14_y1).
body(r_fr14_61,fr14_b2).
body(r_fr14_61,fr14_b3).
body(r_fr14_61,fr14_c3).
body(r_fr14_61,fr14_d1).
body(r_fr14_61,fr18_a1).
head(r_fr14_62,fr14_y1).
body(r_fr14_62,fr14_c3).
head(r_fr14_63,fr14_y1).
body(r_fr14_63,fr14_c3).
body(r_fr14_63,fr14_e2).
body(r_fr14_63,fr2_w2).
body(r_fr14_63,fr24_r3).
body(r_fr14_63,fr14_z2).
head(r_fr14_64,fr14_y1).
body(r_fr14_64,fr14_b1).
body(r_fr14_64,fr14_t1).
head(r_fr14_65,fr14_y1).
body(r_fr14_65,fr10_b3).
body(r_fr14_65,fr14_b3).
body(r_fr14_65,fr14_e2).
body(r_fr14_65,fr14_x2).
head(r_fr14_66,fr14_y1).
body(r_fr14_66,fr14_c3).
body(r_fr14_66,fr14_p2).
body(r_fr14_66,fr3_p3).
body(r_fr14_66,fr14_r3).
body(r_fr14_66,fr14_w2).
head(r_fr14_67,fr14_y1).
body(r_fr14_67,fr18_a1).
body(r_fr14_67,fr14_b1).
body(r_fr14_67,fr14_b2).
body(r_fr14_67,fr14_b3).
body(r_fr14_67,fr14_c2).
body(r_fr14_67,fr3_b3).
head(r_fr14_68,fr14_y1).
body(r_fr14_68,fr14_e2).
body(r_fr14_68,fr14_f1).
head(r_fr14_69,fr14_y1).
body(r_fr14_69,fr14_w2).
head(r_fr14_70,fr14_y1).
body(r_fr14_70,fr14_a2).
body(r_fr14_70,fr14_c3).
body(r_fr14_70,fr14_q1).
body(r_fr14_70,fr14_s2).
body(r_fr14_70,fr14_u1).
head(r_fr14_71,fr14_y1).
body(r_fr14_71,fr14_p2).
body(r_fr14_71,fr15_y3).
head(r_fr14_72,fr14_y1).
body(r_fr14_72,fr18_a1).
body(r_fr14_72,fr14_b1).
body(r_fr14_72,fr14_d1).
body(r_fr14_72,fr18_a1).
body(r_fr14_72,fr14_e2).
body(r_fr14_72,fr3_b3).
head(r_fr14_73,fr14_y1).
head(r_fr14_74,fr23_x4).
body(r_fr14_74,fr14_b3).
head(r_fr14_75,fr23_x4).
body(r_fr14_75,fr18_a1).
body(r_fr14_75,fr18_a1).
body(r_fr14_75,fr14_u1).
body(r_fr14_75,fr20_y1).
body(r_fr14_75,fr20_y1).
head(r_fr14_76,fr23_x4).
body(r_fr14_76,fr3_p3).
body(r_fr14_76,fr24_r3).
body(r_fr14_76,fr15_y3).
body(r_fr14_76,fr14_x2).
head(r_fr14_77,fr23_x4).
body(r_fr14_77,fr10_b3).
head(r_fr14_78,fr23_x4).
body(r_fr14_78,fr18_a1).
body(r_fr14_78,fr3_b3).
body(r_fr14_78,fr14_p2).
body(r_fr14_78,fr21_v2).
body(r_fr14_78,fr14_t1).
body(r_fr14_78,fr14_x2).
head(r_fr14_79,fr23_x4).
body(r_fr14_79,fr14_a2).
body(r_fr14_79,fr14_c3).
body(r_fr14_79,fr14_d1).
body(r_fr14_79,fr14_e1).
body(r_fr14_79,fr14_e2).
body(r_fr14_79,fr3_b3).
head(r_fr14_80,fr23_x4).
body(r_fr14_80,fr10_b3).
body(r_fr14_80,fr14_c2).
body(r_fr14_80,fr24_r3).
body(r_fr14_80,fr14_r3).
body(r_fr14_80,fr14_s2).
head(r_fr14_81,fr23_x4).
body(r_fr14_81,fr14_b2).
body(r_fr14_81,fr3_p3).
body(r_fr14_81,fr14_q1).
body(r_fr14_81,fr24_r3).
body(r_fr14_81,fr14_t1).
head(r_fr14_82,fr23_x4).
body(r_fr14_82,fr18_a1).
body(r_fr14_82,fr14_b1).
body(r_fr14_82,fr18_a1).
body(r_fr14_82,fr14_e2).
body(r_fr14_82,fr14_f1).
body(r_fr14_82,fr14_t1).
head(r_fr14_83,fr23_x4).
body(r_fr14_83,fr18_a1).
head(r_fr14_84,fr23_x4).
body(r_fr14_84,fr14_s2).
head(r_fr14_85,fr23_x4).
body(r_fr14_85,fr14_e1).
body(r_fr14_85,fr14_q1).
head(r_fr14_86,fr23_x4).
body(r_fr14_86,fr14_a2).
body(r_fr14_86,fr25_c1).
body(r_fr14_86,fr14_d1).
body(r_fr14_86,fr14_e1).
body(r_fr14_86,fr14_f1).
body(r_fr14_86,fr3_b3).
head(r_fr14_87,fr23_x4).
body(r_fr14_87,fr14_s2).
body(r_fr14_87,fr14_u1).
body(r_fr14_87,fr15_y3).
body(r_fr14_87,fr14_x2).
body(r_fr14_87,fr14_z2).
head(r_fr14_88,fr23_x4).
body(r_fr14_88,fr14_c2).
body(r_fr14_88,fr14_d1).
body(r_fr14_88,fr14_u1).
body(r_fr14_88,fr15_y3).
body(r_fr14_88,fr14_w2).
body(r_fr14_88,fr14_x2).
head(r_fr14_89,fr23_x4).
head(r_fr14_90,fr23_x4).
body(r_fr14_90,fr14_c2).
body(r_fr14_90,fr14_e1).
body(r_fr14_90,fr14_e2).
body(r_fr14_90,fr2_w2).
head(r_fr14_91,fr23_x4).
body(r_fr14_91,fr25_c1).
body(r_fr14_91,fr14_c3).
body(r_fr14_91,fr14_e1).
body(r_fr14_91,fr14_f1).
body(r_fr14_91,fr14_t1).
body(r_fr14_91,fr14_u2).
head(r_fr14_92,fr14_w2).
body(r_fr14_92,fr21_v2).
body(r_fr14_92,fr14_t1).
body(r_fr14_92,fr14_u1).
body(r_fr14_92,fr15_y3).
head(r_fr14_93,fr14_w2).
body(r_fr14_93,fr14_q1).
head(r_fr14_94,fr14_w2).
body(r_fr14_94,fr18_a1).
body(r_fr14_94,fr14_b2).
body(r_fr14_94,fr14_e2).
body(r_fr14_94,fr3_b3).
head(r_fr14_95,fr14_w2).
body(r_fr14_95,fr14_b2).
head(r_fr14_96,fr14_w2).
body(r_fr14_96,fr10_b3).
body(r_fr14_96,fr18_a1).
body(r_fr14_96,fr14_b1).
body(r_fr14_96,fr14_b3).
body(r_fr14_96,fr14_c3).
body(r_fr14_96,fr14_e2).
head(r_fr14_97,fr14_w2).
body(r_fr14_97,fr14_u2).
head(r_fr14_98,fr14_w2).
body(r_fr14_98,fr14_b2).
body(r_fr14_98,fr14_d1).
body(r_fr14_98,fr14_e1).
body(r_fr14_98,fr14_f1).
head(r_fr14_99,fr14_w2).
body(r_fr14_99,fr18_a1).
body(r_fr14_99,fr25_c1).
body(r_fr14_99,fr9_q2).
body(r_fr14_99,fr14_u2).
head(r_fr14_100,fr14_w2).
body(r_fr14_100,fr14_b1).
body(r_fr14_100,fr14_b2).
body(r_fr14_100,fr14_b3).
body(r_fr14_100,fr25_c1).
body(r_fr14_100,fr14_c2).
head(r_fr14_101,fr14_w2).
body(r_fr14_101,fr14_e2).
body(r_fr14_101,fr3_p3).
head(r_fr14_102,fr14_w2).
body(r_fr14_102,fr18_a1).
body(r_fr14_102,fr14_c3).
body(r_fr14_102,fr14_p1).
body(r_fr14_102,fr14_q1).
body(r_fr14_102,fr14_u1).
head(r_fr14_103,fr14_w2).
body(r_fr14_103,fr14_b3).
body(r_fr14_103,fr14_c3).
body(r_fr14_103,fr14_p2).
body(r_fr14_103,fr14_r3).
body(r_fr14_103,fr20_y1).
head(r_fr14_104,fr14_w2).
body(r_fr14_104,fr14_a2).
body(r_fr14_104,fr18_a1).
body(r_fr14_104,fr14_b2).
body(r_fr14_104,fr14_c3).
body(r_fr14_104,fr14_d1).
body(r_fr14_104,fr14_e1).
head(r_fr14_105,fr14_w2).
body(r_fr14_105,fr14_p1).
body(r_fr14_105,fr14_p2).
body(r_fr14_105,fr9_q2).
body(r_fr14_105,fr14_u1).
body(r_fr14_105,fr14_u2).
head(r_fr14_106,fr14_w2).
body(r_fr14_106,fr14_c3).
head(r_fr14_107,fr14_w2).
head(r_fr14_108,fr14_w2).
body(r_fr14_108,fr14_a2).
body(r_fr14_108,fr18_a1).
body(r_fr14_108,fr14_c3).
body(r_fr14_108,fr14_d1).
body(r_fr14_108,fr18_a1).
body(r_fr14_108,fr14_e2).
head(r_fr14_109,fr14_w2).
body(r_fr14_109,fr10_b3).
body(r_fr14_109,fr14_a2).
body(r_fr14_109,fr14_q1).
body(r_fr14_109,fr14_s2).
body(r_fr14_109,fr14_z2).
head(r_fr14_110,fr14_w2).
body(r_fr14_110,fr3_p3).
body(r_fr14_110,fr20_y1).
body(r_fr14_110,fr14_z2).
head(r_fr14_111,fr14_w2).
body(r_fr14_111,fr14_d1).
body(r_fr14_111,fr22_w2).
body(r_fr14_111,fr24_r3).
body(r_fr14_111,fr15_y3).
body(r_fr14_111,fr14_x2).
body(r_fr14_111,fr14_z2).
head(r_fr14_112,fr24_r3).
head(r_fr14_113,fr24_r3).
body(r_fr14_113,fr14_p1).
head(r_fr14_114,fr24_r3).
body(r_fr14_114,fr14_c2).
body(r_fr14_114,fr14_e2).
body(r_fr14_114,fr14_p1).
body(r_fr14_114,fr14_p2).
body(r_fr14_114,fr15_y3).
body(r_fr14_114,fr14_z2).
head(r_fr14_115,fr24_r3).
body(r_fr14_115,fr14_c2).
head(r_fr14_116,fr24_r3).
body(r_fr14_116,fr14_b3).
body(r_fr14_116,fr14_e1).
head(r_fr14_117,fr24_r3).
body(r_fr14_117,fr25_c1).
body(r_fr14_117,fr18_a1).
body(r_fr14_117,fr2_w2).
body(r_fr14_117,fr14_u1).
body(r_fr14_117,fr14_z2).
head(r_fr14_118,fr24_r3).
body(r_fr14_118,fr14_u1).
head(r_fr14_119,fr24_r3).
body(r_fr14_119,fr14_b2).
body(r_fr14_119,fr18_a1).
body(r_fr14_119,fr3_p3).
head(r_fr14_120,fr24_r3).
body(r_fr14_120,fr2_w2).
body(r_fr14_120,fr20_y1).
body(r_fr14_120,fr15_y3).
body(r_fr14_120,fr14_x2).
body(r_fr14_120,fr14_z2).
head(r_fr14_121,fr24_r3).
body(r_fr14_121,fr10_b3).
body(r_fr14_121,fr14_a2).
body(r_fr14_121,fr25_c1).
body(r_fr14_121,fr14_e1).
body(r_fr14_121,fr14_f1).
head(r_fr14_122,fr24_r3).
body(r_fr14_122,fr14_f1).
head(r_fr14_123,fr24_r3).
body(r_fr14_123,fr14_f1).
body(r_fr14_123,fr14_p1).
body(r_fr14_123,fr14_q1).
body(r_fr14_123,fr14_r3).
body(r_fr14_123,fr21_v2).
head(r_fr14_124,fr24_r3).
body(r_fr14_124,fr14_b3).
body(r_fr14_124,fr14_t1).
head(r_fr14_125,fr24_r3).
body(r_fr14_125,fr14_a2).
body(r_fr14_125,fr18_a1).
body(r_fr14_125,fr14_b1).
body(r_fr14_125,fr14_c3).
body(r_fr14_125,fr14_e2).
body(r_fr14_125,fr3_b3).
head(r_fr14_126,fr24_r3).
body(r_fr14_126,fr14_a2).
body(r_fr14_126,fr18_a1).
body(r_fr14_126,fr14_b1).
body(r_fr14_126,fr25_c1).
body(r_fr14_126,fr14_c3).
body(r_fr14_126,fr14_e2).
head(r_fr14_127,fr24_r3).
body(r_fr14_127,fr14_p1).
body(r_fr14_127,fr3_p3).
body(r_fr14_127,fr21_v2).
body(r_fr14_127,fr14_s2).
body(r_fr14_127,fr14_t1).
body(r_fr14_127,fr14_u1).
head(r_fr14_128,fr24_r3).
body(r_fr14_128,fr14_b1).
body(r_fr14_128,fr18_a1).
body(r_fr14_128,fr14_e1).
body(r_fr14_128,fr9_q2).
body(r_fr14_128,fr14_u2).
head(r_fr14_129,fr24_r3).
body(r_fr14_129,fr14_a2).
body(r_fr14_129,fr14_b3).
body(r_fr14_129,fr14_p1).
body(r_fr14_129,fr14_q1).
body(r_fr14_129,fr9_q2).
body(r_fr14_129,fr14_u2).
head(r_fr14_130,fr24_r3).
body(r_fr14_130,fr14_a2).
body(r_fr14_130,fr21_v2).
head(r_fr14_131,fr22_w2).
body(r_fr14_131,fr10_b3).
body(r_fr14_131,fr14_a2).
body(r_fr14_131,fr14_c3).
body(r_fr14_131,fr14_s2).
head(r_fr14_132,fr22_w2).
body(r_fr14_132,fr18_a1).
body(r_fr14_132,fr14_b2).
body(r_fr14_132,fr14_d1).
head(r_fr14_133,fr22_w2).
body(r_fr14_133,fr14_c3).
body(r_fr14_133,fr14_f1).
body(r_fr14_133,fr20_y1).
head(r_fr14_134,fr22_w2).
body(r_fr14_134,fr20_y1).
body(r_fr14_134,fr14_x2).
head(r_fr14_135,fr22_w2).
body(r_fr14_135,fr14_a2).
body(r_fr14_135,fr3_p3).
body(r_fr14_135,fr14_r3).
body(r_fr14_135,fr14_u1).
head(r_fr14_136,fr22_w2).
body(r_fr14_136,fr3_p3).
body(r_fr14_136,fr14_s2).
body(r_fr14_136,fr14_u1).
body(r_fr14_136,fr14_z2).
head(r_fr14_137,fr22_w2).
body(r_fr14_137,fr18_a1).
body(r_fr14_137,fr14_e1).
body(r_fr14_137,fr14_e2).
body(r_fr14_137,fr14_u2).
body(r_fr14_137,fr20_y1).
head(r_fr14_138,fr22_w2).
body(r_fr14_138,fr14_f1).
body(r_fr14_138,fr14_z2).
head(r_fr14_139,fr22_w2).
body(r_fr14_139,fr14_b2).
body(r_fr14_139,fr18_a1).
body(r_fr14_139,fr3_p3).
body(r_fr14_139,fr2_w2).
body(r_fr14_139,fr14_u1).
head(r_fr14_140,fr22_w2).
body(r_fr14_140,fr18_a1).
body(r_fr14_140,fr14_b3).
body(r_fr14_140,fr14_d1).
body(r_fr14_140,fr14_e2).
body(r_fr14_140,fr14_f1).
head(r_fr14_141,fr22_w2).
body(r_fr14_141,fr14_b3).
body(r_fr14_141,fr14_c2).
body(r_fr14_141,fr14_d1).
body(r_fr14_141,fr14_p1).
body(r_fr14_141,fr14_s2).
head(r_fr14_142,fr22_w2).
body(r_fr14_142,fr2_w2).
head(r_fr14_143,fr22_w2).
body(r_fr14_143,fr20_y1).
head(r_fr14_144,fr22_w2).
body(r_fr14_144,fr18_a1).
head(r_fr14_145,fr22_w2).
body(r_fr14_145,fr10_b3).
body(r_fr14_145,fr14_e2).
body(r_fr14_145,fr14_r3).
body(r_fr14_145,fr14_x2).
head(r_fr14_146,fr22_w2).
body(r_fr14_146,fr10_b3).
body(r_fr14_146,fr3_b3).
body(r_fr14_146,fr14_p1).
head(r_fr14_147,fr22_w2).
head(r_fr14_148,fr22_w2).
body(r_fr14_148,fr18_a1).
body(r_fr14_148,fr14_q1).
head(r_fr14_149,fr22_w2).
body(r_fr14_149,fr14_c2).
body(r_fr14_149,fr9_q2).
body(r_fr14_149,fr14_s2).
body(r_fr14_149,fr15_y3).
body(r_fr14_149,fr14_x2).
body(r_fr14_149,fr14_z2).
head(r_fr14_150,fr14_p1).
body(r_fr14_150,fr14_a2).
body(r_fr14_150,fr21_v2).
body(r_fr14_150,fr15_y3).
head(r_fr14_151,fr14_p1).
body(r_fr14_151,fr14_c2).
body(r_fr14_151,fr14_f1).
body(r_fr14_151,fr14_t1).
head(r_fr14_152,fr14_p1).
body(r_fr14_152,fr14_a2).
body(r_fr14_152,fr14_b1).
body(r_fr14_152,fr14_e1).
head(r_fr14_153,fr14_p1).
body(r_fr14_153,fr3_p3).
body(r_fr14_153,fr14_q1).
body(r_fr14_153,fr2_w2).
body(r_fr14_153,fr14_r3).
body(r_fr14_153,fr14_t1).
body(r_fr14_153,fr14_x2).
head(r_fr14_154,fr14_p1).
body(r_fr14_154,fr14_b3).
body(r_fr14_154,fr25_c1).
body(r_fr14_154,fr14_e1).
body(r_fr14_154,fr9_q2).
body(r_fr14_154,fr20_y1).
head(r_fr14_155,fr14_p1).
body(r_fr14_155,fr18_a1).
body(r_fr14_155,fr14_d1).
body(r_fr14_155,fr14_e2).
head(r_fr14_156,fr14_p1).
body(r_fr14_156,fr14_b1).
body(r_fr14_156,fr14_b3).
body(r_fr14_156,fr14_e1).
body(r_fr14_156,fr21_v2).
head(r_fr14_157,fr14_p1).
body(r_fr14_157,fr14_a2).
body(r_fr14_157,fr14_b3).
body(r_fr14_157,fr25_c1).
body(r_fr14_157,fr14_d1).
body(r_fr14_157,fr14_e1).
head(r_fr14_158,fr14_p1).
body(r_fr14_158,fr14_p2).
body(r_fr14_158,fr14_x2).
head(r_fr14_159,fr14_p1).
body(r_fr14_159,fr15_y3).
head(r_fr14_160,fr14_p1).
body(r_fr14_160,fr18_a1).
body(r_fr14_160,fr14_r3).
body(r_fr14_160,fr14_u2).
head(r_fr14_161,fr14_p1).
body(r_fr14_161,fr18_a1).
body(r_fr14_161,fr14_b1).
body(r_fr14_161,fr14_c2).
body(r_fr14_161,fr14_d1).
head(r_fr14_162,fr14_p1).
body(r_fr14_162,fr10_b3).
body(r_fr14_162,fr14_b2).
body(r_fr14_162,fr25_c1).
body(r_fr14_162,fr14_c2).
body(r_fr14_162,fr14_c3).
head(r_fr14_163,fr14_p1).
body(r_fr14_163,fr14_c2).
body(r_fr14_163,fr14_f1).
body(r_fr14_163,fr21_v2).
body(r_fr14_163,fr15_y3).
head(r_fr14_164,fr14_p1).
head(r_fr14_165,fr14_p1).
body(r_fr14_165,fr14_c3).
body(r_fr14_165,fr3_p3).
body(r_fr14_165,fr20_y1).
head(r_fr14_166,fr14_p1).
body(r_fr14_166,fr14_p2).
body(r_fr14_166,fr14_q1).
body(r_fr14_166,fr21_v2).
body(r_fr14_166,fr14_u1).
head(r_fr14_167,fr14_p1).
body(r_fr14_167,fr14_s2).
body(r_fr14_167,fr20_y1).
head(r_fr14_168,fr14_u1).
body(r_fr14_168,fr14_x2).
head(r_fr14_169,fr14_u1).
body(r_fr14_169,fr14_a2).
body(r_fr14_169,fr14_b2).
body(r_fr14_169,fr25_c1).
body(r_fr14_169,fr14_e1).
body(r_fr14_169,fr14_f1).
head(r_fr14_170,fr14_u1).
body(r_fr14_170,fr14_b1).
body(r_fr14_170,fr9_q2).
head(r_fr14_171,fr14_u1).
body(r_fr14_171,fr9_q2).
head(r_fr14_172,fr14_u1).
body(r_fr14_172,fr14_f1).
body(r_fr14_172,fr14_z2).
head(r_fr14_173,fr14_u1).
body(r_fr14_173,fr18_a1).
head(r_fr14_174,fr14_u1).
body(r_fr14_174,fr3_b3).
body(r_fr14_174,fr9_q2).
body(r_fr14_174,fr14_u2).
head(r_fr14_175,fr14_u1).
body(r_fr14_175,fr14_c3).
body(r_fr14_175,fr3_p3).
body(r_fr14_175,fr14_u2).
body(r_fr14_175,fr15_y3).
body(r_fr14_175,fr20_y1).
head(r_fr14_176,fr14_u1).
body(r_fr14_176,fr14_q1).
body(r_fr14_176,fr21_v2).
head(r_fr14_177,fr14_u1).
body(r_fr14_177,fr14_b1).
head(r_fr14_178,fr14_u1).
head(r_fr14_179,fr14_u1).
body(r_fr14_179,fr14_c2).
body(r_fr14_179,fr14_c3).
body(r_fr14_179,fr14_e1).
head(r_fr14_180,fr14_u1).
body(r_fr14_180,fr14_p2).
body(r_fr14_180,fr21_v2).
body(r_fr14_180,fr14_u2).
body(r_fr14_180,fr20_y1).
body(r_fr14_180,fr14_x2).
head(r_fr14_181,fr14_u1).
body(r_fr14_181,fr10_b3).
body(r_fr14_181,fr14_e2).
head(r_fr14_182,fr14_u1).
body(r_fr14_182,fr14_b1).
body(r_fr14_182,fr14_d1).
body(r_fr14_182,fr14_r3).
body(r_fr14_182,fr21_v2).
body(r_fr14_182,fr20_y1).
head(r_fr14_183,fr14_u1).
body(r_fr14_183,fr14_p2).
body(r_fr14_183,fr9_q2).
body(r_fr14_183,fr14_s2).
head(r_fr14_184,fr14_u1).
body(r_fr14_184,fr14_p2).
body(r_fr14_184,fr9_q2).
head(r_fr14_185,fr14_u1).
body(r_fr14_185,fr14_r3).
body(r_fr14_185,fr21_v2).
body(r_fr14_185,fr15_y3).
head(r_fr14_186,fr14_u1).
body(r_fr14_186,fr14_b1).
body(r_fr14_186,fr18_a1).
body(r_fr14_186,fr14_z2).
head(r_fr14_187,fr14_u1).
body(r_fr14_187,fr10_b3).
body(r_fr14_187,fr14_b2).
body(r_fr14_187,fr14_q1).
body(r_fr14_187,fr2_w2).
body(r_fr14_187,fr14_t1).
head(r_fr14_188,fr2_w2).
body(r_fr14_188,fr14_b3).
body(r_fr14_188,fr3_b3).
body(r_fr14_188,fr14_p2).
head(r_fr14_189,fr2_w2).
body(r_fr14_189,fr14_q1).
body(r_fr14_189,fr14_r3).
body(r_fr14_189,fr14_u2).
head(r_fr14_190,fr2_w2).
body(r_fr14_190,fr14_b3).
body(r_fr14_190,fr14_f1).
body(r_fr14_190,fr3_p3).
body(r_fr14_190,fr14_q1).
body(r_fr14_190,fr14_r3).
body(r_fr14_190,fr20_y1).
head(r_fr14_191,fr2_w2).
body(r_fr14_191,fr14_p2).
body(r_fr14_191,fr15_y3).
head(r_fr14_192,fr2_w2).
body(r_fr14_192,fr14_c2).
body(r_fr14_192,fr14_p2).
body(r_fr14_192,fr21_v2).
body(r_fr14_192,fr14_u2).
body(r_fr14_192,fr20_y1).
head(r_fr14_193,fr2_w2).
body(r_fr14_193,fr10_b3).
body(r_fr14_193,fr14_e1).
body(r_fr14_193,fr3_b3).
body(r_fr14_193,fr14_q1).
body(r_fr14_193,fr14_z2).
head(r_fr14_194,fr2_w2).
body(r_fr14_194,fr9_q2).
body(r_fr14_194,fr21_v2).
body(r_fr14_194,fr20_y1).
head(r_fr14_195,fr2_w2).
body(r_fr14_195,fr14_p2).
body(r_fr14_195,fr3_p3).
body(r_fr14_195,fr14_s2).
body(r_fr14_195,fr20_y1).
body(r_fr14_195,fr15_y3).
body(r_fr14_195,fr14_z2).
head(r_fr14_196,fr2_w2).
body(r_fr14_196,fr14_a2).
body(r_fr14_196,fr14_b2).
body(r_fr14_196,fr14_d1).
body(r_fr14_196,fr3_b3).
body(r_fr14_196,fr3_p3).
body(r_fr14_196,fr20_y1).
head(r_fr14_197,fr2_w2).
body(r_fr14_197,fr14_c2).
body(r_fr14_197,fr14_q1).
body(r_fr14_197,fr14_r3).
head(r_fr14_198,fr2_w2).
body(r_fr14_198,fr14_f1).
body(r_fr14_198,fr9_q2).
body(r_fr14_198,fr14_t1).
body(r_fr14_198,fr20_y1).
head(r_fr14_199,fr2_w2).
body(r_fr14_199,fr15_y3).
head(r_fr14_200,fr2_w2).
head(r_fr14_201,fr2_w2).
body(r_fr14_201,fr14_b1).
body(r_fr14_201,fr14_b3).
body(r_fr14_201,fr14_c2).
body(r_fr14_201,fr14_d1).
body(r_fr14_201,fr18_a1).
body(r_fr14_201,fr3_b3).
head(r_fr14_202,fr2_w2).
body(r_fr14_202,fr14_q1).
body(r_fr14_202,fr14_u2).
body(r_fr14_202,fr15_y3).
body(r_fr14_202,fr14_x2).
body(r_fr14_202,fr20_y1).
head(r_fr14_203,fr2_w2).
body(r_fr14_203,fr14_p2).
body(r_fr14_203,fr14_q1).
body(r_fr14_203,fr14_s2).
body(r_fr14_203,fr14_t1).
body(r_fr14_203,fr20_y1).
head(r_fr14_204,fr2_w2).
body(r_fr14_204,fr14_a2).
body(r_fr14_204,fr14_c2).
body(r_fr14_204,fr14_d1).
body(r_fr14_204,fr18_a1).
body(r_fr14_204,fr14_e1).
body(r_fr14_204,fr15_y3).
head(r_fr14_205,fr2_w2).
body(r_fr14_205,fr9_q2).
body(r_fr14_205,fr14_z2).
head(r_fr14_206,fr2_w2).
body(r_fr14_206,fr14_d1).
body(r_fr14_206,fr3_b3).
head(r_fr14_207,fr21_v2).
body(r_fr14_207,fr14_b1).
body(r_fr14_207,fr25_c1).
body(r_fr14_207,fr14_s2).
head(r_fr14_208,fr21_v2).
body(r_fr14_208,fr14_b1).
body(r_fr14_208,fr14_c3).
body(r_fr14_208,fr14_d1).
body(r_fr14_208,fr18_a1).
body(r_fr14_208,fr14_e1).
body(r_fr14_208,fr14_e2).
head(r_fr14_209,fr21_v2).
body(r_fr14_209,fr18_a1).
body(r_fr14_209,fr25_c1).
body(r_fr14_209,fr14_c3).
body(r_fr14_209,fr14_t1).
body(r_fr14_209,fr20_y1).
head(r_fr14_210,fr21_v2).
body(r_fr14_210,fr14_b1).
body(r_fr14_210,fr14_b3).
body(r_fr14_210,fr14_f1).
head(r_fr14_211,fr21_v2).
body(r_fr14_211,fr14_r3).
head(r_fr14_212,fr21_v2).
body(r_fr14_212,fr14_q1).
body(r_fr14_212,fr14_r3).
body(r_fr14_212,fr14_u2).
body(r_fr14_212,fr14_x2).
head(r_fr14_213,fr21_v2).
body(r_fr14_213,fr14_p2).
body(r_fr14_213,fr14_t1).
body(r_fr14_213,fr20_y1).
head(r_fr14_214,fr21_v2).
body(r_fr14_214,fr14_a2).
body(r_fr14_214,fr14_q1).
body(r_fr14_214,fr9_q2).
body(r_fr14_214,fr14_t1).
body(r_fr14_214,fr15_y3).
head(r_fr14_215,fr21_v2).
body(r_fr14_215,fr14_c2).
body(r_fr14_215,fr9_q2).
body(r_fr14_215,fr14_z2).
head(r_fr14_216,fr21_v2).
body(r_fr14_216,fr10_b3).
body(r_fr14_216,fr18_a1).
body(r_fr14_216,fr14_b2).
body(r_fr14_216,fr14_u2).
head(r_fr14_217,fr21_v2).
body(r_fr14_217,fr14_d1).
body(r_fr14_217,fr14_q1).
body(r_fr14_217,fr15_y3).
head(r_fr14_218,fr21_v2).
body(r_fr14_218,fr10_b3).
body(r_fr14_218,fr14_a2).
body(r_fr14_218,fr14_b2).
body(r_fr14_218,fr14_c2).
body(r_fr14_218,fr14_c3).
body(r_fr14_218,fr14_e2).
head(r_fr14_219,fr21_v2).
body(r_fr14_219,fr18_a1).
body(r_fr14_219,fr14_q1).
body(r_fr14_219,fr9_q2).
body(r_fr14_219,fr14_x2).
body(r_fr14_219,fr20_y1).
head(r_fr14_220,fr21_v2).
body(r_fr14_220,fr10_b3).
body(r_fr14_220,fr25_c1).
body(r_fr14_220,fr14_d1).
body(r_fr14_220,fr18_a1).
body(r_fr14_220,fr3_b3).
body(r_fr14_220,fr14_s2).
head(r_fr14_221,fr21_v2).
body(r_fr14_221,fr14_a2).
body(r_fr14_221,fr14_b3).
body(r_fr14_221,fr25_c1).
body(r_fr14_221,fr14_e2).
body(r_fr14_221,fr14_f1).
body(r_fr14_221,fr3_b3).
head(r_fr14_222,fr21_v2).
body(r_fr14_222,fr14_b2).
head(r_fr14_223,fr21_v2).
head(r_fr14_224,fr20_y1).
body(r_fr14_224,fr14_c2).
head(r_fr14_225,fr20_y1).
body(r_fr14_225,fr10_b3).
body(r_fr14_225,fr18_a1).
body(r_fr14_225,fr18_a1).
body(r_fr14_225,fr3_b3).
body(r_fr14_225,fr15_y3).
head(r_fr14_226,fr20_y1).
body(r_fr14_226,fr14_z2).
head(r_fr14_227,fr20_y1).
body(r_fr14_227,fr3_p3).
body(r_fr14_227,fr14_q1).
body(r_fr14_227,fr9_q2).
body(r_fr14_227,fr14_t1).
body(r_fr14_227,fr15_y3).
body(r_fr14_227,fr14_x2).
head(r_fr14_228,fr20_y1).
body(r_fr14_228,fr18_a1).
body(r_fr14_228,fr14_p2).
body(r_fr14_228,fr14_s2).
body(r_fr14_228,fr14_x2).
head(r_fr14_229,fr20_y1).
body(r_fr14_229,fr14_q1).
body(r_fr14_229,fr14_r3).
head(r_fr14_230,fr20_y1).
body(r_fr14_230,fr14_a2).
body(r_fr14_230,fr14_q1).
body(r_fr14_230,fr9_q2).
head(r_fr14_231,fr20_y1).
body(r_fr14_231,fr25_c1).
body(r_fr14_231,fr14_c3).
body(r_fr14_231,fr14_d1).
body(r_fr14_231,fr14_e2).
body(r_fr14_231,fr14_f1).
head(r_fr14_232,fr20_y1).
body(r_fr14_232,fr14_r3).
body(r_fr14_232,fr14_s2).
body(r_fr14_232,fr14_t1).
body(r_fr14_232,fr14_z2).
head(r_fr14_233,fr20_y1).
body(r_fr14_233,fr14_p2).
body(r_fr14_233,fr14_q1).
body(r_fr14_233,fr14_s2).
body(r_fr14_233,fr14_t1).
body(r_fr14_233,fr14_u2).
body(r_fr14_233,fr20_y1).
head(r_fr14_234,fr20_y1).
body(r_fr14_234,fr18_a1).
body(r_fr14_234,fr14_f1).
body(r_fr14_234,fr3_b3).
body(r_fr14_234,fr14_t1).
body(r_fr14_234,fr14_x2).
head(r_fr14_235,fr20_y1).
body(r_fr14_235,fr18_a1).
body(r_fr14_235,fr14_c2).
body(r_fr14_235,fr14_p2).
body(r_fr14_235,fr14_t1).
head(r_fr14_236,fr20_y1).
body(r_fr14_236,fr14_a2).
body(r_fr14_236,fr14_b1).
body(r_fr14_236,fr14_d1).
head(r_fr14_237,fr20_y1).
head(r_fr14_238,fr20_y1).
body(r_fr14_238,fr25_c1).
body(r_fr14_238,fr14_c2).
body(r_fr14_238,fr14_f1).
head(r_fr14_239,fr20_y1).
body(r_fr14_239,fr18_a1).
body(r_fr14_239,fr14_b2).
body(r_fr14_239,fr14_e2).
body(r_fr14_239,fr14_f1).
body(r_fr14_239,fr14_p2).
body(r_fr14_239,fr14_z2).
head(r_fr14_240,fr20_y1).
body(r_fr14_240,fr14_b3).
body(r_fr14_240,fr14_s2).
body(r_fr14_240,fr14_t1).
body(r_fr14_240,fr14_x2).
head(r_fr14_241,fr20_y1).
body(r_fr14_241,fr10_b3).
body(r_fr14_241,fr14_b1).
body(r_fr14_241,fr14_d1).
head(r_fr14_242,fr20_y1).
body(r_fr14_242,fr14_s2).
body(r_fr14_242,fr14_t1).
body(r_fr14_242,fr20_y1).
head(r_fr14_243,fr14_t1).
body(r_fr14_243,fr14_a2).
body(r_fr14_243,fr18_a1).
body(r_fr14_243,fr14_b3).
body(r_fr14_243,fr25_c1).
body(r_fr14_243,fr18_a1).
head(r_fr14_244,fr14_t1).
body(r_fr14_244,fr18_a1).
body(r_fr14_244,fr14_c3).
body(r_fr14_244,fr14_d1).
body(r_fr14_244,fr14_f1).
head(r_fr14_245,fr14_t1).
body(r_fr14_245,fr14_d1).
body(r_fr14_245,fr14_p2).
body(r_fr14_245,fr3_p3).
body(r_fr14_245,fr20_y1).
head(r_fr14_246,fr14_t1).
body(r_fr14_246,fr25_c1).
body(r_fr14_246,fr14_p2).
body(r_fr14_246,fr14_s2).
body(r_fr14_246,fr14_u2).
body(r_fr14_246,fr20_y1).
body(r_fr14_246,fr14_z2).
head(r_fr14_247,fr14_t1).
body(r_fr14_247,fr10_b3).
body(r_fr14_247,fr18_a1).
body(r_fr14_247,fr25_c1).
body(r_fr14_247,fr14_c3).
body(r_fr14_247,fr3_b3).
head(r_fr14_248,fr14_t1).
body(r_fr14_248,fr10_b3).
body(r_fr14_248,fr14_b1).
body(r_fr14_248,fr14_c3).
head(r_fr14_249,fr14_t1).
body(r_fr14_249,fr14_b1).
head(r_fr14_250,fr14_t1).
body(r_fr14_250,fr14_e1).
body(r_fr14_250,fr14_p2).
body(r_fr14_250,fr3_p3).
body(r_fr14_250,fr14_s2).
body(r_fr14_250,fr14_x2).
head(r_fr14_251,fr14_t1).
body(r_fr14_251,fr14_p2).
body(r_fr14_251,fr3_p3).
body(r_fr14_251,fr14_q1).
body(r_fr14_251,fr15_y3).
head(r_fr14_252,fr14_t1).
body(r_fr14_252,fr14_p2).
body(r_fr14_252,fr3_p3).
body(r_fr14_252,fr14_q1).
body(r_fr14_252,fr14_u2).
body(r_fr14_252,fr20_y1).
body(r_fr14_252,fr14_z2).
head(r_fr14_253,fr14_t1).
body(r_fr14_253,fr25_c1).
body(r_fr14_253,fr18_a1).
head(r_fr14_254,fr14_t1).
head(r_fr14_255,fr14_t1).
body(r_fr14_255,fr9_q2).
body(r_fr14_255,fr15_y3).
head(r_fr14_256,fr14_t1).
body(r_fr14_256,fr14_b3).
body(r_fr14_256,fr25_c1).
body(r_fr14_256,fr3_b3).
head(r_fr14_257,fr14_t1).
body(r_fr14_257,fr14_e2).
body(r_fr14_257,fr14_x2).
head(r_fr14_258,fr14_t1).
body(r_fr14_258,fr14_x2).
head(r_fr14_259,fr14_t1).
body(r_fr14_259,fr9_q2).
head(r_fr14_260,fr14_t1).
body(r_fr14_260,fr18_a1).
body(r_fr14_260,fr14_c2).
body(r_fr14_260,fr3_b3).
body(r_fr14_260,fr14_p2).
body(r_fr14_260,fr14_s2).
head(r_fr14_261,fr14_p2).
body(r_fr14_261,fr14_b3).
body(r_fr14_261,fr18_a1).
body(r_fr14_261,fr3_b3).
head(r_fr14_262,fr14_p2).
head(r_fr14_263,fr14_p2).
body(r_fr14_263,fr14_b2).
head(r_fr14_264,fr14_p2).
body(r_fr14_264,fr14_b2).
body(r_fr14_264,fr14_c2).
body(r_fr14_264,fr18_a1).
head(r_fr14_265,fr14_p2).
body(r_fr14_265,fr9_q2).
body(r_fr14_265,fr14_r3).
head(r_fr14_266,fr14_p2).
body(r_fr14_266,fr14_e1).
body(r_fr14_266,fr3_b3).
body(r_fr14_266,fr3_p3).
body(r_fr14_266,fr9_q2).
body(r_fr14_266,fr15_y3).
head(r_fr14_267,fr14_p2).
body(r_fr14_267,fr14_r3).
body(r_fr14_267,fr20_y1).
body(r_fr14_267,fr14_x2).
head(r_fr14_268,fr14_p2).
body(r_fr14_268,fr14_a2).
body(r_fr14_268,fr14_f1).
body(r_fr14_268,fr3_b3).
body(r_fr14_268,fr20_y1).
body(r_fr14_268,fr14_x2).
head(r_fr14_269,fr14_p2).
body(r_fr14_269,fr14_b1).
body(r_fr14_269,fr14_b3).
body(r_fr14_269,fr14_c2).
body(r_fr14_269,fr14_f1).
body(r_fr14_269,fr20_y1).
head(r_fr14_270,fr14_p2).
body(r_fr14_270,fr14_a2).
body(r_fr14_270,fr14_b2).
body(r_fr14_270,fr14_e2).
body(r_fr14_270,fr3_b3).
head(r_fr14_271,fr14_p2).
body(r_fr14_271,fr14_c2).
head(r_fr14_272,fr14_p2).
body(r_fr14_272,fr14_a2).
body(r_fr14_272,fr18_a1).
body(r_fr14_272,fr3_b3).
body(r_fr14_272,fr20_y1).
body(r_fr14_272,fr14_x2).
head(r_fr14_273,fr14_p2).
body(r_fr14_273,fr14_b2).
body(r_fr14_273,fr14_c3).
body(r_fr14_273,fr18_a1).
body(r_fr14_273,fr14_f1).
body(r_fr14_273,fr14_q1).
head(r_fr14_274,fr14_p2).
body(r_fr14_274,fr14_r3).
head(r_fr14_275,fr14_p2).
body(r_fr14_275,fr14_b1).
body(r_fr14_275,fr14_b2).
body(r_fr14_275,fr25_c1).
body(r_fr14_275,fr14_c3).
body(r_fr14_275,fr14_e1).
body(r_fr14_275,fr14_f1).
head(r_fr14_276,fr14_p2).
body(r_fr14_276,fr18_a1).
body(r_fr14_276,fr14_b1).
body(r_fr14_276,fr14_d1).
body(r_fr14_276,fr18_a1).
body(r_fr14_276,fr20_y1).
body(r_fr14_276,fr15_y3).
head(r_fr14_277,fr14_p2).
body(r_fr14_277,fr14_c3).
body(r_fr14_277,fr14_q1).
body(r_fr14_277,fr14_s2).
body(r_fr14_277,fr15_y3).
body(r_fr14_277,fr14_x2).
head(r_fr14_278,fr14_p2).
body(r_fr14_278,fr3_p3).
body(r_fr14_278,fr9_q2).
body(r_fr14_278,fr15_y3).
head(r_fr14_279,fr14_u2).
body(r_fr14_279,fr14_b1).
body(r_fr14_279,fr14_b3).
body(r_fr14_279,fr14_q1).
body(r_fr14_279,fr14_x2).
body(r_fr14_279,fr14_z2).
head(r_fr14_280,fr14_u2).
body(r_fr14_280,fr14_a2).
body(r_fr14_280,fr14_b1).
body(r_fr14_280,fr14_d1).
head(r_fr14_281,fr14_u2).
body(r_fr14_281,fr14_r3).
body(r_fr14_281,fr20_y1).
body(r_fr14_281,fr14_x2).
head(r_fr14_282,fr14_u2).
body(r_fr14_282,fr14_b2).
body(r_fr14_282,fr14_c2).
body(r_fr14_282,fr14_s2).
body(r_fr14_282,fr15_y3).
body(r_fr14_282,fr14_x2).
head(r_fr14_283,fr14_u2).
body(r_fr14_283,fr10_b3).
body(r_fr14_283,fr3_b3).
body(r_fr14_283,fr14_q1).
body(r_fr14_283,fr20_y1).
body(r_fr14_283,fr15_y3).
body(r_fr14_283,fr14_x2).
head(r_fr14_284,fr14_u2).
body(r_fr14_284,fr3_p3).
body(r_fr14_284,fr20_y1).
head(r_fr14_285,fr14_u2).
body(r_fr14_285,fr14_b2).
body(r_fr14_285,fr25_c1).
body(r_fr14_285,fr18_a1).
head(r_fr14_286,fr14_u2).
body(r_fr14_286,fr25_c1).
body(r_fr14_286,fr3_p3).
body(r_fr14_286,fr14_q1).
body(r_fr14_286,fr15_y3).
body(r_fr14_286,fr14_x2).
head(r_fr14_287,fr14_u2).
body(r_fr14_287,fr20_y1).
body(r_fr14_287,fr14_z2).
head(r_fr14_288,fr14_u2).
body(r_fr14_288,fr14_f1).
body(r_fr14_288,fr3_p3).
body(r_fr14_288,fr14_s2).
body(r_fr14_288,fr20_y1).
body(r_fr14_288,fr14_z2).
head(r_fr14_289,fr14_u2).
body(r_fr14_289,fr25_c1).
body(r_fr14_289,fr14_r3).
head(r_fr14_290,fr14_u2).
body(r_fr14_290,fr10_b3).
body(r_fr14_290,fr14_b3).
body(r_fr14_290,fr14_e1).
body(r_fr14_290,fr3_p3).
body(r_fr14_290,fr14_z2).
head(r_fr14_291,fr14_u2).
body(r_fr14_291,fr10_b3).
body(r_fr14_291,fr14_b1).
body(r_fr14_291,fr14_c2).
body(r_fr14_291,fr14_e1).
body(r_fr14_291,fr14_e2).
body(r_fr14_291,fr3_b3).
head(r_fr14_292,fr14_u2).
body(r_fr14_292,fr14_c3).
body(r_fr14_292,fr14_q1).
head(r_fr14_293,fr14_u2).
body(r_fr14_293,fr14_e2).
head(r_fr14_294,fr14_u2).
body(r_fr14_294,fr10_b3).
body(r_fr14_294,fr14_a2).
body(r_fr14_294,fr14_c2).
body(r_fr14_294,fr14_c3).
body(r_fr14_294,fr15_y3).
body(r_fr14_294,fr14_z2).
head(r_fr14_295,fr14_u2).
head(r_fr14_296,fr14_u2).
body(r_fr14_296,fr3_p3).
body(r_fr14_296,fr15_y3).
head(r_fr14_297,fr14_u2).
body(r_fr14_297,fr9_q2).
body(r_fr14_297,fr14_r3).
body(r_fr14_297,fr15_y3).
head(r_fr14_298,fr14_u2).
body(r_fr14_298,fr18_a1).
body(r_fr14_298,fr14_b2).
body(r_fr14_298,fr14_c2).
body(r_fr14_298,fr14_e1).
body(r_fr14_298,fr14_r3).
head(r_fr14_299,fr14_r3).
body(r_fr14_299,fr14_c2).
body(r_fr14_299,fr14_q1).
body(r_fr14_299,fr9_q2).
body(r_fr14_299,fr14_s2).
body(r_fr14_299,fr14_x2).
body(r_fr14_299,fr14_z2).
head(r_fr14_300,fr14_r3).
body(r_fr14_300,fr14_c3).
body(r_fr14_300,fr14_d1).
body(r_fr14_300,fr18_a1).
body(r_fr14_300,fr9_q2).
body(r_fr14_300,fr20_y1).
body(r_fr14_300,fr14_z2).
head(r_fr14_301,fr14_r3).
body(r_fr14_301,fr9_q2).
body(r_fr14_301,fr20_y1).
head(r_fr14_302,fr14_r3).
body(r_fr14_302,fr14_b2).
body(r_fr14_302,fr14_c2).
body(r_fr14_302,fr14_e2).
head(r_fr14_303,fr14_r3).
body(r_fr14_303,fr14_b2).
body(r_fr14_303,fr14_b3).
head(r_fr14_304,fr14_r3).
body(r_fr14_304,fr14_c2).
body(r_fr14_304,fr14_s2).
head(r_fr14_305,fr14_r3).
body(r_fr14_305,fr14_b3).
body(r_fr14_305,fr3_p3).
body(r_fr14_305,fr14_s2).
body(r_fr14_305,fr15_y3).
body(r_fr14_305,fr14_z2).
head(r_fr14_306,fr14_r3).
body(r_fr14_306,fr3_p3).
body(r_fr14_306,fr14_s2).
head(r_fr14_307,fr14_r3).
body(r_fr14_307,fr14_a2).
body(r_fr14_307,fr14_c3).
body(r_fr14_307,fr14_d1).
body(r_fr14_307,fr3_p3).
body(r_fr14_307,fr15_y3).
head(r_fr14_308,fr14_r3).
body(r_fr14_308,fr14_s2).
head(r_fr14_309,fr14_r3).
body(r_fr14_309,fr25_c1).
body(r_fr14_309,fr14_d1).
body(r_fr14_309,fr18_a1).
body(r_fr14_309,fr3_b3).
body(r_fr14_309,fr14_q1).
body(r_fr14_309,fr14_x2).
head(r_fr14_310,fr14_r3).
body(r_fr14_310,fr14_b3).
body(r_fr14_310,fr14_c3).
body(r_fr14_310,fr18_a1).
body(r_fr14_310,fr9_q2).
body(r_fr14_310,fr14_z2).
head(r_fr14_311,fr14_r3).
body(r_fr14_311,fr9_q2).
body(r_fr14_311,fr15_y3).
body(r_fr14_311,fr14_x2).
head(r_fr14_312,fr14_r3).
body(r_fr14_312,fr10_b3).
body(r_fr14_312,fr3_p3).
body(r_fr14_312,fr14_s2).
body(r_fr14_312,fr14_x2).
body(r_fr14_312,fr14_z2).
head(r_fr14_313,fr14_r3).
head(r_fr14_314,fr14_r3).
body(r_fr14_314,fr14_b2).
body(r_fr14_314,fr18_a1).
body(r_fr14_314,fr14_f1).
body(r_fr14_314,fr14_x2).
head(r_fr14_315,fr14_r3).
body(r_fr14_315,fr14_c2).
body(r_fr14_315,fr3_p3).
body(r_fr14_315,fr14_q1).
body(r_fr14_315,fr9_q2).
body(r_fr14_315,fr14_s2).
body(r_fr14_315,fr14_z2).
head(r_fr14_316,fr14_z2).
body(r_fr14_316,fr14_c2).
body(r_fr14_316,fr14_f1).
body(r_fr14_316,fr3_p3).
head(r_fr14_317,fr14_z2).
body(r_fr14_317,fr14_c2).
body(r_fr14_317,fr14_e1).
body(r_fr14_317,fr14_e2).
head(r_fr14_318,fr14_z2).
body(r_fr14_318,fr3_p3).
body(r_fr14_318,fr14_s2).
body(r_fr14_318,fr14_x2).
head(r_fr14_319,fr14_z2).
body(r_fr14_319,fr10_b3).
body(r_fr14_319,fr14_a2).
body(r_fr14_319,fr14_e2).
body(r_fr14_319,fr14_x2).
head(r_fr14_320,fr14_z2).
body(r_fr14_320,fr20_y1).
body(r_fr14_320,fr14_x2).
head(r_fr14_321,fr14_z2).
body(r_fr14_321,fr18_a1).
body(r_fr14_321,fr14_b3).
body(r_fr14_321,fr14_c2).
body(r_fr14_321,fr14_c3).
head(r_fr14_322,fr14_z2).
body(r_fr14_322,fr14_b1).
body(r_fr14_322,fr3_p3).
body(r_fr14_322,fr14_q1).
body(r_fr14_322,fr9_q2).
body(r_fr14_322,fr15_y3).
body(r_fr14_322,fr14_x2).
head(r_fr14_323,fr14_z2).
body(r_fr14_323,fr10_b3).
body(r_fr14_323,fr9_q2).
body(r_fr14_323,fr14_s2).
body(r_fr14_323,fr14_x2).
head(r_fr14_324,fr14_z2).
body(r_fr14_324,fr10_b3).
body(r_fr14_324,fr14_a2).
body(r_fr14_324,fr15_y3).
head(r_fr14_325,fr14_z2).
body(r_fr14_325,fr14_b1).
body(r_fr14_325,fr14_b3).
body(r_fr14_325,fr3_p3).
body(r_fr14_325,fr9_q2).
body(r_fr14_325,fr20_y1).
body(r_fr14_325,fr14_x2).
head(r_fr14_326,fr14_z2).
body(r_fr14_326,fr14_d1).
head(r_fr14_327,fr14_z2).
body(r_fr14_327,fr14_x2).
head(r_fr14_328,fr14_z2).
body(r_fr14_328,fr14_b3).
body(r_fr14_328,fr14_e1).
body(r_fr14_328,fr14_q1).
body(r_fr14_328,fr20_y1).
body(r_fr14_328,fr14_x2).
head(r_fr14_329,fr14_z2).
body(r_fr14_329,fr14_b3).
body(r_fr14_329,fr14_d1).
body(r_fr14_329,fr3_p3).
body(r_fr14_329,fr14_q1).
body(r_fr14_329,fr9_q2).
head(r_fr14_330,fr14_z2).
body(r_fr14_330,fr3_p3).
body(r_fr14_330,fr9_q2).
head(r_fr14_331,fr14_z2).
body(r_fr14_331,fr14_b1).
body(r_fr14_331,fr14_b3).
body(r_fr14_331,fr14_e1).
body(r_fr14_331,fr3_p3).
body(r_fr14_331,fr14_s2).
body(r_fr14_331,fr20_y1).
head(r_fr14_332,fr14_z2).
head(r_fr14_333,fr14_z2).
body(r_fr14_333,fr3_p3).
head(r_fr14_334,fr14_q1).
body(r_fr14_334,fr14_a2).
body(r_fr14_334,fr3_p3).
body(r_fr14_334,fr14_x2).
head(r_fr14_335,fr14_q1).
head(r_fr14_336,fr14_q1).
body(r_fr14_336,fr3_p3).
body(r_fr14_336,fr9_q2).
body(r_fr14_336,fr14_s2).
body(r_fr14_336,fr20_y1).
body(r_fr14_336,fr15_y3).
head(r_fr14_337,fr14_q1).
body(r_fr14_337,fr15_y3).
head(r_fr14_338,fr14_q1).
body(r_fr14_338,fr3_p3).
body(r_fr14_338,fr14_x2).
head(r_fr14_339,fr14_q1).
body(r_fr14_339,fr14_a2).
body(r_fr14_339,fr14_c2).
body(r_fr14_339,fr14_c3).
body(r_fr14_339,fr14_f1).
head(r_fr14_340,fr14_q1).
body(r_fr14_340,fr14_f1).
head(r_fr14_341,fr14_q1).
body(r_fr14_341,fr14_c2).
body(r_fr14_341,fr14_e1).
body(r_fr14_341,fr14_f1).
body(r_fr14_341,fr3_p3).
body(r_fr14_341,fr14_s2).
body(r_fr14_341,fr20_y1).
head(r_fr14_342,fr14_q1).
body(r_fr14_342,fr18_a1).
body(r_fr14_342,fr14_e2).
body(r_fr14_342,fr14_f1).
head(r_fr14_343,fr14_q1).
body(r_fr14_343,fr14_b3).
body(r_fr14_343,fr14_e2).
head(r_fr14_344,fr14_q1).
body(r_fr14_344,fr18_a1).
body(r_fr14_344,fr14_e1).
body(r_fr14_344,fr14_e2).
body(r_fr14_344,fr3_p3).
body(r_fr14_344,fr14_s2).
body(r_fr14_344,fr14_x2).
head(r_fr14_345,fr14_q1).
body(r_fr14_345,fr18_a1).
head(r_fr14_346,fr14_q1).
body(r_fr14_346,fr10_b3).
body(r_fr14_346,fr14_e2).
body(r_fr14_346,fr3_p3).
body(r_fr14_346,fr14_s2).
body(r_fr14_346,fr20_y1).
body(r_fr14_346,fr15_y3).
head(r_fr14_347,fr14_q1).
body(r_fr14_347,fr14_e1).
body(r_fr14_347,fr3_p3).
body(r_fr14_347,fr9_q2).
body(r_fr14_347,fr14_x2).
head(r_fr14_348,fr14_q1).
body(r_fr14_348,fr25_c1).
body(r_fr14_348,fr14_c2).
body(r_fr14_348,fr3_p3).
body(r_fr14_348,fr14_s2).
body(r_fr14_348,fr20_y1).
body(r_fr14_348,fr14_x2).
head(r_fr14_349,fr14_q1).
body(r_fr14_349,fr14_a2).
body(r_fr14_349,fr14_b3).
body(r_fr14_349,fr14_e2).
body(r_fr14_349,fr20_y1).
head(r_fr14_350,fr14_q1).
body(r_fr14_350,fr25_c1).
body(r_fr14_350,fr14_c2).
head(r_fr14_351,fr14_x2).
body(r_fr14_351,fr10_b3).
head(r_fr14_352,fr14_x2).
body(r_fr14_352,fr3_b3).
body(r_fr14_352,fr3_p3).
body(r_fr14_352,fr9_q2).
body(r_fr14_352,fr20_y1).
head(r_fr14_353,fr14_x2).
body(r_fr14_353,fr18_a1).
body(r_fr14_353,fr3_p3).
body(r_fr14_353,fr9_q2).
body(r_fr14_353,fr14_s2).
body(r_fr14_353,fr20_y1).
body(r_fr14_353,fr15_y3).
head(r_fr14_354,fr14_x2).
body(r_fr14_354,fr25_c1).
body(r_fr14_354,fr3_p3).
head(r_fr14_355,fr14_x2).
body(r_fr14_355,fr20_y1).
head(r_fr14_356,fr14_x2).
body(r_fr14_356,fr20_y1).
body(r_fr14_356,fr15_y3).
head(r_fr14_357,fr14_x2).
body(r_fr14_357,fr14_b1).
body(r_fr14_357,fr14_s2).
head(r_fr14_358,fr14_x2).
body(r_fr14_358,fr14_c3).
body(r_fr14_358,fr14_f1).
body(r_fr14_358,fr14_s2).
body(r_fr14_358,fr20_y1).
head(r_fr14_359,fr14_x2).
body(r_fr14_359,fr3_p3).
body(r_fr14_359,fr20_y1).
head(r_fr14_360,fr14_x2).
body(r_fr14_360,fr15_y3).
head(r_fr14_361,fr14_x2).
body(r_fr14_361,fr14_c2).
body(r_fr14_361,fr3_b3).
body(r_fr14_361,fr3_p3).
body(r_fr14_361,fr14_s2).
body(r_fr14_361,fr20_y1).
body(r_fr14_361,fr15_y3).
head(r_fr14_362,fr14_x2).
body(r_fr14_362,fr14_b3).
head(r_fr14_363,fr14_x2).
body(r_fr14_363,fr14_c3).
body(r_fr14_363,fr14_d1).
body(r_fr14_363,fr14_e1).
head(r_fr14_364,fr14_x2).
body(r_fr14_364,fr3_b3).
body(r_fr14_364,fr14_s2).
head(r_fr14_365,fr14_x2).
body(r_fr14_365,fr14_a2).
body(r_fr14_365,fr14_b1).
body(r_fr14_365,fr14_c2).
body(r_fr14_365,fr14_c3).
body(r_fr14_365,fr18_a1).
body(r_fr14_365,fr14_e1).
head(r_fr14_366,fr14_x2).
body(r_fr14_366,fr10_b3).
body(r_fr14_366,fr14_d1).
body(r_fr14_366,fr14_s2).
head(r_fr14_367,fr14_x2).
body(r_fr14_367,fr10_b3).
body(r_fr14_367,fr14_s2).
head(r_fr14_368,fr14_x2).
head(r_fr14_369,fr14_x2).
body(r_fr14_369,fr14_e2).
body(r_fr14_369,fr15_y3).
head(r_fr14_370,fr14_x2).
body(r_fr14_370,fr14_s2).

assumption(fr15_a1).
assumption(fr15_b1).
assumption(fr15_c1).
assumption(fr15_d1).
assumption(fr15_e1).
assumption(fr15_f1).
assumption(fr2_c2).
assumption(fr4_d2).
assumption(fr4_f1).
assumption(fr15_d2).
assumption(fr15_e2).
assumption(fr15_f2).
assumption(fr15_a3).
assumption(fr15_b3).
assumption(fr7_a1).
contrary(fr15_a1,fr15_w3).
contrary(fr2_c2,fr15_b3).
contrary(fr15_a3,fr15_w3).
contrary(fr15_b1,fr15_u1).
contrary(fr4_d2,fr15_a3).
contrary(fr15_b3,fr15_w2).
contrary(fr15_c1,fr7_a1).
contrary(fr4_f1,fr15_y3).
contrary(fr7_a1,fr15_y2).
contrary(fr15_d1,fr15_y1).
contrary(fr15_d2,fr15_v2).
contrary(fr15_e1,fr25_w1).
contrary(fr15_e2,fr15_a3).
contrary(fr15_f1,fr15_x1).
contrary(fr15_f2,fr15_u3).
head(r_fr15_0,fr25_s2).
body(r_fr15_0,fr15_a3).
body(r_fr15_0,fr15_b1).
body(r_fr15_0,fr4_f1).
body(r_fr15_0,fr15_e1).
body(r_fr15_0,fr15_z2).
head(r_fr15_1,fr25_s2).
body(r_fr15_1,fr15_p1).
body(r_fr15_1,fr15_q2).
body(r_fr15_1,fr15_y2).
body(r_fr15_1,fr15_z2).
head(r_fr15_2,fr15_s1).
body(r_fr15_2,fr15_y2).
head(r_fr15_3,fr15_s1).
body(r_fr15_3,fr2_c2).
body(r_fr15_3,fr15_b1).
body(r_fr15_3,fr15_d1).
head(r_fr15_4,fr13_y1).
body(r_fr15_4,fr15_w1).
head(r_fr15_5,fr13_y1).
body(r_fr15_5,fr2_c2).
body(r_fr15_5,fr15_d1).
body(r_fr15_5,fr15_e1).
body(r_fr15_5,fr15_u3).
head(r_fr15_6,fr13_y1).
body(r_fr15_6,fr15_b1).
head(r_fr15_7,fr15_y2).
body(r_fr15_7,fr15_q1).
body(r_fr15_7,fr15_s1).
body(r_fr15_7,fr15_x2).
body(r_fr15_7,fr15_z2).
head(r_fr15_8,fr15_y2).
body(r_fr15_8,fr15_d1).
head(r_fr15_9,fr15_y2).
body(r_fr15_9,fr4_d2).
body(r_fr15_9,fr4_f1).
body(r_fr15_9,fr7_a1).
head(r_fr15_10,fr15_y2).
body(r_fr15_10,fr15_t1).
head(r_fr15_11,fr15_y2).
body(r_fr15_11,fr15_a1).
body(r_fr15_11,fr4_d2).
head(r_fr15_12,fr15_v2).
body(r_fr15_12,fr15_a1).
body(r_fr15_12,fr2_c2).
body(r_fr15_12,fr7_a1).
body(r_fr15_12,fr15_d2).
head(r_fr15_13,fr15_v2).
body(r_fr15_13,fr15_b3).
body(r_fr15_13,fr15_s2).
body(r_fr15_13,fr15_t1).
body(r_fr15_13,fr15_v3).
body(r_fr15_13,fr15_z2).
head(r_fr15_14,fr15_r3).
body(r_fr15_14,fr15_v1).
head(r_fr15_15,fr15_r3).
body(r_fr15_15,fr15_a1).
body(r_fr15_15,fr15_b3).
body(r_fr15_15,fr15_c1).
body(r_fr15_15,fr15_e1).
body(r_fr15_15,fr15_s3).
body(r_fr15_15,fr25_u1).
head(r_fr15_16,fr24_r3).
body(r_fr15_16,fr15_a3).
body(r_fr15_16,fr4_d2).
body(r_fr15_16,fr15_c1).
body(r_fr15_16,fr15_f1).
body(r_fr15_16,fr15_f2).
head(r_fr15_17,fr24_r3).
body(r_fr15_17,fr15_r2).
body(r_fr15_17,fr15_x1).
body(r_fr15_17,fr15_z2).
head(r_fr15_18,fr15_w3).
head(r_fr15_19,fr15_w3).
body(r_fr15_19,fr15_r3).
head(r_fr15_20,fr15_q4).
body(r_fr15_20,fr15_a1).
body(r_fr15_20,fr4_d2).
body(r_fr15_20,fr4_f1).
body(r_fr15_20,fr15_e2).
head(r_fr15_21,fr15_q4).
body(r_fr15_21,fr4_w2).
body(r_fr15_21,fr15_u3).
body(r_fr15_21,fr15_y1).
head(r_fr15_22,fr15_v1).
body(r_fr15_22,fr15_b1).
body(r_fr15_22,fr15_d2).
body(r_fr15_22,fr15_s2).
head(r_fr15_23,fr15_v1).
body(r_fr15_23,fr4_d2).
body(r_fr15_23,fr15_c1).
body(r_fr15_23,fr4_f1).
body(r_fr15_23,fr15_d1).
body(r_fr15_23,fr15_d2).
head(r_fr15_24,fr15_v1).
body(r_fr15_24,fr15_p4).
body(r_fr15_24,fr4_w2).
body(r_fr15_24,fr15_u2).
body(r_fr15_24,fr15_v2).
body(r_fr15_24,fr15_v3).
head(r_fr15_25,fr15_p4).
body(r_fr15_25,fr15_d2).
body(r_fr15_25,fr15_e1).
body(r_fr15_25,fr15_r3).
body(r_fr15_25,fr15_y2).
head(r_fr15_26,fr15_p4).
body(r_fr15_26,fr2_c2).
body(r_fr15_26,fr4_d2).
body(r_fr15_26,fr15_d1).
body(r_fr15_26,fr15_q1).
body(r_fr15_26,fr15_s2).
body(r_fr15_26,fr25_u1).
head(r_fr15_27,fr15_p4).
body(r_fr15_27,fr15_a1).
body(r_fr15_27,fr15_b1).
body(r_fr15_27,fr15_d2).
body(r_fr15_27,fr13_y1).
head(r_fr15_28,fr15_p4).
head(r_fr15_29,fr15_z2).
head(r_fr15_30,fr15_z2).
body(r_fr15_30,fr7_a1).
head(r_fr15_31,fr15_z2).
body(r_fr15_31,fr15_a3).
body(r_fr15_31,fr4_d2).
body(r_fr15_31,fr15_d1).
body(r_fr15_31,fr15_d2).
body(r_fr15_31,fr15_e1).
head(r_fr15_32,fr15_t2).
body(r_fr15_32,fr15_a1).
body(r_fr15_32,fr15_p4).
body(r_fr15_32,fr13_y1).
body(r_fr15_32,fr15_r1).
body(r_fr15_32,fr25_s2).
body(r_fr15_32,fr15_y1).
head(r_fr15_33,fr15_t2).
head(r_fr15_34,fr15_t2).
body(r_fr15_34,fr2_c2).
body(r_fr15_34,fr4_d2).
body(r_fr15_34,fr15_d2).
body(r_fr15_34,fr15_s3).
body(r_fr15_34,fr15_t1).
body(r_fr15_34,fr15_u3).
head(r_fr15_35,fr15_u1).
body(r_fr15_35,fr25_w1).
body(r_fr15_35,fr15_p4).
body(r_fr15_35,fr15_q1).
body(r_fr15_35,fr15_t1).
body(r_fr15_35,fr15_x2).
head(r_fr15_36,fr15_u1).
head(r_fr15_37,fr15_u1).
body(r_fr15_37,fr2_c2).
body(r_fr15_37,fr15_f2).
body(r_fr15_37,fr15_p1).
head(r_fr15_38,fr15_u1).
body(r_fr15_38,fr15_s3).
body(r_fr15_38,fr15_x1).
body(r_fr15_38,fr15_x2).
head(r_fr15_39,fr4_w2).
body(r_fr15_39,fr2_c2).
body(r_fr15_39,fr4_d2).
body(r_fr15_39,fr15_e1).
body(r_fr15_39,fr13_y1).
body(r_fr15_39,fr15_z3).
head(r_fr15_40,fr4_w2).
body(r_fr15_40,fr15_a1).
body(r_fr15_40,fr15_b1).
body(r_fr15_40,fr15_f1).
body(r_fr15_40,fr15_f2).
head(r_fr15_41,fr4_w2).
head(r_fr15_42,fr15_w1).
body(r_fr15_42,fr7_a1).
body(r_fr15_42,fr15_f2).
body(r_fr15_42,fr15_r1).
body(r_fr15_42,fr15_s3).
body(r_fr15_42,fr15_w3).
body(r_fr15_42,fr15_z3).
head(r_fr15_43,fr15_w1).
body(r_fr15_43,fr7_a1).
body(r_fr15_43,fr15_d1).
body(r_fr15_43,fr15_v2).
body(r_fr15_43,fr15_y3).
head(r_fr15_44,fr15_w1).
body(r_fr15_44,fr15_a3).
body(r_fr15_44,fr7_a1).
body(r_fr15_44,fr15_t2).
head(r_fr15_45,fr15_w1).
body(r_fr15_45,fr2_c2).
body(r_fr15_45,fr13_y1).
body(r_fr15_45,fr15_q4).
body(r_fr15_45,fr4_w2).
body(r_fr15_45,fr15_u1).
body(r_fr15_45,fr15_y3).
head(r_fr15_46,fr15_w1).
body(r_fr15_46,fr4_d2).
body(r_fr15_46,fr15_b3).
body(r_fr15_46,fr4_f1).
head(r_fr15_47,fr15_y1).
body(r_fr15_47,fr4_f1).
body(r_fr15_47,fr15_e1).
body(r_fr15_47,fr15_f2).
head(r_fr15_48,fr15_y1).
body(r_fr15_48,fr15_f1).
body(r_fr15_48,fr15_w1).
body(r_fr15_48,fr25_s2).
body(r_fr15_48,fr15_y2).
head(r_fr15_49,fr15_x2).
body(r_fr15_49,fr4_d2).
body(r_fr15_49,fr4_f1).
body(r_fr15_49,fr15_e1).
body(r_fr15_49,fr15_f2).
head(r_fr15_50,fr15_x2).
body(r_fr15_50,fr15_t1).
body(r_fr15_50,fr15_w3).
body(r_fr15_50,fr15_y3).
head(r_fr15_51,fr15_x2).
body(r_fr15_51,fr15_a3).
body(r_fr15_51,fr13_y1).
body(r_fr15_51,fr15_v3).
body(r_fr15_51,fr15_x1).
body(r_fr15_51,fr25_u1).
head(r_fr15_52,fr15_x2).
head(r_fr15_53,fr15_u3).
head(r_fr15_54,fr15_u3).
body(r_fr15_54,fr7_a1).
body(r_fr15_54,fr15_d1).
body(r_fr15_54,fr15_e2).
head(r_fr15_55,fr15_u3).
body(r_fr15_55,fr15_c1).
body(r_fr15_55,fr15_d1).
body(r_fr15_55,fr15_p1).
body(r_fr15_55,fr15_w1).
body(r_fr15_55,fr25_s2).
head(r_fr15_56,fr15_t1).
body(r_fr15_56,fr15_r2).
body(r_fr15_56,fr15_s3).
body(r_fr15_56,fr15_z2).
head(r_fr15_57,fr15_t1).
body(r_fr15_57,fr4_f1).
body(r_fr15_57,fr15_d1).
body(r_fr15_57,fr25_w1).
body(r_fr15_57,fr4_w2).
body(r_fr15_57,fr15_x1).
body(r_fr15_57,fr15_x2).
head(r_fr15_58,fr15_t1).
body(r_fr15_58,fr15_b3).
head(r_fr15_59,fr15_t1).
body(r_fr15_59,fr15_a3).

assumption(fr16_a1).
assumption(fr18_a1).
assumption(fr25_f1).
assumption(fr16_d1).
assumption(fr16_e1).
assumption(fr16_f1).
assumption(fr16_a2).
assumption(fr25_c1).
assumption(fr16_c2).
assumption(fr10_f2).
assumption(fr16_e2).
assumption(fr16_f2).
assumption(fr16_a3).
assumption(fr19_b2).
assumption(fr7_a1).
contrary(fr16_a1,fr16_r5).
contrary(fr16_a2,fr16_w4).
contrary(fr16_a3,fr16_w5).
contrary(fr18_a1,fr16_t4).
contrary(fr25_c1,fr16_p3).
contrary(fr19_b2,fr16_v2).
contrary(fr25_f1,fr25_x1).
contrary(fr16_c2,fr16_z2).
contrary(fr7_a1,fr16_u5).
contrary(fr16_d1,fr16_q1).
contrary(fr10_f2,fr16_x5).
contrary(fr16_e1,fr16_w5).
contrary(fr16_e2,fr16_u4).
contrary(fr16_f1,fr16_t1).
contrary(fr16_f2,fr10_f2).
head(r_fr16_0,fr16_p4).
body(r_fr16_0,fr16_r1).
body(r_fr16_0,fr16_r4).
body(r_fr16_0,fr24_v1).
body(r_fr16_0,fr16_s5).
body(r_fr16_0,fr16_t2).
head(r_fr16_1,fr16_p4).
body(r_fr16_1,fr16_a2).
body(r_fr16_1,fr25_c1).
body(r_fr16_1,fr10_f2).
body(r_fr16_1,fr16_e2).
body(r_fr16_1,fr16_f2).
body(r_fr16_1,fr16_z2).
head(r_fr16_2,fr16_p4).
head(r_fr16_3,fr16_p4).
body(r_fr16_3,fr16_f1).
head(r_fr16_4,fr16_w5).
head(r_fr16_5,fr16_w5).
body(r_fr16_5,fr16_a1).
head(r_fr16_6,fr16_w5).
body(r_fr16_6,fr16_x4).
head(r_fr16_7,fr16_w5).
body(r_fr16_7,fr25_c1).
head(r_fr16_8,fr16_v2).
body(r_fr16_8,fr16_p4).
body(r_fr16_8,fr16_q5).
body(r_fr16_8,fr19_v3).
body(r_fr16_8,fr16_r5).
body(r_fr16_8,fr24_v1).
body(r_fr16_8,fr16_u5).
head(r_fr16_9,fr16_v2).
body(r_fr16_9,fr25_c1).
body(r_fr16_9,fr16_e1).
head(r_fr16_10,fr16_v2).
body(r_fr16_10,fr16_p3).
body(r_fr16_10,fr16_v1).
body(r_fr16_10,fr16_v5).
body(r_fr16_10,fr16_y2).
head(r_fr16_11,fr16_v2).
body(r_fr16_11,fr25_c1).
body(r_fr16_11,fr16_r3).
body(r_fr16_11,fr16_w4).
body(r_fr16_11,fr25_x1).
head(r_fr16_12,fr16_v2).
body(r_fr16_12,fr25_f1).
body(r_fr16_12,fr16_e1).
body(r_fr16_12,fr16_q1).
head(r_fr16_13,fr16_y2).
body(r_fr16_13,fr16_f1).
body(r_fr16_13,fr24_v1).
head(r_fr16_14,fr16_y2).
body(r_fr16_14,fr16_a3).
body(r_fr16_14,fr16_d1).
body(r_fr16_14,fr16_q2).
body(r_fr16_14,fr16_t3).
body(r_fr16_14,fr16_v4).
head(r_fr16_15,fr16_y2).
head(r_fr16_16,fr16_y2).
body(r_fr16_16,fr16_a2).
body(r_fr16_16,fr25_c1).
body(r_fr16_16,fr7_a1).
body(r_fr16_16,fr10_f2).
body(r_fr16_16,fr16_p1).
body(r_fr16_16,fr16_v5).
head(r_fr16_17,fr12_x2).
body(r_fr16_17,fr10_f2).
body(r_fr16_17,fr16_w2).
body(r_fr16_17,fr16_w3).
head(r_fr16_18,fr12_x2).
body(r_fr16_18,fr7_a1).
body(r_fr16_18,fr16_p2).
body(r_fr16_18,fr16_p3).
body(r_fr16_18,fr16_w2).
body(r_fr16_18,fr16_z3).
head(r_fr16_19,fr16_v4).
body(r_fr16_19,fr25_c1).
body(r_fr16_19,fr16_z3).
head(r_fr16_20,fr16_v4).
body(r_fr16_20,fr16_c2).
head(r_fr16_21,fr16_z1).
head(r_fr16_22,fr16_z1).
body(r_fr16_22,fr25_c1).
body(r_fr16_22,fr16_c2).
body(r_fr16_22,fr16_d1).
body(r_fr16_22,fr16_e2).
body(r_fr16_22,fr16_f1).
head(r_fr16_23,fr16_z1).
body(r_fr16_23,fr16_f1).
head(r_fr16_24,fr16_z1).
body(r_fr16_24,fr16_x5).
head(r_fr16_25,fr16_z1).
body(r_fr16_25,fr25_c1).
body(r_fr16_25,fr16_q1).
body(r_fr16_25,fr16_s5).
body(r_fr16_25,fr16_t2).
body(r_fr16_25,fr16_v3).
body(r_fr16_25,fr16_w3).
head(r_fr16_26,fr16_u1).
body(r_fr16_26,fr18_a1).
body(r_fr16_26,fr25_f1).
body(r_fr16_26,fr16_u2).
body(r_fr16_26,fr16_x2).
body(r_fr16_26,fr16_y4).
body(r_fr16_26,fr16_z1).
head(r_fr16_27,fr16_u1).
body(r_fr16_27,fr16_p2).
body(r_fr16_27,fr16_t2).
head(r_fr16_28,fr16_u1).
body(r_fr16_28,fr16_a3).
body(r_fr16_28,fr25_f1).
body(r_fr16_28,fr16_c2).
body(r_fr16_28,fr16_e1).
body(r_fr16_28,fr16_f1).
head(r_fr16_29,fr16_u1).
body(r_fr16_29,fr16_a1).
body(r_fr16_29,fr16_a2).
body(r_fr16_29,fr25_f1).
body(r_fr16_29,fr25_s2).
head(r_fr16_30,fr16_s5).
body(r_fr16_30,fr25_f1).
body(r_fr16_30,fr16_z2).
head(r_fr16_31,fr16_s5).
body(r_fr16_31,fr16_a2).
body(r_fr16_31,fr16_c2).
body(r_fr16_31,fr16_u2).
body(r_fr16_31,fr16_u4).
body(r_fr16_31,fr16_v5).
body(r_fr16_31,fr16_x1).
head(r_fr16_32,fr16_s5).
body(r_fr16_32,fr16_u2).
body(r_fr16_32,fr16_z3).
head(r_fr16_33,fr16_s5).
body(r_fr16_33,fr25_c1).
body(r_fr16_33,fr7_a1).
body(r_fr16_33,fr16_x1).
head(r_fr16_34,fr16_y5).
body(r_fr16_34,fr16_z1).
head(r_fr16_35,fr16_y5).
body(r_fr16_35,fr16_a3).
body(r_fr16_35,fr16_f1).
body(r_fr16_35,fr16_s3).
body(r_fr16_35,fr16_w4).
body(r_fr16_35,fr16_z1).
head(r_fr16_36,fr16_y5).
body(r_fr16_36,fr25_f1).
body(r_fr16_36,fr16_e2).
head(r_fr16_37,fr16_y5).
body(r_fr16_37,fr16_a2).
body(r_fr16_37,fr16_a3).
body(r_fr16_37,fr25_c1).
body(r_fr16_37,fr19_b2).
body(r_fr16_37,fr16_f2).
body(r_fr16_37,fr16_v2).
head(r_fr16_38,fr16_r3).
body(r_fr16_38,fr25_c1).
body(r_fr16_38,fr16_u2).
head(r_fr16_39,fr16_r3).
head(r_fr16_40,fr16_r3).
body(r_fr16_40,fr16_a1).
body(r_fr16_40,fr25_f1).
body(r_fr16_40,fr16_e1).
body(r_fr16_40,fr16_f2).
head(r_fr16_41,fr16_x2).
body(r_fr16_41,fr16_a3).
body(r_fr16_41,fr25_c1).
body(r_fr16_41,fr19_b2).
body(r_fr16_41,fr16_e2).
body(r_fr16_41,fr16_s1).
body(r_fr16_41,fr16_z1).
head(r_fr16_42,fr16_x2).
body(r_fr16_42,fr18_a1).
body(r_fr16_42,fr25_c1).
body(r_fr16_42,fr7_a1).
body(r_fr16_42,fr16_f1).
head(r_fr16_43,fr16_x2).
body(r_fr16_43,fr16_a2).
body(r_fr16_43,fr25_f1).
head(r_fr16_44,fr16_x2).
head(r_fr16_45,fr16_q1).
body(r_fr16_45,fr25_f1).
body(r_fr16_45,fr16_r3).
head(r_fr16_46,fr16_q1).
body(r_fr16_46,fr19_b2).
head(r_fr16_47,fr16_q1).
body(r_fr16_47,fr18_a1).
body(r_fr16_47,fr25_c1).
body(r_fr16_47,fr19_b2).
body(r_fr16_47,fr16_f2).
body(r_fr16_47,fr16_q3).
body(r_fr16_47,fr16_t4).
head(r_fr16_48,fr16_q1).
body(r_fr16_48,fr25_c1).
body(r_fr16_48,fr10_f2).
body(r_fr16_48,fr16_e1).
body(r_fr16_48,fr24_v1).
body(r_fr16_48,fr16_u5).
body(r_fr16_48,fr16_w3).
head(r_fr16_49,fr16_q1).
body(r_fr16_49,fr16_a3).
body(r_fr16_49,fr16_f1).
head(r_fr16_50,fr16_v5).
body(r_fr16_50,fr16_t1).
head(r_fr16_51,fr16_v5).
body(r_fr16_51,fr16_e2).
body(r_fr16_51,fr24_v1).
body(r_fr16_51,fr16_s3).
body(r_fr16_51,fr16_w5).
body(r_fr16_51,fr16_x1).
head(r_fr16_52,fr16_v5).
body(r_fr16_52,fr19_b2).
body(r_fr16_52,fr16_c2).
head(r_fr16_53,fr16_v5).
body(r_fr16_53,fr16_e2).
body(r_fr16_53,fr16_f1).
body(r_fr16_53,fr16_p5).
body(r_fr16_53,fr16_u4).
body(r_fr16_53,fr16_u5).
body(r_fr16_53,fr16_x2).
head(r_fr16_54,fr25_x1).
body(r_fr16_54,fr18_a1).
body(r_fr16_54,fr16_c2).
head(r_fr16_55,fr25_x1).
body(r_fr16_55,fr16_s4).
head(r_fr16_56,fr25_x1).
body(r_fr16_56,fr16_a1).
body(r_fr16_56,fr18_a1).
body(r_fr16_56,fr25_f1).
body(r_fr16_56,fr16_d1).
body(r_fr16_56,fr16_e1).
body(r_fr16_56,fr16_e2).
head(r_fr16_57,fr25_x1).
body(r_fr16_57,fr16_w5).
body(r_fr16_57,fr15_y3).
head(r_fr16_58,fr25_x1).
body(r_fr16_58,fr19_b2).
body(r_fr16_58,fr16_c2).
body(r_fr16_58,fr7_a1).
body(r_fr16_58,fr10_f2).
head(r_fr16_59,fr16_v3).
body(r_fr16_59,fr19_b2).
body(r_fr16_59,fr16_d1).
body(r_fr16_59,fr16_e1).
body(r_fr16_59,fr16_r5).
head(r_fr16_60,fr16_v3).
body(r_fr16_60,fr25_f1).
head(r_fr16_61,fr16_v3).
body(r_fr16_61,fr16_a1).
body(r_fr16_61,fr18_a1).
body(r_fr16_61,fr19_b2).
body(r_fr16_61,fr16_e2).
body(r_fr16_61,fr16_f2).
head(r_fr16_62,fr16_v3).
body(r_fr16_62,fr16_a3).
body(r_fr16_62,fr10_f2).
head(r_fr16_63,fr16_t3).
body(r_fr16_63,fr16_a1).
body(r_fr16_63,fr7_a1).
body(r_fr16_63,fr15_y3).
head(r_fr16_64,fr16_t3).
body(r_fr16_64,fr19_b2).
body(r_fr16_64,fr16_c2).
body(r_fr16_64,fr16_r5).
head(r_fr16_65,fr16_t3).
body(r_fr16_65,fr18_a1).
body(r_fr16_65,fr25_c1).
body(r_fr16_65,fr16_e1).
head(r_fr16_66,fr16_t3).
head(r_fr16_67,fr16_t3).
body(r_fr16_67,fr16_a2).
body(r_fr16_67,fr19_b2).
body(r_fr16_67,fr25_f1).
body(r_fr16_67,fr16_f1).
head(r_fr16_68,fr16_x1).
body(r_fr16_68,fr16_a1).
body(r_fr16_68,fr16_a2).
body(r_fr16_68,fr16_e2).
body(r_fr16_68,fr16_f2).
body(r_fr16_68,fr16_t5).
head(r_fr16_69,fr16_x1).
body(r_fr16_69,fr16_r3).
head(r_fr16_70,fr16_x1).
head(r_fr16_71,fr16_x1).
body(r_fr16_71,fr18_a1).
body(r_fr16_71,fr16_c2).
body(r_fr16_71,fr10_f2).
body(r_fr16_71,fr16_e2).
body(r_fr16_71,fr16_q2).
body(r_fr16_71,fr16_v4).
head(r_fr16_72,fr16_x1).
body(r_fr16_72,fr16_e2).
body(r_fr16_72,fr16_w1).
head(r_fr16_73,fr16_q5).
head(r_fr16_74,fr16_q5).
body(r_fr16_74,fr16_a1).
body(r_fr16_74,fr19_b2).
body(r_fr16_74,fr10_f2).
body(r_fr16_74,fr16_v2).
body(r_fr16_74,fr16_y5).
head(r_fr16_75,fr16_q5).
body(r_fr16_75,fr16_a2).
body(r_fr16_75,fr18_a1).
body(r_fr16_75,fr16_e2).
body(r_fr16_75,fr16_s5).
head(r_fr16_76,fr16_u4).
body(r_fr16_76,fr16_s1).
body(r_fr16_76,fr16_t2).
body(r_fr16_76,fr16_v2).
body(r_fr16_76,fr16_x5).
head(r_fr16_77,fr16_u4).
body(r_fr16_77,fr16_p4).
body(r_fr16_77,fr15_y3).

assumption(fr25_c1).
assumption(fr7_a1).
assumption(fr17_c1).
assumption(fr9_c2).
assumption(fr17_e1).
assumption(fr17_e1).
contrary(fr25_c1,fr12_y1).
contrary(fr7_a1,fr1_s2).
contrary(fr17_c1,fr9_c2).
contrary(fr9_c2,fr7_a1).
contrary(fr17_e1,fr17_u1).
contrary(fr17_e1,fr19_v3).
head(r_fr17_0,fr17_w1).
head(r_fr17_1,fr17_w1).
body(r_fr17_1,fr17_y1).
head(r_fr17_2,fr1_s2).
head(r_fr17_3,fr1_s2).
body(r_fr17_3,fr7_a1).
head(r_fr17_4,fr20_y1).
body(r_fr17_4,fr7_a1).
head(r_fr17_5,fr20_y1).
body(r_fr17_5,fr9_c2).
body(r_fr17_5,fr3_p3).
head(r_fr17_6,fr17_y1).
body(r_fr17_6,fr19_v3).
head(r_fr17_7,fr17_y1).
head(r_fr17_8,fr3_p3).
body(r_fr17_8,fr25_c1).
body(r_fr17_8,fr17_e1).
head(r_fr17_9,fr3_p3).
head(r_fr17_10,fr12_y1).
body(r_fr17_10,fr9_c2).
head(r_fr17_11,fr12_y1).
head(r_fr17_12,fr1_w1).
body(r_fr17_12,fr17_r1).
head(r_fr17_13,fr1_w1).
head(r_fr17_14,fr17_u1).
body(r_fr17_14,fr25_c1).
body(r_fr17_14,fr17_r1).
head(r_fr17_15,fr17_u1).

assumption(fr18_a1).
assumption(fr18_b1).
assumption(fr18_c1).
assumption(fr18_d1).
assumption(fr18_e1).
assumption(fr18_f1).
assumption(fr18_a2).
assumption(fr18_b2).
assumption(fr18_c2).
assumption(fr6_f1).
assumption(fr18_e2).
assumption(fr18_f2).
assumption(fr18_a3).
assumption(fr18_b3).
assumption(fr18_c3).
contrary(fr18_a1,fr18_c3).
contrary(fr18_a2,fr18_b1).
contrary(fr18_a3,fr19_p4).
contrary(fr18_b1,fr18_s1).
contrary(fr18_b2,fr18_r3).
contrary(fr18_b3,fr25_s2).
contrary(fr18_c1,fr18_s1).
contrary(fr18_c2,fr18_r1).
contrary(fr18_c3,fr18_b2).
contrary(fr18_d1,fr18_t2).
contrary(fr6_f1,fr18_x1).
contrary(fr18_e1,fr18_w2).
contrary(fr18_e2,fr18_c3).
contrary(fr18_f1,fr18_z3).
contrary(fr18_f2,fr18_a3).
head(r_fr18_0,fr25_p3).
body(r_fr18_0,fr18_f1).
head(r_fr18_1,fr25_p3).
body(r_fr18_1,fr18_a3).
body(r_fr18_1,fr18_u2).
body(r_fr18_1,fr18_x1).
head(r_fr18_2,fr25_p3).
body(r_fr18_2,fr18_c3).
head(r_fr18_3,fr25_p3).
body(r_fr18_3,fr18_a1).
body(r_fr18_3,fr18_b1).
body(r_fr18_3,fr18_c1).
body(r_fr18_3,fr18_d1).
body(r_fr18_3,fr18_p3).
body(r_fr18_3,fr18_r3).
head(r_fr18_4,fr18_q3).
head(r_fr18_5,fr18_q3).
body(r_fr18_5,fr18_c3).
head(r_fr18_6,fr19_p4).
body(r_fr18_6,fr18_a2).
body(r_fr18_6,fr18_b2).
body(r_fr18_6,fr18_c2).
body(r_fr18_6,fr19_y2).
body(r_fr18_6,fr18_q1).
body(r_fr18_6,fr18_y1).
head(r_fr18_7,fr19_p4).
body(r_fr18_7,fr18_b1).
body(r_fr18_7,fr18_b2).
body(r_fr18_7,fr18_c1).
body(r_fr18_7,fr18_c3).
body(r_fr18_7,fr18_w2).
head(r_fr18_8,fr18_y1).
body(r_fr18_8,fr18_b1).
body(r_fr18_8,fr18_b2).
head(r_fr18_9,fr18_y1).
body(r_fr18_9,fr18_q1).
body(r_fr18_9,fr18_s1).
body(r_fr18_9,fr18_v3).
head(r_fr18_10,fr18_y1).
body(r_fr18_10,fr18_f2).
head(r_fr18_11,fr18_y1).
body(r_fr18_11,fr18_v2).
body(r_fr18_11,fr18_z2).
head(r_fr18_12,fr19_y2).
body(r_fr18_12,fr18_a1).
head(r_fr18_13,fr19_y2).
body(r_fr18_13,fr18_a1).
body(r_fr18_13,fr18_e2).
head(r_fr18_14,fr19_y2).
body(r_fr18_14,fr18_f2).
head(r_fr18_15,fr18_u3).
head(r_fr18_16,fr18_u3).
body(r_fr18_16,fr18_a3).
body(r_fr18_16,fr18_y2).
head(r_fr18_17,fr18_u3).
body(r_fr18_17,fr18_s4).
body(r_fr18_17,fr18_w3).
body(r_fr18_17,fr25_u1).
body(r_fr18_17,fr18_z2).
head(r_fr18_18,fr18_u3).
body(r_fr18_18,fr18_a1).
body(r_fr18_18,fr18_b2).
body(r_fr18_18,fr18_e1).
body(r_fr18_18,fr18_f1).
head(r_fr18_19,fr13_r3).
body(r_fr18_19,fr18_u4).
head(r_fr18_20,fr13_r3).
body(r_fr18_20,fr25_s2).
body(r_fr18_20,fr18_s2).
body(r_fr18_20,fr18_s4).
body(r_fr18_20,fr25_s2).
head(r_fr18_21,fr13_p3).
body(r_fr18_21,fr18_a1).
head(r_fr18_22,fr13_p3).
body(r_fr18_22,fr18_b1).
body(r_fr18_22,fr18_c1).
body(r_fr18_22,fr18_r2).
body(r_fr18_22,fr18_r4).
body(r_fr18_22,fr18_u4).
head(r_fr18_23,fr13_p3).
body(r_fr18_23,fr18_c3).
body(r_fr18_23,fr6_f1).
body(r_fr18_23,fr18_e2).
head(r_fr18_24,fr18_r4).
body(r_fr18_24,fr18_a2).
body(r_fr18_24,fr18_w2).
body(r_fr18_24,fr18_x1).
body(r_fr18_24,fr25_s2).
body(r_fr18_24,fr1_s1).
head(r_fr18_25,fr18_r4).
body(r_fr18_25,fr18_b1).
body(r_fr18_25,fr18_b3).
body(r_fr18_25,fr18_s1).
body(r_fr18_25,fr18_t1).
body(r_fr18_25,fr18_u4).
head(r_fr18_26,fr18_r4).
body(r_fr18_26,fr18_a2).
body(r_fr18_26,fr18_c2).
body(r_fr18_26,fr18_d1).
body(r_fr18_26,fr18_p1).
body(r_fr18_26,fr18_w2).
body(r_fr18_26,fr18_y4).
head(r_fr18_27,fr18_r4).
body(r_fr18_27,fr18_a3).
body(r_fr18_27,fr18_c2).
body(r_fr18_27,fr18_d1).
body(r_fr18_27,fr18_e1).
body(r_fr18_27,fr18_f2).
body(r_fr18_27,fr18_r1).
head(r_fr18_28,fr18_s3).
body(r_fr18_28,fr25_u1).
body(r_fr18_28,fr1_s1).
head(r_fr18_29,fr18_s3).
body(r_fr18_29,fr18_f2).
head(r_fr18_30,fr18_s3).
head(r_fr18_31,fr18_s3).
body(r_fr18_31,fr18_a1).
body(r_fr18_31,fr18_c2).
body(r_fr18_31,fr18_e1).
body(r_fr18_31,fr18_q1).
body(r_fr18_31,fr25_s2).
head(r_fr18_32,fr18_x2).
body(r_fr18_32,fr18_d1).
body(r_fr18_32,fr18_q1).
body(r_fr18_32,fr18_u4).
head(r_fr18_33,fr18_x2).
body(r_fr18_33,fr18_p1).
body(r_fr18_33,fr18_t1).
body(r_fr18_33,fr18_y4).
head(r_fr18_34,fr18_q1).
body(r_fr18_34,fr18_r3).
head(r_fr18_35,fr18_q1).
head(r_fr18_36,fr18_q1).
body(r_fr18_36,fr18_a1).
body(r_fr18_36,fr18_c1).
body(r_fr18_36,fr18_c2).
body(r_fr18_36,fr6_f1).
body(r_fr18_36,fr18_f1).
head(r_fr18_37,fr18_q1).
body(r_fr18_37,fr6_f1).
body(r_fr18_37,fr18_p1).
head(r_fr18_38,fr18_q1).
body(r_fr18_38,fr25_s2).
head(r_fr18_39,fr18_w3).
body(r_fr18_39,fr18_e1).
body(r_fr18_39,fr18_r3).
body(r_fr18_39,fr18_x1).
body(r_fr18_39,fr18_y2).
body(r_fr18_39,fr18_z2).
head(r_fr18_40,fr18_w3).
body(r_fr18_40,fr18_b2).
body(r_fr18_40,fr18_d1).
body(r_fr18_40,fr18_e2).
body(r_fr18_40,fr18_f2).
body(r_fr18_40,fr24_v1).
head(r_fr18_41,fr18_w3).
body(r_fr18_41,fr18_e1).
head(r_fr18_42,fr18_w3).
head(r_fr18_43,fr18_w3).
body(r_fr18_43,fr18_x1).
head(r_fr18_44,fr18_q2).
body(r_fr18_44,fr18_p3).
head(r_fr18_45,fr18_q2).
body(r_fr18_45,fr18_a1).
body(r_fr18_45,fr18_c3).
head(r_fr18_46,fr18_q2).
body(r_fr18_46,fr18_b3).
body(r_fr18_46,fr18_r1).
head(r_fr18_47,fr18_q2).
head(r_fr18_48,fr18_q2).
body(r_fr18_48,fr18_p1).
body(r_fr18_48,fr24_v1).
body(r_fr18_48,fr18_s4).
body(r_fr18_48,fr25_u1).
body(r_fr18_48,fr18_z2).
head(r_fr18_49,fr1_s1).
body(r_fr18_49,fr18_e2).
body(r_fr18_49,fr18_r2).
body(r_fr18_49,fr18_t2).
body(r_fr18_49,fr25_u1).
body(r_fr18_49,fr25_q3).
body(r_fr18_49,fr18_x1).
head(r_fr18_50,fr1_s1).
body(r_fr18_50,fr18_a3).
body(r_fr18_50,fr18_b2).
body(r_fr18_50,fr18_c3).
body(r_fr18_50,fr18_f1).
body(r_fr18_50,fr18_v2).
body(r_fr18_50,fr25_u1).
head(r_fr18_51,fr1_s1).
head(r_fr18_52,fr18_u4).
body(r_fr18_52,fr18_c3).
body(r_fr18_52,fr18_s2).
body(r_fr18_52,fr18_u2).
head(r_fr18_53,fr18_u4).
body(r_fr18_53,fr18_s2).
body(r_fr18_53,fr18_u2).
head(r_fr18_54,fr18_u4).
body(r_fr18_54,fr18_b3).
body(r_fr18_54,fr18_w4).
body(r_fr18_54,fr25_s2).
body(r_fr18_54,fr18_z4).
head(r_fr18_55,fr18_u4).
body(r_fr18_55,fr18_a1).
body(r_fr18_55,fr18_a3).
head(r_fr18_56,fr18_w2).
body(r_fr18_56,fr18_a1).
body(r_fr18_56,fr18_e2).
body(r_fr18_56,fr18_r2).
body(r_fr18_56,fr18_s2).
body(r_fr18_56,fr25_s2).
body(r_fr18_56,fr18_z2).
head(r_fr18_57,fr18_w2).
body(r_fr18_57,fr18_e1).
body(r_fr18_57,fr18_f2).
body(r_fr18_57,fr25_u1).
head(r_fr18_58,fr18_w2).
body(r_fr18_58,fr18_p3).
head(r_fr18_59,fr18_u2).
body(r_fr18_59,fr18_c1).
body(r_fr18_59,fr18_c3).
head(r_fr18_60,fr18_u2).
body(r_fr18_60,fr18_e1).
body(r_fr18_60,fr18_r2).
head(r_fr18_61,fr18_u2).
body(r_fr18_61,fr25_q3).
head(r_fr18_62,fr18_u2).
body(r_fr18_62,fr18_b2).
body(r_fr18_62,fr18_d1).
body(r_fr18_62,fr18_v3).
head(r_fr18_63,fr17_u1).
body(r_fr18_63,fr18_z3).
head(r_fr18_64,fr17_u1).
head(r_fr18_65,fr17_u1).
body(r_fr18_65,fr18_f2).
body(r_fr18_65,fr18_t1).
body(r_fr18_65,fr18_v3).
body(r_fr18_65,fr18_x1).
body(r_fr18_65,fr18_z3).
head(r_fr18_66,fr17_u1).
body(r_fr18_66,fr18_p1).
body(r_fr18_66,fr18_r2).
body(r_fr18_66,fr18_s2).
body(r_fr18_66,fr18_t4).
body(r_fr18_66,fr18_v2).
body(r_fr18_66,fr18_z4).
head(r_fr18_67,fr17_u1).
body(r_fr18_67,fr18_c1).
body(r_fr18_67,fr18_f1).
body(r_fr18_67,fr18_p1).
head(r_fr18_68,fr18_t4).
head(r_fr18_69,fr18_t4).
body(r_fr18_69,fr18_r2).
body(r_fr18_69,fr25_q3).
body(r_fr18_69,fr18_z4).
head(r_fr18_70,fr18_t4).
body(r_fr18_70,fr18_d1).
body(r_fr18_70,fr18_e2).

assumption(fr19_a1).
assumption(fr19_b1).
assumption(fr19_c1).
assumption(fr19_d1).
assumption(fr19_e1).
assumption(fr23_d1).
assumption(fr19_a2).
assumption(fr19_b2).
assumption(fr19_c2).
assumption(fr19_d2).
assumption(fr19_e2).
assumption(fr19_f2).
assumption(fr19_a3).
assumption(fr19_b3).
assumption(fr19_c3).
contrary(fr19_a1,fr19_b3).
contrary(fr19_a2,fr19_c1).
contrary(fr19_a3,fr19_x2).
contrary(fr19_b1,fr19_s3).
contrary(fr19_b2,fr19_q2).
contrary(fr19_b3,fr19_z2).
contrary(fr19_c1,fr19_s2).
contrary(fr19_c2,fr19_r3).
contrary(fr19_c3,fr19_s3).
contrary(fr19_d1,fr19_p3).
contrary(fr19_d2,fr19_y2).
contrary(fr19_e1,fr20_y1).
contrary(fr19_e2,fr14_u1).
contrary(fr23_d1,fr14_u1).
contrary(fr19_f2,fr11_q3).
head(r_fr19_0,fr25_u1).
body(r_fr19_0,fr19_b2).
body(r_fr19_0,fr19_c1).
body(r_fr19_0,fr20_y1).
body(r_fr19_0,fr19_p3).
body(r_fr19_0,fr19_q3).
body(r_fr19_0,fr19_q4).
body(r_fr19_0,fr21_p3).
body(r_fr19_0,fr19_s1).
body(r_fr19_0,fr19_s2).
body(r_fr19_0,fr19_s3).
body(r_fr19_0,fr19_t1).
body(r_fr19_0,fr19_t2).
body(r_fr19_0,fr19_u1).
body(r_fr19_0,fr19_u3).
body(r_fr19_0,fr19_x2).
body(r_fr19_0,fr19_y1).
body(r_fr19_0,fr19_y2).
body(r_fr19_0,fr19_z3).
head(r_fr19_1,fr25_u1).
body(r_fr19_1,fr19_a2).
body(r_fr19_1,fr19_c2).
body(r_fr19_1,fr19_d2).
body(r_fr19_1,fr20_y1).
body(r_fr19_1,fr19_p3).
body(r_fr19_1,fr21_p3).
body(r_fr19_1,fr19_r3).
body(r_fr19_1,fr19_s1).
body(r_fr19_1,fr19_s2).
body(r_fr19_1,fr19_s3).
body(r_fr19_1,fr12_x3).
body(r_fr19_1,fr19_v2).
body(r_fr19_1,fr19_w1).
body(r_fr19_1,fr19_w2).
body(r_fr19_1,fr19_x1).
body(r_fr19_1,fr19_x2).
body(r_fr19_1,fr16_p2).
body(r_fr19_1,fr19_y1).
body(r_fr19_1,fr19_y2).
body(r_fr19_1,fr19_z3).
head(r_fr19_2,fr25_u1).
body(r_fr19_2,fr19_a1).
body(r_fr19_2,fr19_b1).
body(r_fr19_2,fr19_b2).
body(r_fr19_2,fr23_d1).
body(r_fr19_2,fr19_f2).
body(r_fr19_2,fr20_y1).
body(r_fr19_2,fr19_p2).
body(r_fr19_2,fr11_q3).
body(r_fr19_2,fr19_q2).
body(r_fr19_2,fr19_q3).
body(r_fr19_2,fr19_q4).
body(r_fr19_2,fr21_p3).
body(r_fr19_2,fr12_x3).
body(r_fr19_2,fr19_u3).
body(r_fr19_2,fr19_v1).
body(r_fr19_2,fr19_v2).
body(r_fr19_2,fr19_w1).
body(r_fr19_2,fr19_x1).
body(r_fr19_2,fr19_x2).
body(r_fr19_2,fr19_y1).
body(r_fr19_2,fr19_z2).
head(r_fr19_3,fr25_u1).
body(r_fr19_3,fr19_c2).
body(r_fr19_3,fr19_c3).
body(r_fr19_3,fr19_d1).
body(r_fr19_3,fr20_y1).
body(r_fr19_3,fr19_p4).
body(r_fr19_3,fr19_q3).
body(r_fr19_3,fr19_q4).
body(r_fr19_3,fr24_p1).
body(r_fr19_3,fr19_r3).
body(r_fr19_3,fr19_s1).
body(r_fr19_3,fr19_s2).
body(r_fr19_3,fr19_t2).
body(r_fr19_3,fr19_u1).
body(r_fr19_3,fr19_v1).
body(r_fr19_3,fr19_v3).
body(r_fr19_3,fr19_w1).
body(r_fr19_3,fr19_w2).
body(r_fr19_3,fr19_x1).
body(r_fr19_3,fr16_p2).
body(r_fr19_3,fr19_z1).
head(r_fr19_4,fr25_u1).
body(r_fr19_4,fr19_a1).
body(r_fr19_4,fr19_b1).
body(r_fr19_4,fr19_b3).
body(r_fr19_4,fr19_e1).
body(r_fr19_4,fr23_d1).
body(r_fr19_4,fr19_p4).
body(r_fr19_4,fr19_q3).
body(r_fr19_4,fr19_q4).
body(r_fr19_4,fr19_r3).
body(r_fr19_4,fr19_s1).
body(r_fr19_4,fr19_t1).
body(r_fr19_4,fr19_t2).
body(r_fr19_4,fr19_t3).
body(r_fr19_4,fr19_v2).
body(r_fr19_4,fr19_w2).
body(r_fr19_4,fr16_p2).
body(r_fr19_4,fr19_z2).
body(r_fr19_4,fr19_z3).
head(r_fr19_5,fr16_p2).
body(r_fr19_5,fr19_a1).
body(r_fr19_5,fr19_a3).
body(r_fr19_5,fr19_c2).
body(r_fr19_5,fr19_d2).
body(r_fr19_5,fr19_e1).
body(r_fr19_5,fr19_f2).
body(r_fr19_5,fr20_y1).
body(r_fr19_5,fr19_p2).
body(r_fr19_5,fr19_p3).
body(r_fr19_5,fr19_p4).
body(r_fr19_5,fr19_q3).
body(r_fr19_5,fr19_q4).
body(r_fr19_5,fr21_p3).
body(r_fr19_5,fr19_s1).
body(r_fr19_5,fr19_t1).
body(r_fr19_5,fr19_t3).
body(r_fr19_5,fr12_x3).
body(r_fr19_5,fr19_y2).
body(r_fr19_5,fr14_u1).
body(r_fr19_5,fr19_z1).
body(r_fr19_5,fr19_z3).
head(r_fr19_6,fr16_p2).
body(r_fr19_6,fr19_c1).
body(r_fr19_6,fr19_d1).
body(r_fr19_6,fr19_d2).
body(r_fr19_6,fr19_e1).
body(r_fr19_6,fr20_y1).
body(r_fr19_6,fr19_p3).
body(r_fr19_6,fr11_q3).
body(r_fr19_6,fr19_q2).
body(r_fr19_6,fr19_r3).
body(r_fr19_6,fr19_s2).
body(r_fr19_6,fr19_s3).
body(r_fr19_6,fr19_t3).
body(r_fr19_6,fr19_u1).
body(r_fr19_6,fr12_x3).
body(r_fr19_6,fr19_v3).
body(r_fr19_6,fr19_x1).
body(r_fr19_6,fr19_x2).
body(r_fr19_6,fr19_y1).
body(r_fr19_6,fr19_z1).
body(r_fr19_6,fr19_z2).
head(r_fr19_7,fr16_p2).
body(r_fr19_7,fr20_y1).
body(r_fr19_7,fr19_p4).
body(r_fr19_7,fr11_q3).
body(r_fr19_7,fr19_q3).
body(r_fr19_7,fr19_q4).
body(r_fr19_7,fr24_p1).
body(r_fr19_7,fr19_r3).
body(r_fr19_7,fr19_s1).
body(r_fr19_7,fr19_s2).
body(r_fr19_7,fr19_s3).
body(r_fr19_7,fr19_t1).
body(r_fr19_7,fr19_t2).
body(r_fr19_7,fr19_u1).
body(r_fr19_7,fr19_u3).
body(r_fr19_7,fr19_v1).
body(r_fr19_7,fr19_v2).
body(r_fr19_7,fr19_v3).
body(r_fr19_7,fr19_x1).
body(r_fr19_7,fr19_x2).
body(r_fr19_7,fr19_y2).
head(r_fr19_8,fr16_p2).
body(r_fr19_8,fr19_b2).
body(r_fr19_8,fr19_b3).
body(r_fr19_8,fr19_c1).
body(r_fr19_8,fr19_f2).
body(r_fr19_8,fr20_y1).
body(r_fr19_8,fr19_q3).
body(r_fr19_8,fr19_q4).
body(r_fr19_8,fr21_p3).
body(r_fr19_8,fr19_r3).
body(r_fr19_8,fr19_s1).
body(r_fr19_8,fr19_t1).
body(r_fr19_8,fr19_u3).
body(r_fr19_8,fr19_v1).
body(r_fr19_8,fr19_v2).
body(r_fr19_8,fr19_v3).
body(r_fr19_8,fr19_w1).
body(r_fr19_8,fr19_w2).
body(r_fr19_8,fr19_x2).
body(r_fr19_8,fr19_y1).
body(r_fr19_8,fr19_y2).
body(r_fr19_8,fr14_u1).
head(r_fr19_9,fr16_p2).
body(r_fr19_9,fr19_a1).
body(r_fr19_9,fr19_c1).
body(r_fr19_9,fr19_c3).
body(r_fr19_9,fr20_y1).
body(r_fr19_9,fr19_p3).
body(r_fr19_9,fr11_q3).
body(r_fr19_9,fr19_q2).
body(r_fr19_9,fr19_q4).
body(r_fr19_9,fr24_p1).
body(r_fr19_9,fr19_s2).
body(r_fr19_9,fr19_s3).
body(r_fr19_9,fr19_t1).
body(r_fr19_9,fr19_t2).
body(r_fr19_9,fr19_t3).
body(r_fr19_9,fr19_v2).
body(r_fr19_9,fr19_v3).
body(r_fr19_9,fr19_w1).
body(r_fr19_9,fr19_x2).
body(r_fr19_9,fr14_u1).
body(r_fr19_9,fr19_z1).
body(r_fr19_9,fr19_z2).
head(r_fr19_10,fr19_p2).
body(r_fr19_10,fr19_c3).
body(r_fr19_10,fr19_e1).
body(r_fr19_10,fr19_e2).
body(r_fr19_10,fr19_f2).
body(r_fr19_10,fr19_p3).
body(r_fr19_10,fr19_p4).
body(r_fr19_10,fr11_q3).
body(r_fr19_10,fr19_q2).
body(r_fr19_10,fr19_q3).
body(r_fr19_10,fr21_p3).
body(r_fr19_10,fr19_r3).
body(r_fr19_10,fr19_s2).
body(r_fr19_10,fr12_x3).
body(r_fr19_10,fr19_u3).
body(r_fr19_10,fr19_v1).
body(r_fr19_10,fr19_v3).
body(r_fr19_10,fr19_w1).
body(r_fr19_10,fr19_x1).
body(r_fr19_10,fr19_y2).
body(r_fr19_10,fr19_z3).
head(r_fr19_11,fr19_p2).
body(r_fr19_11,fr19_b1).
body(r_fr19_11,fr19_c2).
body(r_fr19_11,fr20_y1).
body(r_fr19_11,fr19_p4).
body(r_fr19_11,fr11_q3).
body(r_fr19_11,fr19_q2).
body(r_fr19_11,fr19_q3).
body(r_fr19_11,fr24_p1).
body(r_fr19_11,fr19_r3).
body(r_fr19_11,fr19_s2).
body(r_fr19_11,fr19_s3).
body(r_fr19_11,fr19_t1).
body(r_fr19_11,fr19_t2).
body(r_fr19_11,fr19_u1).
body(r_fr19_11,fr19_v2).
body(r_fr19_11,fr19_w1).
body(r_fr19_11,fr19_y1).
body(r_fr19_11,fr14_u1).
body(r_fr19_11,fr19_z3).
head(r_fr19_12,fr19_p2).
body(r_fr19_12,fr20_y1).
body(r_fr19_12,fr19_p3).
body(r_fr19_12,fr19_p4).
body(r_fr19_12,fr19_q2).
body(r_fr19_12,fr19_q4).
body(r_fr19_12,fr24_p1).
body(r_fr19_12,fr19_r3).
body(r_fr19_12,fr19_s2).
body(r_fr19_12,fr19_s3).
body(r_fr19_12,fr19_t2).
body(r_fr19_12,fr19_t3).
body(r_fr19_12,fr19_u3).
body(r_fr19_12,fr19_v1).
body(r_fr19_12,fr19_v2).
body(r_fr19_12,fr19_w1).
body(r_fr19_12,fr19_w2).
body(r_fr19_12,fr19_y2).
body(r_fr19_12,fr19_z1).
body(r_fr19_12,fr19_z2).
head(r_fr19_13,fr19_v1).
body(r_fr19_13,fr19_a1).
body(r_fr19_13,fr19_a2).
body(r_fr19_13,fr19_b1).
body(r_fr19_13,fr19_c1).
body(r_fr19_13,fr19_e1).
body(r_fr19_13,fr19_e2).
body(r_fr19_13,fr20_y1).
body(r_fr19_13,fr19_p4).
body(r_fr19_13,fr19_q2).
body(r_fr19_13,fr19_q4).
body(r_fr19_13,fr21_p3).
body(r_fr19_13,fr19_s1).
body(r_fr19_13,fr19_s2).
body(r_fr19_13,fr19_s3).
body(r_fr19_13,fr19_t1).
body(r_fr19_13,fr19_t2).
body(r_fr19_13,fr12_x3).
body(r_fr19_13,fr19_v3).
body(r_fr19_13,fr19_w1).
body(r_fr19_13,fr19_y1).
body(r_fr19_13,fr19_z1).
head(r_fr19_14,fr19_v1).
body(r_fr19_14,fr19_b3).
body(r_fr19_14,fr19_e1).
body(r_fr19_14,fr20_y1).
body(r_fr19_14,fr11_q3).
body(r_fr19_14,fr19_q2).
body(r_fr19_14,fr19_q3).
body(r_fr19_14,fr19_r3).
body(r_fr19_14,fr19_s2).
body(r_fr19_14,fr19_t1).
body(r_fr19_14,fr19_t2).
body(r_fr19_14,fr19_t3).
body(r_fr19_14,fr12_x3).
body(r_fr19_14,fr19_v2).
body(r_fr19_14,fr19_w1).
body(r_fr19_14,fr19_w2).
body(r_fr19_14,fr19_x1).
body(r_fr19_14,fr19_x2).
body(r_fr19_14,fr19_z1).
head(r_fr19_15,fr19_v1).
body(r_fr19_15,fr19_e2).
body(r_fr19_15,fr19_f2).
body(r_fr19_15,fr20_y1).
body(r_fr19_15,fr19_p3).
body(r_fr19_15,fr11_q3).
body(r_fr19_15,fr24_p1).
body(r_fr19_15,fr19_r3).
body(r_fr19_15,fr19_s2).
body(r_fr19_15,fr19_t1).
body(r_fr19_15,fr19_t2).
body(r_fr19_15,fr19_t3).
body(r_fr19_15,fr12_x3).
body(r_fr19_15,fr19_u3).
body(r_fr19_15,fr19_w1).
body(r_fr19_15,fr19_y1).
body(r_fr19_15,fr19_y2).
body(r_fr19_15,fr14_u1).
body(r_fr19_15,fr19_z1).
head(r_fr19_16,fr19_q3).
body(r_fr19_16,fr19_c3).
body(r_fr19_16,fr19_f2).
body(r_fr19_16,fr19_p3).
body(r_fr19_16,fr19_p4).
body(r_fr19_16,fr19_r3).
body(r_fr19_16,fr19_s2).
body(r_fr19_16,fr19_s3).
body(r_fr19_16,fr19_t2).
body(r_fr19_16,fr19_u1).
body(r_fr19_16,fr12_x3).
body(r_fr19_16,fr19_u3).
body(r_fr19_16,fr19_v2).
body(r_fr19_16,fr19_w1).
body(r_fr19_16,fr19_w2).
body(r_fr19_16,fr19_y1).
body(r_fr19_16,fr19_y2).
body(r_fr19_16,fr19_z1).
body(r_fr19_16,fr19_z3).
head(r_fr19_17,fr19_q3).
body(r_fr19_17,fr19_a3).
body(r_fr19_17,fr19_b1).
body(r_fr19_17,fr20_y1).
body(r_fr19_17,fr19_p3).
body(r_fr19_17,fr19_q2).
body(r_fr19_17,fr24_p1).
body(r_fr19_17,fr21_p3).
body(r_fr19_17,fr19_s3).
body(r_fr19_17,fr19_t1).
body(r_fr19_17,fr19_t2).
body(r_fr19_17,fr19_t3).
body(r_fr19_17,fr19_u1).
body(r_fr19_17,fr19_w2).
body(r_fr19_17,fr19_x2).
body(r_fr19_17,fr19_y1).
body(r_fr19_17,fr14_u1).
body(r_fr19_17,fr19_z1).
body(r_fr19_17,fr19_z3).
head(r_fr19_18,fr19_q3).
body(r_fr19_18,fr19_b3).
body(r_fr19_18,fr20_y1).
body(r_fr19_18,fr19_p4).
body(r_fr19_18,fr11_q3).
body(r_fr19_18,fr19_q2).
body(r_fr19_18,fr21_p3).
body(r_fr19_18,fr19_s1).
body(r_fr19_18,fr19_t1).
body(r_fr19_18,fr19_t2).
body(r_fr19_18,fr19_t3).
body(r_fr19_18,fr12_x3).
body(r_fr19_18,fr19_u3).
body(r_fr19_18,fr19_v3).
body(r_fr19_18,fr19_w2).
body(r_fr19_18,fr19_x2).
body(r_fr19_18,fr19_z1).
body(r_fr19_18,fr19_z2).
body(r_fr19_18,fr19_z3).
head(r_fr19_19,fr19_q3).
body(r_fr19_19,fr19_c2).
body(r_fr19_19,fr19_c3).
body(r_fr19_19,fr19_e2).
body(r_fr19_19,fr20_y1).
body(r_fr19_19,fr19_p4).
body(r_fr19_19,fr11_q3).
body(r_fr19_19,fr19_q4).
body(r_fr19_19,fr24_p1).
body(r_fr19_19,fr21_p3).
body(r_fr19_19,fr19_r3).
body(r_fr19_19,fr19_s3).
body(r_fr19_19,fr19_t1).
body(r_fr19_19,fr19_t3).
body(r_fr19_19,fr12_x3).
body(r_fr19_19,fr19_w1).
body(r_fr19_19,fr19_w2).
body(r_fr19_19,fr19_x1).
body(r_fr19_19,fr19_y2).
body(r_fr19_19,fr14_u1).
body(r_fr19_19,fr19_z2).
body(r_fr19_19,fr19_z3).
head(r_fr19_20,fr19_s1).
body(r_fr19_20,fr19_c1).
body(r_fr19_20,fr20_y1).
body(r_fr19_20,fr19_p3).
body(r_fr19_20,fr19_p4).
body(r_fr19_20,fr11_q3).
body(r_fr19_20,fr19_q2).
body(r_fr19_20,fr21_p3).
body(r_fr19_20,fr19_s2).
body(r_fr19_20,fr19_s3).
body(r_fr19_20,fr19_t2).
body(r_fr19_20,fr19_u1).
body(r_fr19_20,fr19_u3).
body(r_fr19_20,fr19_v2).
body(r_fr19_20,fr19_v3).
body(r_fr19_20,fr19_w1).
body(r_fr19_20,fr19_y1).
body(r_fr19_20,fr19_y2).
body(r_fr19_20,fr14_u1).
body(r_fr19_20,fr19_z1).
head(r_fr19_21,fr19_s1).
body(r_fr19_21,fr19_a3).
body(r_fr19_21,fr19_b3).
body(r_fr19_21,fr19_c1).
body(r_fr19_21,fr19_c2).
body(r_fr19_21,fr19_f2).
body(r_fr19_21,fr11_q3).
body(r_fr19_21,fr19_q2).
body(r_fr19_21,fr21_p3).
body(r_fr19_21,fr19_s2).
body(r_fr19_21,fr19_t1).
body(r_fr19_21,fr19_t2).
body(r_fr19_21,fr19_t3).
body(r_fr19_21,fr19_u3).
body(r_fr19_21,fr19_v3).
body(r_fr19_21,fr19_w1).
body(r_fr19_21,fr19_y2).
body(r_fr19_21,fr14_u1).
body(r_fr19_21,fr19_z1).
head(r_fr19_22,fr19_s1).
body(r_fr19_22,fr19_a1).
body(r_fr19_22,fr19_c1).
body(r_fr19_22,fr19_c2).
body(r_fr19_22,fr19_d2).
body(r_fr19_22,fr20_y1).
body(r_fr19_22,fr19_p3).
body(r_fr19_22,fr11_q3).
body(r_fr19_22,fr19_q2).
body(r_fr19_22,fr24_p1).
body(r_fr19_22,fr21_p3).
body(r_fr19_22,fr19_t1).
body(r_fr19_22,fr19_t3).
body(r_fr19_22,fr12_x3).
body(r_fr19_22,fr19_v2).
body(r_fr19_22,fr19_w1).
body(r_fr19_22,fr19_x2).
body(r_fr19_22,fr14_u1).
body(r_fr19_22,fr19_z1).
body(r_fr19_22,fr19_z3).
head(r_fr19_23,fr19_s1).
body(r_fr19_23,fr23_d1).
body(r_fr19_23,fr19_p3).
body(r_fr19_23,fr19_p4).
body(r_fr19_23,fr11_q3).
body(r_fr19_23,fr21_p3).
body(r_fr19_23,fr19_r3).
body(r_fr19_23,fr19_s2).
body(r_fr19_23,fr19_t1).
body(r_fr19_23,fr19_t3).
body(r_fr19_23,fr19_u1).
body(r_fr19_23,fr19_v2).
body(r_fr19_23,fr19_w1).
body(r_fr19_23,fr19_w2).
body(r_fr19_23,fr19_x2).
body(r_fr19_23,fr19_y2).
body(r_fr19_23,fr19_z1).
body(r_fr19_23,fr19_z2).
body(r_fr19_23,fr19_z3).
head(r_fr19_24,fr12_x3).
body(r_fr19_24,fr20_y1).
body(r_fr19_24,fr19_p3).
body(r_fr19_24,fr19_p4).
body(r_fr19_24,fr11_q3).
body(r_fr19_24,fr19_q2).
body(r_fr19_24,fr19_q4).
body(r_fr19_24,fr21_p3).
body(r_fr19_24,fr19_s2).
body(r_fr19_24,fr19_s3).
body(r_fr19_24,fr19_t1).
body(r_fr19_24,fr19_t2).
body(r_fr19_24,fr19_t3).
body(r_fr19_24,fr19_v2).
body(r_fr19_24,fr19_v3).
body(r_fr19_24,fr19_x1).
body(r_fr19_24,fr19_x2).
body(r_fr19_24,fr19_y1).
body(r_fr19_24,fr14_u1).
body(r_fr19_24,fr19_z1).
body(r_fr19_24,fr19_z2).
head(r_fr19_25,fr12_x3).
body(r_fr19_25,fr19_a1).
body(r_fr19_25,fr19_c1).
body(r_fr19_25,fr19_d1).
body(r_fr19_25,fr19_e2).
body(r_fr19_25,fr20_y1).
body(r_fr19_25,fr19_q2).
body(r_fr19_25,fr19_q4).
body(r_fr19_25,fr21_p3).
body(r_fr19_25,fr19_s2).
body(r_fr19_25,fr19_s3).
body(r_fr19_25,fr19_t2).
body(r_fr19_25,fr19_t3).
body(r_fr19_25,fr19_v2).
body(r_fr19_25,fr19_w2).
body(r_fr19_25,fr19_x2).
body(r_fr19_25,fr19_y2).
body(r_fr19_25,fr14_u1).
body(r_fr19_25,fr19_z2).
head(r_fr19_26,fr12_x3).
body(r_fr19_26,fr19_a3).
body(r_fr19_26,fr19_c1).
body(r_fr19_26,fr19_c2).
body(r_fr19_26,fr20_y1).
body(r_fr19_26,fr19_q4).
body(r_fr19_26,fr24_p1).
body(r_fr19_26,fr21_p3).
body(r_fr19_26,fr19_r3).
body(r_fr19_26,fr19_s3).
body(r_fr19_26,fr19_t1).
body(r_fr19_26,fr19_t2).
body(r_fr19_26,fr19_u1).
body(r_fr19_26,fr19_u3).
body(r_fr19_26,fr19_v3).
body(r_fr19_26,fr19_w2).
body(r_fr19_26,fr19_x1).
body(r_fr19_26,fr19_x2).
body(r_fr19_26,fr19_y2).
body(r_fr19_26,fr19_z1).
body(r_fr19_26,fr19_z3).
head(r_fr19_27,fr12_x3).
body(r_fr19_27,fr20_y1).
body(r_fr19_27,fr19_p3).
body(r_fr19_27,fr19_p4).
body(r_fr19_27,fr19_q2).
body(r_fr19_27,fr19_q4).
body(r_fr19_27,fr19_r3).
body(r_fr19_27,fr19_s3).
body(r_fr19_27,fr19_t2).
body(r_fr19_27,fr19_t3).
body(r_fr19_27,fr19_u3).
body(r_fr19_27,fr19_v2).
body(r_fr19_27,fr19_v3).
body(r_fr19_27,fr19_w1).
body(r_fr19_27,fr19_x2).
body(r_fr19_27,fr19_y1).
body(r_fr19_27,fr19_y2).
body(r_fr19_27,fr19_z1).
body(r_fr19_27,fr19_z3).
head(r_fr19_28,fr19_v3).
body(r_fr19_28,fr19_a3).
body(r_fr19_28,fr19_c1).
body(r_fr19_28,fr20_y1).
body(r_fr19_28,fr19_p4).
body(r_fr19_28,fr11_q3).
body(r_fr19_28,fr19_q4).
body(r_fr19_28,fr21_p3).
body(r_fr19_28,fr19_r3).
body(r_fr19_28,fr19_s3).
body(r_fr19_28,fr19_t1).
body(r_fr19_28,fr19_t2).
body(r_fr19_28,fr19_t3).
body(r_fr19_28,fr19_u1).
body(r_fr19_28,fr19_u3).
body(r_fr19_28,fr19_v2).
body(r_fr19_28,fr19_w1).
body(r_fr19_28,fr19_x1).
body(r_fr19_28,fr19_y2).
body(r_fr19_28,fr19_z2).
head(r_fr19_29,fr19_v3).
body(r_fr19_29,fr19_a3).
body(r_fr19_29,fr19_d1).
body(r_fr19_29,fr23_d1).
body(r_fr19_29,fr19_p3).
body(r_fr19_29,fr19_p4).
body(r_fr19_29,fr11_q3).
body(r_fr19_29,fr24_p1).
body(r_fr19_29,fr21_p3).
body(r_fr19_29,fr19_r3).
body(r_fr19_29,fr19_s2).
body(r_fr19_29,fr19_s3).
body(r_fr19_29,fr19_t2).
body(r_fr19_29,fr19_t3).
body(r_fr19_29,fr19_u1).
body(r_fr19_29,fr19_w1).
body(r_fr19_29,fr19_x2).
body(r_fr19_29,fr19_y2).
body(r_fr19_29,fr14_u1).
body(r_fr19_29,fr19_z1).
body(r_fr19_29,fr19_z3).
head(r_fr19_30,fr19_v3).
body(r_fr19_30,fr19_b1).
body(r_fr19_30,fr19_b3).
body(r_fr19_30,fr19_c3).
body(r_fr19_30,fr19_d1).
body(r_fr19_30,fr19_e2).
body(r_fr19_30,fr20_y1).
body(r_fr19_30,fr11_q3).
body(r_fr19_30,fr19_q4).
body(r_fr19_30,fr24_p1).
body(r_fr19_30,fr21_p3).
body(r_fr19_30,fr19_r3).
body(r_fr19_30,fr19_s2).
body(r_fr19_30,fr19_s3).
body(r_fr19_30,fr19_t1).
body(r_fr19_30,fr19_t2).
body(r_fr19_30,fr19_u3).
body(r_fr19_30,fr19_v2).
body(r_fr19_30,fr19_w2).
body(r_fr19_30,fr19_x2).
body(r_fr19_30,fr19_z2).
body(r_fr19_30,fr19_z3).
head(r_fr19_31,fr19_v3).
body(r_fr19_31,fr20_y1).
body(r_fr19_31,fr19_p3).
body(r_fr19_31,fr11_q3).
body(r_fr19_31,fr21_p3).
body(r_fr19_31,fr19_r3).
body(r_fr19_31,fr19_s2).
body(r_fr19_31,fr19_s3).
body(r_fr19_31,fr19_t2).
body(r_fr19_31,fr19_t3).
body(r_fr19_31,fr19_u1).
body(r_fr19_31,fr19_u3).
body(r_fr19_31,fr19_w1).
body(r_fr19_31,fr19_w2).
body(r_fr19_31,fr19_x1).
body(r_fr19_31,fr19_x2).
body(r_fr19_31,fr19_y1).
body(r_fr19_31,fr19_y2).
body(r_fr19_31,fr14_u1).
body(r_fr19_31,fr19_z1).
body(r_fr19_31,fr19_z3).
head(r_fr19_32,fr19_s3).
body(r_fr19_32,fr19_a1).
body(r_fr19_32,fr20_y1).
body(r_fr19_32,fr19_p3).
body(r_fr19_32,fr19_p4).
body(r_fr19_32,fr11_q3).
body(r_fr19_32,fr19_q4).
body(r_fr19_32,fr24_p1).
body(r_fr19_32,fr19_t1).
body(r_fr19_32,fr19_t2).
body(r_fr19_32,fr19_t3).
body(r_fr19_32,fr19_u3).
body(r_fr19_32,fr19_v2).
body(r_fr19_32,fr19_w1).
body(r_fr19_32,fr19_x1).
body(r_fr19_32,fr19_x2).
body(r_fr19_32,fr19_y1).
body(r_fr19_32,fr14_u1).
body(r_fr19_32,fr19_z2).
body(r_fr19_32,fr19_z3).
head(r_fr19_33,fr19_s3).
body(r_fr19_33,fr19_a3).
body(r_fr19_33,fr19_b2).
body(r_fr19_33,fr19_c3).
body(r_fr19_33,fr20_y1).
body(r_fr19_33,fr19_p3).
body(r_fr19_33,fr19_p4).
body(r_fr19_33,fr11_q3).
body(r_fr19_33,fr19_q2).
body(r_fr19_33,fr19_q4).
body(r_fr19_33,fr21_p3).
body(r_fr19_33,fr19_r3).
body(r_fr19_33,fr19_s2).
body(r_fr19_33,fr19_t1).
body(r_fr19_33,fr19_t2).
body(r_fr19_33,fr19_t3).
body(r_fr19_33,fr19_u1).
body(r_fr19_33,fr19_w2).
body(r_fr19_33,fr19_x2).
body(r_fr19_33,fr19_y2).
body(r_fr19_33,fr19_z1).
head(r_fr19_34,fr19_y2).
body(r_fr19_34,fr19_e2).
body(r_fr19_34,fr23_d1).
body(r_fr19_34,fr19_p3).
body(r_fr19_34,fr19_p4).
body(r_fr19_34,fr11_q3).
body(r_fr19_34,fr19_q2).
body(r_fr19_34,fr19_q4).
body(r_fr19_34,fr24_p1).
body(r_fr19_34,fr19_r3).
body(r_fr19_34,fr19_s2).
body(r_fr19_34,fr19_t3).
body(r_fr19_34,fr19_u1).
body(r_fr19_34,fr19_u3).
body(r_fr19_34,fr19_v2).
body(r_fr19_34,fr19_w1).
body(r_fr19_34,fr19_w2).
body(r_fr19_34,fr19_x1).
body(r_fr19_34,fr19_x2).
body(r_fr19_34,fr14_u1).
body(r_fr19_34,fr19_z2).
body(r_fr19_34,fr19_z3).
head(r_fr19_35,fr19_y2).
body(r_fr19_35,fr19_d1).
body(r_fr19_35,fr23_d1).
body(r_fr19_35,fr19_f2).
body(r_fr19_35,fr19_p3).
body(r_fr19_35,fr19_p4).
body(r_fr19_35,fr19_q2).
body(r_fr19_35,fr19_q4).
body(r_fr19_35,fr24_p1).
body(r_fr19_35,fr21_p3).
body(r_fr19_35,fr19_r3).
body(r_fr19_35,fr19_s2).
body(r_fr19_35,fr19_t2).
body(r_fr19_35,fr19_t3).
body(r_fr19_35,fr19_u1).
body(r_fr19_35,fr19_v2).
body(r_fr19_35,fr19_x2).
body(r_fr19_35,fr19_y1).
body(r_fr19_35,fr19_z1).
body(r_fr19_35,fr19_z3).
head(r_fr19_36,fr19_y2).
body(r_fr19_36,fr20_y1).
body(r_fr19_36,fr19_p4).
body(r_fr19_36,fr19_q2).
body(r_fr19_36,fr19_q4).
body(r_fr19_36,fr19_s2).
body(r_fr19_36,fr19_t1).
body(r_fr19_36,fr19_t2).
body(r_fr19_36,fr19_t3).
body(r_fr19_36,fr19_u1).
body(r_fr19_36,fr19_u3).
body(r_fr19_36,fr19_v2).
body(r_fr19_36,fr19_w1).
body(r_fr19_36,fr19_w2).
body(r_fr19_36,fr19_x2).
body(r_fr19_36,fr19_y1).
body(r_fr19_36,fr14_u1).
body(r_fr19_36,fr19_z2).
body(r_fr19_36,fr19_z3).
head(r_fr19_37,fr19_y2).
body(r_fr19_37,fr19_d2).
body(r_fr19_37,fr19_e2).
body(r_fr19_37,fr20_y1).
body(r_fr19_37,fr19_p3).
body(r_fr19_37,fr19_p4).
body(r_fr19_37,fr11_q3).
body(r_fr19_37,fr19_q2).
body(r_fr19_37,fr24_p1).
body(r_fr19_37,fr21_p3).
body(r_fr19_37,fr19_r3).
body(r_fr19_37,fr19_s2).
body(r_fr19_37,fr19_t1).
body(r_fr19_37,fr19_t2).
body(r_fr19_37,fr19_u1).
body(r_fr19_37,fr19_v2).
body(r_fr19_37,fr19_x2).
body(r_fr19_37,fr19_z1).
body(r_fr19_37,fr19_z3).
head(r_fr19_38,fr19_x1).
body(r_fr19_38,fr19_b3).
body(r_fr19_38,fr19_d1).
body(r_fr19_38,fr19_e1).
body(r_fr19_38,fr20_y1).
body(r_fr19_38,fr19_p4).
body(r_fr19_38,fr11_q3).
body(r_fr19_38,fr19_q2).
body(r_fr19_38,fr19_q4).
body(r_fr19_38,fr24_p1).
body(r_fr19_38,fr21_p3).
body(r_fr19_38,fr19_r3).
body(r_fr19_38,fr19_t1).
body(r_fr19_38,fr19_t2).
body(r_fr19_38,fr19_t3).
body(r_fr19_38,fr19_u1).
body(r_fr19_38,fr19_u3).
body(r_fr19_38,fr19_v2).
body(r_fr19_38,fr19_w2).
body(r_fr19_38,fr19_x2).
body(r_fr19_38,fr19_y1).
body(r_fr19_38,fr19_z1).
head(r_fr19_39,fr19_x1).
body(r_fr19_39,fr19_f2).
body(r_fr19_39,fr20_y1).
body(r_fr19_39,fr19_p4).
body(r_fr19_39,fr11_q3).
body(r_fr19_39,fr19_q2).
body(r_fr19_39,fr24_p1).
body(r_fr19_39,fr19_r3).
body(r_fr19_39,fr19_t1).
body(r_fr19_39,fr19_t2).
body(r_fr19_39,fr19_t3).
body(r_fr19_39,fr19_u1).
body(r_fr19_39,fr19_v2).
body(r_fr19_39,fr19_w1).
body(r_fr19_39,fr19_w2).
body(r_fr19_39,fr19_x2).
body(r_fr19_39,fr19_y1).
body(r_fr19_39,fr14_u1).
body(r_fr19_39,fr19_z1).
body(r_fr19_39,fr19_z3).
head(r_fr19_40,fr19_x1).
body(r_fr19_40,fr19_a2).
body(r_fr19_40,fr20_y1).
body(r_fr19_40,fr19_p3).
body(r_fr19_40,fr19_p4).
body(r_fr19_40,fr11_q3).
body(r_fr19_40,fr19_q2).
body(r_fr19_40,fr19_q4).
body(r_fr19_40,fr24_p1).
body(r_fr19_40,fr21_p3).
body(r_fr19_40,fr19_r3).
body(r_fr19_40,fr19_s2).
body(r_fr19_40,fr19_t1).
body(r_fr19_40,fr19_t2).
body(r_fr19_40,fr19_t3).
body(r_fr19_40,fr19_u1).
body(r_fr19_40,fr19_u3).
body(r_fr19_40,fr19_v2).
body(r_fr19_40,fr19_w1).
body(r_fr19_40,fr19_x2).
body(r_fr19_40,fr19_y1).
body(r_fr19_40,fr19_z3).
head(r_fr19_41,fr19_x1).
body(r_fr19_41,fr19_b3).
body(r_fr19_41,fr20_y1).
body(r_fr19_41,fr19_p3).
body(r_fr19_41,fr19_p4).
body(r_fr19_41,fr19_q2).
body(r_fr19_41,fr19_q4).
body(r_fr19_41,fr24_p1).
body(r_fr19_41,fr21_p3).
body(r_fr19_41,fr19_r3).
body(r_fr19_41,fr19_s2).
body(r_fr19_41,fr19_t1).
body(r_fr19_41,fr19_t2).
body(r_fr19_41,fr19_u1).
body(r_fr19_41,fr19_u3).
body(r_fr19_41,fr19_w2).
body(r_fr19_41,fr19_x2).
body(r_fr19_41,fr14_u1).
body(r_fr19_41,fr19_z1).
body(r_fr19_41,fr19_z2).
body(r_fr19_41,fr19_z3).
head(r_fr19_42,fr19_x1).
body(r_fr19_42,fr19_a3).
body(r_fr19_42,fr19_b1).
body(r_fr19_42,fr19_b2).
body(r_fr19_42,fr19_c1).
body(r_fr19_42,fr19_e1).
body(r_fr19_42,fr20_y1).
body(r_fr19_42,fr19_p3).
body(r_fr19_42,fr19_p4).
body(r_fr19_42,fr19_q2).
body(r_fr19_42,fr19_q4).
body(r_fr19_42,fr24_p1).
body(r_fr19_42,fr21_p3).
body(r_fr19_42,fr19_s2).
body(r_fr19_42,fr19_t1).
body(r_fr19_42,fr19_t2).
body(r_fr19_42,fr19_t3).
body(r_fr19_42,fr19_u3).
body(r_fr19_42,fr19_w1).
body(r_fr19_42,fr19_x2).
body(r_fr19_42,fr19_z2).
head(r_fr19_43,fr19_u3).
body(r_fr19_43,fr19_c2).
body(r_fr19_43,fr19_d1).
body(r_fr19_43,fr19_p3).
body(r_fr19_43,fr19_p4).
body(r_fr19_43,fr11_q3).
body(r_fr19_43,fr19_q2).
body(r_fr19_43,fr19_q4).
body(r_fr19_43,fr24_p1).
body(r_fr19_43,fr19_r3).
body(r_fr19_43,fr19_s2).
body(r_fr19_43,fr19_t3).
body(r_fr19_43,fr19_w1).
body(r_fr19_43,fr19_w2).
body(r_fr19_43,fr19_y1).
body(r_fr19_43,fr14_u1).
body(r_fr19_43,fr19_z1).
body(r_fr19_43,fr19_z2).
body(r_fr19_43,fr19_z3).
head(r_fr19_44,fr19_u3).
body(r_fr19_44,fr19_a1).
body(r_fr19_44,fr19_b1).
body(r_fr19_44,fr19_b2).
body(r_fr19_44,fr19_e1).
body(r_fr19_44,fr23_d1).
body(r_fr19_44,fr19_p3).
body(r_fr19_44,fr19_p4).
body(r_fr19_44,fr19_q2).
body(r_fr19_44,fr21_p3).
body(r_fr19_44,fr19_r3).
body(r_fr19_44,fr19_s2).
body(r_fr19_44,fr19_t1).
body(r_fr19_44,fr19_t2).
body(r_fr19_44,fr19_t3).
body(r_fr19_44,fr19_u1).
body(r_fr19_44,fr19_x2).
body(r_fr19_44,fr19_y1).
body(r_fr19_44,fr19_z1).
body(r_fr19_44,fr19_z2).
body(r_fr19_44,fr19_z3).
head(r_fr19_45,fr19_r3).
body(r_fr19_45,fr19_c1).
body(r_fr19_45,fr19_c3).
body(r_fr19_45,fr19_d1).
body(r_fr19_45,fr20_y1).
body(r_fr19_45,fr19_p3).
body(r_fr19_45,fr11_q3).
body(r_fr19_45,fr19_q2).
body(r_fr19_45,fr21_p3).
body(r_fr19_45,fr19_s2).
body(r_fr19_45,fr19_t1).
body(r_fr19_45,fr19_v2).
body(r_fr19_45,fr19_w1).
body(r_fr19_45,fr19_w2).
body(r_fr19_45,fr19_x2).
body(r_fr19_45,fr19_y1).
body(r_fr19_45,fr19_z1).
body(r_fr19_45,fr19_z2).
body(r_fr19_45,fr19_z3).
head(r_fr19_46,fr19_r3).
body(r_fr19_46,fr19_a3).
body(r_fr19_46,fr20_y1).
body(r_fr19_46,fr19_p3).
body(r_fr19_46,fr19_p4).
body(r_fr19_46,fr11_q3).
body(r_fr19_46,fr19_q2).
body(r_fr19_46,fr19_q4).
body(r_fr19_46,fr24_p1).
body(r_fr19_46,fr21_p3).
body(r_fr19_46,fr19_s2).
body(r_fr19_46,fr19_t1).
body(r_fr19_46,fr19_t3).
body(r_fr19_46,fr19_u1).
body(r_fr19_46,fr19_v2).
body(r_fr19_46,fr19_w1).
body(r_fr19_46,fr19_x2).
body(r_fr19_46,fr19_y1).
body(r_fr19_46,fr14_u1).
body(r_fr19_46,fr19_z1).
body(r_fr19_46,fr19_z2).
body(r_fr19_46,fr19_z3).
head(r_fr19_47,fr19_r3).
body(r_fr19_47,fr19_a1).
body(r_fr19_47,fr19_a2).
body(r_fr19_47,fr19_b2).
body(r_fr19_47,fr19_c2).
body(r_fr19_47,fr19_d1).
body(r_fr19_47,fr23_d1).
body(r_fr19_47,fr20_y1).
body(r_fr19_47,fr19_p4).
body(r_fr19_47,fr11_q3).
body(r_fr19_47,fr19_q2).
body(r_fr19_47,fr24_p1).
body(r_fr19_47,fr21_p3).
body(r_fr19_47,fr19_t1).
body(r_fr19_47,fr19_t3).
body(r_fr19_47,fr19_u1).
body(r_fr19_47,fr19_w1).
body(r_fr19_47,fr19_y1).
body(r_fr19_47,fr19_z1).
body(r_fr19_47,fr19_z2).
body(r_fr19_47,fr19_z3).
head(r_fr19_48,fr19_t3).
body(r_fr19_48,fr19_a3).
body(r_fr19_48,fr19_b1).
body(r_fr19_48,fr20_y1).
body(r_fr19_48,fr19_p3).
body(r_fr19_48,fr19_p4).
body(r_fr19_48,fr11_q3).
body(r_fr19_48,fr19_q4).
body(r_fr19_48,fr21_p3).
body(r_fr19_48,fr19_s2).
body(r_fr19_48,fr19_t1).
body(r_fr19_48,fr19_t2).
body(r_fr19_48,fr19_w1).
body(r_fr19_48,fr19_w2).
body(r_fr19_48,fr19_x2).
body(r_fr19_48,fr19_y1).
body(r_fr19_48,fr14_u1).
body(r_fr19_48,fr19_z1).
body(r_fr19_48,fr19_z2).
body(r_fr19_48,fr19_z3).
head(r_fr19_49,fr19_t3).
body(r_fr19_49,fr20_y1).
body(r_fr19_49,fr19_p3).
body(r_fr19_49,fr19_p4).
body(r_fr19_49,fr11_q3).
body(r_fr19_49,fr19_q2).
body(r_fr19_49,fr19_q4).
body(r_fr19_49,fr24_p1).
body(r_fr19_49,fr21_p3).
body(r_fr19_49,fr19_s2).
body(r_fr19_49,fr19_t1).
body(r_fr19_49,fr19_t2).
body(r_fr19_49,fr19_u1).
body(r_fr19_49,fr19_v2).
body(r_fr19_49,fr19_w1).
body(r_fr19_49,fr19_w2).
body(r_fr19_49,fr19_x2).
body(r_fr19_49,fr19_y1).
body(r_fr19_49,fr14_u1).
body(r_fr19_49,fr19_z1).
body(r_fr19_49,fr19_z2).
body(r_fr19_49,fr19_z3).
head(r_fr19_50,fr19_y1).
body(r_fr19_50,fr19_a1).
body(r_fr19_50,fr19_a2).
body(r_fr19_50,fr19_a3).
body(r_fr19_50,fr19_b3).
body(r_fr19_50,fr19_c1).
body(r_fr19_50,fr19_d2).
body(r_fr19_50,fr20_y1).
body(r_fr19_50,fr19_p3).
body(r_fr19_50,fr11_q3).
body(r_fr19_50,fr19_q2).
body(r_fr19_50,fr19_q4).
body(r_fr19_50,fr24_p1).
body(r_fr19_50,fr21_p3).
body(r_fr19_50,fr19_t1).
body(r_fr19_50,fr19_u1).
body(r_fr19_50,fr19_v2).
body(r_fr19_50,fr19_w2).
body(r_fr19_50,fr19_x2).
body(r_fr19_50,fr19_z1).
body(r_fr19_50,fr19_z3).
head(r_fr19_51,fr19_y1).
body(r_fr19_51,fr19_c2).
body(r_fr19_51,fr20_y1).
body(r_fr19_51,fr19_p4).
body(r_fr19_51,fr19_q2).
body(r_fr19_51,fr19_q4).
body(r_fr19_51,fr24_p1).
body(r_fr19_51,fr21_p3).
body(r_fr19_51,fr19_s2).
body(r_fr19_51,fr19_t1).
body(r_fr19_51,fr19_t2).
body(r_fr19_51,fr19_u1).
body(r_fr19_51,fr19_v2).
body(r_fr19_51,fr19_w2).
body(r_fr19_51,fr19_x2).
body(r_fr19_51,fr14_u1).
body(r_fr19_51,fr19_z1).
body(r_fr19_51,fr19_z2).
body(r_fr19_51,fr19_z3).
head(r_fr19_52,fr19_y1).
body(r_fr19_52,fr19_b1).
body(r_fr19_52,fr19_d1).
body(r_fr19_52,fr23_d1).
body(r_fr19_52,fr20_y1).
body(r_fr19_52,fr19_p3).
body(r_fr19_52,fr19_p4).
body(r_fr19_52,fr19_q2).
body(r_fr19_52,fr19_q4).
body(r_fr19_52,fr24_p1).
body(r_fr19_52,fr19_s2).
body(r_fr19_52,fr19_t1).
body(r_fr19_52,fr19_t2).
body(r_fr19_52,fr19_v2).
body(r_fr19_52,fr19_w1).
body(r_fr19_52,fr19_w2).
body(r_fr19_52,fr19_x2).
body(r_fr19_52,fr14_u1).
body(r_fr19_52,fr19_z1).
body(r_fr19_52,fr19_z2).
body(r_fr19_52,fr19_z3).
head(r_fr19_53,fr19_y1).
body(r_fr19_53,fr19_a1).
body(r_fr19_53,fr19_d1).
body(r_fr19_53,fr23_d1).
body(r_fr19_53,fr19_f2).
body(r_fr19_53,fr19_p4).
body(r_fr19_53,fr11_q3).
body(r_fr19_53,fr19_q2).
body(r_fr19_53,fr19_q4).
body(r_fr19_53,fr24_p1).
body(r_fr19_53,fr19_s2).
body(r_fr19_53,fr19_t1).
body(r_fr19_53,fr19_t2).
body(r_fr19_53,fr19_v2).
body(r_fr19_53,fr19_w1).
body(r_fr19_53,fr19_w2).
body(r_fr19_53,fr14_u1).
body(r_fr19_53,fr19_z1).
body(r_fr19_53,fr19_z2).
head(r_fr19_54,fr19_t2).
body(r_fr19_54,fr19_a2).
body(r_fr19_54,fr19_b2).
body(r_fr19_54,fr23_d1).
body(r_fr19_54,fr19_p3).
body(r_fr19_54,fr19_p4).
body(r_fr19_54,fr11_q3).
body(r_fr19_54,fr19_q2).
body(r_fr19_54,fr19_q4).
body(r_fr19_54,fr24_p1).
body(r_fr19_54,fr21_p3).
body(r_fr19_54,fr19_s2).
body(r_fr19_54,fr19_t1).
body(r_fr19_54,fr19_u1).
body(r_fr19_54,fr19_w1).
body(r_fr19_54,fr19_w2).
body(r_fr19_54,fr19_x2).
body(r_fr19_54,fr19_z1).
body(r_fr19_54,fr19_z2).
body(r_fr19_54,fr19_z3).
head(r_fr19_55,fr19_t2).
body(r_fr19_55,fr19_a1).
body(r_fr19_55,fr19_b1).
body(r_fr19_55,fr19_c1).
body(r_fr19_55,fr19_c3).
body(r_fr19_55,fr19_e2).
body(r_fr19_55,fr20_y1).
body(r_fr19_55,fr19_p3).
body(r_fr19_55,fr19_p4).
body(r_fr19_55,fr11_q3).
body(r_fr19_55,fr19_q2).
body(r_fr19_55,fr19_q4).
body(r_fr19_55,fr24_p1).
body(r_fr19_55,fr21_p3).
body(r_fr19_55,fr19_s2).
body(r_fr19_55,fr19_t1).
body(r_fr19_55,fr19_u1).
body(r_fr19_55,fr19_v2).
body(r_fr19_55,fr19_w1).
body(r_fr19_55,fr19_w2).
body(r_fr19_55,fr19_x2).
body(r_fr19_55,fr19_z1).
head(r_fr19_56,fr24_p1).
body(r_fr19_56,fr19_b3).
body(r_fr19_56,fr19_e1).
body(r_fr19_56,fr19_e2).
body(r_fr19_56,fr19_f2).
body(r_fr19_56,fr19_p3).
body(r_fr19_56,fr19_p4).
body(r_fr19_56,fr19_q2).
body(r_fr19_56,fr19_q4).
body(r_fr19_56,fr21_p3).
body(r_fr19_56,fr19_t1).
body(r_fr19_56,fr19_v2).
body(r_fr19_56,fr19_w1).
body(r_fr19_56,fr19_w2).
body(r_fr19_56,fr19_x2).
body(r_fr19_56,fr14_u1).
body(r_fr19_56,fr19_z1).
body(r_fr19_56,fr19_z2).
body(r_fr19_56,fr19_z3).
head(r_fr19_57,fr24_p1).
body(r_fr19_57,fr20_y1).
body(r_fr19_57,fr19_p3).
body(r_fr19_57,fr19_p4).
body(r_fr19_57,fr11_q3).
body(r_fr19_57,fr19_q2).
body(r_fr19_57,fr19_q4).
body(r_fr19_57,fr21_p3).
body(r_fr19_57,fr19_s2).
body(r_fr19_57,fr19_t1).
body(r_fr19_57,fr19_u1).
body(r_fr19_57,fr19_v2).
body(r_fr19_57,fr19_w1).
body(r_fr19_57,fr19_w2).
body(r_fr19_57,fr19_x2).
body(r_fr19_57,fr14_u1).
body(r_fr19_57,fr19_z1).
body(r_fr19_57,fr19_z2).
body(r_fr19_57,fr19_z3).
head(r_fr19_58,fr24_p1).
body(r_fr19_58,fr19_c1).
body(r_fr19_58,fr19_f2).
body(r_fr19_58,fr20_y1).
body(r_fr19_58,fr19_p3).
body(r_fr19_58,fr19_p4).
body(r_fr19_58,fr11_q3).
body(r_fr19_58,fr19_q2).
body(r_fr19_58,fr19_q4).
body(r_fr19_58,fr21_p3).
body(r_fr19_58,fr19_s2).
body(r_fr19_58,fr19_t1).
body(r_fr19_58,fr19_u1).
body(r_fr19_58,fr19_v2).
body(r_fr19_58,fr19_w1).
body(r_fr19_58,fr19_x2).
body(r_fr19_58,fr14_u1).
body(r_fr19_58,fr19_z1).
body(r_fr19_58,fr19_z2).
body(r_fr19_58,fr19_z3).
head(r_fr19_59,fr24_p1).
body(r_fr19_59,fr19_b1).
body(r_fr19_59,fr19_c2).
body(r_fr19_59,fr19_c3).
body(r_fr19_59,fr19_e2).
body(r_fr19_59,fr23_d1).
body(r_fr19_59,fr20_y1).
body(r_fr19_59,fr19_p3).
body(r_fr19_59,fr11_q3).
body(r_fr19_59,fr19_q2).
body(r_fr19_59,fr19_q4).
body(r_fr19_59,fr21_p3).
body(r_fr19_59,fr19_s2).
body(r_fr19_59,fr19_t1).
body(r_fr19_59,fr19_v2).
body(r_fr19_59,fr19_w2).
body(r_fr19_59,fr19_x2).
body(r_fr19_59,fr14_u1).
body(r_fr19_59,fr19_z1).
body(r_fr19_59,fr19_z2).
body(r_fr19_59,fr19_z3).
head(r_fr19_60,fr24_p1).
body(r_fr19_60,fr19_c3).
body(r_fr19_60,fr19_e2).
body(r_fr19_60,fr20_y1).
body(r_fr19_60,fr19_p3).
body(r_fr19_60,fr19_p4).
body(r_fr19_60,fr11_q3).
body(r_fr19_60,fr19_q2).
body(r_fr19_60,fr19_q4).
body(r_fr19_60,fr21_p3).
body(r_fr19_60,fr19_s2).
body(r_fr19_60,fr19_t1).
body(r_fr19_60,fr19_u1).
body(r_fr19_60,fr19_v2).
body(r_fr19_60,fr19_w1).
body(r_fr19_60,fr19_w2).
body(r_fr19_60,fr19_x2).
body(r_fr19_60,fr14_u1).
body(r_fr19_60,fr19_z1).
body(r_fr19_60,fr19_z2).
body(r_fr19_60,fr19_z3).
head(r_fr19_61,fr21_p3).
body(r_fr19_61,fr19_a3).
body(r_fr19_61,fr19_b3).
body(r_fr19_61,fr19_d1).
body(r_fr19_61,fr19_d2).
body(r_fr19_61,fr19_e2).
body(r_fr19_61,fr19_f2).
body(r_fr19_61,fr20_y1).
body(r_fr19_61,fr19_p3).
body(r_fr19_61,fr11_q3).
body(r_fr19_61,fr19_q2).
body(r_fr19_61,fr19_q4).
body(r_fr19_61,fr19_s2).
body(r_fr19_61,fr19_u1).
body(r_fr19_61,fr19_w1).
body(r_fr19_61,fr19_x2).
body(r_fr19_61,fr14_u1).
body(r_fr19_61,fr19_z1).
body(r_fr19_61,fr19_z2).
body(r_fr19_61,fr19_z3).
head(r_fr19_62,fr21_p3).
body(r_fr19_62,fr19_a1).
body(r_fr19_62,fr19_d1).
body(r_fr19_62,fr19_d2).
body(r_fr19_62,fr23_d1).
body(r_fr19_62,fr19_f2).
body(r_fr19_62,fr20_y1).
body(r_fr19_62,fr19_p3).
body(r_fr19_62,fr19_p4).
body(r_fr19_62,fr19_q2).
body(r_fr19_62,fr19_q4).
body(r_fr19_62,fr19_s2).
body(r_fr19_62,fr19_t1).
body(r_fr19_62,fr19_u1).
body(r_fr19_62,fr19_w1).
body(r_fr19_62,fr19_w2).
body(r_fr19_62,fr19_x2).
body(r_fr19_62,fr14_u1).
body(r_fr19_62,fr19_z1).
body(r_fr19_62,fr19_z2).
head(r_fr19_63,fr21_p3).
body(r_fr19_63,fr19_a2).
body(r_fr19_63,fr19_c1).
body(r_fr19_63,fr19_c3).
body(r_fr19_63,fr19_f2).
body(r_fr19_63,fr20_y1).
body(r_fr19_63,fr19_p3).
body(r_fr19_63,fr19_p4).
body(r_fr19_63,fr11_q3).
body(r_fr19_63,fr19_q2).
body(r_fr19_63,fr19_q4).
body(r_fr19_63,fr19_s2).
body(r_fr19_63,fr19_t1).
body(r_fr19_63,fr19_u1).
body(r_fr19_63,fr19_v2).
body(r_fr19_63,fr19_w1).
body(r_fr19_63,fr19_w2).
body(r_fr19_63,fr19_x2).
body(r_fr19_63,fr14_u1).
body(r_fr19_63,fr19_z1).
body(r_fr19_63,fr19_z3).
head(r_fr19_64,fr19_w2).
body(r_fr19_64,fr19_a3).
body(r_fr19_64,fr19_d1).
body(r_fr19_64,fr19_e1).
body(r_fr19_64,fr19_f2).
body(r_fr19_64,fr19_p3).
body(r_fr19_64,fr19_p4).
body(r_fr19_64,fr11_q3).
body(r_fr19_64,fr19_q2).
body(r_fr19_64,fr19_q4).
body(r_fr19_64,fr19_s2).
body(r_fr19_64,fr19_t1).
body(r_fr19_64,fr19_u1).
body(r_fr19_64,fr19_v2).
body(r_fr19_64,fr19_w1).
body(r_fr19_64,fr19_x2).
body(r_fr19_64,fr14_u1).
body(r_fr19_64,fr19_z1).
body(r_fr19_64,fr19_z2).
head(r_fr19_65,fr19_w2).
body(r_fr19_65,fr19_a2).
body(r_fr19_65,fr19_a3).
body(r_fr19_65,fr19_c3).
body(r_fr19_65,fr19_e1).
body(r_fr19_65,fr19_e2).
body(r_fr19_65,fr20_y1).
body(r_fr19_65,fr19_p3).
body(r_fr19_65,fr11_q3).
body(r_fr19_65,fr19_q2).
body(r_fr19_65,fr19_q4).
body(r_fr19_65,fr19_s2).
body(r_fr19_65,fr19_t1).
body(r_fr19_65,fr19_v2).
body(r_fr19_65,fr19_x2).
body(r_fr19_65,fr14_u1).
body(r_fr19_65,fr19_z1).
body(r_fr19_65,fr19_z2).
body(r_fr19_65,fr19_z3).
head(r_fr19_66,fr19_w2).
body(r_fr19_66,fr19_a2).
body(r_fr19_66,fr19_b2).
body(r_fr19_66,fr20_y1).
body(r_fr19_66,fr19_p3).
body(r_fr19_66,fr19_p4).
body(r_fr19_66,fr11_q3).
body(r_fr19_66,fr19_q2).
body(r_fr19_66,fr19_q4).
body(r_fr19_66,fr19_s2).
body(r_fr19_66,fr19_t1).
body(r_fr19_66,fr19_u1).
body(r_fr19_66,fr19_v2).
body(r_fr19_66,fr19_w1).
body(r_fr19_66,fr19_x2).
body(r_fr19_66,fr14_u1).
body(r_fr19_66,fr19_z1).
body(r_fr19_66,fr19_z2).
body(r_fr19_66,fr19_z3).
head(r_fr19_67,fr19_w2).
body(r_fr19_67,fr19_a1).
body(r_fr19_67,fr19_b2).
body(r_fr19_67,fr19_b3).
body(r_fr19_67,fr19_c3).
body(r_fr19_67,fr19_e1).
body(r_fr19_67,fr20_y1).
body(r_fr19_67,fr19_p3).
body(r_fr19_67,fr19_p4).
body(r_fr19_67,fr11_q3).
body(r_fr19_67,fr19_q2).
body(r_fr19_67,fr19_q4).
body(r_fr19_67,fr19_s2).
body(r_fr19_67,fr19_t1).
body(r_fr19_67,fr19_u1).
body(r_fr19_67,fr19_v2).
body(r_fr19_67,fr19_x2).
body(r_fr19_67,fr14_u1).
body(r_fr19_67,fr19_z1).
body(r_fr19_67,fr19_z2).
body(r_fr19_67,fr19_z3).
head(r_fr19_68,fr19_w2).
body(r_fr19_68,fr19_b2).
body(r_fr19_68,fr19_d2).
body(r_fr19_68,fr20_y1).
body(r_fr19_68,fr19_p3).
body(r_fr19_68,fr19_p4).
body(r_fr19_68,fr11_q3).
body(r_fr19_68,fr19_q2).
body(r_fr19_68,fr19_q4).
body(r_fr19_68,fr19_s2).
body(r_fr19_68,fr19_t1).
body(r_fr19_68,fr19_u1).
body(r_fr19_68,fr19_v2).
body(r_fr19_68,fr19_w1).
body(r_fr19_68,fr19_x2).
body(r_fr19_68,fr14_u1).
body(r_fr19_68,fr19_z1).
body(r_fr19_68,fr19_z2).
body(r_fr19_68,fr19_z3).
head(r_fr19_69,fr20_y1).
body(r_fr19_69,fr19_a3).
body(r_fr19_69,fr19_b1).
body(r_fr19_69,fr19_b3).
body(r_fr19_69,fr19_c1).
body(r_fr19_69,fr19_p3).
body(r_fr19_69,fr19_p4).
body(r_fr19_69,fr11_q3).
body(r_fr19_69,fr19_q2).
body(r_fr19_69,fr19_q4).
body(r_fr19_69,fr19_s2).
body(r_fr19_69,fr19_t1).
body(r_fr19_69,fr19_u1).
body(r_fr19_69,fr19_v2).
body(r_fr19_69,fr19_w1).
body(r_fr19_69,fr19_x2).
body(r_fr19_69,fr14_u1).
body(r_fr19_69,fr19_z1).
body(r_fr19_69,fr19_z2).
body(r_fr19_69,fr19_z3).
head(r_fr19_70,fr20_y1).
body(r_fr19_70,fr19_a1).
body(r_fr19_70,fr19_a2).
body(r_fr19_70,fr19_e2).
body(r_fr19_70,fr19_p3).
body(r_fr19_70,fr19_p4).
body(r_fr19_70,fr11_q3).
body(r_fr19_70,fr19_q2).
body(r_fr19_70,fr19_q4).
body(r_fr19_70,fr19_s2).
body(r_fr19_70,fr19_t1).
body(r_fr19_70,fr19_u1).
body(r_fr19_70,fr19_v2).
body(r_fr19_70,fr19_w1).
body(r_fr19_70,fr19_x2).
body(r_fr19_70,fr14_u1).
body(r_fr19_70,fr19_z1).
body(r_fr19_70,fr19_z2).
body(r_fr19_70,fr19_z3).
head(r_fr19_71,fr20_y1).
body(r_fr19_71,fr19_a1).
body(r_fr19_71,fr19_b1).
body(r_fr19_71,fr19_c2).
body(r_fr19_71,fr19_c3).
body(r_fr19_71,fr19_d1).
body(r_fr19_71,fr19_d2).
body(r_fr19_71,fr19_p3).
body(r_fr19_71,fr19_p4).
body(r_fr19_71,fr11_q3).
body(r_fr19_71,fr19_q2).
body(r_fr19_71,fr19_s2).
body(r_fr19_71,fr19_t1).
body(r_fr19_71,fr19_u1).
body(r_fr19_71,fr19_v2).
body(r_fr19_71,fr19_w1).
body(r_fr19_71,fr19_x2).
body(r_fr19_71,fr19_z1).
body(r_fr19_71,fr19_z2).
body(r_fr19_71,fr19_z3).
head(r_fr19_72,fr20_y1).
body(r_fr19_72,fr19_a3).
body(r_fr19_72,fr19_b2).
body(r_fr19_72,fr19_b3).
body(r_fr19_72,fr19_c2).
body(r_fr19_72,fr19_e1).
body(r_fr19_72,fr19_f2).
body(r_fr19_72,fr19_p4).
body(r_fr19_72,fr19_q2).
body(r_fr19_72,fr19_q4).
body(r_fr19_72,fr19_t1).
body(r_fr19_72,fr19_u1).
body(r_fr19_72,fr19_v2).
body(r_fr19_72,fr19_w1).
body(r_fr19_72,fr19_x2).
body(r_fr19_72,fr14_u1).
body(r_fr19_72,fr19_z1).
body(r_fr19_72,fr19_z2).
body(r_fr19_72,fr19_z3).
head(r_fr19_73,fr20_y1).
body(r_fr19_73,fr19_a1).
body(r_fr19_73,fr19_b3).
body(r_fr19_73,fr19_c1).
body(r_fr19_73,fr19_c2).
body(r_fr19_73,fr19_c3).
body(r_fr19_73,fr19_d2).
body(r_fr19_73,fr19_p3).
body(r_fr19_73,fr19_p4).
body(r_fr19_73,fr11_q3).
body(r_fr19_73,fr19_q2).
body(r_fr19_73,fr19_q4).
body(r_fr19_73,fr19_s2).
body(r_fr19_73,fr19_t1).
body(r_fr19_73,fr19_u1).
body(r_fr19_73,fr19_v2).
body(r_fr19_73,fr19_w1).
body(r_fr19_73,fr19_x2).
body(r_fr19_73,fr14_u1).
body(r_fr19_73,fr19_z1).
body(r_fr19_73,fr19_z2).
body(r_fr19_73,fr19_z3).

assumption(fr20_a1).
assumption(fr20_b1).
assumption(fr23_e4).
assumption(fr20_d1).
assumption(fr20_e1).
assumption(fr20_f1).
assumption(fr20_a2).
assumption(fr20_b2).
assumption(fr20_c2).
assumption(fr20_d2).
assumption(fr20_e2).
assumption(fr20_f2).
assumption(fr20_a3).
assumption(fr20_b3).
assumption(fr16_e1).
contrary(fr20_a1,fr19_s3).
contrary(fr20_a2,fr23_x4).
contrary(fr20_a3,fr20_b1).
contrary(fr20_b1,fr20_c2).
contrary(fr20_b2,fr20_q3).
contrary(fr20_b3,fr20_u1).
contrary(fr23_e4,fr25_s2).
contrary(fr20_c2,fr20_b3).
contrary(fr16_e1,fr20_t1).
contrary(fr20_d1,fr20_x2).
contrary(fr20_d2,fr20_e1).
contrary(fr20_e1,fr20_q3).
contrary(fr20_e2,fr23_x4).
contrary(fr20_f1,fr16_z1).
contrary(fr20_f2,fr4_s2).
head(r_fr20_0,fr16_z1).
body(r_fr20_0,fr20_a1).
head(r_fr20_1,fr16_z1).
body(r_fr20_1,fr24_p1).
head(r_fr20_2,fr16_z1).
body(r_fr20_2,fr20_a3).
body(r_fr20_2,fr23_e4).
body(r_fr20_2,fr20_e2).
body(r_fr20_2,fr13_y1).
body(r_fr20_2,fr25_s2).
head(r_fr20_3,fr11_q2).
body(r_fr20_3,fr23_e4).
body(r_fr20_3,fr20_p1).
body(r_fr20_3,fr17_u1).
body(r_fr20_3,fr3_p3).
body(r_fr20_3,fr1_p2).
body(r_fr20_3,fr20_z2).
head(r_fr20_4,fr11_q2).
body(r_fr20_4,fr20_b2).
head(r_fr20_5,fr11_q2).
body(r_fr20_5,fr17_u1).
body(r_fr20_5,fr20_z1).
head(r_fr20_6,fr11_q2).
body(r_fr20_6,fr20_p1).
body(r_fr20_6,fr17_u1).
body(r_fr20_6,fr20_t1).
body(r_fr20_6,fr13_y1).
body(r_fr20_6,fr25_s2).
head(r_fr20_7,fr11_q2).
body(r_fr20_7,fr20_d1).
body(r_fr20_7,fr20_p1).
body(r_fr20_7,fr20_u1).
body(r_fr20_7,fr4_q2).
body(r_fr20_7,fr20_y2).
head(r_fr20_8,fr20_y2).
body(r_fr20_8,fr20_b3).
body(r_fr20_8,fr20_f2).
body(r_fr20_8,fr23_x4).
head(r_fr20_9,fr20_y2).
body(r_fr20_9,fr20_a2).
body(r_fr20_9,fr20_a3).
body(r_fr20_9,fr20_b3).
body(r_fr20_9,fr16_e1).
body(r_fr20_9,fr3_v1).
body(r_fr20_9,fr4_q2).
head(r_fr20_10,fr20_y2).
body(r_fr20_10,fr16_z1).
body(r_fr20_10,fr20_z1).
body(r_fr20_10,fr20_z2).
head(r_fr20_11,fr3_v1).
body(r_fr20_11,fr20_b3).
body(r_fr20_11,fr23_e4).
head(r_fr20_12,fr3_v1).
body(r_fr20_12,fr20_c2).
body(r_fr20_12,fr20_p1).
body(r_fr20_12,fr20_q3).
body(r_fr20_12,fr16_z1).
body(r_fr20_12,fr3_p3).
body(r_fr20_12,fr20_x2).
head(r_fr20_13,fr3_v1).
body(r_fr20_13,fr20_b1).
body(r_fr20_13,fr20_f2).
body(r_fr20_13,fr20_p1).
body(r_fr20_13,fr22_w2).
head(r_fr20_14,fr3_v1).
head(r_fr20_15,fr3_v1).
body(r_fr20_15,fr20_a2).
body(r_fr20_15,fr20_c2).
body(r_fr20_15,fr20_f2).
head(r_fr20_16,fr20_z1).
body(r_fr20_16,fr20_a3).
body(r_fr20_16,fr20_c2).
body(r_fr20_16,fr16_e1).
body(r_fr20_16,fr11_q2).
body(r_fr20_16,fr20_r1).
body(r_fr20_16,fr17_u1).
head(r_fr20_17,fr20_z1).
body(r_fr20_17,fr20_a1).
body(r_fr20_17,fr20_a2).
body(r_fr20_17,fr20_b1).
body(r_fr20_17,fr16_e1).
body(r_fr20_17,fr20_e1).
body(r_fr20_17,fr20_f1).
head(r_fr20_18,fr20_z1).
body(r_fr20_18,fr20_a1).
body(r_fr20_18,fr20_f1).
head(r_fr20_19,fr20_z1).
head(r_fr20_20,fr20_z1).
body(r_fr20_20,fr20_a2).
body(r_fr20_20,fr20_b2).
body(r_fr20_20,fr20_b3).
body(r_fr20_20,fr23_x4).
head(r_fr20_21,fr24_p1).
body(r_fr20_21,fr20_b1).
body(r_fr20_21,fr20_b2).
body(r_fr20_21,fr23_e4).
body(r_fr20_21,fr20_c2).
body(r_fr20_21,fr20_e2).
body(r_fr20_21,fr20_f1).
head(r_fr20_22,fr24_p1).
head(r_fr20_23,fr25_s2).
body(r_fr20_23,fr20_b2).
body(r_fr20_23,fr23_e4).
body(r_fr20_23,fr20_e1).
body(r_fr20_23,fr20_e2).
body(r_fr20_23,fr20_f1).
head(r_fr20_24,fr25_s2).
body(r_fr20_24,fr20_b3).
body(r_fr20_24,fr20_e1).
body(r_fr20_24,fr20_r1).
body(r_fr20_24,fr20_u1).
head(r_fr20_25,fr25_s2).
body(r_fr20_25,fr23_x4).
body(r_fr20_25,fr24_p1).
head(r_fr20_26,fr25_s2).
body(r_fr20_26,fr23_e4).
body(r_fr20_26,fr20_f2).
head(r_fr20_27,fr1_p2).
body(r_fr20_27,fr20_f1).
body(r_fr20_27,fr3_p3).
head(r_fr20_28,fr1_p2).
body(r_fr20_28,fr16_z1).
body(r_fr20_28,fr20_u1).
head(r_fr20_29,fr1_p2).
body(r_fr20_29,fr20_a2).
body(r_fr20_29,fr20_b1).
body(r_fr20_29,fr20_b3).
body(r_fr20_29,fr20_d2).
body(r_fr20_29,fr20_f1).
body(r_fr20_29,fr20_f2).
head(r_fr20_30,fr1_p2).
body(r_fr20_30,fr20_b1).
head(r_fr20_31,fr20_r1).
head(r_fr20_32,fr20_r1).
body(r_fr20_32,fr20_b1).
body(r_fr20_32,fr20_b3).
body(r_fr20_32,fr23_e4).
body(r_fr20_32,fr20_d2).
body(r_fr20_32,fr20_e2).
head(r_fr20_33,fr20_r1).
body(r_fr20_33,fr20_a3).
body(r_fr20_33,fr20_b3).
body(r_fr20_33,fr20_e2).
body(r_fr20_33,fr20_f1).
head(r_fr20_34,fr20_r1).
body(r_fr20_34,fr20_a2).
body(r_fr20_34,fr20_b3).
body(r_fr20_34,fr23_e4).
body(r_fr20_34,fr20_e1).
head(r_fr20_35,fr20_q3).
body(r_fr20_35,fr19_s3).
body(r_fr20_35,fr3_v1).
body(r_fr20_35,fr20_t1).
body(r_fr20_35,fr4_s2).
body(r_fr20_35,fr25_s2).
head(r_fr20_36,fr20_q3).
body(r_fr20_36,fr20_t1).
body(r_fr20_36,fr20_z2).
head(r_fr20_37,fr20_q3).
body(r_fr20_37,fr23_e4).
body(r_fr20_37,fr20_f1).
body(r_fr20_37,fr20_p1).
body(r_fr20_37,fr4_q2).
head(r_fr20_38,fr4_q2).
head(r_fr20_39,fr4_q2).
body(r_fr20_39,fr19_s3).
body(r_fr20_39,fr20_q3).
body(r_fr20_39,fr16_z1).
body(r_fr20_39,fr3_p3).
body(r_fr20_39,fr1_p2).
body(r_fr20_39,fr20_y2).
head(r_fr20_40,fr4_q2).
body(r_fr20_40,fr20_b2).
body(r_fr20_40,fr16_e1).
body(r_fr20_40,fr25_s2).
head(r_fr20_41,fr4_q2).
body(r_fr20_41,fr20_c2).
body(r_fr20_41,fr20_d1).
body(r_fr20_41,fr20_d2).
body(r_fr20_41,fr20_e1).
body(r_fr20_41,fr20_e2).
body(r_fr20_41,fr20_f2).
head(r_fr20_42,fr23_x4).
body(r_fr20_42,fr20_a3).
body(r_fr20_42,fr20_d2).
body(r_fr20_42,fr20_e1).
body(r_fr20_42,fr20_f1).
head(r_fr20_43,fr23_x4).
body(r_fr20_43,fr20_a1).
body(r_fr20_43,fr20_b3).
body(r_fr20_43,fr20_e2).
head(r_fr20_44,fr13_y1).
body(r_fr20_44,fr20_f2).
body(r_fr20_44,fr17_u1).
head(r_fr20_45,fr13_y1).
body(r_fr20_45,fr20_a1).
body(r_fr20_45,fr20_b1).
body(r_fr20_45,fr20_d1).
body(r_fr20_45,fr20_e2).
body(r_fr20_45,fr20_f2).
head(r_fr20_46,fr13_y1).
body(r_fr20_46,fr20_d2).
body(r_fr20_46,fr20_e1).
body(r_fr20_46,fr20_f1).
head(r_fr20_47,fr13_y1).
body(r_fr20_47,fr20_c2).
body(r_fr20_47,fr20_f1).
head(r_fr20_48,fr17_u1).
body(r_fr20_48,fr11_q2).
body(r_fr20_48,fr16_z1).
body(r_fr20_48,fr25_s2).
body(r_fr20_48,fr20_y2).
head(r_fr20_49,fr17_u1).
body(r_fr20_49,fr25_s2).
head(r_fr20_50,fr17_u1).
body(r_fr20_50,fr20_b1).
body(r_fr20_50,fr23_e4).
body(r_fr20_50,fr20_d1).
body(r_fr20_50,fr20_d2).
body(r_fr20_50,fr20_e1).
body(r_fr20_50,fr4_q2).
head(r_fr20_51,fr20_z2).
body(r_fr20_51,fr16_e1).
body(r_fr20_51,fr20_p1).
body(r_fr20_51,fr20_q3).
body(r_fr20_51,fr16_z1).
head(r_fr20_52,fr20_z2).
body(r_fr20_52,fr20_q3).
head(r_fr20_53,fr20_z2).
body(r_fr20_53,fr23_e4).
head(r_fr20_54,fr20_z2).
body(r_fr20_54,fr20_a1).
body(r_fr20_54,fr20_c2).
body(r_fr20_54,fr20_f2).
head(r_fr20_55,fr4_s2).
head(r_fr20_56,fr4_s2).
body(r_fr20_56,fr20_a3).
body(r_fr20_56,fr20_b1).
body(r_fr20_56,fr20_b2).
body(r_fr20_56,fr23_e4).
body(r_fr20_56,fr20_e2).
body(r_fr20_56,fr22_w2).
head(r_fr20_57,fr20_u1).
body(r_fr20_57,fr20_b1).
body(r_fr20_57,fr11_q2).
body(r_fr20_57,fr16_z1).
body(r_fr20_57,fr3_p3).
body(r_fr20_57,fr4_s2).
body(r_fr20_57,fr20_z2).
head(r_fr20_58,fr20_u1).
body(r_fr20_58,fr20_q3).
head(r_fr20_59,fr22_w2).
body(r_fr20_59,fr20_f1).
body(r_fr20_59,fr11_q2).
head(r_fr20_60,fr22_w2).
body(r_fr20_60,fr20_a3).
body(r_fr20_60,fr20_t1).
head(r_fr20_61,fr22_w2).
body(r_fr20_61,fr16_z1).
body(r_fr20_61,fr1_p2).
head(r_fr20_62,fr22_w2).
body(r_fr20_62,fr20_b1).
body(r_fr20_62,fr20_d1).
body(r_fr20_62,fr20_e1).
body(r_fr20_62,fr20_e2).
body(r_fr20_62,fr20_f1).
head(r_fr20_63,fr20_t1).
body(r_fr20_63,fr20_a2).
body(r_fr20_63,fr20_b1).
body(r_fr20_63,fr20_e1).
head(r_fr20_64,fr20_t1).
body(r_fr20_64,fr20_b1).
head(r_fr20_65,fr20_t1).
body(r_fr20_65,fr20_r1).
body(r_fr20_65,fr3_p3).
body(r_fr20_65,fr4_s2).
body(r_fr20_65,fr13_y1).
body(r_fr20_65,fr20_z2).
head(r_fr20_66,fr20_t1).
body(r_fr20_66,fr19_s3).
body(r_fr20_66,fr23_x4).
body(r_fr20_66,fr4_q2).
body(r_fr20_66,fr24_p1).
head(r_fr20_67,fr20_t1).
body(r_fr20_67,fr4_q2).
body(r_fr20_67,fr25_s2).
body(r_fr20_67,fr20_z1).
head(r_fr20_68,fr20_x2).
body(r_fr20_68,fr20_a1).
body(r_fr20_68,fr16_e1).
body(r_fr20_68,fr20_f2).
body(r_fr20_68,fr20_u1).
body(r_fr20_68,fr4_q2).
head(r_fr20_69,fr20_x2).
head(r_fr20_70,fr20_x2).
body(r_fr20_70,fr20_b3).
body(r_fr20_70,fr20_e1).
body(r_fr20_70,fr20_t1).
head(r_fr20_71,fr20_x2).
body(r_fr20_71,fr19_s3).
body(r_fr20_71,fr20_q2).
body(r_fr20_71,fr20_r1).
body(r_fr20_71,fr16_z1).
body(r_fr20_71,fr4_s2).
body(r_fr20_71,fr20_y1).
head(r_fr20_72,fr20_x2).
body(r_fr20_72,fr20_a1).
body(r_fr20_72,fr20_e1).

assumption(fr18_a1).
assumption(fr21_b1).
assumption(fr21_c1).
assumption(fr21_d1).
assumption(fr21_e1).
assumption(fr21_f1).
assumption(fr21_a2).
assumption(fr21_b2).
assumption(fr21_c2).
assumption(fr21_d2).
assumption(fr21_e2).
assumption(fr21_f2).
assumption(fr21_a3).
assumption(fr21_b3).
assumption(fr21_c3).
contrary(fr18_a1,fr21_f2).
contrary(fr21_a2,fr18_a1).
contrary(fr21_a3,fr21_c2).
contrary(fr21_b1,fr21_r2).
contrary(fr21_b2,fr21_f2).
contrary(fr21_b3,fr21_p2).
contrary(fr21_c1,fr21_r3).
contrary(fr21_c2,fr21_e2).
contrary(fr21_c3,fr21_b2).
contrary(fr21_d1,fr21_y2).
contrary(fr21_d2,fr18_a1).
contrary(fr21_e1,fr21_f2).
contrary(fr21_e2,fr21_e1).
contrary(fr21_f1,fr8_z1).
contrary(fr21_f2,fr17_w1).
head(r_fr21_0,fr21_z2).
body(r_fr21_0,fr21_e2).
body(r_fr21_0,fr21_q3).
body(r_fr21_0,fr21_r3).
body(r_fr21_0,fr8_z1).
body(r_fr21_0,fr21_v2).
body(r_fr21_0,fr21_y2).
head(r_fr21_1,fr21_z2).
body(r_fr21_1,fr21_c3).
body(r_fr21_1,fr21_p2).
body(r_fr21_1,fr21_s2).
body(r_fr21_1,fr21_t2).
body(r_fr21_1,fr21_y2).
head(r_fr21_2,fr21_z2).
body(r_fr21_2,fr21_f1).
body(r_fr21_2,fr21_r3).
head(r_fr21_3,fr21_z2).
body(r_fr21_3,fr21_b1).
body(r_fr21_3,fr21_b2).
body(r_fr21_3,fr21_c1).
body(r_fr21_3,fr21_c2).
body(r_fr21_3,fr21_d1).
body(r_fr21_3,fr21_f1).
head(r_fr21_4,fr21_z2).
body(r_fr21_4,fr21_f1).
head(r_fr21_5,fr21_z2).
body(r_fr21_5,fr21_b3).
body(r_fr21_5,fr21_c3).
body(r_fr21_5,fr21_f1).
body(r_fr21_5,fr21_u1).
body(r_fr21_5,fr21_x1).
body(r_fr21_5,fr21_z1).
head(r_fr21_6,fr21_z2).
body(r_fr21_6,fr18_a1).
body(r_fr21_6,fr21_d1).
body(r_fr21_6,fr21_p3).
body(r_fr21_6,fr21_t2).
head(r_fr21_7,fr21_z2).
body(r_fr21_7,fr21_b2).
body(r_fr21_7,fr24_v1).
body(r_fr21_7,fr21_s2).
body(r_fr21_7,fr21_t1).
body(r_fr21_7,fr21_u1).
body(r_fr21_7,fr8_r3).
head(r_fr21_8,fr21_z2).
body(r_fr21_8,fr21_c2).
body(r_fr21_8,fr17_w1).
body(r_fr21_8,fr21_r3).
body(r_fr21_8,fr21_u1).
body(r_fr21_8,fr8_z1).
head(r_fr21_9,fr21_z2).
body(r_fr21_9,fr21_q3).
body(r_fr21_9,fr8_z1).
body(r_fr21_9,fr8_r3).
body(r_fr21_9,fr21_w2).
head(r_fr21_10,fr21_z2).
head(r_fr21_11,fr21_z2).
body(r_fr21_11,fr21_a2).
body(r_fr21_11,fr21_c3).
body(r_fr21_11,fr21_d2).
body(r_fr21_11,fr21_w1).
head(r_fr21_12,fr21_z2).
body(r_fr21_12,fr23_x4).
body(r_fr21_12,fr21_r2).
body(r_fr21_12,fr8_z1).
body(r_fr21_12,fr21_v2).
head(r_fr21_13,fr21_z2).
body(r_fr21_13,fr18_a1).
body(r_fr21_13,fr21_d2).
head(r_fr21_14,fr21_z2).
body(r_fr21_14,fr21_p2).
body(r_fr21_14,fr21_p3).
body(r_fr21_14,fr21_z1).
head(r_fr21_15,fr21_z2).
body(r_fr21_15,fr21_a2).
body(r_fr21_15,fr21_b2).
body(r_fr21_15,fr21_c2).
head(r_fr21_16,fr21_z2).
body(r_fr21_16,fr21_c2).
body(r_fr21_16,fr21_e1).
body(r_fr21_16,fr21_f2).
body(r_fr21_16,fr21_q1).
body(r_fr21_16,fr21_t1).
body(r_fr21_16,fr21_x1).
head(r_fr21_17,fr21_z2).
body(r_fr21_17,fr21_a2).
body(r_fr21_17,fr21_e1).
body(r_fr21_17,fr21_f1).
head(r_fr21_18,fr21_z2).
body(r_fr21_18,fr21_c2).
body(r_fr21_18,fr21_p3).
body(r_fr21_18,fr8_r3).
head(r_fr21_19,fr21_z2).
body(r_fr21_19,fr21_e1).
body(r_fr21_19,fr21_f2).
body(r_fr21_19,fr21_y1).
head(r_fr21_20,fr21_z2).
body(r_fr21_20,fr21_s2).
head(r_fr21_21,fr21_z2).
body(r_fr21_21,fr21_f2).
head(r_fr21_22,fr21_z2).
body(r_fr21_22,fr21_v2).
head(r_fr21_23,fr21_y1).
body(r_fr21_23,fr21_c3).
body(r_fr21_23,fr17_w1).
body(r_fr21_23,fr21_x1).
head(r_fr21_24,fr21_y1).
body(r_fr21_24,fr18_a1).
body(r_fr21_24,fr21_z1).
head(r_fr21_25,fr21_y1).
body(r_fr21_25,fr24_v1).
body(r_fr21_25,fr21_r3).
head(r_fr21_26,fr21_y1).
body(r_fr21_26,fr21_b3).
body(r_fr21_26,fr21_c1).
body(r_fr21_26,fr21_c3).
body(r_fr21_26,fr21_e1).
body(r_fr21_26,fr21_e2).
body(r_fr21_26,fr21_f2).
head(r_fr21_27,fr21_y1).
body(r_fr21_27,fr8_r3).
body(r_fr21_27,fr21_x1).
body(r_fr21_27,fr2_v1).
body(r_fr21_27,fr21_y2).
body(r_fr21_27,fr21_z1).
head(r_fr21_28,fr21_y1).
body(r_fr21_28,fr21_d2).
head(r_fr21_29,fr21_y1).
body(r_fr21_29,fr21_c2).
head(r_fr21_30,fr21_y1).
body(r_fr21_30,fr21_b3).
body(r_fr21_30,fr21_w2).
body(r_fr21_30,fr21_y2).
head(r_fr21_31,fr21_y1).
body(r_fr21_31,fr17_w1).
body(r_fr21_31,fr21_s2).
body(r_fr21_31,fr21_w1).
body(r_fr21_31,fr21_x1).
head(r_fr21_32,fr21_y1).
body(r_fr21_32,fr21_t2).
head(r_fr21_33,fr21_y1).
body(r_fr21_33,fr21_q1).
body(r_fr21_33,fr21_v2).
body(r_fr21_33,fr21_z2).
head(r_fr21_34,fr21_y1).
body(r_fr21_34,fr21_f1).
head(r_fr21_35,fr21_y1).
body(r_fr21_35,fr21_t1).
head(r_fr21_36,fr21_y1).
body(r_fr21_36,fr21_b2).
body(r_fr21_36,fr21_q1).
body(r_fr21_36,fr21_v2).
body(r_fr21_36,fr21_w1).
body(r_fr21_36,fr21_z1).
head(r_fr21_37,fr21_y1).
body(r_fr21_37,fr18_a1).
body(r_fr21_37,fr21_c1).
body(r_fr21_37,fr21_e1).
body(r_fr21_37,fr21_e2).
body(r_fr21_37,fr21_z1).
head(r_fr21_38,fr21_y1).
body(r_fr21_38,fr21_a3).
body(r_fr21_38,fr21_f2).
body(r_fr21_38,fr21_v2).
head(r_fr21_39,fr21_y1).
head(r_fr21_40,fr21_y1).
body(r_fr21_40,fr21_a2).
body(r_fr21_40,fr21_c1).
body(r_fr21_40,fr21_c3).
body(r_fr21_40,fr21_e2).
head(r_fr21_41,fr21_y1).
body(r_fr21_41,fr21_f1).
body(r_fr21_41,fr21_f2).
body(r_fr21_41,fr17_w1).
head(r_fr21_42,fr21_y1).
body(r_fr21_42,fr21_u1).
head(r_fr21_43,fr21_y1).
body(r_fr21_43,fr21_b2).
head(r_fr21_44,fr21_y1).
body(r_fr21_44,fr21_c1).
body(r_fr21_44,fr21_f2).
body(r_fr21_44,fr24_v1).
body(r_fr21_44,fr21_t2).
body(r_fr21_44,fr8_z1).
head(r_fr21_45,fr21_y1).
body(r_fr21_45,fr21_e1).
body(r_fr21_45,fr21_w2).
head(r_fr21_46,fr21_y1).
body(r_fr21_46,fr21_b1).
body(r_fr21_46,fr21_d2).
body(r_fr21_46,fr21_e1).
body(r_fr21_46,fr21_f2).
body(r_fr21_46,fr21_q1).
body(r_fr21_46,fr21_z1).
head(r_fr21_47,fr21_y1).
body(r_fr21_47,fr2_v1).
head(r_fr21_48,fr21_r2).
body(r_fr21_48,fr21_c1).
body(r_fr21_48,fr8_r3).
head(r_fr21_49,fr21_r2).
body(r_fr21_49,fr21_d2).
body(r_fr21_49,fr21_t2).
body(r_fr21_49,fr21_w1).
head(r_fr21_50,fr21_r2).
body(r_fr21_50,fr21_b3).
body(r_fr21_50,fr21_f2).
body(r_fr21_50,fr23_x4).
body(r_fr21_50,fr24_v1).
body(r_fr21_50,fr21_r3).
body(r_fr21_50,fr8_r3).
head(r_fr21_51,fr21_r2).
body(r_fr21_51,fr21_e1).
body(r_fr21_51,fr21_e2).
body(r_fr21_51,fr17_w1).
head(r_fr21_52,fr21_r2).
body(r_fr21_52,fr24_v1).
head(r_fr21_53,fr21_r2).
body(r_fr21_53,fr21_c3).
body(r_fr21_53,fr23_x4).
body(r_fr21_53,fr21_s2).
head(r_fr21_54,fr21_r2).
body(r_fr21_54,fr21_b1).
body(r_fr21_54,fr21_c2).
body(r_fr21_54,fr21_f1).
head(r_fr21_55,fr21_r2).
body(r_fr21_55,fr21_c1).
body(r_fr21_55,fr21_c3).
body(r_fr21_55,fr21_f2).
head(r_fr21_56,fr21_r2).
body(r_fr21_56,fr18_a1).
body(r_fr21_56,fr21_a2).
body(r_fr21_56,fr21_a3).
body(r_fr21_56,fr21_b3).
body(r_fr21_56,fr21_c3).
body(r_fr21_56,fr21_f1).
head(r_fr21_57,fr21_r2).
body(r_fr21_57,fr23_x4).
body(r_fr21_57,fr8_z1).
body(r_fr21_57,fr21_v2).
body(r_fr21_57,fr21_x1).
body(r_fr21_57,fr21_y1).
head(r_fr21_58,fr21_r2).
body(r_fr21_58,fr21_c3).
body(r_fr21_58,fr21_d2).
body(r_fr21_58,fr21_e2).
body(r_fr21_58,fr21_f2).
body(r_fr21_58,fr21_t1).
body(r_fr21_58,fr2_v1).
head(r_fr21_59,fr21_r2).
body(r_fr21_59,fr17_w1).
body(r_fr21_59,fr21_r3).
body(r_fr21_59,fr21_t1).
body(r_fr21_59,fr21_w2).
body(r_fr21_59,fr21_z1).
head(r_fr21_60,fr21_r2).
head(r_fr21_61,fr21_r2).
body(r_fr21_61,fr21_b3).
body(r_fr21_61,fr21_c2).
body(r_fr21_61,fr21_c3).
body(r_fr21_61,fr21_u1).
body(r_fr21_61,fr2_v1).
head(r_fr21_62,fr21_r2).
body(r_fr21_62,fr21_r3).
body(r_fr21_62,fr21_x1).
body(r_fr21_62,fr21_z2).
head(r_fr21_63,fr21_r2).
body(r_fr21_63,fr21_b1).
body(r_fr21_63,fr21_b2).
body(r_fr21_63,fr21_c1).
body(r_fr21_63,fr21_p3).
body(r_fr21_63,fr21_w2).
head(r_fr21_64,fr21_r2).
body(r_fr21_64,fr18_a1).
body(r_fr21_64,fr21_b1).
body(r_fr21_64,fr21_c1).
body(r_fr21_64,fr21_d1).
body(r_fr21_64,fr21_f1).
body(r_fr21_64,fr21_f2).
head(r_fr21_65,fr21_r2).
body(r_fr21_65,fr21_c1).
body(r_fr21_65,fr21_d2).
head(r_fr21_66,fr21_r2).
body(r_fr21_66,fr21_b2).
body(r_fr21_66,fr21_c2).
body(r_fr21_66,fr23_x4).
body(r_fr21_66,fr21_p2).
body(r_fr21_66,fr21_t2).
head(r_fr21_67,fr21_r2).
body(r_fr21_67,fr21_a3).
head(r_fr21_68,fr21_r2).
body(r_fr21_68,fr21_b1).
body(r_fr21_68,fr21_d1).
body(r_fr21_68,fr21_f1).
body(r_fr21_68,fr21_p2).
body(r_fr21_68,fr21_q3).
body(r_fr21_68,fr8_r3).
head(r_fr21_69,fr21_r2).
body(r_fr21_69,fr21_p2).
body(r_fr21_69,fr17_w1).
body(r_fr21_69,fr8_z1).
body(r_fr21_69,fr21_s2).
body(r_fr21_69,fr21_y1).
head(r_fr21_70,fr21_r2).
body(r_fr21_70,fr21_c2).
body(r_fr21_70,fr21_c3).
body(r_fr21_70,fr21_d2).
body(r_fr21_70,fr21_u1).
body(r_fr21_70,fr21_x1).
body(r_fr21_70,fr21_y1).
head(r_fr21_71,fr21_q1).
body(r_fr21_71,fr21_p3).
body(r_fr21_71,fr2_v1).
head(r_fr21_72,fr21_q1).
body(r_fr21_72,fr21_v2).
body(r_fr21_72,fr21_w1).
body(r_fr21_72,fr21_x1).
body(r_fr21_72,fr21_y2).
head(r_fr21_73,fr21_q1).
body(r_fr21_73,fr21_b3).
body(r_fr21_73,fr21_c2).
body(r_fr21_73,fr21_p2).
body(r_fr21_73,fr21_t2).
head(r_fr21_74,fr21_q1).
body(r_fr21_74,fr21_c2).
body(r_fr21_74,fr21_c3).
body(r_fr21_74,fr21_t1).
head(r_fr21_75,fr21_q1).
body(r_fr21_75,fr24_v1).
body(r_fr21_75,fr21_u1).
body(r_fr21_75,fr21_v2).
body(r_fr21_75,fr21_w2).
body(r_fr21_75,fr2_v1).
body(r_fr21_75,fr21_y2).
head(r_fr21_76,fr21_q1).
body(r_fr21_76,fr21_q3).
body(r_fr21_76,fr21_u1).
head(r_fr21_77,fr21_q1).
body(r_fr21_77,fr8_z1).
head(r_fr21_78,fr21_q1).
body(r_fr21_78,fr21_t1).
body(r_fr21_78,fr8_z1).
head(r_fr21_79,fr21_q1).
body(r_fr21_79,fr21_b2).
body(r_fr21_79,fr21_c3).
body(r_fr21_79,fr21_t1).
head(r_fr21_80,fr21_q1).
body(r_fr21_80,fr18_a1).
body(r_fr21_80,fr21_a2).
body(r_fr21_80,fr21_b1).
body(r_fr21_80,fr21_c1).
body(r_fr21_80,fr21_c3).
body(r_fr21_80,fr21_e1).
head(r_fr21_81,fr21_q1).
body(r_fr21_81,fr21_c1).
body(r_fr21_81,fr21_c2).
body(r_fr21_81,fr21_d1).
head(r_fr21_82,fr21_q1).
body(r_fr21_82,fr21_a3).
body(r_fr21_82,fr21_b1).
body(r_fr21_82,fr21_c1).
body(r_fr21_82,fr21_d2).
body(r_fr21_82,fr21_e2).
body(r_fr21_82,fr21_y1).
head(r_fr21_83,fr21_q1).
body(r_fr21_83,fr21_u1).
body(r_fr21_83,fr21_w1).
body(r_fr21_83,fr21_w2).
head(r_fr21_84,fr21_q1).
body(r_fr21_84,fr21_a3).
body(r_fr21_84,fr21_c2).
head(r_fr21_85,fr21_q1).
body(r_fr21_85,fr18_a1).
body(r_fr21_85,fr21_a3).
body(r_fr21_85,fr21_c1).
body(r_fr21_85,fr21_c2).
body(r_fr21_85,fr21_d1).
body(r_fr21_85,fr21_e1).
head(r_fr21_86,fr21_q1).
body(r_fr21_86,fr21_e2).
body(r_fr21_86,fr21_f2).
body(r_fr21_86,fr21_p2).
body(r_fr21_86,fr24_v1).
body(r_fr21_86,fr2_v1).
body(r_fr21_86,fr21_z2).
head(r_fr21_87,fr21_q1).
head(r_fr21_88,fr21_q1).
body(r_fr21_88,fr21_a2).
body(r_fr21_88,fr21_a3).
body(r_fr21_88,fr21_b2).
body(r_fr21_88,fr21_b3).
body(r_fr21_88,fr21_c1).
body(r_fr21_88,fr21_f2).
head(r_fr21_89,fr21_q1).
body(r_fr21_89,fr21_a3).
body(r_fr21_89,fr21_b1).
body(r_fr21_89,fr21_c1).
body(r_fr21_89,fr21_e2).
body(r_fr21_89,fr17_w1).
head(r_fr21_90,fr21_q1).
body(r_fr21_90,fr21_a3).
head(r_fr21_91,fr21_q1).
body(r_fr21_91,fr21_q3).
body(r_fr21_91,fr8_r3).
head(r_fr21_92,fr21_q1).
body(r_fr21_92,fr21_b3).
body(r_fr21_92,fr21_c3).
body(r_fr21_92,fr21_e1).
body(r_fr21_92,fr21_t1).
body(r_fr21_92,fr21_w1).
head(r_fr21_93,fr21_q1).
body(r_fr21_93,fr18_a1).
body(r_fr21_93,fr21_a2).
body(r_fr21_93,fr21_b2).
body(r_fr21_93,fr21_c3).
body(r_fr21_93,fr21_d2).
body(r_fr21_93,fr21_e2).
head(r_fr21_94,fr21_q1).
body(r_fr21_94,fr18_a1).
body(r_fr21_94,fr21_a2).
body(r_fr21_94,fr21_u1).
body(r_fr21_94,fr8_z1).
head(r_fr21_95,fr21_t2).
body(r_fr21_95,fr21_y1).
head(r_fr21_96,fr21_t2).
body(r_fr21_96,fr21_b3).
body(r_fr21_96,fr21_c2).
body(r_fr21_96,fr21_e1).
body(r_fr21_96,fr21_v2).
head(r_fr21_97,fr21_t2).
body(r_fr21_97,fr21_w2).
head(r_fr21_98,fr21_t2).
body(r_fr21_98,fr23_x4).
body(r_fr21_98,fr21_q3).
body(r_fr21_98,fr24_v1).
body(r_fr21_98,fr8_z1).
body(r_fr21_98,fr21_u1).
body(r_fr21_98,fr21_y1).
head(r_fr21_99,fr21_t2).
body(r_fr21_99,fr21_a2).
body(r_fr21_99,fr21_b1).
body(r_fr21_99,fr21_b2).
body(r_fr21_99,fr21_w2).
head(r_fr21_100,fr21_t2).
body(r_fr21_100,fr21_b2).
head(r_fr21_101,fr21_t2).
body(r_fr21_101,fr23_x4).
body(r_fr21_101,fr21_p2).
body(r_fr21_101,fr21_r3).
head(r_fr21_102,fr21_t2).
body(r_fr21_102,fr21_d2).
body(r_fr21_102,fr21_e2).
body(r_fr21_102,fr21_f1).
head(r_fr21_103,fr21_t2).
body(r_fr21_103,fr21_e1).
head(r_fr21_104,fr21_t2).
body(r_fr21_104,fr21_d1).
body(r_fr21_104,fr8_z1).
body(r_fr21_104,fr21_v2).
head(r_fr21_105,fr21_t2).
body(r_fr21_105,fr18_a1).
body(r_fr21_105,fr21_b3).
body(r_fr21_105,fr21_f1).
body(r_fr21_105,fr21_f2).
body(r_fr21_105,fr21_p2).
body(r_fr21_105,fr24_v1).
head(r_fr21_106,fr21_t2).
body(r_fr21_106,fr21_p3).
body(r_fr21_106,fr21_z2).
head(r_fr21_107,fr21_t2).
body(r_fr21_107,fr21_a2).
body(r_fr21_107,fr21_b1).
head(r_fr21_108,fr21_t2).
body(r_fr21_108,fr21_b3).
body(r_fr21_108,fr21_c1).
body(r_fr21_108,fr23_x4).
body(r_fr21_108,fr21_p2).
body(r_fr21_108,fr8_z1).
body(r_fr21_108,fr8_z1).
head(r_fr21_109,fr21_t2).
body(r_fr21_109,fr21_b3).
body(r_fr21_109,fr21_c1).
body(r_fr21_109,fr21_d1).
body(r_fr21_109,fr21_e2).
head(r_fr21_110,fr21_t2).
body(r_fr21_110,fr18_a1).
body(r_fr21_110,fr21_s2).
body(r_fr21_110,fr21_y1).
head(r_fr21_111,fr21_t2).
body(r_fr21_111,fr21_a3).
body(r_fr21_111,fr21_c1).
body(r_fr21_111,fr21_q3).
head(r_fr21_112,fr21_t2).
body(r_fr21_112,fr18_a1).
body(r_fr21_112,fr21_a3).
body(r_fr21_112,fr21_b1).
body(r_fr21_112,fr21_d2).
body(r_fr21_112,fr21_e2).
body(r_fr21_112,fr21_z2).
head(r_fr21_113,fr21_t2).
body(r_fr21_113,fr23_x4).
body(r_fr21_113,fr21_q1).
body(r_fr21_113,fr24_v1).
body(r_fr21_113,fr21_x1).
body(r_fr21_113,fr21_y2).
head(r_fr21_114,fr21_t2).
body(r_fr21_114,fr21_e2).
body(r_fr21_114,fr21_q3).
head(r_fr21_115,fr21_t2).
body(r_fr21_115,fr21_c2).
body(r_fr21_115,fr24_v1).
body(r_fr21_115,fr21_r3).
body(r_fr21_115,fr21_z2).
head(r_fr21_116,fr21_t2).
body(r_fr21_116,fr21_a2).
body(r_fr21_116,fr21_b1).
body(r_fr21_116,fr21_x1).
head(r_fr21_117,fr21_t2).
head(r_fr21_118,fr21_t2).
body(r_fr21_118,fr21_e1).
body(r_fr21_118,fr21_f1).
head(r_fr21_119,fr21_u1).
body(r_fr21_119,fr21_c2).
body(r_fr21_119,fr21_f1).
body(r_fr21_119,fr21_x1).
head(r_fr21_120,fr21_u1).
body(r_fr21_120,fr18_a1).
body(r_fr21_120,fr21_b2).
body(r_fr21_120,fr21_b3).
body(r_fr21_120,fr21_d1).
body(r_fr21_120,fr21_f1).
head(r_fr21_121,fr21_u1).
body(r_fr21_121,fr21_e1).
body(r_fr21_121,fr21_z1).
head(r_fr21_122,fr21_u1).
body(r_fr21_122,fr17_w1).
body(r_fr21_122,fr21_r2).
body(r_fr21_122,fr21_r3).
body(r_fr21_122,fr21_v2).
head(r_fr21_123,fr21_u1).
body(r_fr21_123,fr21_b1).
body(r_fr21_123,fr21_b2).
body(r_fr21_123,fr21_e1).
body(r_fr21_123,fr21_e2).
body(r_fr21_123,fr21_t2).
head(r_fr21_124,fr21_u1).
body(r_fr21_124,fr8_r3).
head(r_fr21_125,fr21_u1).
body(r_fr21_125,fr18_a1).
body(r_fr21_125,fr21_b1).
body(r_fr21_125,fr21_d1).
head(r_fr21_126,fr21_u1).
body(r_fr21_126,fr21_b3).
body(r_fr21_126,fr21_e1).
body(r_fr21_126,fr21_t2).
head(r_fr21_127,fr21_u1).
body(r_fr21_127,fr21_a3).
body(r_fr21_127,fr23_x4).
body(r_fr21_127,fr21_s2).
body(r_fr21_127,fr21_v2).
body(r_fr21_127,fr21_x1).
body(r_fr21_127,fr21_y1).
head(r_fr21_128,fr21_u1).
body(r_fr21_128,fr21_a3).
body(r_fr21_128,fr21_b1).
body(r_fr21_128,fr21_c1).
head(r_fr21_129,fr21_u1).
body(r_fr21_129,fr21_a2).
body(r_fr21_129,fr21_a3).
body(r_fr21_129,fr21_b1).
body(r_fr21_129,fr21_d1).
body(r_fr21_129,fr21_f1).
head(r_fr21_130,fr21_u1).
body(r_fr21_130,fr21_b1).
body(r_fr21_130,fr21_c3).
body(r_fr21_130,fr21_f1).
body(r_fr21_130,fr21_q1).
body(r_fr21_130,fr21_s2).
body(r_fr21_130,fr2_v1).
head(r_fr21_131,fr21_u1).
body(r_fr21_131,fr21_t1).
body(r_fr21_131,fr21_w1).
body(r_fr21_131,fr21_w2).
body(r_fr21_131,fr21_y1).
head(r_fr21_132,fr21_u1).
body(r_fr21_132,fr21_p3).
body(r_fr21_132,fr8_r3).
head(r_fr21_133,fr21_u1).
body(r_fr21_133,fr21_b1).
body(r_fr21_133,fr8_z1).
head(r_fr21_134,fr21_u1).
body(r_fr21_134,fr18_a1).
body(r_fr21_134,fr21_a3).
body(r_fr21_134,fr21_c3).
body(r_fr21_134,fr21_d1).
body(r_fr21_134,fr21_e1).
body(r_fr21_134,fr21_v2).
head(r_fr21_135,fr21_u1).
body(r_fr21_135,fr21_f2).
body(r_fr21_135,fr21_q1).
body(r_fr21_135,fr21_q3).
head(r_fr21_136,fr21_u1).
body(r_fr21_136,fr21_a2).
body(r_fr21_136,fr21_b1).
body(r_fr21_136,fr21_c3).
body(r_fr21_136,fr21_e1).
body(r_fr21_136,fr21_e2).
body(r_fr21_136,fr21_f2).
head(r_fr21_137,fr21_u1).
body(r_fr21_137,fr18_a1).
body(r_fr21_137,fr21_a2).
head(r_fr21_138,fr21_u1).
body(r_fr21_138,fr18_a1).
head(r_fr21_139,fr21_u1).
body(r_fr21_139,fr21_c2).
body(r_fr21_139,fr21_e2).
body(r_fr21_139,fr21_f1).
body(r_fr21_139,fr8_r3).
body(r_fr21_139,fr21_y2).
head(r_fr21_140,fr21_u1).
body(r_fr21_140,fr18_a1).
body(r_fr21_140,fr21_c3).
head(r_fr21_141,fr21_u1).
body(r_fr21_141,fr23_x4).
body(r_fr21_141,fr21_x1).
head(r_fr21_142,fr21_u1).
body(r_fr21_142,fr18_a1).
body(r_fr21_142,fr24_v1).
body(r_fr21_142,fr21_t1).
body(r_fr21_142,fr21_w1).
body(r_fr21_142,fr21_z2).
head(r_fr21_143,fr21_u1).
head(r_fr21_144,fr21_u1).
body(r_fr21_144,fr8_z1).
head(r_fr21_145,fr24_v1).
body(r_fr21_145,fr17_w1).
body(r_fr21_145,fr21_y1).
head(r_fr21_146,fr24_v1).
body(r_fr21_146,fr21_p2).
body(r_fr21_146,fr21_u1).
body(r_fr21_146,fr21_w1).
body(r_fr21_146,fr21_y1).
head(r_fr21_147,fr24_v1).
body(r_fr21_147,fr17_w1).
head(r_fr21_148,fr24_v1).
body(r_fr21_148,fr21_q1).
body(r_fr21_148,fr21_q3).
body(r_fr21_148,fr8_z1).
head(r_fr21_149,fr24_v1).
body(r_fr21_149,fr21_p3).
body(r_fr21_149,fr21_u1).
body(r_fr21_149,fr8_z1).
body(r_fr21_149,fr8_r3).
body(r_fr21_149,fr21_x1).
body(r_fr21_149,fr21_z2).
head(r_fr21_150,fr24_v1).
body(r_fr21_150,fr21_b2).
body(r_fr21_150,fr21_c3).
body(r_fr21_150,fr21_p2).
body(r_fr21_150,fr8_z1).
body(r_fr21_150,fr21_s2).
head(r_fr21_151,fr24_v1).
body(r_fr21_151,fr18_a1).
body(r_fr21_151,fr17_w1).
head(r_fr21_152,fr24_v1).
body(r_fr21_152,fr21_b3).
body(r_fr21_152,fr21_c1).
body(r_fr21_152,fr21_c2).
body(r_fr21_152,fr21_d1).
body(r_fr21_152,fr21_d2).
body(r_fr21_152,fr21_w2).
head(r_fr21_153,fr24_v1).
body(r_fr21_153,fr21_a2).
body(r_fr21_153,fr21_r3).
body(r_fr21_153,fr21_s2).
body(r_fr21_153,fr21_t1).
body(r_fr21_153,fr8_z1).
body(r_fr21_153,fr21_w2).
head(r_fr21_154,fr24_v1).
body(r_fr21_154,fr21_q1).
body(r_fr21_154,fr8_z1).
body(r_fr21_154,fr8_r3).
body(r_fr21_154,fr21_x1).
body(r_fr21_154,fr2_v1).
body(r_fr21_154,fr21_y1).
head(r_fr21_155,fr24_v1).
body(r_fr21_155,fr8_z1).
head(r_fr21_156,fr24_v1).
body(r_fr21_156,fr21_e1).
body(r_fr21_156,fr21_w2).
body(r_fr21_156,fr21_x1).
body(r_fr21_156,fr21_y1).
head(r_fr21_157,fr24_v1).
body(r_fr21_157,fr18_a1).
body(r_fr21_157,fr17_w1).
body(r_fr21_157,fr21_w1).
body(r_fr21_157,fr21_x1).
body(r_fr21_157,fr21_y1).
body(r_fr21_157,fr21_y2).
head(r_fr21_158,fr24_v1).
body(r_fr21_158,fr21_a3).
body(r_fr21_158,fr21_c3).
body(r_fr21_158,fr21_d2).
body(r_fr21_158,fr21_f1).
body(r_fr21_158,fr21_f2).
head(r_fr21_159,fr24_v1).
body(r_fr21_159,fr21_r2).
body(r_fr21_159,fr8_z1).
body(r_fr21_159,fr21_t2).
body(r_fr21_159,fr21_z2).
head(r_fr21_160,fr24_v1).
body(r_fr21_160,fr21_a3).
body(r_fr21_160,fr21_d2).
body(r_fr21_160,fr21_p3).
body(r_fr21_160,fr21_q1).
body(r_fr21_160,fr21_w2).
body(r_fr21_160,fr21_z2).
head(r_fr21_161,fr24_v1).
body(r_fr21_161,fr21_c2).
body(r_fr21_161,fr21_c3).
head(r_fr21_162,fr24_v1).
body(r_fr21_162,fr21_s2).
body(r_fr21_162,fr21_y2).
head(r_fr21_163,fr24_v1).
body(r_fr21_163,fr21_b2).
body(r_fr21_163,fr21_q1).
body(r_fr21_163,fr21_t2).
head(r_fr21_164,fr24_v1).
body(r_fr21_164,fr21_p3).
body(r_fr21_164,fr17_w1).
body(r_fr21_164,fr8_z1).
body(r_fr21_164,fr21_v2).
body(r_fr21_164,fr21_y2).
head(r_fr21_165,fr24_v1).
body(r_fr21_165,fr21_w2).
head(r_fr21_166,fr24_v1).
body(r_fr21_166,fr21_e2).
body(r_fr21_166,fr23_x4).
body(r_fr21_166,fr21_p2).
body(r_fr21_166,fr21_r2).
body(r_fr21_166,fr21_r3).
body(r_fr21_166,fr21_u1).
head(r_fr21_167,fr24_v1).
head(r_fr21_168,fr24_v1).
body(r_fr21_168,fr21_b1).
body(r_fr21_168,fr21_z1).
head(r_fr21_169,fr24_v1).
body(r_fr21_169,fr23_x4).
body(r_fr21_169,fr21_q3).
body(r_fr21_169,fr8_z1).
head(r_fr21_170,fr21_p2).
body(r_fr21_170,fr21_e2).
body(r_fr21_170,fr21_s2).
body(r_fr21_170,fr8_z1).
body(r_fr21_170,fr8_r3).
body(r_fr21_170,fr21_w1).
body(r_fr21_170,fr21_x1).
head(r_fr21_171,fr21_p2).
body(r_fr21_171,fr21_b1).
body(r_fr21_171,fr21_c1).
body(r_fr21_171,fr21_r3).
body(r_fr21_171,fr8_z1).
body(r_fr21_171,fr21_y1).
head(r_fr21_172,fr21_p2).
body(r_fr21_172,fr21_p3).
body(r_fr21_172,fr21_q3).
body(r_fr21_172,fr21_t2).
body(r_fr21_172,fr8_r3).
body(r_fr21_172,fr21_w2).
head(r_fr21_173,fr21_p2).
body(r_fr21_173,fr21_c3).
body(r_fr21_173,fr21_d2).
body(r_fr21_173,fr21_p3).
body(r_fr21_173,fr17_w1).
body(r_fr21_173,fr21_x1).
head(r_fr21_174,fr21_p2).
body(r_fr21_174,fr21_b1).
body(r_fr21_174,fr21_u1).
head(r_fr21_175,fr21_p2).
body(r_fr21_175,fr24_v1).
body(r_fr21_175,fr21_r3).
body(r_fr21_175,fr21_z2).
head(r_fr21_176,fr21_p2).
body(r_fr21_176,fr21_a3).
body(r_fr21_176,fr21_b2).
body(r_fr21_176,fr21_e2).
body(r_fr21_176,fr21_f1).
head(r_fr21_177,fr21_p2).
body(r_fr21_177,fr23_x4).
body(r_fr21_177,fr21_q3).
body(r_fr21_177,fr24_v1).
body(r_fr21_177,fr21_t1).
body(r_fr21_177,fr21_w1).
body(r_fr21_177,fr21_z1).
head(r_fr21_178,fr21_p2).
body(r_fr21_178,fr21_a2).
body(r_fr21_178,fr21_b2).
body(r_fr21_178,fr21_d1).
body(r_fr21_178,fr21_e1).
body(r_fr21_178,fr21_p3).
body(r_fr21_178,fr21_z2).
head(r_fr21_179,fr21_p2).
body(r_fr21_179,fr21_d1).
body(r_fr21_179,fr21_w1).
body(r_fr21_179,fr21_x1).
body(r_fr21_179,fr21_y1).
head(r_fr21_180,fr21_p2).
body(r_fr21_180,fr21_x1).
body(r_fr21_180,fr21_y2).
head(r_fr21_181,fr21_p2).
body(r_fr21_181,fr21_a3).
body(r_fr21_181,fr21_b3).
body(r_fr21_181,fr21_c1).
body(r_fr21_181,fr21_d1).
body(r_fr21_181,fr21_d2).
head(r_fr21_182,fr21_p2).
body(r_fr21_182,fr21_a3).
body(r_fr21_182,fr21_b2).
body(r_fr21_182,fr21_d1).
body(r_fr21_182,fr21_e1).
body(r_fr21_182,fr21_f1).
head(r_fr21_183,fr21_p2).
body(r_fr21_183,fr21_b1).
body(r_fr21_183,fr21_r3).
head(r_fr21_184,fr21_p2).
body(r_fr21_184,fr18_a1).
body(r_fr21_184,fr21_a2).
body(r_fr21_184,fr21_b2).
body(r_fr21_184,fr21_c1).
body(r_fr21_184,fr21_e1).
body(r_fr21_184,fr21_y2).
head(r_fr21_185,fr21_p2).
body(r_fr21_185,fr21_b2).
body(r_fr21_185,fr21_e2).
body(r_fr21_185,fr8_z1).
body(r_fr21_185,fr21_x1).
body(r_fr21_185,fr2_v1).
head(r_fr21_186,fr21_p2).
body(r_fr21_186,fr21_a2).
body(r_fr21_186,fr21_c2).
body(r_fr21_186,fr21_d2).
body(r_fr21_186,fr21_t1).
body(r_fr21_186,fr2_v1).
head(r_fr21_187,fr21_p2).
body(r_fr21_187,fr21_c1).
head(r_fr21_188,fr21_p2).
body(r_fr21_188,fr21_b2).
body(r_fr21_188,fr21_b3).
body(r_fr21_188,fr21_c3).
body(r_fr21_188,fr21_f2).
body(r_fr21_188,fr21_z1).
head(r_fr21_189,fr21_p2).
head(r_fr21_190,fr21_p2).
body(r_fr21_190,fr8_r3).
body(r_fr21_190,fr21_y2).
head(r_fr21_191,fr21_p2).
body(r_fr21_191,fr21_c1).
body(r_fr21_191,fr21_d1).
body(r_fr21_191,fr21_e2).
body(r_fr21_191,fr21_f2).
head(r_fr21_192,fr21_p2).
body(r_fr21_192,fr21_e2).
head(r_fr21_193,fr21_p2).
body(r_fr21_193,fr21_r2).
body(r_fr21_193,fr8_z1).
body(r_fr21_193,fr8_z1).
head(r_fr21_194,fr17_w1).
body(r_fr21_194,fr21_u1).
body(r_fr21_194,fr21_w1).
body(r_fr21_194,fr2_v1).
head(r_fr21_195,fr17_w1).
body(r_fr21_195,fr18_a1).
body(r_fr21_195,fr21_c2).
body(r_fr21_195,fr21_c3).
body(r_fr21_195,fr21_e2).
body(r_fr21_195,fr21_r2).
body(r_fr21_195,fr21_s2).
head(r_fr21_196,fr17_w1).
body(r_fr21_196,fr21_p3).
body(r_fr21_196,fr21_q3).
body(r_fr21_196,fr21_t1).
body(r_fr21_196,fr21_w2).
head(r_fr21_197,fr17_w1).
body(r_fr21_197,fr21_q3).
body(r_fr21_197,fr8_r3).
body(r_fr21_197,fr21_x1).
body(r_fr21_197,fr2_v1).
head(r_fr21_198,fr17_w1).
body(r_fr21_198,fr21_b2).
body(r_fr21_198,fr21_d1).
head(r_fr21_199,fr17_w1).
body(r_fr21_199,fr21_b3).
body(r_fr21_199,fr21_e2).
body(r_fr21_199,fr24_v1).
body(r_fr21_199,fr21_t1).
body(r_fr21_199,fr8_r3).
head(r_fr21_200,fr17_w1).
body(r_fr21_200,fr21_c1).
body(r_fr21_200,fr21_q1).
body(r_fr21_200,fr8_z1).
body(r_fr21_200,fr21_v2).
head(r_fr21_201,fr17_w1).
body(r_fr21_201,fr21_c1).
body(r_fr21_201,fr21_p3).
body(r_fr21_201,fr21_q3).
body(r_fr21_201,fr8_r3).
body(r_fr21_201,fr21_v2).
body(r_fr21_201,fr21_z2).
head(r_fr21_202,fr17_w1).
body(r_fr21_202,fr21_p2).
head(r_fr21_203,fr17_w1).
body(r_fr21_203,fr21_b2).
body(r_fr21_203,fr21_c3).
body(r_fr21_203,fr21_d2).
body(r_fr21_203,fr24_v1).
head(r_fr21_204,fr17_w1).
body(r_fr21_204,fr18_a1).
body(r_fr21_204,fr21_b3).
body(r_fr21_204,fr21_d1).
body(r_fr21_204,fr21_e1).
body(r_fr21_204,fr21_f1).
body(r_fr21_204,fr21_p2).
head(r_fr21_205,fr17_w1).
body(r_fr21_205,fr21_c2).
body(r_fr21_205,fr21_c3).
body(r_fr21_205,fr21_s2).
body(r_fr21_205,fr21_t1).
head(r_fr21_206,fr17_w1).
body(r_fr21_206,fr18_a1).
body(r_fr21_206,fr21_c3).
body(r_fr21_206,fr21_d2).
body(r_fr21_206,fr8_z1).
head(r_fr21_207,fr17_w1).
head(r_fr21_208,fr17_w1).
body(r_fr21_208,fr18_a1).
body(r_fr21_208,fr21_a2).
body(r_fr21_208,fr21_a3).
body(r_fr21_208,fr21_b1).
body(r_fr21_208,fr21_c2).
body(r_fr21_208,fr21_e1).
head(r_fr21_209,fr17_w1).
body(r_fr21_209,fr21_f2).
head(r_fr21_210,fr17_w1).
body(r_fr21_210,fr21_c2).
head(r_fr21_211,fr17_w1).
body(r_fr21_211,fr23_x4).
body(r_fr21_211,fr21_r3).
body(r_fr21_211,fr21_v2).
body(r_fr21_211,fr21_y1).
body(r_fr21_211,fr21_z1).
body(r_fr21_211,fr21_z2).
head(r_fr21_212,fr17_w1).
body(r_fr21_212,fr21_s2).
head(r_fr21_213,fr17_w1).
body(r_fr21_213,fr21_p2).
body(r_fr21_213,fr8_r3).
head(r_fr21_214,fr17_w1).
body(r_fr21_214,fr21_c2).
body(r_fr21_214,fr21_u1).
head(r_fr21_215,fr17_w1).
body(r_fr21_215,fr21_v2).
body(r_fr21_215,fr21_y2).
head(r_fr21_216,fr17_w1).
body(r_fr21_216,fr18_a1).
body(r_fr21_216,fr21_p3).
body(r_fr21_216,fr8_z1).
body(r_fr21_216,fr8_r3).
body(r_fr21_216,fr21_w1).
body(r_fr21_216,fr21_y2).
head(r_fr21_217,fr17_w1).
body(r_fr21_217,fr21_f1).
body(r_fr21_217,fr21_p3).
head(r_fr21_218,fr17_w1).
body(r_fr21_218,fr21_b1).
head(r_fr21_219,fr17_w1).
body(r_fr21_219,fr21_p3).
head(r_fr21_220,fr2_v1).
body(r_fr21_220,fr18_a1).
body(r_fr21_220,fr23_x4).
body(r_fr21_220,fr24_v1).
body(r_fr21_220,fr21_r3).
head(r_fr21_221,fr2_v1).
body(r_fr21_221,fr21_r3).
body(r_fr21_221,fr8_z1).
body(r_fr21_221,fr21_w2).
body(r_fr21_221,fr21_x1).
head(r_fr21_222,fr2_v1).
body(r_fr21_222,fr21_p2).
body(r_fr21_222,fr21_q3).
body(r_fr21_222,fr21_z1).
head(r_fr21_223,fr2_v1).
body(r_fr21_223,fr21_d1).
body(r_fr21_223,fr21_d2).
body(r_fr21_223,fr21_e1).
body(r_fr21_223,fr21_f2).
body(r_fr21_223,fr21_z1).
head(r_fr21_224,fr2_v1).
body(r_fr21_224,fr21_b2).
body(r_fr21_224,fr21_b3).
body(r_fr21_224,fr21_c2).
body(r_fr21_224,fr21_f2).
body(r_fr21_224,fr8_z1).
body(r_fr21_224,fr21_w1).
head(r_fr21_225,fr2_v1).
body(r_fr21_225,fr21_c1).
body(r_fr21_225,fr21_c2).
body(r_fr21_225,fr21_c3).
body(r_fr21_225,fr21_e1).
body(r_fr21_225,fr21_f1).
head(r_fr21_226,fr2_v1).
body(r_fr21_226,fr21_r2).
body(r_fr21_226,fr21_r3).
body(r_fr21_226,fr21_s2).
body(r_fr21_226,fr21_t1).
body(r_fr21_226,fr21_v2).
body(r_fr21_226,fr21_z2).
head(r_fr21_227,fr2_v1).
body(r_fr21_227,fr21_q3).
body(r_fr21_227,fr21_r3).
body(r_fr21_227,fr8_z1).
body(r_fr21_227,fr21_s2).
head(r_fr21_228,fr2_v1).
body(r_fr21_228,fr21_b3).
body(r_fr21_228,fr21_q3).
body(r_fr21_228,fr21_r3).
body(r_fr21_228,fr21_w1).
body(r_fr21_228,fr21_w2).
head(r_fr21_229,fr2_v1).
body(r_fr21_229,fr21_r2).
body(r_fr21_229,fr21_t2).
body(r_fr21_229,fr21_u1).
body(r_fr21_229,fr21_y1).
body(r_fr21_229,fr21_z1).
head(r_fr21_230,fr2_v1).
body(r_fr21_230,fr23_x4).
body(r_fr21_230,fr21_q1).
body(r_fr21_230,fr21_r2).
body(r_fr21_230,fr21_v2).
body(r_fr21_230,fr21_y2).
head(r_fr21_231,fr2_v1).
body(r_fr21_231,fr21_a2).
body(r_fr21_231,fr21_b3).
body(r_fr21_231,fr21_d1).
body(r_fr21_231,fr21_f1).
head(r_fr21_232,fr2_v1).
body(r_fr21_232,fr21_p2).
body(r_fr21_232,fr21_r2).
body(r_fr21_232,fr21_t1).
body(r_fr21_232,fr8_z1).
body(r_fr21_232,fr21_z2).
head(r_fr21_233,fr2_v1).
body(r_fr21_233,fr21_a3).
body(r_fr21_233,fr21_b1).
body(r_fr21_233,fr21_b3).
body(r_fr21_233,fr21_c2).
body(r_fr21_233,fr21_c3).
body(r_fr21_233,fr21_f1).
head(r_fr21_234,fr2_v1).
body(r_fr21_234,fr21_b1).
body(r_fr21_234,fr23_x4).
body(r_fr21_234,fr21_w1).
body(r_fr21_234,fr21_y1).
head(r_fr21_235,fr2_v1).
body(r_fr21_235,fr21_b3).
body(r_fr21_235,fr21_c1).
body(r_fr21_235,fr21_f1).
body(r_fr21_235,fr17_w1).
body(r_fr21_235,fr8_z1).
body(r_fr21_235,fr21_y1).
head(r_fr21_236,fr2_v1).
body(r_fr21_236,fr21_s2).
body(r_fr21_236,fr8_z1).
head(r_fr21_237,fr2_v1).
body(r_fr21_237,fr21_w1).
head(r_fr21_238,fr2_v1).
body(r_fr21_238,fr21_c1).
body(r_fr21_238,fr21_f1).
body(r_fr21_238,fr21_t1).
body(r_fr21_238,fr21_w1).
body(r_fr21_238,fr21_y1).
head(r_fr21_239,fr2_v1).
body(r_fr21_239,fr21_b1).
body(r_fr21_239,fr21_f1).
body(r_fr21_239,fr23_x4).
body(r_fr21_239,fr21_t2).
head(r_fr21_240,fr2_v1).
body(r_fr21_240,fr21_c3).
head(r_fr21_241,fr2_v1).
body(r_fr21_241,fr18_a1).
body(r_fr21_241,fr21_b3).
body(r_fr21_241,fr21_c1).
head(r_fr21_242,fr2_v1).
body(r_fr21_242,fr18_a1).
body(r_fr21_242,fr21_c2).
body(r_fr21_242,fr17_w1).
body(r_fr21_242,fr8_z1).
body(r_fr21_242,fr21_x1).
head(r_fr21_243,fr2_v1).
body(r_fr21_243,fr21_c1).
body(r_fr21_243,fr21_c2).
head(r_fr21_244,fr21_s2).
body(r_fr21_244,fr24_v1).
body(r_fr21_244,fr21_r3).
body(r_fr21_244,fr21_w1).
head(r_fr21_245,fr21_s2).
body(r_fr21_245,fr21_a2).
body(r_fr21_245,fr21_r2).
body(r_fr21_245,fr21_y1).
head(r_fr21_246,fr21_s2).
body(r_fr21_246,fr21_c3).
body(r_fr21_246,fr21_w1).
body(r_fr21_246,fr21_x1).
head(r_fr21_247,fr21_s2).
body(r_fr21_247,fr21_b3).
body(r_fr21_247,fr21_d2).
body(r_fr21_247,fr21_p3).
body(r_fr21_247,fr8_z1).
head(r_fr21_248,fr21_s2).
body(r_fr21_248,fr21_c1).
body(r_fr21_248,fr21_d1).
body(r_fr21_248,fr21_f2).
head(r_fr21_249,fr21_s2).
body(r_fr21_249,fr8_z1).
body(r_fr21_249,fr21_x1).
head(r_fr21_250,fr21_s2).
body(r_fr21_250,fr21_p3).
body(r_fr21_250,fr21_q1).
body(r_fr21_250,fr21_q3).
body(r_fr21_250,fr21_r2).
head(r_fr21_251,fr21_s2).
body(r_fr21_251,fr21_b3).
body(r_fr21_251,fr21_p2).
head(r_fr21_252,fr21_s2).
body(r_fr21_252,fr21_d1).
body(r_fr21_252,fr21_e2).
body(r_fr21_252,fr21_f1).
body(r_fr21_252,fr21_y1).
head(r_fr21_253,fr21_s2).
body(r_fr21_253,fr21_b2).
body(r_fr21_253,fr21_e2).
body(r_fr21_253,fr21_t2).
body(r_fr21_253,fr8_z1).
body(r_fr21_253,fr21_z1).
head(r_fr21_254,fr21_s2).
body(r_fr21_254,fr21_d2).
head(r_fr21_255,fr21_s2).
body(r_fr21_255,fr21_c2).
body(r_fr21_255,fr21_d2).
head(r_fr21_256,fr21_s2).
body(r_fr21_256,fr21_d2).
body(r_fr21_256,fr21_p2).
body(r_fr21_256,fr21_r3).
body(r_fr21_256,fr21_w2).
head(r_fr21_257,fr21_s2).
body(r_fr21_257,fr21_d1).
head(r_fr21_258,fr21_s2).
body(r_fr21_258,fr21_a3).
body(r_fr21_258,fr21_c2).
body(r_fr21_258,fr21_d1).
body(r_fr21_258,fr21_d2).
body(r_fr21_258,fr21_f1).
head(r_fr21_259,fr21_s2).
body(r_fr21_259,fr21_d1).
body(r_fr21_259,fr21_f1).
body(r_fr21_259,fr21_f2).
head(r_fr21_260,fr21_s2).
body(r_fr21_260,fr21_b1).
body(r_fr21_260,fr21_c1).
body(r_fr21_260,fr21_f2).
body(r_fr21_260,fr8_z1).
body(r_fr21_260,fr8_z1).
body(r_fr21_260,fr21_x1).
head(r_fr21_261,fr21_s2).
body(r_fr21_261,fr18_a1).
body(r_fr21_261,fr21_b1).
body(r_fr21_261,fr21_c1).
body(r_fr21_261,fr21_e2).
head(r_fr21_262,fr21_s2).
body(r_fr21_262,fr21_x1).
head(r_fr21_263,fr21_s2).
head(r_fr21_264,fr21_s2).
body(r_fr21_264,fr21_f1).
body(r_fr21_264,fr21_w2).
head(r_fr21_265,fr21_s2).
body(r_fr21_265,fr21_a3).
body(r_fr21_265,fr21_c1).
body(r_fr21_265,fr8_z1).
head(r_fr21_266,fr21_s2).
body(r_fr21_266,fr21_a2).
body(r_fr21_266,fr21_a3).
body(r_fr21_266,fr21_z1).
head(r_fr21_267,fr21_s2).
body(r_fr21_267,fr21_t2).
head(r_fr21_268,fr21_w2).
body(r_fr21_268,fr18_a1).
body(r_fr21_268,fr21_e2).
body(r_fr21_268,fr21_f2).
body(r_fr21_268,fr21_p3).
body(r_fr21_268,fr17_w1).
body(r_fr21_268,fr8_z1).
head(r_fr21_269,fr21_w2).
body(r_fr21_269,fr8_z1).
body(r_fr21_269,fr21_z2).
head(r_fr21_270,fr21_w2).
body(r_fr21_270,fr21_a3).
body(r_fr21_270,fr21_d2).
body(r_fr21_270,fr21_e1).
body(r_fr21_270,fr21_e2).
body(r_fr21_270,fr21_f2).
head(r_fr21_271,fr21_w2).
body(r_fr21_271,fr21_a3).
body(r_fr21_271,fr21_b2).
body(r_fr21_271,fr21_c2).
body(r_fr21_271,fr21_d1).
body(r_fr21_271,fr21_d2).
body(r_fr21_271,fr21_e2).
head(r_fr21_272,fr21_w2).
body(r_fr21_272,fr24_v1).
body(r_fr21_272,fr21_r3).
body(r_fr21_272,fr21_v2).
head(r_fr21_273,fr21_w2).
body(r_fr21_273,fr21_c2).
body(r_fr21_273,fr21_d1).
body(r_fr21_273,fr21_f2).
body(r_fr21_273,fr21_q3).
body(r_fr21_273,fr24_v1).
head(r_fr21_274,fr21_w2).
body(r_fr21_274,fr21_e2).
body(r_fr21_274,fr17_w1).
head(r_fr21_275,fr21_w2).
body(r_fr21_275,fr21_c2).
body(r_fr21_275,fr8_z1).
head(r_fr21_276,fr21_w2).
body(r_fr21_276,fr21_e1).
body(r_fr21_276,fr21_f2).
body(r_fr21_276,fr24_v1).
body(r_fr21_276,fr21_t1).
head(r_fr21_277,fr21_w2).
body(r_fr21_277,fr21_f1).
body(r_fr21_277,fr21_q3).
body(r_fr21_277,fr21_r3).
body(r_fr21_277,fr21_t2).
head(r_fr21_278,fr21_w2).
body(r_fr21_278,fr21_a2).
body(r_fr21_278,fr21_b1).
body(r_fr21_278,fr21_b2).
body(r_fr21_278,fr21_b3).
body(r_fr21_278,fr21_f1).
head(r_fr21_279,fr21_w2).
body(r_fr21_279,fr23_x4).
body(r_fr21_279,fr21_p2).
body(r_fr21_279,fr21_p3).
body(r_fr21_279,fr21_r3).
body(r_fr21_279,fr21_v2).
body(r_fr21_279,fr21_y1).
head(r_fr21_280,fr21_w2).
body(r_fr21_280,fr21_a3).
body(r_fr21_280,fr21_r2).
body(r_fr21_280,fr8_z1).
body(r_fr21_280,fr21_u1).
body(r_fr21_280,fr21_w1).
head(r_fr21_281,fr21_w2).
body(r_fr21_281,fr21_t2).
head(r_fr21_282,fr21_w2).
body(r_fr21_282,fr21_e1).
head(r_fr21_283,fr21_w2).
body(r_fr21_283,fr21_f1).
head(r_fr21_284,fr21_w2).
body(r_fr21_284,fr21_d1).
body(r_fr21_284,fr21_f2).
body(r_fr21_284,fr21_r3).
body(r_fr21_284,fr8_r3).
body(r_fr21_284,fr2_v1).
head(r_fr21_285,fr21_w2).
body(r_fr21_285,fr21_p2).
body(r_fr21_285,fr8_z1).
body(r_fr21_285,fr8_r3).
head(r_fr21_286,fr21_w2).
body(r_fr21_286,fr21_b3).
body(r_fr21_286,fr21_c1).
body(r_fr21_286,fr21_d1).
body(r_fr21_286,fr21_e1).
body(r_fr21_286,fr21_f1).
head(r_fr21_287,fr21_w2).
body(r_fr21_287,fr18_a1).
body(r_fr21_287,fr21_e1).
body(r_fr21_287,fr21_p3).
body(r_fr21_287,fr21_y2).
body(r_fr21_287,fr21_z2).
head(r_fr21_288,fr21_w2).
body(r_fr21_288,fr23_x4).
body(r_fr21_288,fr21_r2).
body(r_fr21_288,fr8_z1).
body(r_fr21_288,fr21_y2).
head(r_fr21_289,fr21_w2).
body(r_fr21_289,fr21_b3).
body(r_fr21_289,fr21_d1).
body(r_fr21_289,fr21_f1).
body(r_fr21_289,fr21_f2).
head(r_fr21_290,fr21_w2).
body(r_fr21_290,fr2_v1).
body(r_fr21_290,fr21_z2).
head(r_fr21_291,fr21_w2).
body(r_fr21_291,fr21_a3).
body(r_fr21_291,fr21_d1).
body(r_fr21_291,fr21_f2).
head(r_fr21_292,fr21_w2).
body(r_fr21_292,fr21_b2).
body(r_fr21_292,fr21_c1).
body(r_fr21_292,fr21_d2).
body(r_fr21_292,fr21_f2).
body(r_fr21_292,fr21_r2).
body(r_fr21_292,fr21_y2).
head(r_fr21_293,fr21_w2).
head(r_fr21_294,fr21_x1).
body(r_fr21_294,fr21_r2).
body(r_fr21_294,fr21_t1).
body(r_fr21_294,fr21_y1).
body(r_fr21_294,fr21_z1).
head(r_fr21_295,fr21_x1).
body(r_fr21_295,fr21_b3).
body(r_fr21_295,fr21_r3).
body(r_fr21_295,fr21_s2).
body(r_fr21_295,fr21_v2).
body(r_fr21_295,fr21_w2).
head(r_fr21_296,fr21_x1).
body(r_fr21_296,fr21_p2).
body(r_fr21_296,fr24_v1).
body(r_fr21_296,fr21_r2).
body(r_fr21_296,fr21_y1).
body(r_fr21_296,fr21_y2).
head(r_fr21_297,fr21_x1).
body(r_fr21_297,fr21_p3).
body(r_fr21_297,fr21_w1).
body(r_fr21_297,fr21_y1).
body(r_fr21_297,fr21_y2).
head(r_fr21_298,fr21_x1).
body(r_fr21_298,fr21_t2).
head(r_fr21_299,fr21_x1).
body(r_fr21_299,fr8_z1).
body(r_fr21_299,fr8_r3).
body(r_fr21_299,fr21_y1).
head(r_fr21_300,fr21_x1).
body(r_fr21_300,fr18_a1).
body(r_fr21_300,fr21_b1).
body(r_fr21_300,fr21_b2).
body(r_fr21_300,fr21_f1).
body(r_fr21_300,fr8_z1).
head(r_fr21_301,fr21_x1).
body(r_fr21_301,fr21_a2).
body(r_fr21_301,fr21_b1).
body(r_fr21_301,fr21_c1).
body(r_fr21_301,fr21_e1).
body(r_fr21_301,fr21_f1).
body(r_fr21_301,fr21_v2).
head(r_fr21_302,fr21_x1).
body(r_fr21_302,fr18_a1).
body(r_fr21_302,fr21_b1).
body(r_fr21_302,fr21_c2).
body(r_fr21_302,fr21_e1).
body(r_fr21_302,fr21_f2).
body(r_fr21_302,fr23_x4).
head(r_fr21_303,fr21_x1).
body(r_fr21_303,fr18_a1).
body(r_fr21_303,fr21_p3).
head(r_fr21_304,fr21_x1).
body(r_fr21_304,fr23_x4).
body(r_fr21_304,fr17_w1).
body(r_fr21_304,fr2_v1).
body(r_fr21_304,fr21_y1).
body(r_fr21_304,fr21_z1).
head(r_fr21_305,fr21_x1).
body(r_fr21_305,fr21_a2).
body(r_fr21_305,fr21_a3).
body(r_fr21_305,fr21_b2).
body(r_fr21_305,fr21_c1).
body(r_fr21_305,fr21_c3).
body(r_fr21_305,fr21_e1).
head(r_fr21_306,fr21_x1).
body(r_fr21_306,fr21_a2).
body(r_fr21_306,fr21_c2).
body(r_fr21_306,fr17_w1).
body(r_fr21_306,fr8_z1).
head(r_fr21_307,fr21_x1).
body(r_fr21_307,fr21_b1).
body(r_fr21_307,fr21_c2).
body(r_fr21_307,fr8_z1).
head(r_fr21_308,fr21_x1).
body(r_fr21_308,fr21_a3).
body(r_fr21_308,fr21_c2).
head(r_fr21_309,fr21_x1).
head(r_fr21_310,fr21_x1).
body(r_fr21_310,fr18_a1).
body(r_fr21_310,fr21_a3).
body(r_fr21_310,fr21_b3).
body(r_fr21_310,fr21_c1).
body(r_fr21_310,fr21_u1).
body(r_fr21_310,fr2_v1).
head(r_fr21_311,fr21_x1).
body(r_fr21_311,fr18_a1).
body(r_fr21_311,fr21_c3).
body(r_fr21_311,fr21_d1).
body(r_fr21_311,fr21_q3).
head(r_fr21_312,fr21_x1).
body(r_fr21_312,fr21_d2).
body(r_fr21_312,fr21_e2).
body(r_fr21_312,fr8_r3).
head(r_fr21_313,fr21_x1).
body(r_fr21_313,fr18_a1).
head(r_fr21_314,fr21_x1).
body(r_fr21_314,fr21_c1).
head(r_fr21_315,fr21_x1).
body(r_fr21_315,fr21_b1).
body(r_fr21_315,fr21_d1).
body(r_fr21_315,fr21_w1).
body(r_fr21_315,fr21_w2).
head(r_fr21_316,fr21_x1).
body(r_fr21_316,fr21_b2).
body(r_fr21_316,fr21_d2).
body(r_fr21_316,fr21_e1).
head(r_fr21_317,fr21_x1).
body(r_fr21_317,fr21_b3).
body(r_fr21_317,fr21_c2).
body(r_fr21_317,fr21_e1).
body(r_fr21_317,fr21_e2).
body(r_fr21_317,fr21_w2).
head(r_fr21_318,fr21_x1).
body(r_fr21_318,fr21_r2).
body(r_fr21_318,fr21_t1).
body(r_fr21_318,fr21_w2).
body(r_fr21_318,fr21_y1).
head(r_fr21_319,fr21_x1).
body(r_fr21_319,fr21_r3).
body(r_fr21_319,fr21_s2).
body(r_fr21_319,fr21_t1).
body(r_fr21_319,fr21_t2).
body(r_fr21_319,fr8_r3).
body(r_fr21_319,fr2_v1).
head(r_fr21_320,fr21_q3).
body(r_fr21_320,fr24_v1).
body(r_fr21_320,fr8_z1).
head(r_fr21_321,fr21_q3).
body(r_fr21_321,fr21_r2).
head(r_fr21_322,fr21_q3).
body(r_fr21_322,fr21_q1).
body(r_fr21_322,fr21_r3).
body(r_fr21_322,fr21_t1).
body(r_fr21_322,fr21_v2).
head(r_fr21_323,fr21_q3).
body(r_fr21_323,fr18_a1).
body(r_fr21_323,fr21_d2).
body(r_fr21_323,fr23_x4).
head(r_fr21_324,fr21_q3).
body(r_fr21_324,fr21_a2).
head(r_fr21_325,fr21_q3).
body(r_fr21_325,fr21_a2).
body(r_fr21_325,fr21_b3).
body(r_fr21_325,fr21_c3).
body(r_fr21_325,fr21_e1).
body(r_fr21_325,fr21_q1).
head(r_fr21_326,fr21_q3).
body(r_fr21_326,fr21_d1).
body(r_fr21_326,fr21_d2).
body(r_fr21_326,fr24_v1).
body(r_fr21_326,fr21_t2).
head(r_fr21_327,fr21_q3).
body(r_fr21_327,fr18_a1).
body(r_fr21_327,fr21_b3).
body(r_fr21_327,fr21_c1).
body(r_fr21_327,fr21_c2).
body(r_fr21_327,fr21_c3).
body(r_fr21_327,fr21_d1).
head(r_fr21_328,fr21_q3).
body(r_fr21_328,fr21_d2).
body(r_fr21_328,fr21_e1).
head(r_fr21_329,fr21_q3).
body(r_fr21_329,fr24_v1).
body(r_fr21_329,fr8_r3).
body(r_fr21_329,fr21_w2).
body(r_fr21_329,fr21_y2).
head(r_fr21_330,fr21_q3).
body(r_fr21_330,fr8_z1).
head(r_fr21_331,fr21_q3).
body(r_fr21_331,fr21_d1).
body(r_fr21_331,fr21_d2).
body(r_fr21_331,fr21_f1).
body(r_fr21_331,fr21_f2).
body(r_fr21_331,fr21_x1).
head(r_fr21_332,fr21_q3).
body(r_fr21_332,fr21_p2).
body(r_fr21_332,fr21_q1).
body(r_fr21_332,fr21_r2).
body(r_fr21_332,fr21_z1).
head(r_fr21_333,fr21_q3).
body(r_fr21_333,fr18_a1).
body(r_fr21_333,fr21_a2).
body(r_fr21_333,fr21_d1).
body(r_fr21_333,fr23_x4).
body(r_fr21_333,fr21_r2).
head(r_fr21_334,fr21_q3).
body(r_fr21_334,fr21_b3).
body(r_fr21_334,fr21_d1).
body(r_fr21_334,fr21_t2).
body(r_fr21_334,fr8_z1).
head(r_fr21_335,fr21_q3).
body(r_fr21_335,fr21_b2).
body(r_fr21_335,fr21_f2).
body(r_fr21_335,fr21_r2).
body(r_fr21_335,fr21_r3).
body(r_fr21_335,fr21_t2).
head(r_fr21_336,fr21_q3).
body(r_fr21_336,fr17_w1).
body(r_fr21_336,fr21_r2).
head(r_fr21_337,fr21_q3).
body(r_fr21_337,fr18_a1).
body(r_fr21_337,fr21_c1).
body(r_fr21_337,fr21_d2).
body(r_fr21_337,fr17_w1).
body(r_fr21_337,fr21_r2).
body(r_fr21_337,fr21_w2).
head(r_fr21_338,fr21_q3).
body(r_fr21_338,fr21_c1).
body(r_fr21_338,fr21_c2).
body(r_fr21_338,fr21_r2).
body(r_fr21_338,fr8_z1).
body(r_fr21_338,fr21_y2).
head(r_fr21_339,fr21_q3).
body(r_fr21_339,fr24_v1).
head(r_fr21_340,fr21_q3).
body(r_fr21_340,fr21_a3).
body(r_fr21_340,fr21_b2).
head(r_fr21_341,fr21_q3).
body(r_fr21_341,fr18_a1).
body(r_fr21_341,fr21_b2).
body(r_fr21_341,fr21_c3).
body(r_fr21_341,fr21_e1).
body(r_fr21_341,fr21_f1).
head(r_fr21_342,fr21_q3).
head(r_fr21_343,fr21_q3).
body(r_fr21_343,fr21_c2).
body(r_fr21_343,fr21_d1).
body(r_fr21_343,fr21_d2).
body(r_fr21_343,fr21_e1).
body(r_fr21_343,fr21_y2).
head(r_fr21_344,fr21_q3).
body(r_fr21_344,fr21_b1).
body(r_fr21_344,fr21_b3).
body(r_fr21_344,fr21_c2).
body(r_fr21_344,fr21_c3).
body(r_fr21_344,fr21_d1).
head(r_fr21_345,fr8_z1).
body(r_fr21_345,fr21_a2).
body(r_fr21_345,fr21_b1).
body(r_fr21_345,fr21_b3).
body(r_fr21_345,fr21_e2).
body(r_fr21_345,fr21_t2).
body(r_fr21_345,fr8_r3).
head(r_fr21_346,fr8_z1).
body(r_fr21_346,fr21_a2).
body(r_fr21_346,fr21_d1).
body(r_fr21_346,fr21_f2).
body(r_fr21_346,fr21_s2).
head(r_fr21_347,fr8_z1).
body(r_fr21_347,fr21_a3).
body(r_fr21_347,fr17_w1).
body(r_fr21_347,fr21_w1).
head(r_fr21_348,fr8_z1).
body(r_fr21_348,fr21_f1).
body(r_fr21_348,fr24_v1).
body(r_fr21_348,fr8_z1).
body(r_fr21_348,fr21_t1).
body(r_fr21_348,fr8_r3).
body(r_fr21_348,fr2_v1).
head(r_fr21_349,fr8_z1).
body(r_fr21_349,fr21_b3).
body(r_fr21_349,fr21_f2).
body(r_fr21_349,fr21_q1).
body(r_fr21_349,fr21_r3).
body(r_fr21_349,fr21_s2).
body(r_fr21_349,fr21_z1).
head(r_fr21_350,fr8_z1).
body(r_fr21_350,fr21_c3).
body(r_fr21_350,fr21_q1).
body(r_fr21_350,fr21_s2).
head(r_fr21_351,fr8_z1).
body(r_fr21_351,fr23_x4).
body(r_fr21_351,fr21_r3).
head(r_fr21_352,fr8_z1).
body(r_fr21_352,fr21_r3).
body(r_fr21_352,fr21_v2).
body(r_fr21_352,fr21_w2).
body(r_fr21_352,fr21_x1).
body(r_fr21_352,fr21_y1).
head(r_fr21_353,fr8_z1).
body(r_fr21_353,fr21_c1).
body(r_fr21_353,fr21_p3).
body(r_fr21_353,fr21_v2).
body(r_fr21_353,fr21_z1).
head(r_fr21_354,fr8_z1).
body(r_fr21_354,fr21_c1).
body(r_fr21_354,fr21_d1).
body(r_fr21_354,fr21_d2).
body(r_fr21_354,fr21_q3).
body(r_fr21_354,fr21_u1).
body(r_fr21_354,fr21_w2).
head(r_fr21_355,fr8_z1).
body(r_fr21_355,fr21_f2).
head(r_fr21_356,fr8_z1).
body(r_fr21_356,fr21_b1).
body(r_fr21_356,fr21_q1).
body(r_fr21_356,fr21_q3).
body(r_fr21_356,fr8_r3).
body(r_fr21_356,fr21_x1).
body(r_fr21_356,fr21_z1).
head(r_fr21_357,fr8_z1).
body(r_fr21_357,fr21_e1).
body(r_fr21_357,fr21_p2).
body(r_fr21_357,fr21_q1).
body(r_fr21_357,fr17_w1).
body(r_fr21_357,fr24_v1).
body(r_fr21_357,fr21_y1).
head(r_fr21_358,fr8_z1).
body(r_fr21_358,fr21_a2).
body(r_fr21_358,fr21_f2).
body(r_fr21_358,fr21_p3).
body(r_fr21_358,fr21_y1).
head(r_fr21_359,fr8_z1).
body(r_fr21_359,fr21_c2).
body(r_fr21_359,fr21_d1).
body(r_fr21_359,fr21_f1).
head(r_fr21_360,fr8_z1).
body(r_fr21_360,fr8_r3).
body(r_fr21_360,fr21_x1).
body(r_fr21_360,fr2_v1).
body(r_fr21_360,fr21_y1).
body(r_fr21_360,fr21_y2).
head(r_fr21_361,fr8_z1).
body(r_fr21_361,fr18_a1).
body(r_fr21_361,fr21_d2).
head(r_fr21_362,fr8_z1).
body(r_fr21_362,fr21_c2).
body(r_fr21_362,fr17_w1).
body(r_fr21_362,fr8_r3).
body(r_fr21_362,fr21_w2).
head(r_fr21_363,fr8_z1).
body(r_fr21_363,fr21_c1).
body(r_fr21_363,fr21_d1).
body(r_fr21_363,fr21_d2).
body(r_fr21_363,fr21_e1).
body(r_fr21_363,fr21_p2).
body(r_fr21_363,fr21_z2).
head(r_fr21_364,fr8_z1).
head(r_fr21_365,fr8_z1).
body(r_fr21_365,fr21_c3).
body(r_fr21_365,fr21_d2).
body(r_fr21_365,fr8_r3).
head(r_fr21_366,fr8_z1).
body(r_fr21_366,fr21_d1).
body(r_fr21_366,fr21_f1).
body(r_fr21_366,fr17_w1).
body(r_fr21_366,fr21_r2).
body(r_fr21_366,fr21_y1).
body(r_fr21_366,fr21_z2).
head(r_fr21_367,fr8_z1).
body(r_fr21_367,fr21_a3).
body(r_fr21_367,fr21_c2).
body(r_fr21_367,fr21_d1).
body(r_fr21_367,fr21_e2).
body(r_fr21_367,fr21_p2).
body(r_fr21_367,fr8_z1).
head(r_fr21_368,fr8_z1).
body(r_fr21_368,fr21_a3).
body(r_fr21_368,fr21_b2).
body(r_fr21_368,fr21_c3).
body(r_fr21_368,fr21_f1).
head(r_fr21_369,fr8_z1).
body(r_fr21_369,fr17_w1).
head(r_fr21_370,fr8_z1).
body(r_fr21_370,fr23_x4).
body(r_fr21_370,fr21_q1).
body(r_fr21_370,fr17_w1).
body(r_fr21_370,fr8_r3).
head(r_fr21_371,fr21_y2).
body(r_fr21_371,fr17_w1).
body(r_fr21_371,fr21_t2).
head(r_fr21_372,fr21_y2).
body(r_fr21_372,fr18_a1).
body(r_fr21_372,fr21_c2).
body(r_fr21_372,fr21_c3).
body(r_fr21_372,fr23_x4).
body(r_fr21_372,fr17_w1).
head(r_fr21_373,fr21_y2).
body(r_fr21_373,fr21_b2).
body(r_fr21_373,fr21_q1).
body(r_fr21_373,fr21_z2).
head(r_fr21_374,fr21_y2).
body(r_fr21_374,fr21_b1).
body(r_fr21_374,fr21_t2).
head(r_fr21_375,fr21_y2).
body(r_fr21_375,fr21_a2).
body(r_fr21_375,fr21_b3).
body(r_fr21_375,fr21_c2).
body(r_fr21_375,fr21_d1).
body(r_fr21_375,fr21_d2).
body(r_fr21_375,fr21_f1).
head(r_fr21_376,fr21_y2).
body(r_fr21_376,fr21_a3).
body(r_fr21_376,fr21_f1).
body(r_fr21_376,fr21_p2).
head(r_fr21_377,fr21_y2).
body(r_fr21_377,fr21_b3).
body(r_fr21_377,fr21_c3).
head(r_fr21_378,fr21_y2).
body(r_fr21_378,fr18_a1).
body(r_fr21_378,fr21_b1).
body(r_fr21_378,fr21_d2).
body(r_fr21_378,fr23_x4).
body(r_fr21_378,fr8_z1).
body(r_fr21_378,fr21_w1).
head(r_fr21_379,fr21_y2).
body(r_fr21_379,fr21_a3).
body(r_fr21_379,fr21_b1).
body(r_fr21_379,fr21_c1).
body(r_fr21_379,fr21_d1).
body(r_fr21_379,fr21_d2).
body(r_fr21_379,fr21_f1).
head(r_fr21_380,fr21_y2).
body(r_fr21_380,fr21_b1).
body(r_fr21_380,fr21_p3).
body(r_fr21_380,fr21_r3).
body(r_fr21_380,fr8_z1).
body(r_fr21_380,fr8_r3).
body(r_fr21_380,fr21_x1).
head(r_fr21_381,fr21_y2).
body(r_fr21_381,fr21_q1).
body(r_fr21_381,fr17_w1).
body(r_fr21_381,fr21_s2).
body(r_fr21_381,fr21_y1).
head(r_fr21_382,fr21_y2).
body(r_fr21_382,fr21_c3).
body(r_fr21_382,fr21_e1).
head(r_fr21_383,fr21_y2).
body(r_fr21_383,fr21_a2).
body(r_fr21_383,fr21_b1).
body(r_fr21_383,fr21_b2).
body(r_fr21_383,fr21_c1).
body(r_fr21_383,fr21_e1).
body(r_fr21_383,fr21_f2).
head(r_fr21_384,fr21_y2).
body(r_fr21_384,fr21_e2).
body(r_fr21_384,fr21_u1).
body(r_fr21_384,fr8_z1).
body(r_fr21_384,fr21_x1).
head(r_fr21_385,fr21_y2).
body(r_fr21_385,fr21_c1).
body(r_fr21_385,fr21_c2).
body(r_fr21_385,fr21_p2).
body(r_fr21_385,fr21_x1).
head(r_fr21_386,fr21_y2).
body(r_fr21_386,fr21_b1).
body(r_fr21_386,fr21_c2).
body(r_fr21_386,fr21_e2).
body(r_fr21_386,fr8_z1).
body(r_fr21_386,fr21_t2).
body(r_fr21_386,fr21_x1).
head(r_fr21_387,fr21_y2).
body(r_fr21_387,fr21_a2).
body(r_fr21_387,fr21_b2).
body(r_fr21_387,fr21_f1).
head(r_fr21_388,fr21_y2).
body(r_fr21_388,fr21_a3).
body(r_fr21_388,fr21_r3).
body(r_fr21_388,fr8_z1).
body(r_fr21_388,fr21_z1).
head(r_fr21_389,fr21_y2).
head(r_fr21_390,fr21_y2).
body(r_fr21_390,fr21_a3).
body(r_fr21_390,fr21_c1).
body(r_fr21_390,fr8_r3).
body(r_fr21_390,fr21_z1).
head(r_fr21_391,fr21_y2).
body(r_fr21_391,fr21_e1).
body(r_fr21_391,fr21_s2).
head(r_fr21_392,fr21_y2).
body(r_fr21_392,fr21_p2).
body(r_fr21_392,fr21_q1).
body(r_fr21_392,fr21_w1).
body(r_fr21_392,fr21_z1).
head(r_fr21_393,fr21_y2).
body(r_fr21_393,fr21_f1).
body(r_fr21_393,fr21_p3).
body(r_fr21_393,fr21_q3).
body(r_fr21_393,fr8_z1).
body(r_fr21_393,fr21_v2).
body(r_fr21_393,fr21_z1).
head(r_fr21_394,fr23_x4).
body(r_fr21_394,fr21_e1).
body(r_fr21_394,fr21_p2).
body(r_fr21_394,fr17_w1).
body(r_fr21_394,fr24_v1).
body(r_fr21_394,fr8_z1).
head(r_fr21_395,fr23_x4).
body(r_fr21_395,fr21_d2).
head(r_fr21_396,fr23_x4).
body(r_fr21_396,fr21_r3).
head(r_fr21_397,fr23_x4).
body(r_fr21_397,fr18_a1).
body(r_fr21_397,fr21_b2).
body(r_fr21_397,fr21_d1).
body(r_fr21_397,fr21_d2).
body(r_fr21_397,fr21_e1).
body(r_fr21_397,fr21_y1).
head(r_fr21_398,fr23_x4).
body(r_fr21_398,fr17_w1).
body(r_fr21_398,fr24_v1).
body(r_fr21_398,fr21_r2).
body(r_fr21_398,fr2_v1).
head(r_fr21_399,fr23_x4).
body(r_fr21_399,fr21_a3).
body(r_fr21_399,fr21_c1).
body(r_fr21_399,fr21_d1).
body(r_fr21_399,fr8_z1).
head(r_fr21_400,fr23_x4).
body(r_fr21_400,fr21_c2).
body(r_fr21_400,fr21_e1).
body(r_fr21_400,fr21_e2).
head(r_fr21_401,fr23_x4).
body(r_fr21_401,fr21_e1).
body(r_fr21_401,fr21_p2).
head(r_fr21_402,fr23_x4).
body(r_fr21_402,fr21_a3).
body(r_fr21_402,fr21_b1).
body(r_fr21_402,fr21_e1).
body(r_fr21_402,fr21_e2).
body(r_fr21_402,fr21_r3).
body(r_fr21_402,fr8_z1).
head(r_fr21_403,fr23_x4).
body(r_fr21_403,fr21_a2).
body(r_fr21_403,fr21_t2).
head(r_fr21_404,fr23_x4).
body(r_fr21_404,fr24_v1).
body(r_fr21_404,fr21_y1).
head(r_fr21_405,fr23_x4).
body(r_fr21_405,fr21_e1).
body(r_fr21_405,fr21_e2).
body(r_fr21_405,fr21_f2).
body(r_fr21_405,fr21_t1).
body(r_fr21_405,fr21_y1).
head(r_fr21_406,fr23_x4).
body(r_fr21_406,fr21_y1).
body(r_fr21_406,fr21_z1).
head(r_fr21_407,fr23_x4).
body(r_fr21_407,fr21_a3).
body(r_fr21_407,fr21_b1).
body(r_fr21_407,fr21_b3).
body(r_fr21_407,fr24_v1).
body(r_fr21_407,fr21_z1).
head(r_fr21_408,fr23_x4).
body(r_fr21_408,fr21_c1).
head(r_fr21_409,fr23_x4).
body(r_fr21_409,fr21_b3).
body(r_fr21_409,fr21_t2).
head(r_fr21_410,fr23_x4).
body(r_fr21_410,fr24_v1).
body(r_fr21_410,fr21_w2).
head(r_fr21_411,fr23_x4).
body(r_fr21_411,fr21_a2).
body(r_fr21_411,fr21_b1).
body(r_fr21_411,fr21_e2).
body(r_fr21_411,fr24_v1).
head(r_fr21_412,fr23_x4).
body(r_fr21_412,fr21_b2).
body(r_fr21_412,fr21_b3).
body(r_fr21_412,fr21_d2).
body(r_fr21_412,fr21_f1).
body(r_fr21_412,fr21_f2).
body(r_fr21_412,fr21_r2).
head(r_fr21_413,fr23_x4).
body(r_fr21_413,fr21_a3).
body(r_fr21_413,fr21_b3).
body(r_fr21_413,fr21_c1).
body(r_fr21_413,fr21_q1).
body(r_fr21_413,fr21_r3).
body(r_fr21_413,fr21_y2).
head(r_fr21_414,fr23_x4).
body(r_fr21_414,fr21_b3).
body(r_fr21_414,fr21_c1).
body(r_fr21_414,fr21_p3).
body(r_fr21_414,fr8_r3).
head(r_fr21_415,fr23_x4).
body(r_fr21_415,fr21_p3).
body(r_fr21_415,fr21_q3).
body(r_fr21_415,fr21_u1).
body(r_fr21_415,fr21_x1).
body(r_fr21_415,fr21_z1).
head(r_fr21_416,fr23_x4).
body(r_fr21_416,fr21_b2).
body(r_fr21_416,fr21_d2).
body(r_fr21_416,fr21_r2).
head(r_fr21_417,fr23_x4).
head(r_fr21_418,fr23_x4).
body(r_fr21_418,fr21_p3).
body(r_fr21_418,fr21_q1).
body(r_fr21_418,fr21_r3).
head(r_fr21_419,fr21_z1).
body(r_fr21_419,fr21_c1).
body(r_fr21_419,fr23_x4).
body(r_fr21_419,fr8_r3).
body(r_fr21_419,fr21_w2).
body(r_fr21_419,fr21_y1).
head(r_fr21_420,fr21_z1).
body(r_fr21_420,fr21_a3).
body(r_fr21_420,fr21_d2).
body(r_fr21_420,fr21_r2).
head(r_fr21_421,fr21_z1).
body(r_fr21_421,fr21_c1).
body(r_fr21_421,fr21_c3).
body(r_fr21_421,fr21_e2).
head(r_fr21_422,fr21_z1).
body(r_fr21_422,fr21_b2).
body(r_fr21_422,fr21_d2).
body(r_fr21_422,fr21_f1).
body(r_fr21_422,fr21_x1).
head(r_fr21_423,fr21_z1).
body(r_fr21_423,fr21_q1).
body(r_fr21_423,fr17_w1).
body(r_fr21_423,fr24_v1).
body(r_fr21_423,fr21_s2).
body(r_fr21_423,fr2_v1).
head(r_fr21_424,fr21_z1).
body(r_fr21_424,fr17_w1).
body(r_fr21_424,fr8_z1).
body(r_fr21_424,fr21_y1).
body(r_fr21_424,fr21_y2).
body(r_fr21_424,fr21_z2).
head(r_fr21_425,fr21_z1).
body(r_fr21_425,fr18_a1).
body(r_fr21_425,fr21_a2).
body(r_fr21_425,fr21_c3).
body(r_fr21_425,fr21_f2).
body(r_fr21_425,fr21_x1).
head(r_fr21_426,fr21_z1).
body(r_fr21_426,fr21_z2).
head(r_fr21_427,fr21_z1).
body(r_fr21_427,fr21_a3).
body(r_fr21_427,fr21_d2).
body(r_fr21_427,fr21_e2).
body(r_fr21_427,fr21_f1).
body(r_fr21_427,fr21_f2).
head(r_fr21_428,fr21_z1).
body(r_fr21_428,fr21_b3).
body(r_fr21_428,fr21_d1).
head(r_fr21_429,fr21_z1).
body(r_fr21_429,fr18_a1).
body(r_fr21_429,fr21_b1).
body(r_fr21_429,fr21_b2).
body(r_fr21_429,fr21_f1).
body(r_fr21_429,fr21_f2).
head(r_fr21_430,fr21_z1).
body(r_fr21_430,fr8_r3).
head(r_fr21_431,fr21_z1).
body(r_fr21_431,fr21_b3).
body(r_fr21_431,fr21_e2).
body(r_fr21_431,fr21_p2).
body(r_fr21_431,fr21_q1).
body(r_fr21_431,fr21_q3).
body(r_fr21_431,fr21_y1).
head(r_fr21_432,fr21_z1).
body(r_fr21_432,fr21_c1).
body(r_fr21_432,fr21_c3).
body(r_fr21_432,fr21_d2).
body(r_fr21_432,fr21_f1).
body(r_fr21_432,fr21_q3).
body(r_fr21_432,fr8_z1).
head(r_fr21_433,fr21_z1).
body(r_fr21_433,fr21_a2).
body(r_fr21_433,fr21_a3).
body(r_fr21_433,fr21_b2).
head(r_fr21_434,fr21_z1).
body(r_fr21_434,fr18_a1).
body(r_fr21_434,fr21_q3).
body(r_fr21_434,fr2_v1).
body(r_fr21_434,fr21_z2).
head(r_fr21_435,fr21_z1).
head(r_fr21_436,fr21_z1).
body(r_fr21_436,fr21_b1).
head(r_fr21_437,fr21_z1).
body(r_fr21_437,fr21_d1).
head(r_fr21_438,fr21_z1).
body(r_fr21_438,fr21_c1).
body(r_fr21_438,fr21_q1).
head(r_fr21_439,fr21_z1).
body(r_fr21_439,fr18_a1).
body(r_fr21_439,fr21_c1).
body(r_fr21_439,fr21_c3).
body(r_fr21_439,fr21_f1).
body(r_fr21_439,fr17_w1).
body(r_fr21_439,fr21_w1).
head(r_fr21_440,fr21_z1).
body(r_fr21_440,fr21_p3).
body(r_fr21_440,fr17_w1).
body(r_fr21_440,fr21_r2).
body(r_fr21_440,fr21_w2).
body(r_fr21_440,fr21_z2).
head(r_fr21_441,fr21_z1).
body(r_fr21_441,fr17_w1).
body(r_fr21_441,fr21_q3).
body(r_fr21_441,fr8_z1).
body(r_fr21_441,fr2_v1).
head(r_fr21_442,fr21_z1).
body(r_fr21_442,fr18_a1).
body(r_fr21_442,fr21_a3).
body(r_fr21_442,fr21_b2).
body(r_fr21_442,fr21_e1).
body(r_fr21_442,fr21_e2).
body(r_fr21_442,fr21_p3).
head(r_fr21_443,fr8_r3).
body(r_fr21_443,fr21_d1).
body(r_fr21_443,fr21_e2).
body(r_fr21_443,fr21_q1).
body(r_fr21_443,fr21_r2).
body(r_fr21_443,fr21_s2).
body(r_fr21_443,fr21_z2).
head(r_fr21_444,fr8_r3).
body(r_fr21_444,fr23_x4).
body(r_fr21_444,fr24_v1).
head(r_fr21_445,fr8_r3).
body(r_fr21_445,fr21_c1).
head(r_fr21_446,fr8_r3).
body(r_fr21_446,fr18_a1).
body(r_fr21_446,fr21_b3).
body(r_fr21_446,fr21_c3).
body(r_fr21_446,fr21_s2).
body(r_fr21_446,fr21_w2).
head(r_fr21_447,fr8_r3).
body(r_fr21_447,fr21_w2).
body(r_fr21_447,fr21_z1).
head(r_fr21_448,fr8_r3).
body(r_fr21_448,fr21_a2).
body(r_fr21_448,fr21_c3).
body(r_fr21_448,fr21_d1).
body(r_fr21_448,fr21_e2).
body(r_fr21_448,fr21_f1).
head(r_fr21_449,fr8_r3).
body(r_fr21_449,fr21_c1).
body(r_fr21_449,fr21_c2).
body(r_fr21_449,fr21_c3).
body(r_fr21_449,fr21_p3).
body(r_fr21_449,fr21_q3).
body(r_fr21_449,fr21_z2).
head(r_fr21_450,fr8_r3).
body(r_fr21_450,fr21_q1).
head(r_fr21_451,fr8_r3).
body(r_fr21_451,fr21_t1).
body(r_fr21_451,fr21_t2).
body(r_fr21_451,fr21_u1).
body(r_fr21_451,fr21_v2).
body(r_fr21_451,fr21_y1).
body(r_fr21_451,fr21_z1).
head(r_fr21_452,fr8_r3).
body(r_fr21_452,fr18_a1).
body(r_fr21_452,fr21_e2).
head(r_fr21_453,fr8_r3).
body(r_fr21_453,fr23_x4).
body(r_fr21_453,fr21_p2).
body(r_fr21_453,fr21_q3).
body(r_fr21_453,fr21_u1).
body(r_fr21_453,fr21_w1).
head(r_fr21_454,fr8_r3).
body(r_fr21_454,fr21_t2).
head(r_fr21_455,fr8_r3).
body(r_fr21_455,fr21_d1).
body(r_fr21_455,fr21_d2).
body(r_fr21_455,fr21_r2).
body(r_fr21_455,fr21_y2).
body(r_fr21_455,fr21_z2).
head(r_fr21_456,fr8_r3).
head(r_fr21_457,fr8_r3).
body(r_fr21_457,fr21_b2).
body(r_fr21_457,fr21_f1).
body(r_fr21_457,fr8_z1).
body(r_fr21_457,fr21_w2).
body(r_fr21_457,fr21_y2).
head(r_fr21_458,fr8_r3).
body(r_fr21_458,fr21_b3).
body(r_fr21_458,fr21_e2).
body(r_fr21_458,fr21_t1).
head(r_fr21_459,fr8_r3).
body(r_fr21_459,fr21_c3).
head(r_fr21_460,fr8_r3).
body(r_fr21_460,fr18_a1).
body(r_fr21_460,fr21_a3).
body(r_fr21_460,fr21_c2).
body(r_fr21_460,fr21_p3).
body(r_fr21_460,fr21_t2).
head(r_fr21_461,fr8_r3).
body(r_fr21_461,fr21_c1).
body(r_fr21_461,fr21_q1).
body(r_fr21_461,fr21_r3).
body(r_fr21_461,fr21_t1).
head(r_fr21_462,fr8_r3).
body(r_fr21_462,fr21_c2).
body(r_fr21_462,fr8_z1).
body(r_fr21_462,fr21_s2).
head(r_fr21_463,fr8_r3).
body(r_fr21_463,fr18_a1).
body(r_fr21_463,fr23_x4).
body(r_fr21_463,fr21_p3).
body(r_fr21_463,fr21_r3).
head(r_fr21_464,fr8_r3).
body(r_fr21_464,fr21_e2).
body(r_fr21_464,fr21_z1).
head(r_fr21_465,fr8_r3).
body(r_fr21_465,fr21_d1).
body(r_fr21_465,fr21_e2).
body(r_fr21_465,fr21_f1).
body(r_fr21_465,fr23_x4).
head(r_fr21_466,fr21_p3).
body(r_fr21_466,fr21_d1).
body(r_fr21_466,fr21_d2).
body(r_fr21_466,fr23_x4).
body(r_fr21_466,fr17_w1).
head(r_fr21_467,fr21_p3).
body(r_fr21_467,fr21_b3).
body(r_fr21_467,fr21_d2).
head(r_fr21_468,fr21_p3).
body(r_fr21_468,fr21_a2).
body(r_fr21_468,fr21_c1).
head(r_fr21_469,fr21_p3).
body(r_fr21_469,fr17_w1).
body(r_fr21_469,fr21_t1).
body(r_fr21_469,fr8_r3).
body(r_fr21_469,fr21_z2).
head(r_fr21_470,fr21_p3).
body(r_fr21_470,fr21_b2).
body(r_fr21_470,fr21_e2).
body(r_fr21_470,fr23_x4).
body(r_fr21_470,fr21_s2).
body(r_fr21_470,fr2_v1).
body(r_fr21_470,fr21_y1).
head(r_fr21_471,fr21_p3).
body(r_fr21_471,fr21_a2).
body(r_fr21_471,fr21_e1).
body(r_fr21_471,fr21_f1).
body(r_fr21_471,fr24_v1).
head(r_fr21_472,fr21_p3).
body(r_fr21_472,fr21_q3).
body(r_fr21_472,fr21_r2).
body(r_fr21_472,fr21_v2).
head(r_fr21_473,fr21_p3).
body(r_fr21_473,fr21_a2).
body(r_fr21_473,fr21_b1).
body(r_fr21_473,fr21_c2).
body(r_fr21_473,fr21_d2).
body(r_fr21_473,fr21_f1).
body(r_fr21_473,fr21_f2).
head(r_fr21_474,fr21_p3).
body(r_fr21_474,fr21_b1).
body(r_fr21_474,fr21_e1).
head(r_fr21_475,fr21_p3).
body(r_fr21_475,fr8_z1).
body(r_fr21_475,fr21_t2).
body(r_fr21_475,fr21_v2).
head(r_fr21_476,fr21_p3).
body(r_fr21_476,fr21_a3).
body(r_fr21_476,fr21_b3).
body(r_fr21_476,fr21_c1).
body(r_fr21_476,fr21_d2).
body(r_fr21_476,fr21_e1).
head(r_fr21_477,fr21_p3).
body(r_fr21_477,fr21_c3).
body(r_fr21_477,fr23_x4).
body(r_fr21_477,fr21_p2).
head(r_fr21_478,fr21_p3).
body(r_fr21_478,fr21_b1).
body(r_fr21_478,fr21_r2).
body(r_fr21_478,fr8_z1).
head(r_fr21_479,fr21_p3).
body(r_fr21_479,fr17_w1).
body(r_fr21_479,fr21_t1).
body(r_fr21_479,fr21_y1).
head(r_fr21_480,fr21_p3).
body(r_fr21_480,fr21_a2).
body(r_fr21_480,fr17_w1).
body(r_fr21_480,fr24_v1).
body(r_fr21_480,fr21_r3).
body(r_fr21_480,fr21_u1).
body(r_fr21_480,fr21_y1).
head(r_fr21_481,fr21_p3).
body(r_fr21_481,fr21_a2).
body(r_fr21_481,fr21_d2).
body(r_fr21_481,fr21_q3).
body(r_fr21_481,fr21_w2).
head(r_fr21_482,fr21_p3).
body(r_fr21_482,fr21_p2).
body(r_fr21_482,fr21_r3).
body(r_fr21_482,fr21_x1).
body(r_fr21_482,fr21_z2).
head(r_fr21_483,fr21_p3).
body(r_fr21_483,fr21_p2).
body(r_fr21_483,fr17_w1).
body(r_fr21_483,fr8_r3).
body(r_fr21_483,fr21_w2).
body(r_fr21_483,fr21_x1).
head(r_fr21_484,fr21_p3).
body(r_fr21_484,fr21_z2).
head(r_fr21_485,fr21_p3).
body(r_fr21_485,fr21_a3).
body(r_fr21_485,fr21_b1).
body(r_fr21_485,fr21_c3).
body(r_fr21_485,fr17_w1).
head(r_fr21_486,fr21_p3).
body(r_fr21_486,fr21_b3).
body(r_fr21_486,fr21_d1).
body(r_fr21_486,fr21_s2).
body(r_fr21_486,fr21_w1).
head(r_fr21_487,fr21_p3).
head(r_fr21_488,fr21_p3).
body(r_fr21_488,fr23_x4).
body(r_fr21_488,fr21_s2).
body(r_fr21_488,fr21_z1).
head(r_fr21_489,fr21_p3).
body(r_fr21_489,fr17_w1).
body(r_fr21_489,fr8_z1).
body(r_fr21_489,fr21_x1).
body(r_fr21_489,fr21_y1).
head(r_fr21_490,fr21_p3).
body(r_fr21_490,fr21_a3).
body(r_fr21_490,fr21_f2).
body(r_fr21_490,fr21_q1).
body(r_fr21_490,fr21_x1).
body(r_fr21_490,fr21_z1).
body(r_fr21_490,fr21_z2).

assumption(fr22_a1).
assumption(fr22_b1).
assumption(fr22_c1).
assumption(fr22_d1).
assumption(fr11_e1).
assumption(fr22_f1).
assumption(fr21_c1).
assumption(fr21_f2).
assumption(fr22_c2).
assumption(fr22_d2).
assumption(fr22_e2).
assumption(fr22_f2).
assumption(fr11_e2).
assumption(fr12_f1).
assumption(fr22_c3).
contrary(fr22_a1,fr22_f2).
contrary(fr21_c1,fr22_x1).
contrary(fr11_e2,fr22_v4).
contrary(fr22_b1,fr22_q4).
contrary(fr21_f2,fr22_t1).
contrary(fr12_f1,fr13_w1).
contrary(fr22_c1,fr22_f1).
contrary(fr22_c2,fr22_t1).
contrary(fr22_c3,fr22_x4).
contrary(fr22_d1,fr21_u1).
contrary(fr22_d2,fr12_f1).
contrary(fr11_e1,fr22_z1).
contrary(fr22_e2,fr22_c2).
contrary(fr22_f1,fr22_x3).
contrary(fr22_f2,fr22_p2).
head(r_fr22_0,fr22_w2).
body(r_fr22_0,fr22_v3).
head(r_fr22_1,fr22_w2).
body(r_fr22_1,fr22_a1).
body(r_fr22_1,fr22_b1).
body(r_fr22_1,fr22_c2).
body(r_fr22_1,fr22_d1).
body(r_fr22_1,fr22_e2).
body(r_fr22_1,fr22_v2).
head(r_fr22_2,fr22_w2).
body(r_fr22_2,fr22_f2).
body(r_fr22_2,fr22_p4).
body(r_fr22_2,fr22_q4).
body(r_fr22_2,fr22_u2).
body(r_fr22_2,fr22_w4).
head(r_fr22_3,fr23_x4).
body(r_fr22_3,fr21_c1).
body(r_fr22_3,fr22_r1).
body(r_fr22_3,fr22_s4).
body(r_fr22_3,fr22_v2).
body(r_fr22_3,fr22_y2).
body(r_fr22_3,fr22_y4).
head(r_fr22_4,fr23_x4).
body(r_fr22_4,fr21_c1).
body(r_fr22_4,fr22_c1).
body(r_fr22_4,fr19_q4).
head(r_fr22_5,fr23_x4).
body(r_fr22_5,fr22_a1).
body(r_fr22_5,fr22_b1).
body(r_fr22_5,fr22_c3).
body(r_fr22_5,fr22_d1).
body(r_fr22_5,fr22_p4).
body(r_fr22_5,fr13_w1).
head(r_fr22_6,fr23_x4).
body(r_fr22_6,fr11_e2).
head(r_fr22_7,fr17_y1).
body(r_fr22_7,fr22_c2).
body(r_fr22_7,fr22_x4).
body(r_fr22_7,fr22_y1).
body(r_fr22_7,fr22_z2).
head(r_fr22_8,fr17_y1).
body(r_fr22_8,fr22_f1).
body(r_fr22_8,fr22_f2).
body(r_fr22_8,fr23_x4).
head(r_fr22_9,fr17_y1).
head(r_fr22_10,fr4_q2).
body(r_fr22_10,fr22_a1).
body(r_fr22_10,fr22_p1).
head(r_fr22_11,fr4_q2).
body(r_fr22_11,fr22_y4).
head(r_fr22_12,fr4_q2).
body(r_fr22_12,fr22_b1).
body(r_fr22_12,fr12_f1).
body(r_fr22_12,fr22_c2).
head(r_fr22_13,fr4_q2).
body(r_fr22_13,fr22_p1).
body(r_fr22_13,fr22_q4).
body(r_fr22_13,fr22_v2).
body(r_fr22_13,fr22_w2).
body(r_fr22_13,fr22_y1).
head(r_fr22_14,fr4_q2).
head(r_fr22_15,fr22_s4).
body(r_fr22_15,fr22_w1).
head(r_fr22_16,fr22_s4).
body(r_fr22_16,fr21_f2).
body(r_fr22_16,fr22_q4).
body(r_fr22_16,fr22_u2).
body(r_fr22_16,fr22_y4).
head(r_fr22_17,fr22_s1).
body(r_fr22_17,fr21_c1).
body(r_fr22_17,fr22_p3).
body(r_fr22_17,fr22_t4).
head(r_fr22_18,fr22_s1).
body(r_fr22_18,fr11_e2).
body(r_fr22_18,fr21_f2).
body(r_fr22_18,fr22_c3).
body(r_fr22_18,fr11_e1).
body(r_fr22_18,fr17_u1).
head(r_fr22_19,fr22_s1).
body(r_fr22_19,fr22_b1).
body(r_fr22_19,fr19_w2).
body(r_fr22_19,fr22_y4).
body(r_fr22_19,fr1_w1).
head(r_fr22_20,fr22_s1).
body(r_fr22_20,fr11_e2).
body(r_fr22_20,fr22_b1).
body(r_fr22_20,fr22_c1).
body(r_fr22_20,fr22_c2).
body(r_fr22_20,fr22_d2).
body(r_fr22_20,fr22_f2).
head(r_fr22_21,fr22_s1).
head(r_fr22_22,fr22_s3).
body(r_fr22_22,fr21_c1).
head(r_fr22_23,fr22_s3).
body(r_fr22_23,fr22_v2).
head(r_fr22_24,fr22_s3).
body(r_fr22_24,fr11_e2).
body(r_fr22_24,fr22_c3).
body(r_fr22_24,fr22_d1).
body(r_fr22_24,fr22_d2).
body(r_fr22_24,fr4_q2).
body(r_fr22_24,fr22_w2).
head(r_fr22_25,fr22_t1).
body(r_fr22_25,fr22_y3).
head(r_fr22_26,fr22_t1).
body(r_fr22_26,fr11_e2).
body(r_fr22_26,fr22_f2).
body(r_fr22_26,fr23_x4).
head(r_fr22_27,fr22_t1).
body(r_fr22_27,fr17_y1).
body(r_fr22_27,fr22_r2).
body(r_fr22_27,fr22_y1).
head(r_fr22_28,fr22_t1).
body(r_fr22_28,fr12_f1).
body(r_fr22_28,fr22_p4).
body(r_fr22_28,fr22_s1).
head(r_fr22_29,fr22_t1).
body(r_fr22_29,fr11_e2).
body(r_fr22_29,fr22_x1).
head(r_fr22_30,fr19_q4).
body(r_fr22_30,fr12_f1).
body(r_fr22_30,fr22_r2).
body(r_fr22_30,fr22_s1).
body(r_fr22_30,fr22_s3).
body(r_fr22_30,fr4_q2).
body(r_fr22_30,fr22_v2).
head(r_fr22_31,fr19_q4).
body(r_fr22_31,fr22_c1).
body(r_fr22_31,fr22_f1).
body(r_fr22_31,fr22_v3).
head(r_fr22_32,fr19_q4).
body(r_fr22_32,fr22_p1).
body(r_fr22_32,fr22_x4).
head(r_fr22_33,fr22_w3).
body(r_fr22_33,fr22_f2).
body(r_fr22_33,fr22_x1).
head(r_fr22_34,fr22_w3).
head(r_fr22_35,fr22_w3).
body(r_fr22_35,fr21_c1).
body(r_fr22_35,fr11_e2).
body(r_fr22_35,fr22_r2).
body(r_fr22_35,fr17_u1).
head(r_fr22_36,fr22_w3).
body(r_fr22_36,fr21_f2).
head(r_fr22_37,fr22_w3).
body(r_fr22_37,fr22_c1).
head(r_fr22_38,fr22_p2).
body(r_fr22_38,fr22_p3).
body(r_fr22_38,fr17_y1).
body(r_fr22_38,fr22_v4).
head(r_fr22_39,fr22_p2).
body(r_fr22_39,fr22_b1).
body(r_fr22_39,fr22_e2).
body(r_fr22_39,fr22_r3).
body(r_fr22_39,fr22_x1).
body(r_fr22_39,fr22_x4).
head(r_fr22_40,fr22_p2).
head(r_fr22_41,fr19_w2).
body(r_fr22_41,fr22_s4).
body(r_fr22_41,fr21_u1).
head(r_fr22_42,fr19_w2).
body(r_fr22_42,fr21_f2).
body(r_fr22_42,fr12_f1).
body(r_fr22_42,fr22_w3).
head(r_fr22_43,fr19_w2).
body(r_fr22_43,fr22_w3).
head(r_fr22_44,fr22_x1).
body(r_fr22_44,fr11_e2).
body(r_fr22_44,fr22_b1).
body(r_fr22_44,fr22_c3).
body(r_fr22_44,fr22_f1).
head(r_fr22_45,fr22_x1).
body(r_fr22_45,fr11_e2).
body(r_fr22_45,fr21_f2).
body(r_fr22_45,fr22_c3).
body(r_fr22_45,fr22_d1).
body(r_fr22_45,fr22_x4).
head(r_fr22_46,fr22_x1).
body(r_fr22_46,fr22_s1).
body(r_fr22_46,fr22_t1).
body(r_fr22_46,fr21_u1).
head(r_fr22_47,fr22_x1).
body(r_fr22_47,fr11_e2).
body(r_fr22_47,fr12_f1).
body(r_fr22_47,fr22_f1).
body(r_fr22_47,fr22_u3).
body(r_fr22_47,fr22_w1).
body(r_fr22_47,fr22_x3).
head(r_fr22_48,fr22_r1).
body(r_fr22_48,fr22_b1).
body(r_fr22_48,fr22_c1).
body(r_fr22_48,fr22_d1).
body(r_fr22_48,fr22_f2).
head(r_fr22_49,fr22_r1).
body(r_fr22_49,fr22_c2).
head(r_fr22_50,fr22_r1).
head(r_fr22_51,fr3_p3).
body(r_fr22_51,fr22_q3).
body(r_fr22_51,fr22_t1).
head(r_fr22_52,fr3_p3).
body(r_fr22_52,fr11_e2).
head(r_fr22_53,fr3_p3).
body(r_fr22_53,fr22_f1).
head(r_fr22_54,fr22_y4).
head(r_fr22_55,fr22_y4).
body(r_fr22_55,fr22_d1).
body(r_fr22_55,fr22_p4).
body(r_fr22_55,fr22_q4).
body(r_fr22_55,fr22_s4).
body(r_fr22_55,fr22_x3).
head(r_fr22_56,fr22_y4).
body(r_fr22_56,fr22_d1).
body(r_fr22_56,fr22_f1).
body(r_fr22_56,fr22_p3).
body(r_fr22_56,fr22_q3).
body(r_fr22_56,fr19_q4).
head(r_fr22_57,fr22_y4).
body(r_fr22_57,fr22_q4).
body(r_fr22_57,fr22_s3).
head(r_fr22_58,fr22_v3).
body(r_fr22_58,fr21_f2).
body(r_fr22_58,fr22_c1).
body(r_fr22_58,fr22_d2).
body(r_fr22_58,fr22_f2).
body(r_fr22_58,fr23_u3).
head(r_fr22_59,fr22_v3).
body(r_fr22_59,fr22_c1).
body(r_fr22_59,fr22_e2).
body(r_fr22_59,fr22_y4).
head(r_fr22_60,fr22_v3).
body(r_fr22_60,fr22_f1).
body(r_fr22_60,fr23_u3).
body(r_fr22_60,fr22_s3).
head(r_fr22_61,fr22_v3).
body(r_fr22_61,fr12_f1).
head(r_fr22_62,fr22_v3).
body(r_fr22_62,fr23_x4).
body(r_fr22_62,fr22_x4).
head(r_fr22_63,fr1_w1).
body(r_fr22_63,fr21_f2).
body(r_fr22_63,fr22_d1).
head(r_fr22_64,fr1_w1).
body(r_fr22_64,fr22_s1).
head(r_fr22_65,fr1_w1).
body(r_fr22_65,fr13_w1).
body(r_fr22_65,fr22_v3).
body(r_fr22_65,fr22_w4).
body(r_fr22_65,fr22_y3).
head(r_fr22_66,fr1_w1).
body(r_fr22_66,fr22_b1).
body(r_fr22_66,fr22_d2).
body(r_fr22_66,fr22_p3).
body(r_fr22_66,fr22_z1).
head(r_fr22_67,fr1_w1).
body(r_fr22_67,fr22_a1).
body(r_fr22_67,fr12_f1).
body(r_fr22_67,fr22_c1).
body(r_fr22_67,fr11_e1).
body(r_fr22_67,fr22_f1).
head(r_fr22_68,fr22_t4).
body(r_fr22_68,fr22_c1).
body(r_fr22_68,fr22_c2).
body(r_fr22_68,fr22_f2).
head(r_fr22_69,fr22_t4).
body(r_fr22_69,fr22_a1).
body(r_fr22_69,fr22_r3).
body(r_fr22_69,fr19_w2).
body(r_fr22_69,fr22_s4).
body(r_fr22_69,fr1_w1).
head(r_fr22_70,fr22_t4).
body(r_fr22_70,fr22_a1).
body(r_fr22_70,fr22_c2).
body(r_fr22_70,fr22_f1).
body(r_fr22_70,fr17_y1).
body(r_fr22_70,fr22_q3).
body(r_fr22_70,fr22_y3).
head(r_fr22_71,fr22_t4).
body(r_fr22_71,fr22_r3).
body(r_fr22_71,fr23_u3).
body(r_fr22_71,fr22_v4).
body(r_fr22_71,fr22_x3).
head(r_fr22_72,fr22_t4).
body(r_fr22_72,fr4_q2).
body(r_fr22_72,fr22_y2).
head(r_fr22_73,fr22_r2).
body(r_fr22_73,fr22_c1).
body(r_fr22_73,fr11_e1).
head(r_fr22_74,fr22_r2).
body(r_fr22_74,fr21_c1).
body(r_fr22_74,fr22_c2).
body(r_fr22_74,fr22_d1).
body(r_fr22_74,fr22_d2).
body(r_fr22_74,fr22_e2).
body(r_fr22_74,fr22_w4).
head(r_fr22_75,fr22_r2).
body(r_fr22_75,fr22_c1).
body(r_fr22_75,fr22_p1).
body(r_fr22_75,fr22_u3).
body(r_fr22_75,fr22_y3).
head(r_fr22_76,fr22_r2).

assumption(fr23_a1).
assumption(fr23_b1).
assumption(fr23_c1).
assumption(fr23_d1).
assumption(fr23_e1).
assumption(fr23_f1).
assumption(fr23_a2).
assumption(fr23_b2).
assumption(fr23_c2).
assumption(fr23_d2).
assumption(fr23_e2).
assumption(fr23_f2).
assumption(fr23_a3).
assumption(fr23_b3).
assumption(fr23_c3).
assumption(fr23_d3).
assumption(fr23_e3).
assumption(fr23_f3).
assumption(fr23_a4).
assumption(fr23_b4).
assumption(fr10_b3).
assumption(fr23_d4).
assumption(fr23_e4).
assumption(fr23_f4).
assumption(fr23_a5).
assumption(fr23_b5).
assumption(fr23_c5).
assumption(fr23_d5).
assumption(fr12_f1).
assumption(fr23_f5).
contrary(fr23_a1,fr19_q4).
contrary(fr23_a2,fr23_r4).
contrary(fr23_a3,fr23_p4).
contrary(fr23_a4,fr23_t5).
contrary(fr23_a5,fr23_t3).
contrary(fr23_b1,fr23_y2).
contrary(fr23_b2,fr23_a4).
contrary(fr23_b3,fr23_p2).
contrary(fr23_b4,fr16_w2).
contrary(fr23_b5,fr23_b4).
contrary(fr23_c1,fr23_v1).
contrary(fr23_c2,fr11_t2).
contrary(fr23_c3,fr23_r5).
contrary(fr10_b3,fr23_p2).
contrary(fr23_c5,fr23_a2).
contrary(fr23_d1,fr23_s3).
contrary(fr23_d2,fr23_s3).
contrary(fr23_d3,fr23_f1).
contrary(fr23_d4,fr23_d2).
contrary(fr23_d5,fr23_v2).
contrary(fr23_e1,fr23_a2).
contrary(fr23_e2,fr23_s2).
contrary(fr23_e3,fr23_w1).
contrary(fr23_e4,fr23_u5).
contrary(fr12_f1,fr23_p2).
contrary(fr23_f1,fr23_p3).
contrary(fr23_f2,fr23_d2).
contrary(fr23_f3,fr23_w4).
contrary(fr23_f4,fr16_p2).
contrary(fr23_f5,fr23_t3).
head(r_fr23_0,fr4_t4).
body(r_fr23_0,fr23_a5).
body(r_fr23_0,fr23_b5).
body(r_fr23_0,fr23_c2).
body(r_fr23_0,fr23_r4).
body(r_fr23_0,fr23_s1).
body(r_fr23_0,fr23_t4).
body(r_fr23_0,fr23_w2).
body(r_fr23_0,fr23_w3).
head(r_fr23_1,fr4_t4).
head(r_fr23_2,fr4_t4).
body(r_fr23_2,fr23_f5).
head(r_fr23_3,fr4_t4).
body(r_fr23_3,fr23_a5).
body(r_fr23_3,fr23_b2).
body(r_fr23_3,fr23_e4).
body(r_fr23_3,fr23_p4).
body(r_fr23_3,fr23_r4).
body(r_fr23_3,fr23_s3).
body(r_fr23_3,fr23_t5).
body(r_fr23_3,fr23_w3).
body(r_fr23_3,fr23_x4).
body(r_fr23_3,fr23_y2).
head(r_fr23_4,fr4_t4).
body(r_fr23_4,fr23_p3).
body(r_fr23_4,fr19_s3).
body(r_fr23_4,fr23_q5).
body(r_fr23_4,fr23_r5).
body(r_fr23_4,fr23_s1).
body(r_fr23_4,fr23_t3).
body(r_fr23_4,fr23_t5).
body(r_fr23_4,fr23_u3).
body(r_fr23_4,fr23_w4).
body(r_fr23_4,fr15_z2).
head(r_fr23_5,fr4_t4).
body(r_fr23_5,fr23_e1).
body(r_fr23_5,fr23_u4).
body(r_fr23_5,fr23_x1).
head(r_fr23_6,fr4_t4).
body(r_fr23_6,fr23_a1).
body(r_fr23_6,fr23_q2).
body(r_fr23_6,fr23_q5).
body(r_fr23_6,fr23_s3).
body(r_fr23_6,fr23_t4).
body(r_fr23_6,fr13_q2).
body(r_fr23_6,fr23_u4).
body(r_fr23_6,fr23_u5).
body(r_fr23_6,fr23_x3).
body(r_fr23_6,fr23_y1).
body(r_fr23_6,fr23_z1).
head(r_fr23_7,fr4_t4).
body(r_fr23_7,fr23_a3).
body(r_fr23_7,fr23_b1).
body(r_fr23_7,fr23_c1).
body(r_fr23_7,fr23_f5).
body(r_fr23_7,fr23_q5).
head(r_fr23_8,fr23_t2).
body(r_fr23_8,fr23_a4).
body(r_fr23_8,fr23_c2).
body(r_fr23_8,fr16_w2).
body(r_fr23_8,fr23_s3).
body(r_fr23_8,fr23_t3).
body(r_fr23_8,fr23_v2).
body(r_fr23_8,fr23_v4).
body(r_fr23_8,fr23_w2).
body(r_fr23_8,fr23_w3).
body(r_fr23_8,fr23_x3).
head(r_fr23_9,fr23_t2).
body(r_fr23_9,fr23_a3).
body(r_fr23_9,fr23_b1).
body(r_fr23_9,fr23_c5).
body(r_fr23_9,fr12_f1).
body(r_fr23_9,fr23_f3).
body(r_fr23_9,fr23_f5).
head(r_fr23_10,fr23_t2).
body(r_fr23_10,fr23_q4).
body(r_fr23_10,fr23_r3).
body(r_fr23_10,fr23_s4).
body(r_fr23_10,fr23_t3).
body(r_fr23_10,fr23_t4).
body(r_fr23_10,fr23_u4).
body(r_fr23_10,fr23_u5).
body(r_fr23_10,fr2_v1).
body(r_fr23_10,fr23_w1).
body(r_fr23_10,fr23_z2).
body(r_fr23_10,fr15_z2).
head(r_fr23_11,fr23_u5).
body(r_fr23_11,fr23_a5).
body(r_fr23_11,fr23_b2).
body(r_fr23_11,fr23_d1).
body(r_fr23_11,fr23_d3).
body(r_fr23_11,fr23_d4).
body(r_fr23_11,fr23_p3).
body(r_fr23_11,fr23_v2).
body(r_fr23_11,fr23_y2).
head(r_fr23_12,fr23_u5).
body(r_fr23_12,fr23_f1).
body(r_fr23_12,fr23_p3).
body(r_fr23_12,fr23_s2).
body(r_fr23_12,fr23_s5).
body(r_fr23_12,fr23_t3).
body(r_fr23_12,fr11_t2).
body(r_fr23_12,fr23_w2).
body(r_fr23_12,fr23_w4).
body(r_fr23_12,fr23_x3).
body(r_fr23_12,fr23_z1).
head(r_fr23_13,fr23_u5).
body(r_fr23_13,fr23_a4).
body(r_fr23_13,fr10_b3).
body(r_fr23_13,fr23_e2).
body(r_fr23_13,fr23_f5).
body(r_fr23_13,fr23_q2).
head(r_fr23_14,fr23_u5).
body(r_fr23_14,fr23_a1).
body(r_fr23_14,fr23_p1).
body(r_fr23_14,fr23_p3).
body(r_fr23_14,fr23_v2).
body(r_fr23_14,fr23_x1).
head(r_fr23_15,fr23_u5).
body(r_fr23_15,fr23_a1).
body(r_fr23_15,fr23_d4).
body(r_fr23_15,fr23_e3).
body(r_fr23_15,fr23_f3).
body(r_fr23_15,fr23_r2).
head(r_fr23_16,fr23_u5).
body(r_fr23_16,fr23_b2).
body(r_fr23_16,fr23_d1).
body(r_fr23_16,fr23_d3).
body(r_fr23_16,fr23_d4).
body(r_fr23_16,fr23_e4).
body(r_fr23_16,fr12_f1).
body(r_fr23_16,fr23_f3).
body(r_fr23_16,fr23_q4).
body(r_fr23_16,fr23_q5).
body(r_fr23_16,fr23_t4).
head(r_fr23_17,fr23_u5).
body(r_fr23_17,fr23_a2).
head(r_fr23_18,fr23_u5).
head(r_fr23_19,fr23_u5).
body(r_fr23_19,fr23_s5).
head(r_fr23_20,fr11_t2).
body(r_fr23_20,fr16_p2).
body(r_fr23_20,fr13_q2).
body(r_fr23_20,fr23_w2).
body(r_fr23_20,fr23_y2).
head(r_fr23_21,fr11_t2).
body(r_fr23_21,fr23_d3).
body(r_fr23_21,fr23_f1).
body(r_fr23_21,fr23_f3).
head(r_fr23_22,fr11_t2).
body(r_fr23_22,fr23_a2).
body(r_fr23_22,fr23_a4).
body(r_fr23_22,fr23_b5).
body(r_fr23_22,fr23_d1).
body(r_fr23_22,fr23_d5).
body(r_fr23_22,fr23_e2).
body(r_fr23_22,fr23_e3).
head(r_fr23_23,fr11_t2).
body(r_fr23_23,fr23_b2).
body(r_fr23_23,fr23_q4).
head(r_fr23_24,fr23_v2).
body(r_fr23_24,fr23_a2).
body(r_fr23_24,fr23_a5).
body(r_fr23_24,fr10_b3).
body(r_fr23_24,fr23_c5).
body(r_fr23_24,fr23_e1).
body(r_fr23_24,fr23_w2).
body(r_fr23_24,fr23_z2).
head(r_fr23_25,fr23_v2).
body(r_fr23_25,fr23_c1).
body(r_fr23_25,fr23_r2).
body(r_fr23_25,fr23_u3).
body(r_fr23_25,fr23_z2).
body(r_fr23_25,fr16_t2).
head(r_fr23_26,fr23_r4).
body(r_fr23_26,fr23_b4).
body(r_fr23_26,fr23_v1).
head(r_fr23_27,fr23_r4).
body(r_fr23_27,fr23_f2).
body(r_fr23_27,fr23_r5).
body(r_fr23_27,fr23_s2).
body(r_fr23_27,fr23_s4).
body(r_fr23_27,fr23_w4).
head(r_fr23_28,fr23_r4).
body(r_fr23_28,fr23_q1).
body(r_fr23_28,fr23_y1).
head(r_fr23_29,fr23_r4).
body(r_fr23_29,fr19_q4).
body(r_fr23_29,fr23_v4).
body(r_fr23_29,fr23_y1).
body(r_fr23_29,fr23_z1).
head(r_fr23_30,fr23_r4).
body(r_fr23_30,fr23_p2).
body(r_fr23_30,fr19_s3).
body(r_fr23_30,fr23_q1).
body(r_fr23_30,fr23_r2).
body(r_fr23_30,fr23_r3).
body(r_fr23_30,fr23_t3).
body(r_fr23_30,fr23_u3).
body(r_fr23_30,fr2_v1).
body(r_fr23_30,fr23_y1).
body(r_fr23_30,fr23_y3).
body(r_fr23_30,fr23_y4).
head(r_fr23_31,fr23_r4).
body(r_fr23_31,fr23_b5).
body(r_fr23_31,fr23_d3).
body(r_fr23_31,fr23_p3).
body(r_fr23_31,fr19_s3).
body(r_fr23_31,fr23_q5).
body(r_fr23_31,fr23_s1).
body(r_fr23_31,fr23_s2).
body(r_fr23_31,fr23_s3).
body(r_fr23_31,fr23_w3).
body(r_fr23_31,fr23_x1).
head(r_fr23_32,fr23_p3).
body(r_fr23_32,fr23_a4).
body(r_fr23_32,fr23_b2).
body(r_fr23_32,fr23_c2).
body(r_fr23_32,fr23_d4).
body(r_fr23_32,fr23_e1).
body(r_fr23_32,fr23_e2).
body(r_fr23_32,fr12_f1).
body(r_fr23_32,fr23_f1).
body(r_fr23_32,fr23_f3).
body(r_fr23_32,fr23_q5).
body(r_fr23_32,fr23_s3).
head(r_fr23_33,fr23_p3).
head(r_fr23_34,fr23_p3).
body(r_fr23_34,fr19_s3).
body(r_fr23_34,fr19_q4).
body(r_fr23_34,fr23_s4).
body(r_fr23_34,fr23_s5).
body(r_fr23_34,fr23_t3).
body(r_fr23_34,fr23_w2).
body(r_fr23_34,fr23_z2).
head(r_fr23_35,fr23_p3).
body(r_fr23_35,fr23_c3).
body(r_fr23_35,fr23_e2).
body(r_fr23_35,fr16_p2).
body(r_fr23_35,fr23_w4).
head(r_fr23_36,fr23_p3).
body(r_fr23_36,fr23_p4).
body(r_fr23_36,fr2_v1).
body(r_fr23_36,fr23_x1).
head(r_fr23_37,fr23_p3).
body(r_fr23_37,fr23_b2).
body(r_fr23_37,fr23_d1).
body(r_fr23_37,fr16_w2).
body(r_fr23_37,fr23_r3).
head(r_fr23_38,fr23_p3).
body(r_fr23_38,fr23_a2).
body(r_fr23_38,fr23_a4).
body(r_fr23_38,fr23_b4).
body(r_fr23_38,fr10_b3).
body(r_fr23_38,fr23_x3).
body(r_fr23_38,fr23_z1).
head(r_fr23_39,fr23_w3).
body(r_fr23_39,fr23_d2).
body(r_fr23_39,fr23_u4).
head(r_fr23_40,fr23_w3).
body(r_fr23_40,fr23_p2).
body(r_fr23_40,fr23_q5).
body(r_fr23_40,fr23_s5).
body(r_fr23_40,fr23_u4).
body(r_fr23_40,fr23_y2).
head(r_fr23_41,fr23_w3).
body(r_fr23_41,fr23_a1).
body(r_fr23_41,fr23_b3).
body(r_fr23_41,fr23_b4).
body(r_fr23_41,fr23_c1).
body(r_fr23_41,fr23_d3).
body(r_fr23_41,fr23_d5).
body(r_fr23_41,fr23_e4).
body(r_fr23_41,fr23_r2).
head(r_fr23_42,fr23_w3).
body(r_fr23_42,fr23_y3).
head(r_fr23_43,fr23_w3).
body(r_fr23_43,fr23_a2).
body(r_fr23_43,fr23_a3).
body(r_fr23_43,fr23_b2).
body(r_fr23_43,fr23_c3).
body(r_fr23_43,fr23_c5).
body(r_fr23_43,fr23_d5).
body(r_fr23_43,fr23_e1).
body(r_fr23_43,fr23_f2).
body(r_fr23_43,fr16_p2).
body(r_fr23_43,fr23_y1).
head(r_fr23_44,fr23_w3).
body(r_fr23_44,fr23_a2).
body(r_fr23_44,fr23_a3).
body(r_fr23_44,fr23_e1).
body(r_fr23_44,fr23_f1).
head(r_fr23_45,fr23_w3).
body(r_fr23_45,fr23_d3).
body(r_fr23_45,fr23_d4).
body(r_fr23_45,fr23_q1).
body(r_fr23_45,fr23_w2).
body(r_fr23_45,fr23_x1).
body(r_fr23_45,fr16_t2).
head(r_fr23_46,fr23_w3).
body(r_fr23_46,fr23_q2).
body(r_fr23_46,fr23_s1).
body(r_fr23_46,fr23_s4).
body(r_fr23_46,fr16_p2).
body(r_fr23_46,fr23_t4).
body(r_fr23_46,fr2_v1).
body(r_fr23_46,fr23_w1).
body(r_fr23_46,fr23_w2).
body(r_fr23_46,fr23_y1).
body(r_fr23_46,fr15_z2).
head(r_fr23_47,fr23_w3).
head(r_fr23_48,fr23_w3).
body(r_fr23_48,fr23_a3).
body(r_fr23_48,fr23_a4).
body(r_fr23_48,fr23_a5).
body(r_fr23_48,fr23_c5).
body(r_fr23_48,fr23_d5).
body(r_fr23_48,fr23_e2).
head(r_fr23_49,fr23_s3).
body(r_fr23_49,fr23_c1).
body(r_fr23_49,fr10_b3).
body(r_fr23_49,fr23_d4).
body(r_fr23_49,fr23_f5).
body(r_fr23_49,fr19_q4).
body(r_fr23_49,fr23_r5).
body(r_fr23_49,fr23_s2).
body(r_fr23_49,fr23_v1).
body(r_fr23_49,fr23_v4).
body(r_fr23_49,fr23_z1).
head(r_fr23_50,fr23_s3).
body(r_fr23_50,fr23_w4).
body(r_fr23_50,fr23_y4).
head(r_fr23_51,fr23_s3).
body(r_fr23_51,fr23_p2).
body(r_fr23_51,fr23_q2).
body(r_fr23_51,fr23_r2).
body(r_fr23_51,fr23_w2).
body(r_fr23_51,fr23_y3).
body(r_fr23_51,fr23_y4).
head(r_fr23_52,fr23_s3).
body(r_fr23_52,fr23_a2).
body(r_fr23_52,fr23_a5).
body(r_fr23_52,fr23_b3).
body(r_fr23_52,fr23_c3).
body(r_fr23_52,fr23_e3).
body(r_fr23_52,fr23_e4).
body(r_fr23_52,fr23_f1).
body(r_fr23_52,fr23_f2).
body(r_fr23_52,fr23_s4).
body(r_fr23_52,fr23_t3).
body(r_fr23_52,fr23_y1).
head(r_fr23_53,fr23_s3).
body(r_fr23_53,fr23_q2).
body(r_fr23_53,fr23_q4).
body(r_fr23_53,fr23_u3).
body(r_fr23_53,fr23_u4).
body(r_fr23_53,fr23_v4).
body(r_fr23_53,fr23_x1).
body(r_fr23_53,fr23_y1).
body(r_fr23_53,fr23_y2).
body(r_fr23_53,fr16_t2).
head(r_fr23_54,fr23_s3).
body(r_fr23_54,fr23_b4).
body(r_fr23_54,fr23_b5).
body(r_fr23_54,fr23_c2).
body(r_fr23_54,fr10_b3).
body(r_fr23_54,fr23_d2).
body(r_fr23_54,fr23_e4).
body(r_fr23_54,fr16_t2).
head(r_fr23_55,fr16_w2).
body(r_fr23_55,fr23_d3).
body(r_fr23_55,fr23_e4).
body(r_fr23_55,fr12_f1).
body(r_fr23_55,fr23_f3).
body(r_fr23_55,fr23_p4).
head(r_fr23_56,fr16_w2).
body(r_fr23_56,fr23_r5).
body(r_fr23_56,fr23_s5).
body(r_fr23_56,fr23_x3).
head(r_fr23_57,fr16_w2).
body(r_fr23_57,fr23_b1).
body(r_fr23_57,fr23_b4).
body(r_fr23_57,fr23_b5).
body(r_fr23_57,fr23_c2).
body(r_fr23_57,fr10_b3).
body(r_fr23_57,fr23_c5).
body(r_fr23_57,fr23_d3).
body(r_fr23_57,fr23_e3).
body(r_fr23_57,fr23_f4).
body(r_fr23_57,fr23_s1).
body(r_fr23_57,fr13_q2).
head(r_fr23_58,fr16_w2).
body(r_fr23_58,fr23_v4).
body(r_fr23_58,fr23_x3).
head(r_fr23_59,fr16_w2).
body(r_fr23_59,fr23_b4).
body(r_fr23_59,fr10_b3).
body(r_fr23_59,fr23_d1).
body(r_fr23_59,fr23_f1).
head(r_fr23_60,fr16_w2).
body(r_fr23_60,fr23_a1).
body(r_fr23_60,fr23_a2).
body(r_fr23_60,fr23_a3).
body(r_fr23_60,fr23_b2).
body(r_fr23_60,fr23_d2).
body(r_fr23_60,fr23_d5).
body(r_fr23_60,fr23_e1).
body(r_fr23_60,fr23_e3).
body(r_fr23_60,fr23_f3).
body(r_fr23_60,fr23_f4).
body(r_fr23_60,fr23_w2).
head(r_fr23_61,fr15_z2).
body(r_fr23_61,fr23_d5).
body(r_fr23_61,fr23_f2).
body(r_fr23_61,fr23_p1).
body(r_fr23_61,fr23_r2).
body(r_fr23_61,fr23_x4).
body(r_fr23_61,fr23_y3).
head(r_fr23_62,fr15_z2).
head(r_fr23_63,fr15_z2).
body(r_fr23_63,fr23_a4).
body(r_fr23_63,fr23_b3).
body(r_fr23_63,fr23_e3).
body(r_fr23_63,fr12_f1).
body(r_fr23_63,fr23_f1).
body(r_fr23_63,fr23_f3).
body(r_fr23_63,fr23_s2).
body(r_fr23_63,fr23_y4).
head(r_fr23_64,fr15_z2).
body(r_fr23_64,fr23_b3).
body(r_fr23_64,fr23_c2).
body(r_fr23_64,fr12_f1).
body(r_fr23_64,fr23_u4).
head(r_fr23_65,fr15_z2).
body(r_fr23_65,fr23_a5).
body(r_fr23_65,fr23_b1).
body(r_fr23_65,fr23_d4).
body(r_fr23_65,fr23_f5).
body(r_fr23_65,fr19_s3).
body(r_fr23_65,fr23_q4).
body(r_fr23_65,fr23_w2).
body(r_fr23_65,fr23_y4).
head(r_fr23_66,fr23_q5).
body(r_fr23_66,fr23_b3).
body(r_fr23_66,fr23_c5).
body(r_fr23_66,fr23_d5).
body(r_fr23_66,fr23_e1).
body(r_fr23_66,fr23_q1).
body(r_fr23_66,fr23_s4).
body(r_fr23_66,fr23_t3).
body(r_fr23_66,fr23_y1).
body(r_fr23_66,fr23_y3).
body(r_fr23_66,fr23_y4).
head(r_fr23_67,fr23_q5).
body(r_fr23_67,fr23_a4).
body(r_fr23_67,fr23_e1).
body(r_fr23_67,fr23_f4).
body(r_fr23_67,fr23_p4).
body(r_fr23_67,fr23_q1).
body(r_fr23_67,fr23_r5).
body(r_fr23_67,fr23_w2).
body(r_fr23_67,fr16_t2).
head(r_fr23_68,fr23_q5).
head(r_fr23_69,fr23_q5).
body(r_fr23_69,fr23_a2).
body(r_fr23_69,fr23_b1).
body(r_fr23_69,fr23_c3).
body(r_fr23_69,fr23_d4).
body(r_fr23_69,fr23_e1).
body(r_fr23_69,fr23_e3).
body(r_fr23_69,fr23_f3).
body(r_fr23_69,fr23_s1).
body(r_fr23_69,fr23_x1).
body(r_fr23_69,fr23_y4).
head(r_fr23_70,fr23_q5).
body(r_fr23_70,fr23_a3).
body(r_fr23_70,fr23_b1).
body(r_fr23_70,fr23_c3).
body(r_fr23_70,fr10_b3).
body(r_fr23_70,fr23_e2).
body(r_fr23_70,fr23_e3).
body(r_fr23_70,fr23_f5).
body(r_fr23_70,fr23_t4).
body(r_fr23_70,fr2_v1).
body(r_fr23_70,fr23_y1).
body(r_fr23_70,fr23_y2).
head(r_fr23_71,fr23_q5).
body(r_fr23_71,fr23_r5).
body(r_fr23_71,fr23_s4).
body(r_fr23_71,fr23_t3).
body(r_fr23_71,fr23_t5).
body(r_fr23_71,fr23_w1).
body(r_fr23_71,fr23_w4).
body(r_fr23_71,fr23_y2).
body(r_fr23_71,fr23_z1).
head(r_fr23_72,fr23_r2).
body(r_fr23_72,fr23_a3).
body(r_fr23_72,fr23_p4).
body(r_fr23_72,fr23_t4).
body(r_fr23_72,fr23_u3).
body(r_fr23_72,fr23_w1).
body(r_fr23_72,fr23_x3).
body(r_fr23_72,fr23_y2).
body(r_fr23_72,fr23_z1).
head(r_fr23_73,fr23_r2).
body(r_fr23_73,fr23_q4).
body(r_fr23_73,fr23_r3).
body(r_fr23_73,fr23_s4).
body(r_fr23_73,fr16_p2).
body(r_fr23_73,fr23_u3).
body(r_fr23_73,fr23_v1).
head(r_fr23_74,fr23_r2).
body(r_fr23_74,fr23_p4).
body(r_fr23_74,fr23_s4).
body(r_fr23_74,fr23_w4).
head(r_fr23_75,fr23_r2).
body(r_fr23_75,fr23_a3).
body(r_fr23_75,fr23_b3).
body(r_fr23_75,fr23_b5).
body(r_fr23_75,fr23_d1).
body(r_fr23_75,fr23_d5).
body(r_fr23_75,fr12_f1).
body(r_fr23_75,fr23_t5).
body(r_fr23_75,fr2_v1).
head(r_fr23_76,fr23_r2).
body(r_fr23_76,fr23_a3).
body(r_fr23_76,fr23_b3).
body(r_fr23_76,fr10_b3).
body(r_fr23_76,fr23_d1).
body(r_fr23_76,fr23_d3).
body(r_fr23_76,fr23_d5).
body(r_fr23_76,fr23_e4).
body(r_fr23_76,fr19_s3).
body(r_fr23_76,fr23_t5).
body(r_fr23_76,fr23_u4).
body(r_fr23_76,fr23_x1).
head(r_fr23_77,fr23_r2).
body(r_fr23_77,fr23_a1).
body(r_fr23_77,fr23_b5).
body(r_fr23_77,fr23_d3).
body(r_fr23_77,fr23_e3).
body(r_fr23_77,fr23_f4).
body(r_fr23_77,fr23_p2).
head(r_fr23_78,fr23_r2).
head(r_fr23_79,fr23_r2).
body(r_fr23_79,fr23_f2).
body(r_fr23_79,fr23_f5).
body(r_fr23_79,fr23_q2).
body(r_fr23_79,fr23_w1).
body(r_fr23_79,fr23_x3).
head(r_fr23_80,fr23_t4).
body(r_fr23_80,fr23_a1).
body(r_fr23_80,fr23_b3).
body(r_fr23_80,fr23_d1).
body(r_fr23_80,fr23_d2).
body(r_fr23_80,fr23_e4).
body(r_fr23_80,fr12_f1).
body(r_fr23_80,fr23_v4).
head(r_fr23_81,fr23_t4).
body(r_fr23_81,fr23_a1).
body(r_fr23_81,fr23_a5).
body(r_fr23_81,fr23_b1).
body(r_fr23_81,fr23_b3).
body(r_fr23_81,fr23_c2).
body(r_fr23_81,fr23_c5).
body(r_fr23_81,fr12_f1).
body(r_fr23_81,fr23_f1).
body(r_fr23_81,fr23_f5).
body(r_fr23_81,fr23_t5).
body(r_fr23_81,fr23_v1).
head(r_fr23_82,fr23_t4).
body(r_fr23_82,fr23_b4).
body(r_fr23_82,fr23_f3).
head(r_fr23_83,fr23_t4).
body(r_fr23_83,fr23_f3).
body(r_fr23_83,fr19_s3).
body(r_fr23_83,fr23_w4).
body(r_fr23_83,fr23_y3).
head(r_fr23_84,fr23_t4).
body(r_fr23_84,fr23_a2).
body(r_fr23_84,fr23_e1).
body(r_fr23_84,fr12_f1).
head(r_fr23_85,fr23_t4).
body(r_fr23_85,fr23_s1).
body(r_fr23_85,fr23_u3).
head(r_fr23_86,fr23_x4).
body(r_fr23_86,fr23_a1).
body(r_fr23_86,fr23_a3).
body(r_fr23_86,fr23_b1).
body(r_fr23_86,fr23_b2).
body(r_fr23_86,fr23_b3).
body(r_fr23_86,fr10_b3).
body(r_fr23_86,fr23_d1).
body(r_fr23_86,fr23_d2).
body(r_fr23_86,fr12_f1).
body(r_fr23_86,fr23_s2).
body(r_fr23_86,fr23_y2).
head(r_fr23_87,fr23_x4).
body(r_fr23_87,fr23_a2).
body(r_fr23_87,fr23_b1).
body(r_fr23_87,fr12_f1).
body(r_fr23_87,fr23_z1).
head(r_fr23_88,fr23_x4).
body(r_fr23_88,fr23_c2).
body(r_fr23_88,fr12_f1).
head(r_fr23_89,fr23_x4).
body(r_fr23_89,fr23_e1).
head(r_fr23_90,fr23_x4).
body(r_fr23_90,fr23_a1).
body(r_fr23_90,fr23_a5).
body(r_fr23_90,fr23_b2).
body(r_fr23_90,fr23_c3).
body(r_fr23_90,fr23_q4).
body(r_fr23_90,fr13_q2).
body(r_fr23_90,fr23_v1).
head(r_fr23_91,fr23_y3).
body(r_fr23_91,fr23_p1).
body(r_fr23_91,fr23_p4).
body(r_fr23_91,fr19_s3).
body(r_fr23_91,fr23_t3).
body(r_fr23_91,fr23_y2).
body(r_fr23_91,fr23_y4).
body(r_fr23_91,fr23_z2).
head(r_fr23_92,fr23_y3).
body(r_fr23_92,fr23_d2).
head(r_fr23_93,fr23_y3).
body(r_fr23_93,fr23_a3).
body(r_fr23_93,fr23_a5).
body(r_fr23_93,fr23_c1).
body(r_fr23_93,fr10_b3).
body(r_fr23_93,fr23_d2).
body(r_fr23_93,fr23_e4).
body(r_fr23_93,fr23_q2).
body(r_fr23_93,fr13_q2).
body(r_fr23_93,fr23_v4).
body(r_fr23_93,fr23_y1).
body(r_fr23_93,fr23_z1).
head(r_fr23_94,fr23_y3).
body(r_fr23_94,fr23_s2).
body(r_fr23_94,fr23_v4).
body(r_fr23_94,fr23_z1).
head(r_fr23_95,fr23_x3).
body(r_fr23_95,fr23_a5).
body(r_fr23_95,fr23_v4).
body(r_fr23_95,fr23_y1).
body(r_fr23_95,fr16_t2).
head(r_fr23_96,fr23_x3).
body(r_fr23_96,fr23_a2).
body(r_fr23_96,fr23_b4).
body(r_fr23_96,fr23_d2).
body(r_fr23_96,fr23_f3).
body(r_fr23_96,fr23_p1).
body(r_fr23_96,fr23_q1).
body(r_fr23_96,fr23_s4).
body(r_fr23_96,fr16_p2).
body(r_fr23_96,fr23_w1).
body(r_fr23_96,fr23_w2).
body(r_fr23_96,fr23_w4).
head(r_fr23_97,fr23_x3).
body(r_fr23_97,fr23_a1).
body(r_fr23_97,fr23_a2).
body(r_fr23_97,fr23_e2).
body(r_fr23_97,fr12_f1).
body(r_fr23_97,fr23_w4).
head(r_fr23_98,fr23_x3).
body(r_fr23_98,fr23_a1).
body(r_fr23_98,fr23_a2).
body(r_fr23_98,fr23_a3).
body(r_fr23_98,fr23_a4).
body(r_fr23_98,fr23_b5).
body(r_fr23_98,fr23_f4).
body(r_fr23_98,fr23_f5).
body(r_fr23_98,fr23_s5).
body(r_fr23_98,fr16_p2).
body(r_fr23_98,fr16_t2).
head(r_fr23_99,fr23_x3).
body(r_fr23_99,fr10_b3).
body(r_fr23_99,fr12_f1).
head(r_fr23_100,fr23_x3).
body(r_fr23_100,fr23_a3).
body(r_fr23_100,fr23_b2).
body(r_fr23_100,fr23_b3).
body(r_fr23_100,fr23_d1).
body(r_fr23_100,fr23_e3).
body(r_fr23_100,fr23_e4).
head(r_fr23_101,fr19_s3).
body(r_fr23_101,fr23_r5).
head(r_fr23_102,fr19_s3).
body(r_fr23_102,fr23_d3).
body(r_fr23_102,fr23_q2).
body(r_fr23_102,fr23_t3).
body(r_fr23_102,fr23_t5).
body(r_fr23_102,fr23_u3).
body(r_fr23_102,fr23_v4).
head(r_fr23_103,fr19_s3).
body(r_fr23_103,fr23_a3).
body(r_fr23_103,fr23_b5).
body(r_fr23_103,fr23_d3).
body(r_fr23_103,fr23_e1).
body(r_fr23_103,fr23_e2).
body(r_fr23_103,fr23_f2).
body(r_fr23_103,fr23_f3).
body(r_fr23_103,fr23_q1).
body(r_fr23_103,fr23_v1).
body(r_fr23_103,fr23_w2).
head(r_fr23_104,fr19_s3).
head(r_fr23_105,fr23_z2).
body(r_fr23_105,fr23_v1).
head(r_fr23_106,fr23_z2).
body(r_fr23_106,fr23_b1).
body(r_fr23_106,fr23_b4).
body(r_fr23_106,fr23_b5).
body(r_fr23_106,fr10_b3).
body(r_fr23_106,fr23_c5).
body(r_fr23_106,fr23_e4).
body(r_fr23_106,fr23_f3).
body(r_fr23_106,fr16_t2).
head(r_fr23_107,fr23_x1).
body(r_fr23_107,fr23_a2).
body(r_fr23_107,fr23_d2).
body(r_fr23_107,fr23_d4).
body(r_fr23_107,fr23_e2).
body(r_fr23_107,fr23_e3).
body(r_fr23_107,fr23_f2).
body(r_fr23_107,fr23_f3).
body(r_fr23_107,fr23_w2).
head(r_fr23_108,fr23_x1).
body(r_fr23_108,fr10_b3).
body(r_fr23_108,fr23_q2).
body(r_fr23_108,fr23_w4).
head(r_fr23_109,fr23_x1).
body(r_fr23_109,fr23_a1).
body(r_fr23_109,fr23_a2).
body(r_fr23_109,fr23_a4).
body(r_fr23_109,fr23_b1).
body(r_fr23_109,fr23_b4).
body(r_fr23_109,fr23_c2).
body(r_fr23_109,fr10_b3).
body(r_fr23_109,fr23_d1).
body(r_fr23_109,fr23_d3).
body(r_fr23_109,fr23_f4).
body(r_fr23_109,fr23_w1).
head(r_fr23_110,fr23_x1).
body(r_fr23_110,fr23_a1).
body(r_fr23_110,fr23_a2).
body(r_fr23_110,fr23_a4).
body(r_fr23_110,fr23_b5).
body(r_fr23_110,fr23_c2).
body(r_fr23_110,fr23_d1).
body(r_fr23_110,fr23_d2).
body(r_fr23_110,fr23_d4).
body(r_fr23_110,fr23_e2).
body(r_fr23_110,fr23_e3).
body(r_fr23_110,fr12_f1).
head(r_fr23_111,fr23_x1).
body(r_fr23_111,fr23_e2).
body(r_fr23_111,fr23_f4).
head(r_fr23_112,fr23_x1).
body(r_fr23_112,fr23_a2).
body(r_fr23_112,fr23_c1).
body(r_fr23_112,fr23_d1).
body(r_fr23_112,fr12_f1).
body(r_fr23_112,fr19_q4).
body(r_fr23_112,fr23_s5).
body(r_fr23_112,fr23_w2).
head(r_fr23_113,fr23_x1).
body(r_fr23_113,fr16_p2).
head(r_fr23_114,fr23_x1).
body(r_fr23_114,fr23_b1).
head(r_fr23_115,fr23_x1).
body(r_fr23_115,fr23_b2).
body(r_fr23_115,fr23_b5).
body(r_fr23_115,fr23_d2).
body(r_fr23_115,fr23_d3).
body(r_fr23_115,fr23_e1).
body(r_fr23_115,fr23_f4).
body(r_fr23_115,fr23_p1).
body(r_fr23_115,fr23_r3).
body(r_fr23_115,fr23_s1).
body(r_fr23_115,fr13_q2).
head(r_fr23_116,fr23_t3).
head(r_fr23_117,fr23_t3).
body(r_fr23_117,fr23_a1).
body(r_fr23_117,fr23_b5).
body(r_fr23_117,fr23_c1).
body(r_fr23_117,fr23_f3).
body(r_fr23_117,fr23_q4).
body(r_fr23_117,fr23_w1).
body(r_fr23_117,fr23_w2).
body(r_fr23_117,fr23_z1).
head(r_fr23_118,fr23_t3).
body(r_fr23_118,fr23_p2).
body(r_fr23_118,fr23_q1).
body(r_fr23_118,fr23_r3).
body(r_fr23_118,fr23_s1).
body(r_fr23_118,fr23_s5).
body(r_fr23_118,fr16_p2).
body(r_fr23_118,fr23_u4).
body(r_fr23_118,fr23_w4).
body(r_fr23_118,fr23_y2).
body(r_fr23_118,fr23_z1).
head(r_fr23_119,fr23_t3).
body(r_fr23_119,fr16_p2).
body(r_fr23_119,fr23_u4).
head(r_fr23_120,fr23_t3).
body(r_fr23_120,fr23_b5).
body(r_fr23_120,fr23_f1).
body(r_fr23_120,fr23_f4).
body(r_fr23_120,fr23_f5).
head(r_fr23_121,fr23_t3).
body(r_fr23_121,fr23_b1).
body(r_fr23_121,fr23_c2).
body(r_fr23_121,fr23_d4).
body(r_fr23_121,fr23_f4).
body(r_fr23_121,fr23_z1).
head(r_fr23_122,fr23_t3).
body(r_fr23_122,fr23_p2).
body(r_fr23_122,fr23_q1).
body(r_fr23_122,fr23_q2).
body(r_fr23_122,fr23_r3).
body(r_fr23_122,fr23_w2).
body(r_fr23_122,fr23_w4).
body(r_fr23_122,fr23_z1).
head(r_fr23_123,fr23_t3).
body(r_fr23_123,fr23_a5).
body(r_fr23_123,fr23_b4).
body(r_fr23_123,fr23_w4).
body(r_fr23_123,fr23_z1).
head(r_fr23_124,fr23_t3).
body(r_fr23_124,fr23_d5).
body(r_fr23_124,fr23_t5).
body(r_fr23_124,fr2_v1).
body(r_fr23_124,fr23_y1).
head(r_fr23_125,fr23_t3).
body(r_fr23_125,fr23_w2).
body(r_fr23_125,fr23_y4).
head(r_fr23_126,fr23_y2).
body(r_fr23_126,fr23_s1).
body(r_fr23_126,fr16_p2).
body(r_fr23_126,fr23_w1).
body(r_fr23_126,fr23_z1).
body(r_fr23_126,fr16_t2).
head(r_fr23_127,fr23_y2).
body(r_fr23_127,fr23_b3).
body(r_fr23_127,fr23_d5).
body(r_fr23_127,fr23_p1).
body(r_fr23_127,fr23_v4).
body(r_fr23_127,fr23_w2).
body(r_fr23_127,fr16_t2).
head(r_fr23_128,fr23_y2).
body(r_fr23_128,fr23_b3).
body(r_fr23_128,fr23_c1).
body(r_fr23_128,fr23_f4).
body(r_fr23_128,fr23_p1).
body(r_fr23_128,fr23_q4).
body(r_fr23_128,fr23_y4).
head(r_fr23_129,fr23_y2).
body(r_fr23_129,fr23_q2).
body(r_fr23_129,fr16_p2).
head(r_fr23_130,fr23_y2).
body(r_fr23_130,fr23_a4).
body(r_fr23_130,fr23_b2).
body(r_fr23_130,fr23_b3).
body(r_fr23_130,fr10_b3).
body(r_fr23_130,fr23_c5).
body(r_fr23_130,fr23_d2).
body(r_fr23_130,fr23_e1).
body(r_fr23_130,fr23_f2).
body(r_fr23_130,fr23_f5).
body(r_fr23_130,fr23_u4).
body(r_fr23_130,fr23_y4).
head(r_fr23_131,fr23_y2).
body(r_fr23_131,fr23_f4).
head(r_fr23_132,fr23_y2).
head(r_fr23_133,fr23_z1).
body(r_fr23_133,fr23_f3).
body(r_fr23_133,fr23_p1).
body(r_fr23_133,fr23_s2).
body(r_fr23_133,fr23_s4).
body(r_fr23_133,fr23_u3).
head(r_fr23_134,fr23_z1).
body(r_fr23_134,fr23_c3).
head(r_fr23_135,fr23_z1).
body(r_fr23_135,fr23_a2).
body(r_fr23_135,fr23_b1).
body(r_fr23_135,fr23_d1).
body(r_fr23_135,fr23_d4).
body(r_fr23_135,fr23_e1).
body(r_fr23_135,fr23_q1).
body(r_fr23_135,fr23_q4).
body(r_fr23_135,fr23_s5).
body(r_fr23_135,fr16_p2).
head(r_fr23_136,fr23_z1).
body(r_fr23_136,fr23_a2).
body(r_fr23_136,fr23_s5).
body(r_fr23_136,fr16_p2).
head(r_fr23_137,fr23_z1).
head(r_fr23_138,fr23_z1).
body(r_fr23_138,fr23_q1).
body(r_fr23_138,fr23_s2).
body(r_fr23_138,fr16_t2).
head(r_fr23_139,fr23_z1).
body(r_fr23_139,fr23_a3).
body(r_fr23_139,fr23_a4).
body(r_fr23_139,fr23_b5).
body(r_fr23_139,fr23_d2).
body(r_fr23_139,fr23_e2).
body(r_fr23_139,fr23_e3).
body(r_fr23_139,fr23_f5).
body(r_fr23_139,fr23_q4).
body(r_fr23_139,fr23_s2).
body(r_fr23_139,fr23_s4).
head(r_fr23_140,fr23_z1).
body(r_fr23_140,fr23_a2).
body(r_fr23_140,fr23_b1).
body(r_fr23_140,fr23_b3).
body(r_fr23_140,fr10_b3).
body(r_fr23_140,fr23_e4).
body(r_fr23_140,fr23_f5).
body(r_fr23_140,fr23_s1).
head(r_fr23_141,fr19_q4).
body(r_fr23_141,fr23_a5).
body(r_fr23_141,fr23_b5).
body(r_fr23_141,fr23_d1).
body(r_fr23_141,fr23_p2).
body(r_fr23_141,fr23_p4).
body(r_fr23_141,fr23_q2).
body(r_fr23_141,fr23_r3).
body(r_fr23_141,fr23_s5).
body(r_fr23_141,fr23_u4).
body(r_fr23_141,fr23_w4).
body(r_fr23_141,fr16_t2).
head(r_fr23_142,fr19_q4).
body(r_fr23_142,fr23_p1).
body(r_fr23_142,fr23_p4).
body(r_fr23_142,fr23_q1).
body(r_fr23_142,fr23_r3).
body(r_fr23_142,fr13_q2).
body(r_fr23_142,fr23_u3).
body(r_fr23_142,fr23_v1).
head(r_fr23_143,fr19_q4).
body(r_fr23_143,fr23_p1).
body(r_fr23_143,fr23_p2).
body(r_fr23_143,fr23_p4).
body(r_fr23_143,fr23_s1).
body(r_fr23_143,fr23_s2).
body(r_fr23_143,fr23_s4).
body(r_fr23_143,fr13_q2).
body(r_fr23_143,fr23_v1).
body(r_fr23_143,fr2_v1).
body(r_fr23_143,fr23_v4).
body(r_fr23_143,fr16_t2).
head(r_fr23_144,fr19_q4).
body(r_fr23_144,fr23_a1).
body(r_fr23_144,fr23_d3).
head(r_fr23_145,fr19_q4).
body(r_fr23_145,fr23_a5).
body(r_fr23_145,fr23_b3).
body(r_fr23_145,fr23_b4).
body(r_fr23_145,fr23_d2).
body(r_fr23_145,fr23_d3).
body(r_fr23_145,fr23_f2).
body(r_fr23_145,fr23_w2).
head(r_fr23_146,fr19_q4).
body(r_fr23_146,fr23_a4).
body(r_fr23_146,fr23_a5).
body(r_fr23_146,fr23_f3).
body(r_fr23_146,fr23_f4).
body(r_fr23_146,fr23_p4).
body(r_fr23_146,fr23_q4).
body(r_fr23_146,fr23_s5).
body(r_fr23_146,fr13_q2).
body(r_fr23_146,fr23_v1).
body(r_fr23_146,fr23_w1).
head(r_fr23_147,fr19_q4).
body(r_fr23_147,fr23_c1).
body(r_fr23_147,fr23_d5).
body(r_fr23_147,fr23_q2).
body(r_fr23_147,fr23_s2).
body(r_fr23_147,fr23_w4).
head(r_fr23_148,fr19_q4).
body(r_fr23_148,fr23_p2).
body(r_fr23_148,fr23_r3).
body(r_fr23_148,fr23_s4).
body(r_fr23_148,fr23_u3).
body(r_fr23_148,fr23_v1).
body(r_fr23_148,fr2_v1).
body(r_fr23_148,fr23_y4).
head(r_fr23_149,fr19_q4).
body(r_fr23_149,fr23_e2).
body(r_fr23_149,fr23_u4).
head(r_fr23_150,fr19_q4).
body(r_fr23_150,fr23_a3).
body(r_fr23_150,fr23_c3).
body(r_fr23_150,fr23_c5).
body(r_fr23_150,fr23_d2).
body(r_fr23_150,fr23_e3).
body(r_fr23_150,fr23_f3).
body(r_fr23_150,fr23_q1).
body(r_fr23_150,fr23_t5).
body(r_fr23_150,fr23_u4).
head(r_fr23_151,fr23_p4).
body(r_fr23_151,fr23_a4).
body(r_fr23_151,fr23_f1).
head(r_fr23_152,fr23_p4).
body(r_fr23_152,fr23_a4).
body(r_fr23_152,fr23_a5).
body(r_fr23_152,fr23_d4).
body(r_fr23_152,fr23_e4).
body(r_fr23_152,fr23_q1).
head(r_fr23_153,fr23_p4).
body(r_fr23_153,fr23_e3).
body(r_fr23_153,fr23_s1).
body(r_fr23_153,fr23_s5).
head(r_fr23_154,fr23_p4).
body(r_fr23_154,fr23_a1).
body(r_fr23_154,fr10_b3).
body(r_fr23_154,fr23_d4).
body(r_fr23_154,fr23_f1).
body(r_fr23_154,fr23_f3).
body(r_fr23_154,fr23_f4).
body(r_fr23_154,fr23_f5).
body(r_fr23_154,fr23_q2).
body(r_fr23_154,fr23_r5).
head(r_fr23_155,fr23_p4).
head(r_fr23_156,fr23_p4).
body(r_fr23_156,fr23_a5).
head(r_fr23_157,fr23_p4).
body(r_fr23_157,fr23_b2).
body(r_fr23_157,fr23_c2).
body(r_fr23_157,fr23_e3).
body(r_fr23_157,fr23_s4).
body(r_fr23_157,fr2_v1).
head(r_fr23_158,fr23_p4).
body(r_fr23_158,fr23_a3).
body(r_fr23_158,fr23_a4).
body(r_fr23_158,fr23_c2).
body(r_fr23_158,fr23_d1).
body(r_fr23_158,fr23_e2).
body(r_fr23_158,fr23_q2).
body(r_fr23_158,fr23_w2).
body(r_fr23_158,fr23_y1).
body(r_fr23_158,fr16_t2).
head(r_fr23_159,fr23_p4).
body(r_fr23_159,fr23_f2).
body(r_fr23_159,fr23_s1).
head(r_fr23_160,fr23_p1).
body(r_fr23_160,fr23_q4).
body(r_fr23_160,fr23_s2).
head(r_fr23_161,fr23_p1).
body(r_fr23_161,fr23_a3).
body(r_fr23_161,fr23_b1).
body(r_fr23_161,fr23_b4).
body(r_fr23_161,fr10_b3).
body(r_fr23_161,fr23_d2).
body(r_fr23_161,fr23_d4).
body(r_fr23_161,fr23_e3).
body(r_fr23_161,fr23_f3).
body(r_fr23_161,fr23_f4).
body(r_fr23_161,fr23_f5).
head(r_fr23_162,fr23_p1).
body(r_fr23_162,fr23_b5).
body(r_fr23_162,fr10_b3).
body(r_fr23_162,fr23_p2).
body(r_fr23_162,fr23_q1).
body(r_fr23_162,fr23_q4).
body(r_fr23_162,fr23_s4).
body(r_fr23_162,fr16_p2).
body(r_fr23_162,fr13_q2).
body(r_fr23_162,fr23_w4).
body(r_fr23_162,fr23_y4).
head(r_fr23_163,fr23_p1).
body(r_fr23_163,fr23_r3).
body(r_fr23_163,fr2_v1).
body(r_fr23_163,fr16_t2).
head(r_fr23_164,fr23_p1).
body(r_fr23_164,fr23_d5).
body(r_fr23_164,fr23_q4).
body(r_fr23_164,fr23_s1).
body(r_fr23_164,fr23_t5).
body(r_fr23_164,fr23_v1).
body(r_fr23_164,fr2_v1).
body(r_fr23_164,fr23_v4).
body(r_fr23_164,fr16_t2).
head(r_fr23_165,fr23_p1).
body(r_fr23_165,fr23_w2).
head(r_fr23_166,fr23_p1).
body(r_fr23_166,fr23_c5).
head(r_fr23_167,fr23_p1).
body(r_fr23_167,fr23_p2).
body(r_fr23_167,fr23_t5).
body(r_fr23_167,fr23_u3).
body(r_fr23_167,fr23_y4).
head(r_fr23_168,fr23_v1).
body(r_fr23_168,fr23_p2).
body(r_fr23_168,fr23_r3).
body(r_fr23_168,fr23_s2).
body(r_fr23_168,fr23_s5).
body(r_fr23_168,fr23_w4).
head(r_fr23_169,fr23_v1).
body(r_fr23_169,fr23_b2).
body(r_fr23_169,fr23_e4).
body(r_fr23_169,fr23_f3).
head(r_fr23_170,fr23_v1).
body(r_fr23_170,fr12_f1).
body(r_fr23_170,fr23_p2).
body(r_fr23_170,fr23_r3).
body(r_fr23_170,fr23_w4).
head(r_fr23_171,fr23_v1).
head(r_fr23_172,fr23_v1).
body(r_fr23_172,fr23_a4).
body(r_fr23_172,fr23_b5).
body(r_fr23_172,fr23_d1).
body(r_fr23_172,fr12_f1).
head(r_fr23_173,fr23_v1).
body(r_fr23_173,fr23_p2).
body(r_fr23_173,fr16_p2).
body(r_fr23_173,fr13_q2).
body(r_fr23_173,fr23_u3).
head(r_fr23_174,fr23_v1).
body(r_fr23_174,fr23_e1).
body(r_fr23_174,fr23_q1).
body(r_fr23_174,fr23_u3).
body(r_fr23_174,fr23_u4).
head(r_fr23_175,fr23_v1).
body(r_fr23_175,fr23_a1).
body(r_fr23_175,fr23_d5).
body(r_fr23_175,fr23_f4).
head(r_fr23_176,fr23_v1).
body(r_fr23_176,fr23_a5).
body(r_fr23_176,fr23_c5).
body(r_fr23_176,fr23_d5).
body(r_fr23_176,fr23_f3).
body(r_fr23_176,fr23_f4).
body(r_fr23_176,fr23_p2).
body(r_fr23_176,fr23_r3).
body(r_fr23_176,fr2_v1).
head(r_fr23_177,fr23_y1).
body(r_fr23_177,fr23_f5).
body(r_fr23_177,fr23_s2).
body(r_fr23_177,fr23_w2).
head(r_fr23_178,fr23_y1).
body(r_fr23_178,fr23_c1).
body(r_fr23_178,fr23_c2).
body(r_fr23_178,fr23_c5).
body(r_fr23_178,fr23_e3).
body(r_fr23_178,fr23_q1).
body(r_fr23_178,fr23_q2).
body(r_fr23_178,fr23_q4).
body(r_fr23_178,fr23_s1).
body(r_fr23_178,fr23_s4).
body(r_fr23_178,fr23_v4).
body(r_fr23_178,fr16_t2).
head(r_fr23_179,fr23_y1).
body(r_fr23_179,fr23_a1).
body(r_fr23_179,fr23_a4).
body(r_fr23_179,fr23_b2).
body(r_fr23_179,fr23_c2).
body(r_fr23_179,fr23_d3).
body(r_fr23_179,fr23_q1).
head(r_fr23_180,fr23_y1).
body(r_fr23_180,fr10_b3).
body(r_fr23_180,fr23_d1).
body(r_fr23_180,fr23_d2).
body(r_fr23_180,fr23_f5).
body(r_fr23_180,fr23_p2).
body(r_fr23_180,fr23_q1).
body(r_fr23_180,fr23_s1).
body(r_fr23_180,fr23_s5).
body(r_fr23_180,fr13_q2).
body(r_fr23_180,fr2_v1).
body(r_fr23_180,fr16_t2).
head(r_fr23_181,fr23_t5).
body(r_fr23_181,fr23_a5).
body(r_fr23_181,fr23_b5).
body(r_fr23_181,fr23_d4).
body(r_fr23_181,fr12_f1).
body(r_fr23_181,fr23_f1).
body(r_fr23_181,fr23_f5).
head(r_fr23_182,fr23_t5).
body(r_fr23_182,fr23_q2).
body(r_fr23_182,fr23_w4).
head(r_fr23_183,fr23_t5).
head(r_fr23_184,fr23_t5).
body(r_fr23_184,fr23_d5).
body(r_fr23_184,fr23_p2).
body(r_fr23_184,fr23_r3).
body(r_fr23_184,fr23_s2).
body(r_fr23_184,fr23_s5).
body(r_fr23_184,fr13_q2).
body(r_fr23_184,fr23_w4).
head(r_fr23_185,fr23_t5).
body(r_fr23_185,fr23_f4).
body(r_fr23_185,fr23_r5).
head(r_fr23_186,fr23_t5).
body(r_fr23_186,fr23_a4).
body(r_fr23_186,fr23_c1).
body(r_fr23_186,fr23_c2).
body(r_fr23_186,fr23_d3).
body(r_fr23_186,fr23_e3).
head(r_fr23_187,fr23_t5).
body(r_fr23_187,fr23_a3).
body(r_fr23_187,fr23_a4).
body(r_fr23_187,fr23_b2).
body(r_fr23_187,fr23_b3).
body(r_fr23_187,fr23_c2).
body(r_fr23_187,fr10_b3).
body(r_fr23_187,fr23_c5).
body(r_fr23_187,fr23_d1).
body(r_fr23_187,fr23_d5).
body(r_fr23_187,fr23_e2).
body(r_fr23_187,fr23_w2).
head(r_fr23_188,fr23_q2).
head(r_fr23_189,fr23_q2).
body(r_fr23_189,fr23_c5).
body(r_fr23_189,fr23_d5).
body(r_fr23_189,fr23_p2).
body(r_fr23_189,fr23_r5).
body(r_fr23_189,fr23_s1).
body(r_fr23_189,fr23_s2).
body(r_fr23_189,fr23_s4).
body(r_fr23_189,fr23_u4).
body(r_fr23_189,fr23_w2).
head(r_fr23_190,fr23_q2).
body(r_fr23_190,fr23_d2).
body(r_fr23_190,fr23_f2).
body(r_fr23_190,fr23_f3).
body(r_fr23_190,fr23_p2).
head(r_fr23_191,fr23_q2).
body(r_fr23_191,fr23_d1).
body(r_fr23_191,fr23_f4).
body(r_fr23_191,fr23_r5).
body(r_fr23_191,fr23_s1).
body(r_fr23_191,fr23_s2).
body(r_fr23_191,fr23_s4).
head(r_fr23_192,fr23_q2).
body(r_fr23_192,fr23_q1).
body(r_fr23_192,fr23_s4).
body(r_fr23_192,fr16_t2).
head(r_fr23_193,fr23_q2).
body(r_fr23_193,fr23_p2).
body(r_fr23_193,fr23_q1).
body(r_fr23_193,fr23_s1).
body(r_fr23_193,fr23_s4).
body(r_fr23_193,fr23_s5).
body(r_fr23_193,fr23_u4).
body(r_fr23_193,fr23_v4).
body(r_fr23_193,fr23_w1).
body(r_fr23_193,fr23_y4).
body(r_fr23_193,fr16_t2).
head(r_fr23_194,fr16_t2).
body(r_fr23_194,fr23_b5).
body(r_fr23_194,fr23_c2).
body(r_fr23_194,fr23_d1).
body(r_fr23_194,fr23_d2).
body(r_fr23_194,fr23_e1).
body(r_fr23_194,fr23_f1).
body(r_fr23_194,fr23_q4).
body(r_fr23_194,fr16_p2).
body(r_fr23_194,fr23_u4).
body(r_fr23_194,fr23_v4).
body(r_fr23_194,fr23_w2).
head(r_fr23_195,fr16_t2).
body(r_fr23_195,fr23_e1).
body(r_fr23_195,fr23_p2).
body(r_fr23_195,fr23_s1).
body(r_fr23_195,fr23_s5).
body(r_fr23_195,fr23_w2).
head(r_fr23_196,fr16_t2).
body(r_fr23_196,fr23_d5).
head(r_fr23_197,fr16_t2).
body(r_fr23_197,fr23_a1).
body(r_fr23_197,fr23_e2).
body(r_fr23_197,fr23_f1).
body(r_fr23_197,fr23_q4).
body(r_fr23_197,fr23_r3).
body(r_fr23_197,fr23_s5).
body(r_fr23_197,fr23_u4).
body(r_fr23_197,fr2_v1).
body(r_fr23_197,fr23_w1).
body(r_fr23_197,fr23_w2).
head(r_fr23_198,fr16_t2).
body(r_fr23_198,fr23_c2).
body(r_fr23_198,fr23_d2).
body(r_fr23_198,fr23_s5).
body(r_fr23_198,fr2_v1).
body(r_fr23_198,fr23_y4).
head(r_fr23_199,fr16_t2).
body(r_fr23_199,fr23_v4).
body(r_fr23_199,fr23_w1).
body(r_fr23_199,fr23_w2).
head(r_fr23_200,fr16_t2).
body(r_fr23_200,fr23_c5).
body(r_fr23_200,fr23_f5).
body(r_fr23_200,fr23_r5).
body(r_fr23_200,fr23_w2).
head(r_fr23_201,fr16_t2).
body(r_fr23_201,fr23_s2).
head(r_fr23_202,fr16_t2).
body(r_fr23_202,fr23_a1).
body(r_fr23_202,fr23_a5).
body(r_fr23_202,fr23_b1).
body(r_fr23_202,fr23_b3).
body(r_fr23_202,fr23_c3).
body(r_fr23_202,fr23_e1).
body(r_fr23_202,fr23_f1).
body(r_fr23_202,fr23_f4).
body(r_fr23_202,fr23_f5).
body(r_fr23_202,fr23_r5).
body(r_fr23_202,fr2_v1).
head(r_fr23_203,fr23_u3).
body(r_fr23_203,fr23_e2).
body(r_fr23_203,fr23_p2).
body(r_fr23_203,fr23_q1).
body(r_fr23_203,fr23_q4).
body(r_fr23_203,fr23_r5).
body(r_fr23_203,fr23_u4).
body(r_fr23_203,fr23_v4).
head(r_fr23_204,fr23_u3).
body(r_fr23_204,fr23_a1).
body(r_fr23_204,fr23_a4).
body(r_fr23_204,fr23_f4).
head(r_fr23_205,fr23_u3).
body(r_fr23_205,fr23_a1).
body(r_fr23_205,fr23_c5).
body(r_fr23_205,fr23_d4).
body(r_fr23_205,fr23_p2).
body(r_fr23_205,fr23_q1).
head(r_fr23_206,fr23_u3).
body(r_fr23_206,fr23_b3).
body(r_fr23_206,fr23_b5).
body(r_fr23_206,fr23_p2).
body(r_fr23_206,fr23_q1).
body(r_fr23_206,fr23_s4).
body(r_fr23_206,fr16_p2).
body(r_fr23_206,fr23_u4).
head(r_fr23_207,fr23_u3).
body(r_fr23_207,fr23_b5).
body(r_fr23_207,fr23_d1).
body(r_fr23_207,fr23_d4).
body(r_fr23_207,fr23_e2).
body(r_fr23_207,fr23_f4).
body(r_fr23_207,fr23_f5).
body(r_fr23_207,fr23_p2).
body(r_fr23_207,fr23_r3).
body(r_fr23_207,fr23_v4).
head(r_fr23_208,fr23_u3).
body(r_fr23_208,fr23_a4).
body(r_fr23_208,fr10_b3).
body(r_fr23_208,fr23_d5).
body(r_fr23_208,fr23_f2).
body(r_fr23_208,fr23_p2).
body(r_fr23_208,fr23_v4).
head(r_fr23_209,fr23_u3).
body(r_fr23_209,fr23_a1).
body(r_fr23_209,fr23_a3).
body(r_fr23_209,fr23_c5).
body(r_fr23_209,fr23_d3).
body(r_fr23_209,fr23_e1).
body(r_fr23_209,fr23_e2).
body(r_fr23_209,fr23_e4).
body(r_fr23_209,fr23_f3).
body(r_fr23_209,fr23_y4).
head(r_fr23_210,fr23_u3).
body(r_fr23_210,fr23_q4).
body(r_fr23_210,fr23_r5).
body(r_fr23_210,fr23_s1).
body(r_fr23_210,fr23_s2).
body(r_fr23_210,fr23_u4).
head(r_fr23_211,fr23_w4).
body(r_fr23_211,fr10_b3).
body(r_fr23_211,fr23_p2).
body(r_fr23_211,fr23_r3).
body(r_fr23_211,fr13_q2).
head(r_fr23_212,fr23_w4).
body(r_fr23_212,fr23_c2).
body(r_fr23_212,fr10_b3).
body(r_fr23_212,fr23_f1).
body(r_fr23_212,fr23_q4).
body(r_fr23_212,fr23_s1).
head(r_fr23_213,fr23_w4).
body(r_fr23_213,fr23_a1).
body(r_fr23_213,fr23_b5).
body(r_fr23_213,fr23_c1).
body(r_fr23_213,fr23_d1).
body(r_fr23_213,fr23_e2).
body(r_fr23_213,fr23_f1).
head(r_fr23_214,fr23_w4).
body(r_fr23_214,fr23_a1).
body(r_fr23_214,fr23_d3).
body(r_fr23_214,fr23_f3).
body(r_fr23_214,fr23_q4).
body(r_fr23_214,fr23_s2).
body(r_fr23_214,fr2_v1).
body(r_fr23_214,fr23_w1).
head(r_fr23_215,fr23_r5).
body(r_fr23_215,fr23_a5).
body(r_fr23_215,fr23_b1).
body(r_fr23_215,fr23_b2).
body(r_fr23_215,fr23_c1).
body(r_fr23_215,fr23_f4).
body(r_fr23_215,fr23_f5).
body(r_fr23_215,fr23_s2).
body(r_fr23_215,fr23_s5).
body(r_fr23_215,fr16_p2).
body(r_fr23_215,fr23_w1).
body(r_fr23_215,fr23_w2).
head(r_fr23_216,fr23_r5).
body(r_fr23_216,fr23_a3).
body(r_fr23_216,fr23_p2).
body(r_fr23_216,fr23_r3).
body(r_fr23_216,fr23_s2).
body(r_fr23_216,fr13_q2).
body(r_fr23_216,fr23_u4).
body(r_fr23_216,fr23_v4).
head(r_fr23_217,fr23_r5).
body(r_fr23_217,fr23_q4).
body(r_fr23_217,fr23_r3).
body(r_fr23_217,fr23_u4).
body(r_fr23_217,fr23_w1).
body(r_fr23_217,fr23_y4).
head(r_fr23_218,fr23_r5).
head(r_fr23_219,fr23_r5).
body(r_fr23_219,fr23_s4).
body(r_fr23_219,fr16_p2).
body(r_fr23_219,fr13_q2).
head(r_fr23_220,fr23_r5).
body(r_fr23_220,fr23_a2).
body(r_fr23_220,fr23_p2).
body(r_fr23_220,fr23_s2).
body(r_fr23_220,fr23_s5).
body(r_fr23_220,fr2_v1).
body(r_fr23_220,fr23_v4).
body(r_fr23_220,fr23_w1).
body(r_fr23_220,fr23_y4).
head(r_fr23_221,fr23_r5).
body(r_fr23_221,fr23_r3).
body(r_fr23_221,fr23_y4).
head(r_fr23_222,fr23_s1).
body(r_fr23_222,fr23_a1).
body(r_fr23_222,fr23_b1).
body(r_fr23_222,fr23_c3).
body(r_fr23_222,fr10_b3).
body(r_fr23_222,fr23_c5).
body(r_fr23_222,fr23_d4).
body(r_fr23_222,fr23_f2).
body(r_fr23_222,fr23_f5).
body(r_fr23_222,fr23_q4).
head(r_fr23_223,fr23_s1).
body(r_fr23_223,fr23_p2).
body(r_fr23_223,fr23_s5).
body(r_fr23_223,fr16_p2).
body(r_fr23_223,fr13_q2).
body(r_fr23_223,fr23_u4).
body(r_fr23_223,fr2_v1).
body(r_fr23_223,fr23_w2).
body(r_fr23_223,fr23_y4).
head(r_fr23_224,fr23_s1).
body(r_fr23_224,fr23_a3).
body(r_fr23_224,fr23_a4).
body(r_fr23_224,fr23_a5).
body(r_fr23_224,fr23_d2).
body(r_fr23_224,fr23_d3).
body(r_fr23_224,fr23_r3).
body(r_fr23_224,fr23_s2).
head(r_fr23_225,fr23_s1).
head(r_fr23_226,fr23_s1).
body(r_fr23_226,fr23_p2).
body(r_fr23_226,fr23_q4).
body(r_fr23_226,fr23_r3).
body(r_fr23_226,fr23_s4).
body(r_fr23_226,fr16_p2).
head(r_fr23_227,fr23_s1).
body(r_fr23_227,fr23_a2).
body(r_fr23_227,fr23_a3).
body(r_fr23_227,fr23_b2).
body(r_fr23_227,fr23_b5).
body(r_fr23_227,fr23_d3).
body(r_fr23_227,fr23_d5).
body(r_fr23_227,fr23_e1).
body(r_fr23_227,fr23_e3).
body(r_fr23_227,fr23_f1).
body(r_fr23_227,fr23_f4).
body(r_fr23_227,fr23_y4).
head(r_fr23_228,fr23_s1).
body(r_fr23_228,fr23_b2).
body(r_fr23_228,fr23_b5).
body(r_fr23_228,fr23_c2).
body(r_fr23_228,fr23_e2).
body(r_fr23_228,fr12_f1).
body(r_fr23_228,fr23_q4).
body(r_fr23_228,fr23_y4).
head(r_fr23_229,fr23_s1).
body(r_fr23_229,fr23_b3).
head(r_fr23_230,fr23_p2).
body(r_fr23_230,fr23_a3).
body(r_fr23_230,fr23_e2).
body(r_fr23_230,fr23_e3).
body(r_fr23_230,fr23_e4).
body(r_fr23_230,fr23_r3).
body(r_fr23_230,fr23_s4).
body(r_fr23_230,fr23_s5).
body(r_fr23_230,fr13_q2).
body(r_fr23_230,fr23_u4).
body(r_fr23_230,fr23_y4).
head(r_fr23_231,fr23_p2).
body(r_fr23_231,fr10_b3).
body(r_fr23_231,fr23_f2).
body(r_fr23_231,fr23_s4).
body(r_fr23_231,fr23_y4).
head(r_fr23_232,fr23_p2).
body(r_fr23_232,fr23_a1).
body(r_fr23_232,fr23_a4).
body(r_fr23_232,fr23_a5).
body(r_fr23_232,fr23_b3).
body(r_fr23_232,fr23_c1).
body(r_fr23_232,fr23_d3).
body(r_fr23_232,fr23_e4).
body(r_fr23_232,fr12_f1).
body(r_fr23_232,fr23_f2).
body(r_fr23_232,fr23_q4).
body(r_fr23_232,fr23_s2).
head(r_fr23_233,fr23_p2).
body(r_fr23_233,fr23_a2).
body(r_fr23_233,fr23_a5).
body(r_fr23_233,fr23_b3).
body(r_fr23_233,fr23_c2).
body(r_fr23_233,fr23_f4).
head(r_fr23_234,fr23_q1).
head(r_fr23_235,fr23_q1).
body(r_fr23_235,fr23_b2).
body(r_fr23_235,fr13_q2).
head(r_fr23_236,fr23_q1).
body(r_fr23_236,fr23_b4).
body(r_fr23_236,fr23_c2).
body(r_fr23_236,fr23_d4).
body(r_fr23_236,fr23_e3).
body(r_fr23_236,fr23_f4).
body(r_fr23_236,fr23_v4).
head(r_fr23_237,fr23_q1).
body(r_fr23_237,fr23_a5).
body(r_fr23_237,fr23_b1).
body(r_fr23_237,fr23_e4).
head(r_fr23_238,fr23_q1).
body(r_fr23_238,fr23_r3).
body(r_fr23_238,fr23_s5).
body(r_fr23_238,fr23_u4).
body(r_fr23_238,fr2_v1).
body(r_fr23_238,fr23_v4).
body(r_fr23_238,fr23_w1).
body(r_fr23_238,fr23_y4).
head(r_fr23_239,fr23_q1).
body(r_fr23_239,fr23_b5).
body(r_fr23_239,fr23_d3).
body(r_fr23_239,fr23_q4).
body(r_fr23_239,fr16_p2).
body(r_fr23_239,fr2_v1).
body(r_fr23_239,fr23_w2).
head(r_fr23_240,fr23_q1).
body(r_fr23_240,fr23_b2).
body(r_fr23_240,fr23_c1).
body(r_fr23_240,fr23_d1).
body(r_fr23_240,fr23_e1).
body(r_fr23_240,fr23_f1).
body(r_fr23_240,fr23_r3).
body(r_fr23_240,fr16_p2).
body(r_fr23_240,fr23_u4).
body(r_fr23_240,fr2_v1).
body(r_fr23_240,fr23_v4).
body(r_fr23_240,fr23_w2).
head(r_fr23_241,fr23_q1).
body(r_fr23_241,fr23_q4).
body(r_fr23_241,fr23_u4).
body(r_fr23_241,fr23_w2).
head(r_fr23_242,fr16_p2).
body(r_fr23_242,fr23_b4).
body(r_fr23_242,fr23_b5).
body(r_fr23_242,fr23_d1).
body(r_fr23_242,fr23_d4).
body(r_fr23_242,fr23_e3).
body(r_fr23_242,fr12_f1).
body(r_fr23_242,fr23_f1).
body(r_fr23_242,fr23_r3).
head(r_fr23_243,fr16_p2).
body(r_fr23_243,fr23_a4).
body(r_fr23_243,fr23_b3).
body(r_fr23_243,fr23_b5).
body(r_fr23_243,fr23_s2).
body(r_fr23_243,fr23_s4).
body(r_fr23_243,fr23_w2).
head(r_fr23_244,fr16_p2).
head(r_fr23_245,fr16_p2).
body(r_fr23_245,fr23_s4).
head(r_fr23_246,fr16_p2).
body(r_fr23_246,fr23_c1).
body(r_fr23_246,fr23_d2).
body(r_fr23_246,fr23_e3).
body(r_fr23_246,fr12_f1).
body(r_fr23_246,fr23_f3).
body(r_fr23_246,fr23_s2).
body(r_fr23_246,fr13_q2).
body(r_fr23_246,fr23_u4).
head(r_fr23_247,fr16_p2).
body(r_fr23_247,fr23_r3).
head(r_fr23_248,fr16_p2).
body(r_fr23_248,fr23_s2).
body(r_fr23_248,fr13_q2).
head(r_fr23_249,fr23_w1).
body(r_fr23_249,fr13_q2).
head(r_fr23_250,fr23_w1).
body(r_fr23_250,fr23_s4).
body(r_fr23_250,fr23_s5).
body(r_fr23_250,fr13_q2).
head(r_fr23_251,fr23_w1).
body(r_fr23_251,fr23_q4).
body(r_fr23_251,fr23_r3).
body(r_fr23_251,fr23_s2).
body(r_fr23_251,fr23_s4).
body(r_fr23_251,fr23_s5).
body(r_fr23_251,fr13_q2).
body(r_fr23_251,fr23_u4).
body(r_fr23_251,fr2_v1).
body(r_fr23_251,fr23_w2).
body(r_fr23_251,fr23_y4).
head(r_fr23_252,fr23_w1).
body(r_fr23_252,fr23_a2).
body(r_fr23_252,fr23_a5).
body(r_fr23_252,fr23_c3).
body(r_fr23_252,fr23_c5).
body(r_fr23_252,fr23_d5).
body(r_fr23_252,fr23_e4).
body(r_fr23_252,fr23_f1).
body(r_fr23_252,fr13_q2).
head(r_fr23_253,fr23_w1).
body(r_fr23_253,fr23_a1).
body(r_fr23_253,fr12_f1).
body(r_fr23_253,fr23_s4).
body(r_fr23_253,fr2_v1).
body(r_fr23_253,fr23_w2).
head(r_fr23_254,fr2_v1).
body(r_fr23_254,fr23_a2).
body(r_fr23_254,fr23_a3).
body(r_fr23_254,fr23_a4).
body(r_fr23_254,fr23_a5).
body(r_fr23_254,fr23_b4).
body(r_fr23_254,fr23_c5).
body(r_fr23_254,fr23_e4).
body(r_fr23_254,fr12_f1).
body(r_fr23_254,fr23_f4).
body(r_fr23_254,fr23_y4).
head(r_fr23_255,fr2_v1).
body(r_fr23_255,fr23_a4).
body(r_fr23_255,fr23_b3).
body(r_fr23_255,fr23_e4).
body(r_fr23_255,fr23_f1).
head(r_fr23_256,fr2_v1).
body(r_fr23_256,fr23_c2).
head(r_fr23_257,fr2_v1).
body(r_fr23_257,fr23_a1).
body(r_fr23_257,fr23_a3).
body(r_fr23_257,fr23_b3).
body(r_fr23_257,fr23_c5).
body(r_fr23_257,fr23_e3).
body(r_fr23_257,fr23_e4).
body(r_fr23_257,fr12_f1).
body(r_fr23_257,fr23_s2).
body(r_fr23_257,fr23_s4).
body(r_fr23_257,fr23_u4).
head(r_fr23_258,fr2_v1).
body(r_fr23_258,fr23_a4).
body(r_fr23_258,fr23_q4).
body(r_fr23_258,fr23_r3).
body(r_fr23_258,fr23_s2).
body(r_fr23_258,fr23_s5).
body(r_fr23_258,fr13_q2).
body(r_fr23_258,fr23_u4).
body(r_fr23_258,fr23_v4).
body(r_fr23_258,fr23_w2).
body(r_fr23_258,fr23_y4).
head(r_fr23_259,fr2_v1).
head(r_fr23_260,fr2_v1).
body(r_fr23_260,fr23_a3).
body(r_fr23_260,fr23_c5).
body(r_fr23_260,fr23_f5).
body(r_fr23_260,fr23_q4).
body(r_fr23_260,fr23_r3).
body(r_fr23_260,fr23_s4).
body(r_fr23_260,fr13_q2).
body(r_fr23_260,fr23_w2).

assumption(fr24_a1).
assumption(fr24_b1).
assumption(fr24_c1).
assumption(fr24_d1).
assumption(fr17_e1).
assumption(fr24_f1).
assumption(fr24_a2).
assumption(fr24_b2).
assumption(fr24_c2).
assumption(fr19_c2).
assumption(fr24_e2).
assumption(fr24_f2).
assumption(fr24_a3).
assumption(fr24_b3).
assumption(fr24_c3).
assumption(fr24_d3).
assumption(fr24_e3).
assumption(fr24_f3).
assumption(fr24_a4).
assumption(fr24_b4).
assumption(fr24_c4).
assumption(fr24_d4).
assumption(fr17_c1).
assumption(fr24_f4).
assumption(fr24_a5).
assumption(fr24_b5).
assumption(fr24_c5).
contrary(fr24_a1,fr9_z1).
contrary(fr24_a2,fr24_r1).
contrary(fr24_a3,fr24_p4).
contrary(fr24_a4,fr24_a1).
contrary(fr24_a5,fr24_t2).
contrary(fr24_b1,fr24_w2).
contrary(fr24_b2,fr24_u3).
contrary(fr24_b3,fr24_d3).
contrary(fr24_b4,fr24_b2).
contrary(fr24_b5,fr24_r2).
contrary(fr24_c1,fr24_p2).
contrary(fr24_c2,fr24_a3).
contrary(fr24_c3,fr24_x2).
contrary(fr24_c4,fr24_s2).
contrary(fr24_c5,fr24_s1).
contrary(fr24_d1,fr25_u1).
contrary(fr19_c2,fr19_q4).
contrary(fr24_d3,fr19_q4).
contrary(fr24_d4,fr24_d3).
contrary(fr17_e1,fr25_u1).
contrary(fr24_e2,fr24_w4).
contrary(fr24_e3,fr24_c4).
contrary(fr17_c1,fr24_v4).
contrary(fr24_f1,fr24_v4).
contrary(fr24_f2,fr24_y1).
contrary(fr24_f3,fr24_v4).
contrary(fr24_f4,fr24_u3).
head(r_fr24_0,fr18_u2).
body(r_fr24_0,fr24_a1).
body(r_fr24_0,fr24_b2).
body(r_fr24_0,fr24_b5).
body(r_fr24_0,fr24_d1).
body(r_fr24_0,fr24_d4).
body(r_fr24_0,fr24_p2).
body(r_fr24_0,fr20_y1).
body(r_fr24_0,fr24_s2).
head(r_fr24_1,fr18_u2).
body(r_fr24_1,fr24_a3).
body(r_fr24_1,fr24_b5).
body(r_fr24_1,fr24_d4).
body(r_fr24_1,fr24_s4).
body(r_fr24_1,fr24_t1).
body(r_fr24_1,fr24_u4).
body(r_fr24_1,fr24_x4).
body(r_fr24_1,fr22_p4).
head(r_fr24_2,fr18_u2).
body(r_fr24_2,fr24_a3).
body(r_fr24_2,fr24_a5).
body(r_fr24_2,fr24_b1).
body(r_fr24_2,fr24_b3).
body(r_fr24_2,fr24_b5).
body(r_fr24_2,fr24_c4).
body(r_fr24_2,fr24_e3).
body(r_fr24_2,fr24_f2).
body(r_fr24_2,fr24_f3).
head(r_fr24_3,fr18_u2).
body(r_fr24_3,fr24_f3).
body(r_fr24_3,fr24_v1).
head(r_fr24_4,fr18_u2).
body(r_fr24_4,fr24_b2).
body(r_fr24_4,fr24_b5).
body(r_fr24_4,fr24_c5).
body(r_fr24_4,fr19_c2).
body(r_fr24_4,fr24_v1).
body(r_fr24_4,fr24_w2).
head(r_fr24_5,fr18_u2).
body(r_fr24_5,fr24_a5).
body(r_fr24_5,fr24_c5).
body(r_fr24_5,fr24_d4).
body(r_fr24_5,fr24_f1).
body(r_fr24_5,fr24_f2).
body(r_fr24_5,fr24_f4).
body(r_fr24_5,fr24_p2).
head(r_fr24_6,fr18_u2).
body(r_fr24_6,fr24_c4).
body(r_fr24_6,fr24_d1).
body(r_fr24_6,fr24_p1).
body(r_fr24_6,fr19_q4).
body(r_fr24_6,fr24_x2).
body(r_fr24_6,fr22_p4).
head(r_fr24_7,fr18_u2).
body(r_fr24_7,fr24_b4).
body(r_fr24_7,fr24_e2).
body(r_fr24_7,fr24_p4).
body(r_fr24_7,fr24_q1).
body(r_fr24_7,fr24_s3).
body(r_fr24_7,fr24_v3).
body(r_fr24_7,fr24_x2).
body(r_fr24_7,fr24_x4).
body(r_fr24_7,fr24_z1).
body(r_fr24_7,fr22_p4).
head(r_fr24_8,fr18_u2).
head(r_fr24_9,fr24_v1).
body(r_fr24_9,fr24_c3).
body(r_fr24_9,fr24_p4).
body(r_fr24_9,fr24_q1).
body(r_fr24_9,fr24_r4).
body(r_fr24_9,fr24_s4).
body(r_fr24_9,fr18_u2).
body(r_fr24_9,fr24_w2).
body(r_fr24_9,fr12_y1).
body(r_fr24_9,fr24_y3).
head(r_fr24_10,fr24_v1).
body(r_fr24_10,fr24_a2).
body(r_fr24_10,fr24_a3).
body(r_fr24_10,fr24_a4).
body(r_fr24_10,fr24_a5).
body(r_fr24_10,fr24_b3).
body(r_fr24_10,fr24_b4).
body(r_fr24_10,fr24_c1).
body(r_fr24_10,fr24_c2).
body(r_fr24_10,fr24_c4).
body(r_fr24_10,fr19_c2).
head(r_fr24_11,fr24_v1).
body(r_fr24_11,fr24_b4).
body(r_fr24_11,fr24_q2).
body(r_fr24_11,fr24_r4).
body(r_fr24_11,fr24_t3).
body(r_fr24_11,fr24_w4).
head(r_fr24_12,fr24_v1).
body(r_fr24_12,fr24_b3).
body(r_fr24_12,fr17_c1).
head(r_fr24_13,fr24_v1).
body(r_fr24_13,fr24_d3).
body(r_fr24_13,fr24_f2).
body(r_fr24_13,fr24_f3).
body(r_fr24_13,fr24_r1).
body(r_fr24_13,fr24_w4).
head(r_fr24_14,fr24_v1).
body(r_fr24_14,fr24_b2).
body(r_fr24_14,fr24_d1).
body(r_fr24_14,fr24_p2).
head(r_fr24_15,fr24_s2).
body(r_fr24_15,fr24_a4).
body(r_fr24_15,fr24_b5).
body(r_fr24_15,fr24_d3).
body(r_fr24_15,fr24_f2).
body(r_fr24_15,fr24_f3).
body(r_fr24_15,fr24_f4).
body(r_fr24_15,fr24_u4).
body(r_fr24_15,fr24_x2).
body(r_fr24_15,fr24_z3).
head(r_fr24_16,fr24_s2).
body(r_fr24_16,fr24_p2).
body(r_fr24_16,fr19_q4).
body(r_fr24_16,fr20_y1).
body(r_fr24_16,fr24_w1).
body(r_fr24_16,fr24_w3).
body(r_fr24_16,fr24_w4).
body(r_fr24_16,fr12_y1).
body(r_fr24_16,fr24_y2).
body(r_fr24_16,fr24_y3).
body(r_fr24_16,fr22_p4).
head(r_fr24_17,fr24_s2).
body(r_fr24_17,fr24_u1).
body(r_fr24_17,fr24_z3).
head(r_fr24_18,fr24_s2).
body(r_fr24_18,fr24_a3).
body(r_fr24_18,fr19_c2).
body(r_fr24_18,fr24_d4).
body(r_fr24_18,fr24_e2).
body(r_fr24_18,fr24_f1).
body(r_fr24_18,fr24_f3).
body(r_fr24_18,fr24_u1).
head(r_fr24_19,fr24_s2).
body(r_fr24_19,fr24_b5).
body(r_fr24_19,fr19_c2).
body(r_fr24_19,fr17_e1).
body(r_fr24_19,fr13_u1).
head(r_fr24_20,fr24_s2).
body(r_fr24_20,fr9_z1).
head(r_fr24_21,fr24_s2).
body(r_fr24_21,fr24_a1).
body(r_fr24_21,fr24_a4).
body(r_fr24_21,fr24_b4).
body(r_fr24_21,fr24_b5).
body(r_fr24_21,fr24_c3).
body(r_fr24_21,fr24_d1).
body(r_fr24_21,fr24_d3).
body(r_fr24_21,fr24_w2).
body(r_fr24_21,fr12_y1).
body(r_fr24_21,fr24_z2).
head(r_fr24_22,fr24_s2).
head(r_fr24_23,fr12_y1).
body(r_fr24_23,fr24_b4).
body(r_fr24_23,fr24_b5).
body(r_fr24_23,fr24_c2).
body(r_fr24_23,fr24_d1).
body(r_fr24_23,fr24_d3).
body(r_fr24_23,fr24_d4).
body(r_fr24_23,fr24_e2).
body(r_fr24_23,fr24_e3).
body(r_fr24_23,fr17_c1).
head(r_fr24_24,fr12_y1).
body(r_fr24_24,fr24_b2).
body(r_fr24_24,fr24_c3).
body(r_fr24_24,fr24_f1).
body(r_fr24_24,fr24_f4).
head(r_fr24_25,fr12_y1).
head(r_fr24_26,fr12_y1).
body(r_fr24_26,fr24_a1).
body(r_fr24_26,fr24_a2).
body(r_fr24_26,fr24_a5).
body(r_fr24_26,fr24_c2).
body(r_fr24_26,fr24_c3).
body(r_fr24_26,fr24_c4).
body(r_fr24_26,fr24_d1).
body(r_fr24_26,fr17_e1).
body(r_fr24_26,fr24_f3).
body(r_fr24_26,fr24_f4).
head(r_fr24_27,fr12_y1).
body(r_fr24_27,fr24_e2).
body(r_fr24_27,fr24_s2).
head(r_fr24_28,fr12_y1).
body(r_fr24_28,fr24_a5).
body(r_fr24_28,fr24_c3).
body(r_fr24_28,fr24_d4).
body(r_fr24_28,fr17_c1).
body(r_fr24_28,fr24_f3).
body(r_fr24_28,fr24_r2).
body(r_fr24_28,fr24_t1).
body(r_fr24_28,fr24_u4).
head(r_fr24_29,fr12_y1).
body(r_fr24_29,fr24_a1).
body(r_fr24_29,fr24_a3).
head(r_fr24_30,fr12_y1).
body(r_fr24_30,fr9_z1).
body(r_fr24_30,fr24_t1).
body(r_fr24_30,fr24_u1).
body(r_fr24_30,fr24_v4).
body(r_fr24_30,fr24_y2).
body(r_fr24_30,fr24_z1).
body(r_fr24_30,fr24_z3).
head(r_fr24_31,fr12_y1).
body(r_fr24_31,fr24_d3).
head(r_fr24_32,fr25_u1).
body(r_fr24_32,fr24_a1).
body(r_fr24_32,fr24_a3).
body(r_fr24_32,fr24_a4).
body(r_fr24_32,fr24_a5).
body(r_fr24_32,fr24_b1).
body(r_fr24_32,fr24_b4).
body(r_fr24_32,fr24_c4).
body(r_fr24_32,fr24_d1).
body(r_fr24_32,fr19_c2).
body(r_fr24_32,fr24_d4).
head(r_fr24_33,fr25_u1).
body(r_fr24_33,fr24_a2).
body(r_fr24_33,fr24_e2).
body(r_fr24_33,fr24_f4).
body(r_fr24_33,fr24_v2).
head(r_fr24_34,fr25_u1).
body(r_fr24_34,fr24_b2).
body(r_fr24_34,fr24_c4).
body(r_fr24_34,fr24_f2).
body(r_fr24_34,fr24_w1).
body(r_fr24_34,fr24_y2).
head(r_fr24_35,fr25_u1).
body(r_fr24_35,fr24_a5).
body(r_fr24_35,fr19_c2).
body(r_fr24_35,fr17_e1).
body(r_fr24_35,fr24_e3).
body(r_fr24_35,fr19_q4).
body(r_fr24_35,fr24_t2).
body(r_fr24_35,fr24_w2).
body(r_fr24_35,fr24_z1).
head(r_fr24_36,fr25_u1).
body(r_fr24_36,fr24_b5).
body(r_fr24_36,fr24_c5).
body(r_fr24_36,fr24_d1).
body(r_fr24_36,fr24_d3).
body(r_fr24_36,fr17_e1).
body(r_fr24_36,fr17_c1).
body(r_fr24_36,fr24_s2).
head(r_fr24_37,fr25_u1).
body(r_fr24_37,fr24_a1).
body(r_fr24_37,fr24_b5).
body(r_fr24_37,fr24_c1).
body(r_fr24_37,fr24_f4).
body(r_fr24_37,fr24_q1).
body(r_fr24_37,fr24_s4).
body(r_fr24_37,fr24_u3).
body(r_fr24_37,fr13_u1).
head(r_fr24_38,fr25_u1).
body(r_fr24_38,fr24_b1).
body(r_fr24_38,fr24_c2).
body(r_fr24_38,fr24_d3).
body(r_fr24_38,fr24_e3).
body(r_fr24_38,fr17_c1).
head(r_fr24_39,fr24_t2).
body(r_fr24_39,fr24_e3).
body(r_fr24_39,fr24_f3).
head(r_fr24_40,fr24_t2).
body(r_fr24_40,fr24_a1).
body(r_fr24_40,fr24_b2).
body(r_fr24_40,fr24_e2).
body(r_fr24_40,fr24_f2).
body(r_fr24_40,fr24_f4).
body(r_fr24_40,fr24_r4).
body(r_fr24_40,fr24_s3).
body(r_fr24_40,fr18_u2).
body(r_fr24_40,fr24_x2).
head(r_fr24_41,fr24_t2).
body(r_fr24_41,fr24_f2).
body(r_fr24_41,fr24_f4).
body(r_fr24_41,fr24_q1).
body(r_fr24_41,fr20_y1).
body(r_fr24_41,fr24_u3).
body(r_fr24_41,fr24_w4).
body(r_fr24_41,fr13_u1).
head(r_fr24_42,fr24_t2).
body(r_fr24_42,fr24_a2).
body(r_fr24_42,fr24_d1).
body(r_fr24_42,fr24_d4).
body(r_fr24_42,fr17_e1).
body(r_fr24_42,fr24_e2).
body(r_fr24_42,fr24_f1).
head(r_fr24_43,fr24_t2).
body(r_fr24_43,fr24_f3).
body(r_fr24_43,fr3_p3).
body(r_fr24_43,fr24_r2).
body(r_fr24_43,fr24_s4).
head(r_fr24_44,fr24_t2).
body(r_fr24_44,fr24_a5).
body(r_fr24_44,fr24_f1).
head(r_fr24_45,fr22_p4).
body(r_fr24_45,fr24_a1).
body(r_fr24_45,fr24_b2).
body(r_fr24_45,fr24_q1).
body(r_fr24_45,fr24_w3).
head(r_fr24_46,fr22_p4).
body(r_fr24_46,fr24_c4).
body(r_fr24_46,fr19_c2).
body(r_fr24_46,fr24_d3).
body(r_fr24_46,fr24_p2).
body(r_fr24_46,fr24_q2).
body(r_fr24_46,fr24_s2).
body(r_fr24_46,fr24_s3).
body(r_fr24_46,fr24_w4).
head(r_fr24_47,fr22_p4).
body(r_fr24_47,fr24_a3).
body(r_fr24_47,fr24_a5).
body(r_fr24_47,fr24_b1).
body(r_fr24_47,fr24_f3).
body(r_fr24_47,fr20_y1).
body(r_fr24_47,fr9_z1).
body(r_fr24_47,fr24_t1).
body(r_fr24_47,fr24_t2).
body(r_fr24_47,fr24_x2).
head(r_fr24_48,fr22_p4).
body(r_fr24_48,fr24_a1).
body(r_fr24_48,fr24_d3).
body(r_fr24_48,fr24_e2).
body(r_fr24_48,fr24_t2).
body(r_fr24_48,fr24_u3).
body(r_fr24_48,fr24_w2).
body(r_fr24_48,fr24_x1).
body(r_fr24_48,fr24_x2).
body(r_fr24_48,fr24_y1).
body(r_fr24_48,fr24_y2).
head(r_fr24_49,fr22_p4).
body(r_fr24_49,fr24_b5).
body(r_fr24_49,fr17_c1).
body(r_fr24_49,fr20_y1).
body(r_fr24_49,fr9_z1).
body(r_fr24_49,fr24_u3).
body(r_fr24_49,fr24_v1).
body(r_fr24_49,fr24_v2).
body(r_fr24_49,fr24_w1).
body(r_fr24_49,fr24_x4).
body(r_fr24_49,fr13_u1).
head(r_fr24_50,fr24_z1).
body(r_fr24_50,fr24_a1).
body(r_fr24_50,fr24_a2).
body(r_fr24_50,fr24_a3).
body(r_fr24_50,fr24_a4).
body(r_fr24_50,fr24_c3).
body(r_fr24_50,fr17_c1).
body(r_fr24_50,fr24_f1).
body(r_fr24_50,fr24_f3).
body(r_fr24_50,fr24_w1).
body(r_fr24_50,fr24_w3).
head(r_fr24_51,fr24_z1).
body(r_fr24_51,fr24_a3).
body(r_fr24_51,fr24_b5).
body(r_fr24_51,fr24_c3).
body(r_fr24_51,fr24_d4).
body(r_fr24_51,fr24_f4).
head(r_fr24_52,fr24_z1).
body(r_fr24_52,fr24_b4).
body(r_fr24_52,fr24_r1).
body(r_fr24_52,fr24_u1).
body(r_fr24_52,fr24_v1).
body(r_fr24_52,fr24_v2).
body(r_fr24_52,fr13_u1).
head(r_fr24_53,fr24_z1).
body(r_fr24_53,fr24_b4).
body(r_fr24_53,fr24_c2).
body(r_fr24_53,fr17_e1).
body(r_fr24_53,fr24_f1).
body(r_fr24_53,fr24_f2).
body(r_fr24_53,fr24_f3).
body(r_fr24_53,fr24_f4).
head(r_fr24_54,fr24_z1).
body(r_fr24_54,fr24_a3).
head(r_fr24_55,fr24_z1).
body(r_fr24_55,fr24_a4).
body(r_fr24_55,fr24_a5).
body(r_fr24_55,fr24_b1).
body(r_fr24_55,fr24_b5).
body(r_fr24_55,fr24_d1).
body(r_fr24_55,fr24_e2).
body(r_fr24_55,fr24_f3).
body(r_fr24_55,fr24_s1).
body(r_fr24_55,fr24_t1).
body(r_fr24_55,fr24_v2).
head(r_fr24_56,fr24_z1).
body(r_fr24_56,fr24_d1).
head(r_fr24_57,fr24_s4).
body(r_fr24_57,fr24_a2).
body(r_fr24_57,fr24_b1).
body(r_fr24_57,fr24_c4).
body(r_fr24_57,fr19_c2).
body(r_fr24_57,fr24_f1).
body(r_fr24_57,fr24_r4).
head(r_fr24_58,fr24_s4).
body(r_fr24_58,fr24_a4).
body(r_fr24_58,fr24_d1).
body(r_fr24_58,fr20_y1).
head(r_fr24_59,fr24_s4).
body(r_fr24_59,fr3_p3).
body(r_fr24_59,fr24_y1).
head(r_fr24_60,fr24_s4).
body(r_fr24_60,fr20_y1).
body(r_fr24_60,fr24_r2).
body(r_fr24_60,fr24_r3).
body(r_fr24_60,fr24_u3).
body(r_fr24_60,fr24_x4).
body(r_fr24_60,fr24_y1).
head(r_fr24_61,fr24_s4).
body(r_fr24_61,fr24_b3).
body(r_fr24_61,fr24_p2).
body(r_fr24_61,fr24_r1).
body(r_fr24_61,fr24_u1).
body(r_fr24_61,fr24_x1).
body(r_fr24_61,fr24_y2).
head(r_fr24_62,fr24_s4).
head(r_fr24_63,fr24_s4).
body(r_fr24_63,fr24_e2).
body(r_fr24_63,fr24_p1).
head(r_fr24_64,fr24_r3).
body(r_fr24_64,fr24_f4).
head(r_fr24_65,fr24_r3).
body(r_fr24_65,fr24_a3).
body(r_fr24_65,fr24_b5).
body(r_fr24_65,fr24_c4).
body(r_fr24_65,fr24_c5).
body(r_fr24_65,fr24_d1).
body(r_fr24_65,fr24_d3).
body(r_fr24_65,fr24_f4).
head(r_fr24_66,fr24_r3).
body(r_fr24_66,fr24_a3).
body(r_fr24_66,fr24_b5).
body(r_fr24_66,fr24_d1).
body(r_fr24_66,fr24_f2).
body(r_fr24_66,fr24_r2).
body(r_fr24_66,fr24_s1).
body(r_fr24_66,fr24_v1).
head(r_fr24_67,fr24_r3).
body(r_fr24_67,fr24_b2).
body(r_fr24_67,fr24_w4).
head(r_fr24_68,fr24_r3).
body(r_fr24_68,fr24_a1).
body(r_fr24_68,fr24_u3).
head(r_fr24_69,fr24_r3).
body(r_fr24_69,fr19_q4).
body(r_fr24_69,fr22_p4).
head(r_fr24_70,fr24_r3).
body(r_fr24_70,fr24_a2).
body(r_fr24_70,fr24_d3).
head(r_fr24_71,fr24_u1).
body(r_fr24_71,fr24_a5).
body(r_fr24_71,fr24_f4).
body(r_fr24_71,fr24_p2).
body(r_fr24_71,fr24_r1).
body(r_fr24_71,fr24_s2).
body(r_fr24_71,fr24_t1).
body(r_fr24_71,fr24_u3).
body(r_fr24_71,fr24_y2).
head(r_fr24_72,fr24_u1).
body(r_fr24_72,fr24_a5).
body(r_fr24_72,fr24_c3).
body(r_fr24_72,fr24_d3).
body(r_fr24_72,fr24_p2).
body(r_fr24_72,fr24_q1).
body(r_fr24_72,fr9_z1).
body(r_fr24_72,fr24_u4).
body(r_fr24_72,fr24_w1).
body(r_fr24_72,fr24_w3).
body(r_fr24_72,fr24_z3).
head(r_fr24_73,fr24_u1).
body(r_fr24_73,fr3_p3).
body(r_fr24_73,fr24_r2).
body(r_fr24_73,fr24_t1).
body(r_fr24_73,fr25_u1).
head(r_fr24_74,fr24_u1).
body(r_fr24_74,fr20_y1).
head(r_fr24_75,fr24_u1).
body(r_fr24_75,fr3_p3).
body(r_fr24_75,fr24_p4).
body(r_fr24_75,fr24_q1).
body(r_fr24_75,fr9_z1).
body(r_fr24_75,fr24_v1).
body(r_fr24_75,fr24_z2).
head(r_fr24_76,fr24_u1).
body(r_fr24_76,fr24_a3).
body(r_fr24_76,fr24_c5).
head(r_fr24_77,fr24_u1).
body(r_fr24_77,fr24_a3).
body(r_fr24_77,fr24_b4).
body(r_fr24_77,fr24_f1).
body(r_fr24_77,fr24_f4).
head(r_fr24_78,fr24_u1).
body(r_fr24_78,fr24_t3).
body(r_fr24_78,fr24_v2).
head(r_fr24_79,fr24_u1).
body(r_fr24_79,fr24_f3).
body(r_fr24_79,fr24_q1).
body(r_fr24_79,fr20_y1).
body(r_fr24_79,fr24_v2).
head(r_fr24_80,fr24_s3).
body(r_fr24_80,fr24_c1).
head(r_fr24_81,fr24_s3).
head(r_fr24_82,fr24_s3).
body(r_fr24_82,fr24_c4).
body(r_fr24_82,fr24_f4).
head(r_fr24_83,fr24_s3).
body(r_fr24_83,fr24_s2).
body(r_fr24_83,fr24_t2).
body(r_fr24_83,fr24_y1).
body(r_fr24_83,fr24_z1).
head(r_fr24_84,fr24_s3).
body(r_fr24_84,fr24_a2).
body(r_fr24_84,fr24_f4).
body(r_fr24_84,fr24_u3).
body(r_fr24_84,fr24_v1).
body(r_fr24_84,fr24_w1).
head(r_fr24_85,fr24_s3).
body(r_fr24_85,fr24_d1).
body(r_fr24_85,fr24_f4).
body(r_fr24_85,fr24_s2).
body(r_fr24_85,fr24_t1).
body(r_fr24_85,fr24_u1).
body(r_fr24_85,fr24_x1).
body(r_fr24_85,fr12_y1).
body(r_fr24_85,fr24_z3).
body(r_fr24_85,fr22_p4).
head(r_fr24_86,fr24_s3).
body(r_fr24_86,fr24_a1).
body(r_fr24_86,fr24_b1).
body(r_fr24_86,fr24_c5).
body(r_fr24_86,fr17_c1).
body(r_fr24_86,fr24_f3).
body(r_fr24_86,fr19_q4).
body(r_fr24_86,fr24_v4).
body(r_fr24_86,fr24_y1).
head(r_fr24_87,fr24_p4).
body(r_fr24_87,fr24_a3).
body(r_fr24_87,fr24_b2).
body(r_fr24_87,fr24_d4).
body(r_fr24_87,fr24_f2).
body(r_fr24_87,fr24_f4).
body(r_fr24_87,fr24_q1).
body(r_fr24_87,fr18_u2).
head(r_fr24_88,fr24_p4).
body(r_fr24_88,fr24_w2).
head(r_fr24_89,fr24_p4).
body(r_fr24_89,fr24_a5).
body(r_fr24_89,fr24_b2).
body(r_fr24_89,fr24_b4).
body(r_fr24_89,fr24_c1).
body(r_fr24_89,fr24_c4).
body(r_fr24_89,fr19_c2).
body(r_fr24_89,fr17_c1).
body(r_fr24_89,fr24_f3).
body(r_fr24_89,fr24_f4).
head(r_fr24_90,fr24_p4).
body(r_fr24_90,fr24_a1).
body(r_fr24_90,fr24_b1).
body(r_fr24_90,fr24_b2).
body(r_fr24_90,fr24_c2).
body(r_fr24_90,fr24_d1).
body(r_fr24_90,fr19_c2).
body(r_fr24_90,fr24_e3).
body(r_fr24_90,fr17_c1).
body(r_fr24_90,fr24_f3).
body(r_fr24_90,fr24_s2).
head(r_fr24_91,fr24_p4).
body(r_fr24_91,fr24_d3).
body(r_fr24_91,fr24_z3).
head(r_fr24_92,fr24_p4).
body(r_fr24_92,fr24_a2).
body(r_fr24_92,fr24_b1).
body(r_fr24_92,fr17_e1).
body(r_fr24_92,fr24_e2).
body(r_fr24_92,fr24_f1).
body(r_fr24_92,fr24_s2).
body(r_fr24_92,fr24_u4).
body(r_fr24_92,fr24_x4).
body(r_fr24_92,fr24_z3).
head(r_fr24_93,fr24_p4).
body(r_fr24_93,fr24_a1).
body(r_fr24_93,fr24_a2).
body(r_fr24_93,fr24_a3).
body(r_fr24_93,fr24_c1).
head(r_fr24_94,fr24_q1).
body(r_fr24_94,fr24_b2).
body(r_fr24_94,fr24_e2).
body(r_fr24_94,fr24_e3).
body(r_fr24_94,fr24_p1).
body(r_fr24_94,fr25_u1).
head(r_fr24_95,fr24_q1).
body(r_fr24_95,fr24_c2).
head(r_fr24_96,fr24_q1).
body(r_fr24_96,fr24_s2).
body(r_fr24_96,fr24_s4).
body(r_fr24_96,fr24_u3).
body(r_fr24_96,fr24_x4).
head(r_fr24_97,fr24_q1).
body(r_fr24_97,fr24_a3).
body(r_fr24_97,fr24_v1).
body(r_fr24_97,fr24_v2).
body(r_fr24_97,fr24_w2).
body(r_fr24_97,fr24_w4).
body(r_fr24_97,fr24_z2).
body(r_fr24_97,fr24_z3).
head(r_fr24_98,fr24_x1).
body(r_fr24_98,fr20_y1).
body(r_fr24_98,fr25_u1).
body(r_fr24_98,fr13_u1).
head(r_fr24_99,fr24_x1).
body(r_fr24_99,fr24_a1).
body(r_fr24_99,fr24_b5).
body(r_fr24_99,fr24_c3).
body(r_fr24_99,fr24_d1).
body(r_fr24_99,fr17_e1).
body(r_fr24_99,fr24_f4).
body(r_fr24_99,fr19_q4).
body(r_fr24_99,fr24_u4).
head(r_fr24_100,fr24_x1).
body(r_fr24_100,fr24_f1).
head(r_fr24_101,fr24_x1).
body(r_fr24_101,fr24_p2).
body(r_fr24_101,fr24_t1).
body(r_fr24_101,fr24_w2).
head(r_fr24_102,fr24_x1).
body(r_fr24_102,fr24_a3).
body(r_fr24_102,fr24_b1).
body(r_fr24_102,fr24_c3).
body(r_fr24_102,fr24_f4).
body(r_fr24_102,fr24_q2).
body(r_fr24_102,fr24_u1).
body(r_fr24_102,fr12_y1).
body(r_fr24_102,fr24_y3).
body(r_fr24_102,fr22_p4).
head(r_fr24_103,fr24_x1).
body(r_fr24_103,fr24_a1).
body(r_fr24_103,fr24_c3).
body(r_fr24_103,fr24_d1).
body(r_fr24_103,fr24_d3).
body(r_fr24_103,fr24_f3).
body(r_fr24_103,fr19_q4).
body(r_fr24_103,fr24_x2).
body(r_fr24_103,fr24_y1).
head(r_fr24_104,fr24_x1).
head(r_fr24_105,fr24_x1).
body(r_fr24_105,fr24_r3).
body(r_fr24_105,fr24_t1).
body(r_fr24_105,fr24_t2).
body(r_fr24_105,fr24_t3).
body(r_fr24_105,fr24_u4).
body(r_fr24_105,fr24_v1).
body(r_fr24_105,fr24_z1).
head(r_fr24_106,fr24_t1).
body(r_fr24_106,fr17_e1).
body(r_fr24_106,fr24_q1).
body(r_fr24_106,fr24_q2).
body(r_fr24_106,fr24_v1).
body(r_fr24_106,fr24_z1).
head(r_fr24_107,fr24_t1).
body(r_fr24_107,fr24_a4).
head(r_fr24_108,fr24_t1).
body(r_fr24_108,fr24_a2).
body(r_fr24_108,fr24_w3).
head(r_fr24_109,fr24_t1).
body(r_fr24_109,fr24_b1).
body(r_fr24_109,fr17_c1).
body(r_fr24_109,fr3_p3).
body(r_fr24_109,fr24_q1).
body(r_fr24_109,fr24_t3).
body(r_fr24_109,fr12_y1).
body(r_fr24_109,fr24_z2).
body(r_fr24_109,fr24_z3).
body(r_fr24_109,fr22_p4).
head(r_fr24_110,fr24_t1).
head(r_fr24_111,fr24_t1).
body(r_fr24_111,fr24_p2).
body(r_fr24_111,fr24_s3).
body(r_fr24_111,fr24_x2).
head(r_fr24_112,fr3_p3).
body(r_fr24_112,fr24_a1).
body(r_fr24_112,fr24_b1).
body(r_fr24_112,fr19_c2).
body(r_fr24_112,fr24_e2).
body(r_fr24_112,fr24_f3).
body(r_fr24_112,fr20_y1).
body(r_fr24_112,fr24_r1).
head(r_fr24_113,fr3_p3).
body(r_fr24_113,fr24_v4).
head(r_fr24_114,fr3_p3).
body(r_fr24_114,fr24_a1).
body(r_fr24_114,fr24_d4).
body(r_fr24_114,fr24_p4).
body(r_fr24_114,fr24_r3).
body(r_fr24_114,fr24_s4).
head(r_fr24_115,fr3_p3).
body(r_fr24_115,fr24_d1).
body(r_fr24_115,fr24_e2).
body(r_fr24_115,fr24_e3).
body(r_fr24_115,fr24_f1).
head(r_fr24_116,fr3_p3).
body(r_fr24_116,fr24_f2).
body(r_fr24_116,fr24_p1).
body(r_fr24_116,fr9_z1).
body(r_fr24_116,fr24_v3).
head(r_fr24_117,fr24_x2).
body(r_fr24_117,fr24_r1).
body(r_fr24_117,fr24_t2).
body(r_fr24_117,fr24_w3).
head(r_fr24_118,fr24_x2).
body(r_fr24_118,fr17_c1).
body(r_fr24_118,fr20_y1).
head(r_fr24_119,fr24_x2).
body(r_fr24_119,fr24_a5).
body(r_fr24_119,fr24_u4).
body(r_fr24_119,fr24_x1).
body(r_fr24_119,fr24_z3).
head(r_fr24_120,fr24_x2).
body(r_fr24_120,fr24_a3).
body(r_fr24_120,fr24_t3).
body(r_fr24_120,fr24_u3).
head(r_fr24_121,fr24_x2).
body(r_fr24_121,fr24_q2).
body(r_fr24_121,fr24_r4).
body(r_fr24_121,fr24_w2).
body(r_fr24_121,fr12_y1).
head(r_fr24_122,fr24_x2).
body(r_fr24_122,fr24_b2).
body(r_fr24_122,fr24_c2).
body(r_fr24_122,fr24_u4).
body(r_fr24_122,fr24_v4).
body(r_fr24_122,fr24_y1).
head(r_fr24_123,fr24_u4).
body(r_fr24_123,fr24_c3).
body(r_fr24_123,fr24_d1).
body(r_fr24_123,fr24_q2).
body(r_fr24_123,fr24_r1).
body(r_fr24_123,fr24_r4).
body(r_fr24_123,fr24_v3).
body(r_fr24_123,fr24_w1).
body(r_fr24_123,fr24_z1).
head(r_fr24_124,fr24_u4).
head(r_fr24_125,fr24_u3).
body(r_fr24_125,fr24_a1).
body(r_fr24_125,fr24_a5).
body(r_fr24_125,fr24_b4).
body(r_fr24_125,fr24_d3).
body(r_fr24_125,fr24_d4).
body(r_fr24_125,fr24_f4).
body(r_fr24_125,fr24_x1).
head(r_fr24_126,fr24_u3).
body(r_fr24_126,fr24_c1).
body(r_fr24_126,fr24_c5).
body(r_fr24_126,fr24_e2).
body(r_fr24_126,fr17_c1).
body(r_fr24_126,fr3_p3).
body(r_fr24_126,fr24_q2).
head(r_fr24_127,fr24_u3).
body(r_fr24_127,fr24_a3).
body(r_fr24_127,fr24_a4).
body(r_fr24_127,fr24_d3).
body(r_fr24_127,fr24_p4).
body(r_fr24_127,fr25_u1).
head(r_fr24_128,fr24_u3).
body(r_fr24_128,fr24_b3).
body(r_fr24_128,fr24_t1).
body(r_fr24_128,fr24_x4).
body(r_fr24_128,fr22_p4).
head(r_fr24_129,fr24_u3).
body(r_fr24_129,fr24_s4).
body(r_fr24_129,fr24_t1).
body(r_fr24_129,fr24_t3).
body(r_fr24_129,fr24_u4).
body(r_fr24_129,fr24_w3).
body(r_fr24_129,fr12_y1).
head(r_fr24_130,fr24_u3).
body(r_fr24_130,fr24_b4).
body(r_fr24_130,fr24_d1).
body(r_fr24_130,fr17_e1).
body(r_fr24_130,fr24_f3).
body(r_fr24_130,fr24_f4).
body(r_fr24_130,fr24_z1).
head(r_fr24_131,fr24_u3).
body(r_fr24_131,fr24_b2).
body(r_fr24_131,fr24_b3).
body(r_fr24_131,fr24_c1).
body(r_fr24_131,fr24_f2).
body(r_fr24_131,fr24_u4).
body(r_fr24_131,fr24_v3).
body(r_fr24_131,fr24_w3).
head(r_fr24_132,fr24_u3).
body(r_fr24_132,fr24_c4).
body(r_fr24_132,fr24_f2).
head(r_fr24_133,fr24_u3).
head(r_fr24_134,fr24_w3).
body(r_fr24_134,fr24_c4).
head(r_fr24_135,fr24_w3).
body(r_fr24_135,fr24_q1).
body(r_fr24_135,fr24_r1).
body(r_fr24_135,fr24_r2).
body(r_fr24_135,fr24_s3).
body(r_fr24_135,fr24_v3).
body(r_fr24_135,fr24_v4).
body(r_fr24_135,fr24_w1).
head(r_fr24_136,fr24_w3).
body(r_fr24_136,fr24_z1).
head(r_fr24_137,fr24_w3).
body(r_fr24_137,fr24_b3).
body(r_fr24_137,fr20_y1).
body(r_fr24_137,fr24_t1).
body(r_fr24_137,fr24_x2).
body(r_fr24_137,fr24_x4).
body(r_fr24_137,fr24_y1).
body(r_fr24_137,fr24_y2).
head(r_fr24_138,fr24_w3).
body(r_fr24_138,fr24_b3).
body(r_fr24_138,fr24_c1).
body(r_fr24_138,fr19_c2).
body(r_fr24_138,fr24_f1).
body(r_fr24_138,fr24_f2).
body(r_fr24_138,fr24_q2).
body(r_fr24_138,fr24_u3).
body(r_fr24_138,fr24_w4).
body(r_fr24_138,fr24_z1).
head(r_fr24_139,fr24_w3).
body(r_fr24_139,fr24_a1).
body(r_fr24_139,fr24_a3).
body(r_fr24_139,fr24_a5).
body(r_fr24_139,fr24_d3).
body(r_fr24_139,fr24_e2).
body(r_fr24_139,fr24_e3).
body(r_fr24_139,fr24_f1).
head(r_fr24_140,fr24_w3).
body(r_fr24_140,fr19_q4).
body(r_fr24_140,fr24_s4).
body(r_fr24_140,fr24_t3).
body(r_fr24_140,fr24_v1).
head(r_fr24_141,fr24_w3).
head(r_fr24_142,fr24_w3).
body(r_fr24_142,fr24_a1).
body(r_fr24_142,fr24_a3).
body(r_fr24_142,fr24_b1).
body(r_fr24_142,fr24_c3).
body(r_fr24_142,fr19_c2).
body(r_fr24_142,fr24_f4).
body(r_fr24_142,fr24_p2).
body(r_fr24_142,fr24_t1).
body(r_fr24_142,fr24_v4).
body(r_fr24_142,fr24_w4).
head(r_fr24_143,fr24_z3).
body(r_fr24_143,fr24_b5).
body(r_fr24_143,fr19_q4).
body(r_fr24_143,fr24_r1).
body(r_fr24_143,fr24_t3).
head(r_fr24_144,fr24_z3).
body(r_fr24_144,fr24_a1).
body(r_fr24_144,fr24_b4).
body(r_fr24_144,fr24_c1).
body(r_fr24_144,fr24_f2).
body(r_fr24_144,fr20_y1).
body(r_fr24_144,fr24_v1).
body(r_fr24_144,fr24_x1).
body(r_fr24_144,fr24_z2).
head(r_fr24_145,fr24_z3).
body(r_fr24_145,fr24_a3).
body(r_fr24_145,fr24_b4).
body(r_fr24_145,fr24_c1).
body(r_fr24_145,fr24_c5).
body(r_fr24_145,fr3_p3).
body(r_fr24_145,fr24_q1).
body(r_fr24_145,fr24_s1).
body(r_fr24_145,fr24_t2).
body(r_fr24_145,fr24_w4).
head(r_fr24_146,fr24_z3).
body(r_fr24_146,fr24_c2).
body(r_fr24_146,fr24_e3).
body(r_fr24_146,fr24_s1).
body(r_fr24_146,fr18_u2).
body(r_fr24_146,fr24_u3).
body(r_fr24_146,fr24_x2).
body(r_fr24_146,fr24_y2).
head(r_fr24_147,fr24_z3).
body(r_fr24_147,fr9_z1).
head(r_fr24_148,fr24_z3).
body(r_fr24_148,fr24_t2).
body(r_fr24_148,fr24_y3).
head(r_fr24_149,fr24_v4).
body(r_fr24_149,fr24_a2).
body(r_fr24_149,fr24_b4).
body(r_fr24_149,fr24_c1).
body(r_fr24_149,fr24_d1).
body(r_fr24_149,fr24_f3).
body(r_fr24_149,fr24_q1).
body(r_fr24_149,fr24_y1).
head(r_fr24_150,fr24_v4).
head(r_fr24_151,fr24_v4).
body(r_fr24_151,fr24_a4).
body(r_fr24_151,fr24_b2).
body(r_fr24_151,fr3_p3).
body(r_fr24_151,fr19_q4).
body(r_fr24_151,fr20_y1).
body(r_fr24_151,fr25_u1).
body(r_fr24_151,fr24_v2).
body(r_fr24_151,fr24_v3).
body(r_fr24_151,fr24_z3).
head(r_fr24_152,fr24_v4).
body(r_fr24_152,fr24_r1).
body(r_fr24_152,fr24_w4).
head(r_fr24_153,fr24_v4).
body(r_fr24_153,fr24_b5).
body(r_fr24_153,fr24_d4).
body(r_fr24_153,fr24_q1).
body(r_fr24_153,fr24_t2).
body(r_fr24_153,fr24_v3).
body(r_fr24_153,fr24_y2).
body(r_fr24_153,fr13_u1).
body(r_fr24_153,fr24_z1).
head(r_fr24_154,fr24_v4).
body(r_fr24_154,fr19_q4).
body(r_fr24_154,fr12_y1).
head(r_fr24_155,fr24_v4).
body(r_fr24_155,fr24_a5).
body(r_fr24_155,fr24_c4).
body(r_fr24_155,fr24_c5).
body(r_fr24_155,fr24_e3).
body(r_fr24_155,fr24_x4).
head(r_fr24_156,fr24_v4).
body(r_fr24_156,fr24_q1).
body(r_fr24_156,fr24_q2).
body(r_fr24_156,fr24_s3).
body(r_fr24_156,fr24_u4).
body(r_fr24_156,fr24_z2).
body(r_fr24_156,fr22_p4).
head(r_fr24_157,fr24_v4).
body(r_fr24_157,fr24_a4).
head(r_fr24_158,fr24_s1).
body(r_fr24_158,fr24_a1).
body(r_fr24_158,fr24_a2).
body(r_fr24_158,fr24_a4).
body(r_fr24_158,fr24_q1).
body(r_fr24_158,fr20_y1).
body(r_fr24_158,fr24_s4).
body(r_fr24_158,fr24_v3).
head(r_fr24_159,fr24_s1).
body(r_fr24_159,fr24_b2).
body(r_fr24_159,fr24_c2).
head(r_fr24_160,fr24_s1).
body(r_fr24_160,fr24_a1).
body(r_fr24_160,fr24_a3).
body(r_fr24_160,fr24_b2).
body(r_fr24_160,fr24_c1).
body(r_fr24_160,fr17_c1).
body(r_fr24_160,fr3_p3).
body(r_fr24_160,fr20_y1).
body(r_fr24_160,fr24_u3).
body(r_fr24_160,fr24_v1).
body(r_fr24_160,fr13_u1).
head(r_fr24_161,fr24_s1).
body(r_fr24_161,fr24_a2).
body(r_fr24_161,fr24_b1).
body(r_fr24_161,fr24_b5).
body(r_fr24_161,fr24_d4).
body(r_fr24_161,fr17_e1).
body(r_fr24_161,fr24_q2).
body(r_fr24_161,fr24_x1).
head(r_fr24_162,fr24_s1).
body(r_fr24_162,fr24_a3).
body(r_fr24_162,fr24_b1).
body(r_fr24_162,fr24_c3).
body(r_fr24_162,fr24_c5).
body(r_fr24_162,fr19_c2).
body(r_fr24_162,fr24_d3).
body(r_fr24_162,fr24_d4).
body(r_fr24_162,fr17_c1).
body(r_fr24_162,fr24_f1).
body(r_fr24_162,fr24_f2).
head(r_fr24_163,fr24_p1).
body(r_fr24_163,fr24_a2).
body(r_fr24_163,fr20_y1).
body(r_fr24_163,fr24_s4).
body(r_fr24_163,fr24_w4).
body(r_fr24_163,fr24_z1).
head(r_fr24_164,fr24_p1).
body(r_fr24_164,fr24_f1).
body(r_fr24_164,fr9_z1).
body(r_fr24_164,fr24_r2).
body(r_fr24_164,fr24_s1).
body(r_fr24_164,fr24_v3).
body(r_fr24_164,fr24_w1).
body(r_fr24_164,fr24_w3).
body(r_fr24_164,fr24_z2).
head(r_fr24_165,fr24_p1).
body(r_fr24_165,fr24_a1).
body(r_fr24_165,fr24_b2).
body(r_fr24_165,fr24_b3).
body(r_fr24_165,fr24_c2).
body(r_fr24_165,fr24_c3).
body(r_fr24_165,fr24_f3).
body(r_fr24_165,fr24_p4).
body(r_fr24_165,fr25_u1).
body(r_fr24_165,fr13_u1).
head(r_fr24_166,fr24_p1).
body(r_fr24_166,fr24_a3).
body(r_fr24_166,fr24_a5).
body(r_fr24_166,fr24_b3).
body(r_fr24_166,fr24_c1).
body(r_fr24_166,fr24_c4).
body(r_fr24_166,fr24_d3).
body(r_fr24_166,fr24_d4).
body(r_fr24_166,fr24_f1).
head(r_fr24_167,fr24_p1).
body(r_fr24_167,fr24_w2).
body(r_fr24_167,fr24_z3).
head(r_fr24_168,fr24_p1).
body(r_fr24_168,fr24_a1).
body(r_fr24_168,fr24_a3).
body(r_fr24_168,fr24_a4).
body(r_fr24_168,fr24_b3).
body(r_fr24_168,fr19_c2).
body(r_fr24_168,fr17_c1).
body(r_fr24_168,fr20_y1).
body(r_fr24_168,fr24_v2).
body(r_fr24_168,fr24_w3).
head(r_fr24_169,fr24_p1).
body(r_fr24_169,fr24_c3).
body(r_fr24_169,fr24_f4).
body(r_fr24_169,fr24_t2).
body(r_fr24_169,fr24_v3).
head(r_fr24_170,fr24_p1).
body(r_fr24_170,fr24_b1).
body(r_fr24_170,fr24_b5).
body(r_fr24_170,fr24_q2).
body(r_fr24_170,fr24_t1).
body(r_fr24_170,fr24_t2).
body(r_fr24_170,fr24_u3).
body(r_fr24_170,fr24_v4).
body(r_fr24_170,fr24_w1).
body(r_fr24_170,fr24_x2).
body(r_fr24_170,fr24_x4).
head(r_fr24_171,fr24_p1).
head(r_fr24_172,fr24_r1).
body(r_fr24_172,fr24_d1).
body(r_fr24_172,fr24_f1).
head(r_fr24_173,fr24_r1).
body(r_fr24_173,fr24_a1).
body(r_fr24_173,fr24_p2).
head(r_fr24_174,fr24_r1).
body(r_fr24_174,fr24_a1).
body(r_fr24_174,fr24_b1).
body(r_fr24_174,fr24_b4).
body(r_fr24_174,fr24_c5).
body(r_fr24_174,fr19_c2).
body(r_fr24_174,fr17_e1).
body(r_fr24_174,fr24_f2).
head(r_fr24_175,fr24_r1).
body(r_fr24_175,fr24_c2).
body(r_fr24_175,fr24_d1).
body(r_fr24_175,fr24_d3).
body(r_fr24_175,fr24_d4).
body(r_fr24_175,fr24_q2).
body(r_fr24_175,fr24_u1).
body(r_fr24_175,fr24_x1).
head(r_fr24_176,fr19_q4).
body(r_fr24_176,fr24_a4).
body(r_fr24_176,fr24_b1).
body(r_fr24_176,fr24_b2).
body(r_fr24_176,fr24_b4).
body(r_fr24_176,fr24_b5).
body(r_fr24_176,fr24_f1).
body(r_fr24_176,fr24_s1).
body(r_fr24_176,fr24_v4).
head(r_fr24_177,fr19_q4).
head(r_fr24_178,fr24_y1).
head(r_fr24_179,fr24_y1).
body(r_fr24_179,fr24_b1).
body(r_fr24_179,fr24_d4).
head(r_fr24_180,fr24_y1).
body(r_fr24_180,fr25_u1).
head(r_fr24_181,fr24_y1).
body(r_fr24_181,fr24_a2).
body(r_fr24_181,fr24_e2).
body(r_fr24_181,fr24_f3).
body(r_fr24_181,fr24_f4).
body(r_fr24_181,fr24_r2).
body(r_fr24_181,fr24_r3).
body(r_fr24_181,fr24_t1).
body(r_fr24_181,fr24_z3).
head(r_fr24_182,fr24_y1).
body(r_fr24_182,fr24_f3).
body(r_fr24_182,fr19_q4).
body(r_fr24_182,fr24_q2).
body(r_fr24_182,fr24_s1).
body(r_fr24_182,fr24_t1).
body(r_fr24_182,fr24_u3).
body(r_fr24_182,fr24_v4).
body(r_fr24_182,fr24_x2).
body(r_fr24_182,fr24_y2).
body(r_fr24_182,fr13_u1).
head(r_fr24_183,fr24_q2).
body(r_fr24_183,fr24_c3).
body(r_fr24_183,fr24_c5).
body(r_fr24_183,fr17_e1).
body(r_fr24_183,fr19_q4).
body(r_fr24_183,fr20_y1).
body(r_fr24_183,fr9_z1).
body(r_fr24_183,fr24_u1).
body(r_fr24_183,fr25_u1).
body(r_fr24_183,fr24_w3).
head(r_fr24_184,fr24_q2).
body(r_fr24_184,fr24_d3).
body(r_fr24_184,fr24_q1).
body(r_fr24_184,fr24_r1).
body(r_fr24_184,fr24_t3).
body(r_fr24_184,fr25_u1).
body(r_fr24_184,fr24_v1).
body(r_fr24_184,fr13_u1).
body(r_fr24_184,fr24_z3).
head(r_fr24_185,fr24_q2).
body(r_fr24_185,fr24_b4).
body(r_fr24_185,fr24_d3).
body(r_fr24_185,fr24_f1).
body(r_fr24_185,fr24_u4).
body(r_fr24_185,fr24_w1).
body(r_fr24_185,fr24_w4).
body(r_fr24_185,fr12_y1).
body(r_fr24_185,fr13_u1).
head(r_fr24_186,fr24_y2).
body(r_fr24_186,fr24_r2).
body(r_fr24_186,fr24_s2).
body(r_fr24_186,fr24_t1).
body(r_fr24_186,fr18_u2).
body(r_fr24_186,fr24_u4).
body(r_fr24_186,fr24_v2).
body(r_fr24_186,fr24_x1).
head(r_fr24_187,fr24_y2).
body(r_fr24_187,fr24_a1).
body(r_fr24_187,fr24_b1).
body(r_fr24_187,fr24_c5).
body(r_fr24_187,fr24_d1).
body(r_fr24_187,fr24_d3).
body(r_fr24_187,fr24_f3).
body(r_fr24_187,fr20_y1).
body(r_fr24_187,fr24_r3).
head(r_fr24_188,fr24_y2).
body(r_fr24_188,fr24_p1).
body(r_fr24_188,fr24_q1).
body(r_fr24_188,fr24_s2).
body(r_fr24_188,fr24_v1).
body(r_fr24_188,fr24_w4).
body(r_fr24_188,fr24_x1).
body(r_fr24_188,fr24_x4).
head(r_fr24_189,fr24_y2).
body(r_fr24_189,fr24_b3).
body(r_fr24_189,fr24_c2).
head(r_fr24_190,fr24_y2).
body(r_fr24_190,fr24_c4).
body(r_fr24_190,fr24_e2).
body(r_fr24_190,fr24_p4).
body(r_fr24_190,fr25_u1).
body(r_fr24_190,fr24_w3).
body(r_fr24_190,fr24_y1).
head(r_fr24_191,fr24_y2).
body(r_fr24_191,fr24_c3).
body(r_fr24_191,fr24_c5).
body(r_fr24_191,fr24_d1).
body(r_fr24_191,fr19_c2).
body(r_fr24_191,fr17_e1).
body(r_fr24_191,fr24_f1).
head(r_fr24_192,fr24_y2).
body(r_fr24_192,fr24_w2).
head(r_fr24_193,fr24_y2).
body(r_fr24_193,fr24_a1).
body(r_fr24_193,fr24_a3).
body(r_fr24_193,fr24_a4).
body(r_fr24_193,fr24_b2).
body(r_fr24_193,fr24_b4).
body(r_fr24_193,fr24_c1).
body(r_fr24_193,fr24_c4).
body(r_fr24_193,fr24_d3).
body(r_fr24_193,fr17_e1).
body(r_fr24_193,fr24_f2).
head(r_fr24_194,fr9_z1).
body(r_fr24_194,fr24_a3).
body(r_fr24_194,fr24_a4).
body(r_fr24_194,fr24_b3).
body(r_fr24_194,fr24_b4).
body(r_fr24_194,fr24_c3).
body(r_fr24_194,fr24_c5).
body(r_fr24_194,fr24_d1).
body(r_fr24_194,fr24_e3).
body(r_fr24_194,fr24_f4).
body(r_fr24_194,fr24_z1).
head(r_fr24_195,fr9_z1).
body(r_fr24_195,fr24_q2).
body(r_fr24_195,fr24_r4).
body(r_fr24_195,fr12_y1).
body(r_fr24_195,fr24_y2).
body(r_fr24_195,fr24_z3).
head(r_fr24_196,fr9_z1).
body(r_fr24_196,fr24_a2).
body(r_fr24_196,fr24_b2).
body(r_fr24_196,fr24_f3).
body(r_fr24_196,fr20_y1).
body(r_fr24_196,fr24_v4).
body(r_fr24_196,fr24_y1).
head(r_fr24_197,fr9_z1).
head(r_fr24_198,fr9_z1).
body(r_fr24_198,fr24_b3).
body(r_fr24_198,fr24_t1).
body(r_fr24_198,fr24_x4).
head(r_fr24_199,fr9_z1).
body(r_fr24_199,fr24_b2).
body(r_fr24_199,fr24_d4).
head(r_fr24_200,fr9_z1).
body(r_fr24_200,fr24_c1).
body(r_fr24_200,fr24_c5).
body(r_fr24_200,fr17_c1).
body(r_fr24_200,fr24_r2).
body(r_fr24_200,fr24_s4).
body(r_fr24_200,fr24_w3).
body(r_fr24_200,fr24_y3).
body(r_fr24_200,fr22_p4).
head(r_fr24_201,fr24_y3).
body(r_fr24_201,fr24_a4).
body(r_fr24_201,fr24_b2).
body(r_fr24_201,fr24_d3).
body(r_fr24_201,fr24_f1).
body(r_fr24_201,fr24_z1).
head(r_fr24_202,fr24_y3).
body(r_fr24_202,fr24_a5).
body(r_fr24_202,fr24_c1).
body(r_fr24_202,fr24_f3).
body(r_fr24_202,fr24_w1).
body(r_fr24_202,fr24_y2).
body(r_fr24_202,fr22_p4).
head(r_fr24_203,fr24_y3).
body(r_fr24_203,fr24_a2).
body(r_fr24_203,fr24_r1).
body(r_fr24_203,fr24_y1).
head(r_fr24_204,fr24_y3).
body(r_fr24_204,fr24_q1).
body(r_fr24_204,fr24_r2).
body(r_fr24_204,fr24_t1).
body(r_fr24_204,fr24_u4).
body(r_fr24_204,fr24_v3).
head(r_fr24_205,fr24_y3).
body(r_fr24_205,fr24_z2).
head(r_fr24_206,fr20_y1).
body(r_fr24_206,fr24_a1).
body(r_fr24_206,fr24_a2).
body(r_fr24_206,fr24_b3).
body(r_fr24_206,fr24_b5).
body(r_fr24_206,fr24_c4).
body(r_fr24_206,fr19_c2).
body(r_fr24_206,fr17_c1).
body(r_fr24_206,fr24_f4).
body(r_fr24_206,fr24_v2).
body(r_fr24_206,fr24_x1).
head(r_fr24_207,fr20_y1).
body(r_fr24_207,fr17_c1).
body(r_fr24_207,fr24_f3).
head(r_fr24_208,fr20_y1).
body(r_fr24_208,fr24_q2).
body(r_fr24_208,fr24_v4).
head(r_fr24_209,fr20_y1).
body(r_fr24_209,fr24_a5).
body(r_fr24_209,fr24_c4).
body(r_fr24_209,fr24_d4).
body(r_fr24_209,fr24_f1).
body(r_fr24_209,fr24_f3).
head(r_fr24_210,fr20_y1).
body(r_fr24_210,fr24_e3).
body(r_fr24_210,fr24_p1).
body(r_fr24_210,fr24_u1).
body(r_fr24_210,fr24_v4).
body(r_fr24_210,fr24_w4).
head(r_fr24_211,fr20_y1).
body(r_fr24_211,fr24_a2).
body(r_fr24_211,fr24_a5).
body(r_fr24_211,fr24_c5).
body(r_fr24_211,fr17_e1).
body(r_fr24_211,fr24_f1).
body(r_fr24_211,fr24_f3).
body(r_fr24_211,fr25_u1).
body(r_fr24_211,fr24_w3).
head(r_fr24_212,fr20_y1).
body(r_fr24_212,fr24_c3).
body(r_fr24_212,fr24_d3).
body(r_fr24_212,fr24_d4).
body(r_fr24_212,fr24_e3).
body(r_fr24_212,fr24_f1).
body(r_fr24_212,fr24_f4).
body(r_fr24_212,fr24_q1).
body(r_fr24_212,fr18_u2).
body(r_fr24_212,fr24_u4).
body(r_fr24_212,fr22_p4).
head(r_fr24_213,fr20_y1).
body(r_fr24_213,fr17_c1).
body(r_fr24_213,fr24_v3).
head(r_fr24_214,fr20_y1).
body(r_fr24_214,fr24_d4).
body(r_fr24_214,fr17_e1).
body(r_fr24_214,fr24_r2).
body(r_fr24_214,fr24_t2).
body(r_fr24_214,fr24_t3).
body(r_fr24_214,fr25_u1).
body(r_fr24_214,fr24_x4).
head(r_fr24_215,fr24_w1).
body(r_fr24_215,fr24_b2).
body(r_fr24_215,fr24_r3).
body(r_fr24_215,fr24_s1).
body(r_fr24_215,fr24_s4).
body(r_fr24_215,fr24_u4).
head(r_fr24_216,fr24_w1).
body(r_fr24_216,fr17_c1).
body(r_fr24_216,fr24_y3).
head(r_fr24_217,fr24_v2).
body(r_fr24_217,fr24_b2).
body(r_fr24_217,fr24_c5).
head(r_fr24_218,fr24_v2).
body(r_fr24_218,fr24_a3).
body(r_fr24_218,fr24_c3).
body(r_fr24_218,fr19_c2).
body(r_fr24_218,fr17_e1).
body(r_fr24_218,fr24_e3).
body(r_fr24_218,fr24_f1).
body(r_fr24_218,fr24_f4).
head(r_fr24_219,fr24_v2).
body(r_fr24_219,fr24_a1).
body(r_fr24_219,fr24_b1).
body(r_fr24_219,fr24_p4).
body(r_fr24_219,fr9_z1).
body(r_fr24_219,fr24_w1).
body(r_fr24_219,fr24_z3).
head(r_fr24_220,fr24_v2).
body(r_fr24_220,fr24_r2).
head(r_fr24_221,fr24_v2).
body(r_fr24_221,fr24_a2).
body(r_fr24_221,fr24_d4).
body(r_fr24_221,fr24_p4).
body(r_fr24_221,fr24_u4).
body(r_fr24_221,fr24_v1).
body(r_fr24_221,fr24_w2).
body(r_fr24_221,fr24_x4).
head(r_fr24_222,fr24_v2).
body(r_fr24_222,fr24_d1).
body(r_fr24_222,fr24_r3).
head(r_fr24_223,fr24_r2).
body(r_fr24_223,fr24_b4).
body(r_fr24_223,fr24_q1).
body(r_fr24_223,fr24_r1).
body(r_fr24_223,fr24_s1).
body(r_fr24_223,fr24_s4).
body(r_fr24_223,fr24_v2).
body(r_fr24_223,fr24_v3).
body(r_fr24_223,fr24_v4).
body(r_fr24_223,fr24_w2).
body(r_fr24_223,fr24_y2).
head(r_fr24_224,fr24_r2).
head(r_fr24_225,fr24_r2).
body(r_fr24_225,fr24_f4).
body(r_fr24_225,fr24_p4).
body(r_fr24_225,fr20_y1).
body(r_fr24_225,fr9_z1).
body(r_fr24_225,fr24_t2).
body(r_fr24_225,fr24_v4).
body(r_fr24_225,fr24_x1).
body(r_fr24_225,fr24_x2).
body(r_fr24_225,fr24_z1).

assumption(fr3_b3).
assumption(fr25_b1).
assumption(fr25_c1).
assumption(fr17_e1).
assumption(fr25_c1).
assumption(fr25_f1).
assumption(fr18_a1).
assumption(fr25_b2).
assumption(fr25_c2).
assumption(fr4_a1).
assumption(fr25_e2).
assumption(fr25_f2).
assumption(fr25_a3).
assumption(fr25_b3).
assumption(fr25_c3).
contrary(fr3_b3,fr25_c2).
contrary(fr18_a1,fr25_r2).
contrary(fr25_a3,fr25_s2).
contrary(fr25_b1,fr25_f1).
contrary(fr25_b2,fr25_e2).
contrary(fr25_b3,fr25_p3).
contrary(fr25_c1,fr25_f2).
contrary(fr25_c2,fr25_f2).
contrary(fr25_c3,fr25_b1).
contrary(fr17_e1,fr25_x1).
contrary(fr4_a1,fr25_v2).
contrary(fr25_c1,fr4_a1).
contrary(fr25_e2,fr25_u1).
contrary(fr25_f1,fr25_b2).
contrary(fr25_f2,fr3_b3).
head(r_fr25_0,fr25_z2).
body(r_fr25_0,fr25_b2).
head(r_fr25_1,fr25_z2).
body(r_fr25_1,fr3_b3).
body(r_fr25_1,fr25_q3).
head(r_fr25_2,fr25_z2).
body(r_fr25_2,fr25_c2).
body(r_fr25_2,fr25_r1).
body(r_fr25_2,fr25_t1).
body(r_fr25_2,fr25_u2).
body(r_fr25_2,fr25_w1).
body(r_fr25_2,fr25_y1).
head(r_fr25_3,fr25_z2).
body(r_fr25_3,fr25_a3).
body(r_fr25_3,fr25_b2).
body(r_fr25_3,fr25_f1).
body(r_fr25_3,fr25_y1).
head(r_fr25_4,fr25_z2).
body(r_fr25_4,fr25_q3).
head(r_fr25_5,fr25_z2).
body(r_fr25_5,fr18_a1).
body(r_fr25_5,fr25_c1).
body(r_fr25_5,fr25_e2).
body(r_fr25_5,fr25_f2).
body(r_fr25_5,fr25_s2).
head(r_fr25_6,fr25_z2).
body(r_fr25_6,fr25_a3).
body(r_fr25_6,fr25_b1).
head(r_fr25_7,fr25_z2).
body(r_fr25_7,fr25_a3).
body(r_fr25_7,fr25_c3).
body(r_fr25_7,fr17_e1).
body(r_fr25_7,fr25_f1).
body(r_fr25_7,fr25_r1).
body(r_fr25_7,fr16_p2).
head(r_fr25_8,fr25_z2).
body(r_fr25_8,fr25_b2).
body(r_fr25_8,fr25_b3).
body(r_fr25_8,fr17_e1).
body(r_fr25_8,fr25_f2).
body(r_fr25_8,fr25_p2).
head(r_fr25_9,fr25_z2).
body(r_fr25_9,fr3_b3).
head(r_fr25_10,fr25_z2).
body(r_fr25_10,fr14_u1).
head(r_fr25_11,fr25_z2).
body(r_fr25_11,fr3_b3).
body(r_fr25_11,fr25_b3).
body(r_fr25_11,fr25_c1).
body(r_fr25_11,fr25_t1).
body(r_fr25_11,fr25_w1).
head(r_fr25_12,fr25_z2).
body(r_fr25_12,fr3_b3).
body(r_fr25_12,fr25_a3).
body(r_fr25_12,fr25_c1).
body(r_fr25_12,fr25_e2).
body(r_fr25_12,fr25_f1).
head(r_fr25_13,fr25_z2).
body(r_fr25_13,fr25_f1).
body(r_fr25_13,fr25_w2).
head(r_fr25_14,fr25_z2).
body(r_fr25_14,fr25_r1).
body(r_fr25_14,fr25_u1).
body(r_fr25_14,fr25_w1).
body(r_fr25_14,fr25_x2).
body(r_fr25_14,fr25_y1).
head(r_fr25_15,fr25_z2).
body(r_fr25_15,fr25_b2).
body(r_fr25_15,fr25_r2).
body(r_fr25_15,fr25_u1).
body(r_fr25_15,fr25_w2).
body(r_fr25_15,fr23_x4).
head(r_fr25_16,fr25_z2).
body(r_fr25_16,fr25_a3).
body(r_fr25_16,fr25_c1).
body(r_fr25_16,fr14_u1).
body(r_fr25_16,fr23_x4).
body(r_fr25_16,fr25_z1).
head(r_fr25_17,fr25_z2).
head(r_fr25_18,fr25_z2).
body(r_fr25_18,fr25_a3).
body(r_fr25_18,fr25_f1).
head(r_fr25_19,fr25_z2).
body(r_fr25_19,fr25_c3).
body(r_fr25_19,fr25_f1).
body(r_fr25_19,fr25_q1).
body(r_fr25_19,fr25_y1).
head(r_fr25_20,fr25_z2).
body(r_fr25_20,fr14_u1).
body(r_fr25_20,fr23_x4).
body(r_fr25_20,fr25_v2).
body(r_fr25_20,fr25_z1).
head(r_fr25_21,fr25_z2).
body(r_fr25_21,fr25_f1).
body(r_fr25_21,fr25_p2).
body(r_fr25_21,fr25_r1).
head(r_fr25_22,fr25_z2).
body(r_fr25_22,fr25_b1).
body(r_fr25_22,fr17_e1).
body(r_fr25_22,fr25_p2).
body(r_fr25_22,fr23_x4).
head(r_fr25_23,fr25_s2).
body(r_fr25_23,fr25_a3).
body(r_fr25_23,fr25_b3).
body(r_fr25_23,fr25_c3).
body(r_fr25_23,fr17_e1).
body(r_fr25_23,fr25_c1).
head(r_fr25_24,fr25_s2).
body(r_fr25_24,fr3_b3).
body(r_fr25_24,fr18_a1).
body(r_fr25_24,fr25_b3).
body(r_fr25_24,fr17_e1).
head(r_fr25_25,fr25_s2).
body(r_fr25_25,fr17_y1).
body(r_fr25_25,fr25_x1).
body(r_fr25_25,fr25_z1).
head(r_fr25_26,fr25_s2).
body(r_fr25_26,fr25_c1).
body(r_fr25_26,fr16_p2).
head(r_fr25_27,fr25_s2).
body(r_fr25_27,fr25_c1).
body(r_fr25_27,fr4_a1).
body(r_fr25_27,fr23_x4).
body(r_fr25_27,fr25_t1).
body(r_fr25_27,fr25_u1).
body(r_fr25_27,fr23_x4).
head(r_fr25_28,fr25_s2).
body(r_fr25_28,fr25_a3).
body(r_fr25_28,fr25_e2).
body(r_fr25_28,fr25_f2).
head(r_fr25_29,fr25_s2).
body(r_fr25_29,fr3_b3).
body(r_fr25_29,fr18_a1).
body(r_fr25_29,fr25_c1).
body(r_fr25_29,fr25_r2).
body(r_fr25_29,fr23_x4).
head(r_fr25_30,fr25_s2).
head(r_fr25_31,fr25_s2).
body(r_fr25_31,fr25_a3).
body(r_fr25_31,fr25_b3).
body(r_fr25_31,fr25_c2).
body(r_fr25_31,fr25_c3).
body(r_fr25_31,fr25_f2).
body(r_fr25_31,fr25_r2).
head(r_fr25_32,fr25_s2).
body(r_fr25_32,fr3_b3).
body(r_fr25_32,fr25_a3).
body(r_fr25_32,fr25_c2).
body(r_fr25_32,fr25_c1).
body(r_fr25_32,fr25_f2).
body(r_fr25_32,fr16_p2).
head(r_fr25_33,fr25_s2).
body(r_fr25_33,fr3_b3).
body(r_fr25_33,fr25_b1).
body(r_fr25_33,fr25_w2).
head(r_fr25_34,fr25_s2).
body(r_fr25_34,fr25_c1).
body(r_fr25_34,fr25_r2).
body(r_fr25_34,fr25_t1).
head(r_fr25_35,fr25_s2).
body(r_fr25_35,fr25_q3).
body(r_fr25_35,fr25_u1).
head(r_fr25_36,fr25_s2).
body(r_fr25_36,fr25_e2).
body(r_fr25_36,fr25_p2).
body(r_fr25_36,fr25_u1).
head(r_fr25_37,fr25_s2).
body(r_fr25_37,fr25_e2).
head(r_fr25_38,fr25_s2).
body(r_fr25_38,fr25_c1).
body(r_fr25_38,fr25_c3).
body(r_fr25_38,fr17_e1).
body(r_fr25_38,fr25_f2).
head(r_fr25_39,fr25_s2).
body(r_fr25_39,fr25_b3).
head(r_fr25_40,fr25_s2).
body(r_fr25_40,fr18_a1).
body(r_fr25_40,fr25_b3).
head(r_fr25_41,fr25_s2).
body(r_fr25_41,fr25_b1).
head(r_fr25_42,fr25_s2).
body(r_fr25_42,fr25_c3).
body(r_fr25_42,fr25_u1).
head(r_fr25_43,fr25_s2).
body(r_fr25_43,fr4_a1).
head(r_fr25_44,fr25_w1).
body(r_fr25_44,fr3_b3).
body(r_fr25_44,fr25_q2).
body(r_fr25_44,fr25_u2).
body(r_fr25_44,fr25_x1).
body(r_fr25_44,fr25_y1).
body(r_fr25_44,fr25_z1).
head(r_fr25_45,fr25_w1).
body(r_fr25_45,fr3_b3).
body(r_fr25_45,fr25_a3).
body(r_fr25_45,fr4_a1).
body(r_fr25_45,fr25_e2).
body(r_fr25_45,fr25_s2).
head(r_fr25_46,fr25_w1).
body(r_fr25_46,fr25_u1).
head(r_fr25_47,fr25_w1).
body(r_fr25_47,fr25_c2).
body(r_fr25_47,fr4_a1).
body(r_fr25_47,fr25_e2).
head(r_fr25_48,fr25_w1).
body(r_fr25_48,fr25_f1).
head(r_fr25_49,fr25_w1).
body(r_fr25_49,fr17_e1).
body(r_fr25_49,fr25_c1).
body(r_fr25_49,fr25_p3).
body(r_fr25_49,fr25_r2).
body(r_fr25_49,fr23_x4).
head(r_fr25_50,fr25_w1).
body(r_fr25_50,fr25_b1).
body(r_fr25_50,fr25_c1).
body(r_fr25_50,fr25_z1).
head(r_fr25_51,fr25_w1).
body(r_fr25_51,fr3_b3).
body(r_fr25_51,fr25_b2).
body(r_fr25_51,fr4_a1).
body(r_fr25_51,fr16_p2).
head(r_fr25_52,fr25_w1).
body(r_fr25_52,fr3_b3).
body(r_fr25_52,fr18_a1).
body(r_fr25_52,fr25_b1).
body(r_fr25_52,fr25_c3).
body(r_fr25_52,fr25_c1).
body(r_fr25_52,fr25_e2).
head(r_fr25_53,fr25_w1).
body(r_fr25_53,fr3_b3).
body(r_fr25_53,fr25_b2).
body(r_fr25_53,fr25_b3).
body(r_fr25_53,fr25_c1).
body(r_fr25_53,fr25_x1).
body(r_fr25_53,fr25_x2).
head(r_fr25_54,fr25_w1).
body(r_fr25_54,fr25_b2).
body(r_fr25_54,fr25_f1).
body(r_fr25_54,fr23_x4).
body(r_fr25_54,fr25_t1).
body(r_fr25_54,fr25_v2).
body(r_fr25_54,fr25_w2).
head(r_fr25_55,fr25_w1).
body(r_fr25_55,fr25_b1).
body(r_fr25_55,fr25_q3).
body(r_fr25_55,fr16_p2).
head(r_fr25_56,fr25_w1).
body(r_fr25_56,fr25_s2).
body(r_fr25_56,fr17_y1).
head(r_fr25_57,fr25_w1).
body(r_fr25_57,fr25_f1).
body(r_fr25_57,fr23_x4).
body(r_fr25_57,fr25_s2).
head(r_fr25_58,fr25_w1).
body(r_fr25_58,fr25_a3).
head(r_fr25_59,fr25_w1).
body(r_fr25_59,fr18_a1).
body(r_fr25_59,fr25_e2).
body(r_fr25_59,fr23_x4).
head(r_fr25_60,fr25_w1).
body(r_fr25_60,fr25_f2).
head(r_fr25_61,fr25_w1).
body(r_fr25_61,fr25_a3).
body(r_fr25_61,fr25_b3).
body(r_fr25_61,fr25_c1).
body(r_fr25_61,fr25_c3).
body(r_fr25_61,fr25_e2).
body(r_fr25_61,fr25_f2).
head(r_fr25_62,fr25_w1).
body(r_fr25_62,fr25_a3).
body(r_fr25_62,fr25_b2).
body(r_fr25_62,fr25_p2).
body(r_fr25_62,fr25_r2).
body(r_fr25_62,fr16_p2).
head(r_fr25_63,fr25_w1).
body(r_fr25_63,fr25_f1).
body(r_fr25_63,fr25_p2).
body(r_fr25_63,fr25_s2).
body(r_fr25_63,fr25_x1).
head(r_fr25_64,fr25_w1).
head(r_fr25_65,fr25_r1).
body(r_fr25_65,fr25_b2).
body(r_fr25_65,fr17_e1).
body(r_fr25_65,fr25_e2).
head(r_fr25_66,fr25_r1).
body(r_fr25_66,fr25_c1).
body(r_fr25_66,fr17_e1).
body(r_fr25_66,fr16_p2).
body(r_fr25_66,fr25_t1).
body(r_fr25_66,fr25_v2).
head(r_fr25_67,fr25_r1).
body(r_fr25_67,fr3_b3).
body(r_fr25_67,fr25_b1).
body(r_fr25_67,fr25_p3).
body(r_fr25_67,fr25_t1).
body(r_fr25_67,fr25_s2).
head(r_fr25_68,fr25_r1).
body(r_fr25_68,fr25_q1).
body(r_fr25_68,fr25_q2).
body(r_fr25_68,fr17_y1).
head(r_fr25_69,fr25_r1).
body(r_fr25_69,fr18_a1).
body(r_fr25_69,fr4_a1).
body(r_fr25_69,fr25_q3).
head(r_fr25_70,fr25_r1).
body(r_fr25_70,fr25_a3).
body(r_fr25_70,fr25_b2).
body(r_fr25_70,fr25_f1).
body(r_fr25_70,fr25_f2).
head(r_fr25_71,fr25_r1).
body(r_fr25_71,fr25_r2).
body(r_fr25_71,fr23_x4).
body(r_fr25_71,fr25_t1).
body(r_fr25_71,fr25_u2).
body(r_fr25_71,fr25_v2).
body(r_fr25_71,fr25_y1).
head(r_fr25_72,fr25_r1).
body(r_fr25_72,fr25_e2).
body(r_fr25_72,fr25_q1).
head(r_fr25_73,fr25_r1).
body(r_fr25_73,fr16_p2).
body(r_fr25_73,fr25_z1).
head(r_fr25_74,fr25_r1).
body(r_fr25_74,fr3_b3).
body(r_fr25_74,fr25_b2).
body(r_fr25_74,fr25_x1).
body(r_fr25_74,fr23_x4).
head(r_fr25_75,fr25_r1).
body(r_fr25_75,fr18_a1).
body(r_fr25_75,fr25_c3).
body(r_fr25_75,fr17_y1).
head(r_fr25_76,fr25_r1).
body(r_fr25_76,fr25_a3).
body(r_fr25_76,fr25_t1).
body(r_fr25_76,fr25_s2).
head(r_fr25_77,fr25_r1).
body(r_fr25_77,fr25_p2).
body(r_fr25_77,fr25_q2).
body(r_fr25_77,fr16_p2).
body(r_fr25_77,fr17_y1).
body(r_fr25_77,fr25_y1).
head(r_fr25_78,fr25_r1).
body(r_fr25_78,fr25_r2).
head(r_fr25_79,fr25_r1).
body(r_fr25_79,fr25_s2).
head(r_fr25_80,fr25_r1).
body(r_fr25_80,fr25_q2).
body(r_fr25_80,fr17_y1).
head(r_fr25_81,fr25_r1).
body(r_fr25_81,fr14_u1).
body(r_fr25_81,fr25_p3).
body(r_fr25_81,fr16_p2).
body(r_fr25_81,fr25_z2).
head(r_fr25_82,fr25_r1).
body(r_fr25_82,fr25_b2).
body(r_fr25_82,fr25_c1).
head(r_fr25_83,fr25_r1).
body(r_fr25_83,fr25_a3).
body(r_fr25_83,fr25_c3).
body(r_fr25_83,fr4_a1).
body(r_fr25_83,fr25_p2).
body(r_fr25_83,fr25_u1).
body(r_fr25_83,fr23_x4).
head(r_fr25_84,fr25_r1).
head(r_fr25_85,fr25_p2).
body(r_fr25_85,fr25_e2).
body(r_fr25_85,fr25_f2).
body(r_fr25_85,fr25_z2).
head(r_fr25_86,fr25_p2).
body(r_fr25_86,fr25_a3).
body(r_fr25_86,fr25_b3).
body(r_fr25_86,fr25_c1).
body(r_fr25_86,fr25_e2).
body(r_fr25_86,fr25_u1).
body(r_fr25_86,fr25_z1).
head(r_fr25_87,fr25_p2).
body(r_fr25_87,fr3_b3).
body(r_fr25_87,fr25_b3).
body(r_fr25_87,fr25_s2).
head(r_fr25_88,fr25_p2).
body(r_fr25_88,fr18_a1).
body(r_fr25_88,fr25_u2).
head(r_fr25_89,fr25_p2).
body(r_fr25_89,fr25_a3).
body(r_fr25_89,fr25_c1).
body(r_fr25_89,fr17_e1).
body(r_fr25_89,fr25_f1).
body(r_fr25_89,fr25_q2).
body(r_fr25_89,fr25_r2).
head(r_fr25_90,fr25_p2).
body(r_fr25_90,fr25_a3).
body(r_fr25_90,fr25_c2).
body(r_fr25_90,fr25_e2).
body(r_fr25_90,fr25_q3).
body(r_fr25_90,fr25_u2).
body(r_fr25_90,fr25_x2).
head(r_fr25_91,fr25_p2).
body(r_fr25_91,fr3_b3).
body(r_fr25_91,fr18_a1).
body(r_fr25_91,fr25_f1).
body(r_fr25_91,fr14_u1).
body(r_fr25_91,fr25_q3).
body(r_fr25_91,fr25_w2).
head(r_fr25_92,fr25_p2).
body(r_fr25_92,fr23_x4).
body(r_fr25_92,fr25_t1).
body(r_fr25_92,fr25_u1).
body(r_fr25_92,fr25_x2).
body(r_fr25_92,fr25_y1).
head(r_fr25_93,fr25_p2).
body(r_fr25_93,fr18_a1).
body(r_fr25_93,fr25_b1).
body(r_fr25_93,fr25_b3).
body(r_fr25_93,fr25_c1).
body(r_fr25_93,fr25_f1).
body(r_fr25_93,fr25_f2).
head(r_fr25_94,fr25_p2).
body(r_fr25_94,fr25_c1).
body(r_fr25_94,fr25_q1).
body(r_fr25_94,fr25_s2).
body(r_fr25_94,fr25_u2).
body(r_fr25_94,fr17_y1).
body(r_fr25_94,fr25_w1).
head(r_fr25_95,fr25_p2).
body(r_fr25_95,fr25_f1).
body(r_fr25_95,fr25_v2).
head(r_fr25_96,fr25_p2).
body(r_fr25_96,fr25_f1).
body(r_fr25_96,fr25_q3).
body(r_fr25_96,fr25_s2).
body(r_fr25_96,fr25_v2).
head(r_fr25_97,fr25_p2).
body(r_fr25_97,fr25_t1).
body(r_fr25_97,fr25_v2).
body(r_fr25_97,fr25_y1).
head(r_fr25_98,fr25_p2).
body(r_fr25_98,fr4_a1).
body(r_fr25_98,fr25_q1).
body(r_fr25_98,fr25_q3).
body(r_fr25_98,fr25_z2).
head(r_fr25_99,fr25_p2).
body(r_fr25_99,fr25_p3).
body(r_fr25_99,fr25_q1).
body(r_fr25_99,fr25_r2).
body(r_fr25_99,fr25_z1).
head(r_fr25_100,fr25_p2).
body(r_fr25_100,fr25_b3).
body(r_fr25_100,fr4_a1).
body(r_fr25_100,fr25_e2).
body(r_fr25_100,fr25_v2).
head(r_fr25_101,fr25_p2).
body(r_fr25_101,fr25_r1).
body(r_fr25_101,fr25_x1).
head(r_fr25_102,fr25_p2).
body(r_fr25_102,fr25_q3).
body(r_fr25_102,fr25_r2).
body(r_fr25_102,fr23_x4).
body(r_fr25_102,fr25_s2).
head(r_fr25_103,fr25_p2).
head(r_fr25_104,fr25_p2).
body(r_fr25_104,fr25_f2).
head(r_fr25_105,fr25_p2).
body(r_fr25_105,fr25_c1).
body(r_fr25_105,fr16_p2).
head(r_fr25_106,fr25_w2).
body(r_fr25_106,fr25_a3).
head(r_fr25_107,fr25_w2).
body(r_fr25_107,fr25_c1).
body(r_fr25_107,fr25_q2).
body(r_fr25_107,fr25_q3).
body(r_fr25_107,fr23_x4).
body(r_fr25_107,fr17_y1).
head(r_fr25_108,fr25_w2).
body(r_fr25_108,fr3_b3).
body(r_fr25_108,fr25_b1).
body(r_fr25_108,fr25_b2).
body(r_fr25_108,fr25_c1).
body(r_fr25_108,fr25_w1).
head(r_fr25_109,fr25_w2).
body(r_fr25_109,fr4_a1).
body(r_fr25_109,fr25_q3).
body(r_fr25_109,fr16_p2).
head(r_fr25_110,fr25_w2).
body(r_fr25_110,fr4_a1).
head(r_fr25_111,fr25_w2).
body(r_fr25_111,fr25_p2).
body(r_fr25_111,fr25_p3).
body(r_fr25_111,fr25_s2).
body(r_fr25_111,fr25_z2).
head(r_fr25_112,fr25_w2).
body(r_fr25_112,fr25_q3).
body(r_fr25_112,fr25_w1).
head(r_fr25_113,fr25_w2).
body(r_fr25_113,fr25_c1).
head(r_fr25_114,fr25_w2).
body(r_fr25_114,fr25_r1).
body(r_fr25_114,fr25_u1).
body(r_fr25_114,fr17_y1).
body(r_fr25_114,fr25_v2).
head(r_fr25_115,fr25_w2).
body(r_fr25_115,fr25_b2).
body(r_fr25_115,fr25_c1).
body(r_fr25_115,fr25_v2).
head(r_fr25_116,fr25_w2).
body(r_fr25_116,fr25_c1).
body(r_fr25_116,fr25_s2).
body(r_fr25_116,fr25_z2).
head(r_fr25_117,fr25_w2).
body(r_fr25_117,fr25_a3).
body(r_fr25_117,fr25_c2).
body(r_fr25_117,fr25_c3).
body(r_fr25_117,fr25_f2).
head(r_fr25_118,fr25_w2).
body(r_fr25_118,fr25_c1).
body(r_fr25_118,fr25_c2).
body(r_fr25_118,fr25_e2).
body(r_fr25_118,fr25_f2).
head(r_fr25_119,fr25_w2).
body(r_fr25_119,fr25_t1).
head(r_fr25_120,fr25_w2).
body(r_fr25_120,fr25_p2).
body(r_fr25_120,fr25_w1).
head(r_fr25_121,fr25_w2).
body(r_fr25_121,fr3_b3).
body(r_fr25_121,fr18_a1).
body(r_fr25_121,fr25_f2).
head(r_fr25_122,fr25_w2).
body(r_fr25_122,fr25_f1).
head(r_fr25_123,fr25_w2).
body(r_fr25_123,fr3_b3).
body(r_fr25_123,fr25_f1).
body(r_fr25_123,fr25_f2).
head(r_fr25_124,fr25_w2).
head(r_fr25_125,fr25_w2).
body(r_fr25_125,fr25_b3).
head(r_fr25_126,fr25_w2).
body(r_fr25_126,fr25_b3).
body(r_fr25_126,fr25_x1).
head(r_fr25_127,fr25_w2).
body(r_fr25_127,fr3_b3).
body(r_fr25_127,fr25_a3).
body(r_fr25_127,fr25_c2).
body(r_fr25_127,fr25_c1).
head(r_fr25_128,fr25_w2).
body(r_fr25_128,fr18_a1).
body(r_fr25_128,fr25_s2).
body(r_fr25_128,fr25_u1).
body(r_fr25_128,fr25_w1).
head(r_fr25_129,fr25_z1).
body(r_fr25_129,fr18_a1).
head(r_fr25_130,fr25_z1).
body(r_fr25_130,fr25_b1).
body(r_fr25_130,fr25_u1).
body(r_fr25_130,fr25_y1).
head(r_fr25_131,fr25_z1).
body(r_fr25_131,fr14_u1).
head(r_fr25_132,fr25_z1).
body(r_fr25_132,fr25_q2).
head(r_fr25_133,fr25_z1).
body(r_fr25_133,fr25_a3).
head(r_fr25_134,fr25_z1).
body(r_fr25_134,fr18_a1).
body(r_fr25_134,fr25_b3).
body(r_fr25_134,fr25_c2).
body(r_fr25_134,fr25_c3).
head(r_fr25_135,fr25_z1).
body(r_fr25_135,fr25_b1).
body(r_fr25_135,fr25_c2).
body(r_fr25_135,fr25_e2).
body(r_fr25_135,fr14_u1).
body(r_fr25_135,fr25_q2).
body(r_fr25_135,fr25_t1).
head(r_fr25_136,fr25_z1).
body(r_fr25_136,fr23_x4).
body(r_fr25_136,fr25_x1).
head(r_fr25_137,fr25_z1).
body(r_fr25_137,fr17_y1).
body(r_fr25_137,fr25_v2).
body(r_fr25_137,fr25_w2).
head(r_fr25_138,fr25_z1).
body(r_fr25_138,fr25_a3).
body(r_fr25_138,fr25_b3).
body(r_fr25_138,fr25_q1).
body(r_fr25_138,fr25_r2).
body(r_fr25_138,fr25_x2).
body(r_fr25_138,fr25_y1).
head(r_fr25_139,fr25_z1).
body(r_fr25_139,fr25_f1).
head(r_fr25_140,fr25_z1).
body(r_fr25_140,fr16_p2).
head(r_fr25_141,fr25_z1).
head(r_fr25_142,fr25_z1).
body(r_fr25_142,fr25_c1).
body(r_fr25_142,fr23_x4).
body(r_fr25_142,fr25_u1).
body(r_fr25_142,fr25_y1).
body(r_fr25_142,fr23_x4).
head(r_fr25_143,fr25_z1).
body(r_fr25_143,fr18_a1).
body(r_fr25_143,fr25_b1).
body(r_fr25_143,fr25_b2).
body(r_fr25_143,fr25_c1).
body(r_fr25_143,fr25_c2).
body(r_fr25_143,fr17_e1).
head(r_fr25_144,fr25_z1).
body(r_fr25_144,fr3_b3).
body(r_fr25_144,fr17_e1).
body(r_fr25_144,fr25_p3).
body(r_fr25_144,fr25_q2).
body(r_fr25_144,fr25_q3).
head(r_fr25_145,fr25_z1).
body(r_fr25_145,fr25_b3).
head(r_fr25_146,fr25_z1).
body(r_fr25_146,fr3_b3).
body(r_fr25_146,fr25_c3).
body(r_fr25_146,fr17_e1).
body(r_fr25_146,fr25_c1).
body(r_fr25_146,fr25_u2).
head(r_fr25_147,fr25_z1).
body(r_fr25_147,fr25_u2).
head(r_fr25_148,fr25_z1).
body(r_fr25_148,fr25_b2).
body(r_fr25_148,fr25_w1).
head(r_fr25_149,fr14_u1).
body(r_fr25_149,fr17_e1).
body(r_fr25_149,fr25_f2).
body(r_fr25_149,fr16_p2).
body(r_fr25_149,fr25_x1).
head(r_fr25_150,fr14_u1).
body(r_fr25_150,fr25_q1).
body(r_fr25_150,fr25_u1).
body(r_fr25_150,fr25_w2).
head(r_fr25_151,fr14_u1).
body(r_fr25_151,fr25_b3).
head(r_fr25_152,fr14_u1).
body(r_fr25_152,fr3_b3).
body(r_fr25_152,fr25_b3).
body(r_fr25_152,fr25_c3).
body(r_fr25_152,fr25_w1).
body(r_fr25_152,fr25_w2).
body(r_fr25_152,fr25_z1).
head(r_fr25_153,fr14_u1).
body(r_fr25_153,fr3_b3).
body(r_fr25_153,fr25_b2).
body(r_fr25_153,fr25_c2).
body(r_fr25_153,fr17_e1).
body(r_fr25_153,fr4_a1).
head(r_fr25_154,fr14_u1).
body(r_fr25_154,fr25_b3).
body(r_fr25_154,fr25_p2).
body(r_fr25_154,fr25_q3).
body(r_fr25_154,fr25_s2).
head(r_fr25_155,fr14_u1).
body(r_fr25_155,fr3_b3).
body(r_fr25_155,fr25_z1).
head(r_fr25_156,fr14_u1).
body(r_fr25_156,fr18_a1).
body(r_fr25_156,fr25_t1).
head(r_fr25_157,fr14_u1).
body(r_fr25_157,fr3_b3).
body(r_fr25_157,fr25_b2).
body(r_fr25_157,fr25_e2).
body(r_fr25_157,fr25_p3).
body(r_fr25_157,fr25_r2).
head(r_fr25_158,fr14_u1).
body(r_fr25_158,fr18_a1).
head(r_fr25_159,fr14_u1).
body(r_fr25_159,fr25_s2).
head(r_fr25_160,fr14_u1).
body(r_fr25_160,fr4_a1).
body(r_fr25_160,fr25_c1).
body(r_fr25_160,fr25_f1).
body(r_fr25_160,fr25_u1).
body(r_fr25_160,fr25_u2).
head(r_fr25_161,fr14_u1).
body(r_fr25_161,fr25_q2).
body(r_fr25_161,fr25_q3).
head(r_fr25_162,fr14_u1).
body(r_fr25_162,fr25_w1).
head(r_fr25_163,fr14_u1).
body(r_fr25_163,fr3_b3).
body(r_fr25_163,fr25_b1).
body(r_fr25_163,fr25_c1).
body(r_fr25_163,fr25_f1).
head(r_fr25_164,fr14_u1).
body(r_fr25_164,fr25_b2).
body(r_fr25_164,fr25_s2).
head(r_fr25_165,fr14_u1).
body(r_fr25_165,fr25_b2).
body(r_fr25_165,fr25_b3).
body(r_fr25_165,fr25_r2).
body(r_fr25_165,fr25_u1).
head(r_fr25_166,fr14_u1).
body(r_fr25_166,fr25_b1).
body(r_fr25_166,fr25_s2).
body(r_fr25_166,fr17_y1).
body(r_fr25_166,fr25_x1).
head(r_fr25_167,fr14_u1).
body(r_fr25_167,fr25_t1).
body(r_fr25_167,fr25_s2).
head(r_fr25_168,fr14_u1).
body(r_fr25_168,fr25_f1).
body(r_fr25_168,fr25_q3).
body(r_fr25_168,fr25_r2).
head(r_fr25_169,fr14_u1).
body(r_fr25_169,fr25_e2).
body(r_fr25_169,fr25_f1).
body(r_fr25_169,fr25_q3).
body(r_fr25_169,fr25_u1).
body(r_fr25_169,fr25_w2).
body(r_fr25_169,fr25_x1).
head(r_fr25_170,fr14_u1).
head(r_fr25_171,fr14_u1).
body(r_fr25_171,fr17_e1).
body(r_fr25_171,fr25_e2).
head(r_fr25_172,fr25_s2).
body(r_fr25_172,fr25_q3).
body(r_fr25_172,fr25_s2).
head(r_fr25_173,fr25_s2).
body(r_fr25_173,fr14_u1).
body(r_fr25_173,fr25_q2).
body(r_fr25_173,fr25_t1).
body(r_fr25_173,fr25_s2).
body(r_fr25_173,fr25_w2).
head(r_fr25_174,fr25_s2).
body(r_fr25_174,fr25_c1).
body(r_fr25_174,fr16_p2).
body(r_fr25_174,fr25_t1).
body(r_fr25_174,fr25_z2).
head(r_fr25_175,fr25_s2).
body(r_fr25_175,fr4_a1).
head(r_fr25_176,fr25_s2).
body(r_fr25_176,fr25_z1).
head(r_fr25_177,fr25_s2).
body(r_fr25_177,fr25_b3).
body(r_fr25_177,fr25_f2).
body(r_fr25_177,fr25_t1).
body(r_fr25_177,fr17_y1).
body(r_fr25_177,fr23_x4).
head(r_fr25_178,fr25_s2).
body(r_fr25_178,fr25_c3).
body(r_fr25_178,fr17_e1).
body(r_fr25_178,fr4_a1).
body(r_fr25_178,fr25_c1).
body(r_fr25_178,fr25_f2).
body(r_fr25_178,fr25_x2).
head(r_fr25_179,fr25_s2).
body(r_fr25_179,fr3_b3).
body(r_fr25_179,fr17_e1).
head(r_fr25_180,fr25_s2).
body(r_fr25_180,fr25_b3).
body(r_fr25_180,fr25_c3).
body(r_fr25_180,fr14_u1).
body(r_fr25_180,fr25_r1).
body(r_fr25_180,fr23_x4).
body(r_fr25_180,fr25_u1).
head(r_fr25_181,fr25_s2).
body(r_fr25_181,fr25_a3).
body(r_fr25_181,fr25_e2).
body(r_fr25_181,fr25_r2).
body(r_fr25_181,fr23_x4).
body(r_fr25_181,fr25_u1).
body(r_fr25_181,fr25_x1).
head(r_fr25_182,fr25_s2).
body(r_fr25_182,fr25_b1).
body(r_fr25_182,fr4_a1).
body(r_fr25_182,fr25_f1).
head(r_fr25_183,fr25_s2).
body(r_fr25_183,fr25_b2).
body(r_fr25_183,fr25_c1).
body(r_fr25_183,fr25_q2).
body(r_fr25_183,fr25_s2).
body(r_fr25_183,fr25_z1).
head(r_fr25_184,fr25_s2).
body(r_fr25_184,fr16_p2).
body(r_fr25_184,fr25_w1).
body(r_fr25_184,fr23_x4).
head(r_fr25_185,fr25_s2).
body(r_fr25_185,fr25_b1).
body(r_fr25_185,fr25_t1).
body(r_fr25_185,fr23_x4).
head(r_fr25_186,fr25_s2).
body(r_fr25_186,fr14_u1).
body(r_fr25_186,fr25_r1).
body(r_fr25_186,fr16_p2).
body(r_fr25_186,fr25_s2).
body(r_fr25_186,fr25_w1).
head(r_fr25_187,fr25_s2).
body(r_fr25_187,fr25_c3).
body(r_fr25_187,fr25_c1).
head(r_fr25_188,fr25_s2).
body(r_fr25_188,fr25_t1).
head(r_fr25_189,fr25_s2).
body(r_fr25_189,fr25_b1).
body(r_fr25_189,fr25_b2).
body(r_fr25_189,fr25_z1).
head(r_fr25_190,fr25_s2).
body(r_fr25_190,fr25_c2).
body(r_fr25_190,fr4_a1).
body(r_fr25_190,fr25_s2).
head(r_fr25_191,fr25_s2).
body(r_fr25_191,fr3_b3).
body(r_fr25_191,fr25_b3).
body(r_fr25_191,fr4_a1).
body(r_fr25_191,fr25_f1).
head(r_fr25_192,fr25_s2).
body(r_fr25_192,fr25_f1).
body(r_fr25_192,fr25_f2).
body(r_fr25_192,fr25_r1).
head(r_fr25_193,fr25_u2).
body(r_fr25_193,fr4_a1).
body(r_fr25_193,fr25_s2).
body(r_fr25_193,fr25_w1).
body(r_fr25_193,fr25_x1).
head(r_fr25_194,fr25_u2).
body(r_fr25_194,fr25_p3).
body(r_fr25_194,fr25_q1).
body(r_fr25_194,fr25_q2).
body(r_fr25_194,fr25_r1).
body(r_fr25_194,fr23_x4).
head(r_fr25_195,fr25_u2).
body(r_fr25_195,fr25_c1).
body(r_fr25_195,fr25_q1).
body(r_fr25_195,fr25_s2).
body(r_fr25_195,fr25_u1).
body(r_fr25_195,fr25_x2).
head(r_fr25_196,fr25_u2).
body(r_fr25_196,fr16_p2).
body(r_fr25_196,fr25_z1).
head(r_fr25_197,fr25_u2).
body(r_fr25_197,fr3_b3).
body(r_fr25_197,fr25_a3).
body(r_fr25_197,fr25_b2).
body(r_fr25_197,fr25_c3).
body(r_fr25_197,fr25_e2).
body(r_fr25_197,fr25_f2).
head(r_fr25_198,fr25_u2).
body(r_fr25_198,fr25_c3).
body(r_fr25_198,fr4_a1).
body(r_fr25_198,fr25_p3).
body(r_fr25_198,fr16_p2).
body(r_fr25_198,fr25_s2).
head(r_fr25_199,fr25_u2).
body(r_fr25_199,fr25_a3).
body(r_fr25_199,fr25_b3).
body(r_fr25_199,fr17_e1).
body(r_fr25_199,fr25_r1).
body(r_fr25_199,fr25_v2).
body(r_fr25_199,fr25_z1).
head(r_fr25_200,fr25_u2).
body(r_fr25_200,fr3_b3).
body(r_fr25_200,fr25_b1).
body(r_fr25_200,fr25_c1).
head(r_fr25_201,fr25_u2).
body(r_fr25_201,fr18_a1).
head(r_fr25_202,fr25_u2).
head(r_fr25_203,fr25_u2).
body(r_fr25_203,fr25_c1).
body(r_fr25_203,fr25_e2).
body(r_fr25_203,fr25_q1).
body(r_fr25_203,fr17_y1).
body(r_fr25_203,fr23_x4).
head(r_fr25_204,fr25_u2).
body(r_fr25_204,fr25_a3).
body(r_fr25_204,fr25_c1).
body(r_fr25_204,fr25_f2).
head(r_fr25_205,fr25_u2).
body(r_fr25_205,fr17_y1).
head(r_fr25_206,fr25_u2).
body(r_fr25_206,fr3_b3).
body(r_fr25_206,fr25_a3).
body(r_fr25_206,fr25_b2).
body(r_fr25_206,fr25_c1).
body(r_fr25_206,fr25_c3).
body(r_fr25_206,fr25_q2).
head(r_fr25_207,fr25_u2).
body(r_fr25_207,fr3_b3).
body(r_fr25_207,fr25_c1).
body(r_fr25_207,fr25_c2).
body(r_fr25_207,fr17_e1).
body(r_fr25_207,fr25_q1).
head(r_fr25_208,fr25_u2).
body(r_fr25_208,fr14_u1).
body(r_fr25_208,fr25_r1).
body(r_fr25_208,fr25_r2).
body(r_fr25_208,fr25_x1).
head(r_fr25_209,fr25_u2).
body(r_fr25_209,fr25_c2).
body(r_fr25_209,fr25_c3).
body(r_fr25_209,fr25_r1).
head(r_fr25_210,fr25_u2).
body(r_fr25_210,fr3_b3).
body(r_fr25_210,fr25_b1).
body(r_fr25_210,fr25_b3).
body(r_fr25_210,fr25_r1).
body(r_fr25_210,fr25_z1).
body(r_fr25_210,fr25_z2).
head(r_fr25_211,fr25_u2).
body(r_fr25_211,fr25_a3).
body(r_fr25_211,fr25_c1).
body(r_fr25_211,fr25_c2).
body(r_fr25_211,fr17_e1).
body(r_fr25_211,fr25_s2).
head(r_fr25_212,fr25_u2).
body(r_fr25_212,fr25_e2).
body(r_fr25_212,fr25_f2).
head(r_fr25_213,fr25_u2).
body(r_fr25_213,fr25_b3).
body(r_fr25_213,fr4_a1).
body(r_fr25_213,fr25_q3).
body(r_fr25_213,fr23_x4).
head(r_fr25_214,fr25_u2).
body(r_fr25_214,fr25_b3).
body(r_fr25_214,fr25_f2).
head(r_fr25_215,fr25_u2).
body(r_fr25_215,fr3_b3).
body(r_fr25_215,fr25_b1).
body(r_fr25_215,fr25_b2).
body(r_fr25_215,fr25_f1).
body(r_fr25_215,fr25_u1).
body(r_fr25_215,fr25_w1).
head(r_fr25_216,fr25_x2).
body(r_fr25_216,fr17_e1).
body(r_fr25_216,fr25_p3).
head(r_fr25_217,fr25_x2).
body(r_fr25_217,fr25_f2).
body(r_fr25_217,fr25_s2).
head(r_fr25_218,fr25_x2).
body(r_fr25_218,fr18_a1).
body(r_fr25_218,fr25_c2).
body(r_fr25_218,fr25_c3).
body(r_fr25_218,fr25_q2).
body(r_fr25_218,fr25_z2).
head(r_fr25_219,fr25_x2).
body(r_fr25_219,fr25_c1).
body(r_fr25_219,fr25_c3).
body(r_fr25_219,fr4_a1).
body(r_fr25_219,fr25_e2).
body(r_fr25_219,fr25_f2).
head(r_fr25_220,fr25_x2).
body(r_fr25_220,fr25_u1).
head(r_fr25_221,fr25_x2).
body(r_fr25_221,fr25_b3).
body(r_fr25_221,fr25_c1).
body(r_fr25_221,fr17_y1).
head(r_fr25_222,fr25_x2).
body(r_fr25_222,fr25_c3).
body(r_fr25_222,fr25_r1).
head(r_fr25_223,fr25_x2).
body(r_fr25_223,fr25_e2).
body(r_fr25_223,fr16_p2).
body(r_fr25_223,fr23_x4).
body(r_fr25_223,fr25_z1).
head(r_fr25_224,fr25_x2).
body(r_fr25_224,fr25_b1).
head(r_fr25_225,fr25_x2).
body(r_fr25_225,fr25_b2).
body(r_fr25_225,fr25_b3).
body(r_fr25_225,fr25_c2).
body(r_fr25_225,fr25_t1).
head(r_fr25_226,fr25_x2).
body(r_fr25_226,fr18_a1).
body(r_fr25_226,fr25_e2).
body(r_fr25_226,fr25_f1).
head(r_fr25_227,fr25_x2).
body(r_fr25_227,fr25_b1).
body(r_fr25_227,fr25_c1).
body(r_fr25_227,fr25_z2).
head(r_fr25_228,fr25_x2).
body(r_fr25_228,fr25_c1).
head(r_fr25_229,fr25_x2).
head(r_fr25_230,fr25_x2).
body(r_fr25_230,fr25_c1).
body(r_fr25_230,fr25_x1).
head(r_fr25_231,fr25_x2).
body(r_fr25_231,fr3_b3).
body(r_fr25_231,fr25_b3).
body(r_fr25_231,fr25_c2).
body(r_fr25_231,fr17_e1).
body(r_fr25_231,fr4_a1).
body(r_fr25_231,fr25_f2).
head(r_fr25_232,fr25_x2).
body(r_fr25_232,fr17_e1).
body(r_fr25_232,fr4_a1).
head(r_fr25_233,fr25_x2).
body(r_fr25_233,fr25_c1).
body(r_fr25_233,fr25_e2).
body(r_fr25_233,fr25_s2).
head(r_fr25_234,fr25_x2).
body(r_fr25_234,fr25_b3).
body(r_fr25_234,fr25_p2).
head(r_fr25_235,fr25_x2).
body(r_fr25_235,fr17_e1).
body(r_fr25_235,fr25_q1).
body(r_fr25_235,fr23_x4).
body(r_fr25_235,fr25_t1).
body(r_fr25_235,fr25_s2).
body(r_fr25_235,fr25_v2).
head(r_fr25_236,fr25_x2).
body(r_fr25_236,fr25_b1).
body(r_fr25_236,fr25_v2).
head(r_fr25_237,fr25_x2).
body(r_fr25_237,fr25_c3).
body(r_fr25_237,fr25_s2).
head(r_fr25_238,fr23_x4).
body(r_fr25_238,fr25_a3).
body(r_fr25_238,fr25_c1).
body(r_fr25_238,fr17_e1).
body(r_fr25_238,fr17_y1).
head(r_fr25_239,fr23_x4).
body(r_fr25_239,fr3_b3).
body(r_fr25_239,fr25_c2).
body(r_fr25_239,fr25_c3).
body(r_fr25_239,fr17_e1).
body(r_fr25_239,fr25_s2).
head(r_fr25_240,fr23_x4).
body(r_fr25_240,fr3_b3).
body(r_fr25_240,fr25_c1).
body(r_fr25_240,fr25_c3).
body(r_fr25_240,fr4_a1).
head(r_fr25_241,fr23_x4).
body(r_fr25_241,fr14_u1).
body(r_fr25_241,fr25_q3).
body(r_fr25_241,fr23_x4).
body(r_fr25_241,fr16_p2).
body(r_fr25_241,fr17_y1).
body(r_fr25_241,fr25_x2).
head(r_fr25_242,fr23_x4).
body(r_fr25_242,fr25_p3).
body(r_fr25_242,fr25_r1).
body(r_fr25_242,fr25_r2).
head(r_fr25_243,fr23_x4).
body(r_fr25_243,fr25_r2).
body(r_fr25_243,fr25_x2).
head(r_fr25_244,fr23_x4).
body(r_fr25_244,fr25_c1).
body(r_fr25_244,fr25_q3).
body(r_fr25_244,fr25_r1).
body(r_fr25_244,fr16_p2).
body(r_fr25_244,fr25_u1).
head(r_fr25_245,fr23_x4).
body(r_fr25_245,fr25_x2).
head(r_fr25_246,fr23_x4).
body(r_fr25_246,fr14_u1).
body(r_fr25_246,fr25_r2).
head(r_fr25_247,fr23_x4).
body(r_fr25_247,fr25_p3).
body(r_fr25_247,fr25_w1).
body(r_fr25_247,fr25_z2).
head(r_fr25_248,fr23_x4).
body(r_fr25_248,fr25_e2).
body(r_fr25_248,fr25_s2).
body(r_fr25_248,fr25_x1).
head(r_fr25_249,fr23_x4).
body(r_fr25_249,fr14_u1).
body(r_fr25_249,fr16_p2).
body(r_fr25_249,fr25_s2).
head(r_fr25_250,fr23_x4).
body(r_fr25_250,fr25_p3).
body(r_fr25_250,fr25_q1).
body(r_fr25_250,fr25_q3).
body(r_fr25_250,fr25_s2).
body(r_fr25_250,fr17_y1).
body(r_fr25_250,fr25_x1).
head(r_fr25_251,fr23_x4).
body(r_fr25_251,fr25_a3).
body(r_fr25_251,fr25_b1).
body(r_fr25_251,fr25_b2).
body(r_fr25_251,fr25_c2).
body(r_fr25_251,fr25_c3).
body(r_fr25_251,fr4_a1).
head(r_fr25_252,fr23_x4).
body(r_fr25_252,fr25_s2).
body(r_fr25_252,fr25_u2).
head(r_fr25_253,fr23_x4).
body(r_fr25_253,fr25_f1).
head(r_fr25_254,fr23_x4).
body(r_fr25_254,fr25_b2).
head(r_fr25_255,fr23_x4).
body(r_fr25_255,fr25_b3).
body(r_fr25_255,fr25_c1).
body(r_fr25_255,fr17_e1).
body(r_fr25_255,fr25_e2).
body(r_fr25_255,fr25_f2).
body(r_fr25_255,fr25_v2).
head(r_fr25_256,fr23_x4).
body(r_fr25_256,fr25_b1).
body(r_fr25_256,fr17_e1).
body(r_fr25_256,fr25_q3).
head(r_fr25_257,fr23_x4).
body(r_fr25_257,fr25_c2).
body(r_fr25_257,fr25_q2).
body(r_fr25_257,fr16_p2).
body(r_fr25_257,fr25_u1).
body(r_fr25_257,fr25_x2).
head(r_fr25_258,fr23_x4).
body(r_fr25_258,fr3_b3).
body(r_fr25_258,fr18_a1).
body(r_fr25_258,fr25_c1).
body(r_fr25_258,fr25_c2).
body(r_fr25_258,fr25_f1).
body(r_fr25_258,fr25_r1).
head(r_fr25_259,fr25_q1).
body(r_fr25_259,fr18_a1).
body(r_fr25_259,fr4_a1).
body(r_fr25_259,fr25_c1).
body(r_fr25_259,fr25_f1).
body(r_fr25_259,fr25_u1).
head(r_fr25_260,fr25_q1).
body(r_fr25_260,fr25_f1).
head(r_fr25_261,fr25_q1).
body(r_fr25_261,fr25_b3).
body(r_fr25_261,fr25_c3).
body(r_fr25_261,fr25_e2).
body(r_fr25_261,fr23_x4).
head(r_fr25_262,fr25_q1).
body(r_fr25_262,fr25_b2).
body(r_fr25_262,fr25_c1).
head(r_fr25_263,fr25_q1).
body(r_fr25_263,fr25_w1).
head(r_fr25_264,fr25_q1).
body(r_fr25_264,fr16_p2).
body(r_fr25_264,fr25_v2).
body(r_fr25_264,fr25_w1).
head(r_fr25_265,fr25_q1).
body(r_fr25_265,fr25_p3).
body(r_fr25_265,fr25_s2).
head(r_fr25_266,fr25_q1).
body(r_fr25_266,fr18_a1).
body(r_fr25_266,fr25_b3).
head(r_fr25_267,fr25_q1).
body(r_fr25_267,fr25_b1).
body(r_fr25_267,fr25_f1).
body(r_fr25_267,fr16_p2).
body(r_fr25_267,fr25_u2).
body(r_fr25_267,fr25_z1).
body(r_fr25_267,fr25_z2).
head(r_fr25_268,fr25_q1).
body(r_fr25_268,fr18_a1).
body(r_fr25_268,fr25_f1).
body(r_fr25_268,fr25_y1).
head(r_fr25_269,fr25_q1).
body(r_fr25_269,fr25_e2).
body(r_fr25_269,fr25_p3).
head(r_fr25_270,fr25_q1).
body(r_fr25_270,fr18_a1).
body(r_fr25_270,fr25_a3).
body(r_fr25_270,fr25_p3).
body(r_fr25_270,fr25_w1).
head(r_fr25_271,fr25_q1).
body(r_fr25_271,fr25_c1).
body(r_fr25_271,fr25_c2).
body(r_fr25_271,fr25_c3).
body(r_fr25_271,fr17_e1).
body(r_fr25_271,fr25_t1).
body(r_fr25_271,fr25_z2).
head(r_fr25_272,fr25_q1).
body(r_fr25_272,fr25_f2).
body(r_fr25_272,fr16_p2).
head(r_fr25_273,fr25_q1).
body(r_fr25_273,fr25_b3).
body(r_fr25_273,fr25_c1).
body(r_fr25_273,fr25_f2).
body(r_fr25_273,fr25_q2).
head(r_fr25_274,fr25_q1).
head(r_fr25_275,fr25_q1).
body(r_fr25_275,fr25_q2).
body(r_fr25_275,fr23_x4).
body(r_fr25_275,fr25_s2).
body(r_fr25_275,fr25_u2).
body(r_fr25_275,fr17_y1).
body(r_fr25_275,fr25_x2).
head(r_fr25_276,fr25_q1).
body(r_fr25_276,fr18_a1).
body(r_fr25_276,fr25_c2).
body(r_fr25_276,fr4_a1).
body(r_fr25_276,fr25_c1).
body(r_fr25_276,fr14_u1).
head(r_fr25_277,fr25_q1).
body(r_fr25_277,fr25_b2).
body(r_fr25_277,fr4_a1).
head(r_fr25_278,fr25_q1).
body(r_fr25_278,fr25_a3).
body(r_fr25_278,fr17_e1).
body(r_fr25_278,fr25_e2).
head(r_fr25_279,fr17_y1).
body(r_fr25_279,fr14_u1).
body(r_fr25_279,fr25_q1).
body(r_fr25_279,fr25_q2).
body(r_fr25_279,fr23_x4).
body(r_fr25_279,fr25_s2).
body(r_fr25_279,fr23_x4).
head(r_fr25_280,fr17_y1).
body(r_fr25_280,fr18_a1).
body(r_fr25_280,fr17_e1).
body(r_fr25_280,fr25_c1).
body(r_fr25_280,fr25_f1).
body(r_fr25_280,fr25_f2).
body(r_fr25_280,fr25_t1).
head(r_fr25_281,fr17_y1).
body(r_fr25_281,fr25_c1).
head(r_fr25_282,fr17_y1).
body(r_fr25_282,fr25_b3).
body(r_fr25_282,fr25_c2).
body(r_fr25_282,fr25_c3).
body(r_fr25_282,fr25_f2).
head(r_fr25_283,fr17_y1).
body(r_fr25_283,fr25_b2).
body(r_fr25_283,fr25_f2).
head(r_fr25_284,fr17_y1).
body(r_fr25_284,fr18_a1).
body(r_fr25_284,fr25_f2).
head(r_fr25_285,fr17_y1).
body(r_fr25_285,fr18_a1).
body(r_fr25_285,fr25_c1).
body(r_fr25_285,fr25_r1).
body(r_fr25_285,fr25_r2).
body(r_fr25_285,fr25_t1).
head(r_fr25_286,fr17_y1).
body(r_fr25_286,fr25_c2).
body(r_fr25_286,fr25_u1).
head(r_fr25_287,fr17_y1).
body(r_fr25_287,fr25_q3).
body(r_fr25_287,fr25_r1).
body(r_fr25_287,fr23_x4).
head(r_fr25_288,fr17_y1).
body(r_fr25_288,fr25_b3).
body(r_fr25_288,fr25_c2).
body(r_fr25_288,fr25_e2).
body(r_fr25_288,fr16_p2).
body(r_fr25_288,fr25_w2).
head(r_fr25_289,fr17_y1).
body(r_fr25_289,fr17_e1).
body(r_fr25_289,fr25_p2).
head(r_fr25_290,fr17_y1).
body(r_fr25_290,fr25_t1).
body(r_fr25_290,fr25_u2).
body(r_fr25_290,fr25_x1).
body(r_fr25_290,fr25_y1).
body(r_fr25_290,fr25_z2).
head(r_fr25_291,fr17_y1).
body(r_fr25_291,fr25_b1).
body(r_fr25_291,fr25_b2).
body(r_fr25_291,fr25_c1).
body(r_fr25_291,fr25_c2).
body(r_fr25_291,fr25_f2).
head(r_fr25_292,fr17_y1).
body(r_fr25_292,fr25_c1).
body(r_fr25_292,fr17_e1).
body(r_fr25_292,fr4_a1).
head(r_fr25_293,fr17_y1).
body(r_fr25_293,fr25_f1).
head(r_fr25_294,fr17_y1).
body(r_fr25_294,fr25_c1).
body(r_fr25_294,fr4_a1).
body(r_fr25_294,fr25_f2).
body(r_fr25_294,fr25_r1).
body(r_fr25_294,fr25_x1).
head(r_fr25_295,fr17_y1).
body(r_fr25_295,fr25_c3).
head(r_fr25_296,fr17_y1).
body(r_fr25_296,fr25_c2).
head(r_fr25_297,fr17_y1).
body(r_fr25_297,fr4_a1).
body(r_fr25_297,fr25_r2).
body(r_fr25_297,fr25_z1).
head(r_fr25_298,fr17_y1).
body(r_fr25_298,fr17_e1).
body(r_fr25_298,fr25_f2).
body(r_fr25_298,fr25_q1).
body(r_fr25_298,fr25_t1).
body(r_fr25_298,fr25_s2).
body(r_fr25_298,fr23_x4).
head(r_fr25_299,fr17_y1).
body(r_fr25_299,fr25_b1).
body(r_fr25_299,fr4_a1).
body(r_fr25_299,fr25_r2).
body(r_fr25_299,fr16_p2).
body(r_fr25_299,fr25_s2).
body(r_fr25_299,fr25_u1).
head(r_fr25_300,fr17_y1).
body(r_fr25_300,fr25_b1).
body(r_fr25_300,fr25_b3).
body(r_fr25_300,fr4_a1).
body(r_fr25_300,fr25_e2).
body(r_fr25_300,fr25_x2).
head(r_fr25_301,fr17_y1).
head(r_fr25_302,fr25_v2).
body(r_fr25_302,fr3_b3).
body(r_fr25_302,fr25_a3).
body(r_fr25_302,fr25_c1).
body(r_fr25_302,fr25_c1).
body(r_fr25_302,fr25_f1).
body(r_fr25_302,fr25_t1).
head(r_fr25_303,fr25_v2).
body(r_fr25_303,fr25_s2).
body(r_fr25_303,fr25_s2).
body(r_fr25_303,fr25_x1).
head(r_fr25_304,fr25_v2).
body(r_fr25_304,fr3_b3).
body(r_fr25_304,fr25_b2).
body(r_fr25_304,fr25_c1).
body(r_fr25_304,fr25_c2).
body(r_fr25_304,fr25_c3).
body(r_fr25_304,fr25_f1).
head(r_fr25_305,fr25_v2).
body(r_fr25_305,fr25_f2).
body(r_fr25_305,fr25_r2).
head(r_fr25_306,fr25_v2).
body(r_fr25_306,fr25_b2).
body(r_fr25_306,fr25_f1).
body(r_fr25_306,fr25_s2).
body(r_fr25_306,fr25_u2).
body(r_fr25_306,fr25_x1).
head(r_fr25_307,fr25_v2).
body(r_fr25_307,fr4_a1).
body(r_fr25_307,fr25_e2).
body(r_fr25_307,fr25_r2).
body(r_fr25_307,fr16_p2).
body(r_fr25_307,fr25_s2).
head(r_fr25_308,fr25_v2).
body(r_fr25_308,fr25_q2).
body(r_fr25_308,fr25_r1).
body(r_fr25_308,fr25_r2).
body(r_fr25_308,fr23_x4).
body(r_fr25_308,fr25_x1).
body(r_fr25_308,fr25_z1).
head(r_fr25_309,fr25_v2).
body(r_fr25_309,fr25_c1).
body(r_fr25_309,fr25_p2).
body(r_fr25_309,fr23_x4).
body(r_fr25_309,fr17_y1).
body(r_fr25_309,fr25_z1).
head(r_fr25_310,fr25_v2).
body(r_fr25_310,fr17_e1).
body(r_fr25_310,fr4_a1).
body(r_fr25_310,fr25_f2).
body(r_fr25_310,fr23_x4).
head(r_fr25_311,fr25_v2).
body(r_fr25_311,fr25_b2).
body(r_fr25_311,fr4_a1).
body(r_fr25_311,fr25_c1).
body(r_fr25_311,fr14_u1).
body(r_fr25_311,fr25_y1).
head(r_fr25_312,fr25_v2).
body(r_fr25_312,fr25_b2).
body(r_fr25_312,fr25_c3).
body(r_fr25_312,fr25_f1).
head(r_fr25_313,fr25_v2).
body(r_fr25_313,fr25_b3).
head(r_fr25_314,fr25_v2).
body(r_fr25_314,fr25_a3).
body(r_fr25_314,fr25_b3).
body(r_fr25_314,fr17_e1).
body(r_fr25_314,fr25_c1).
body(r_fr25_314,fr25_f1).
body(r_fr25_314,fr25_f2).
head(r_fr25_315,fr25_v2).
body(r_fr25_315,fr25_b2).
body(r_fr25_315,fr25_u1).
body(r_fr25_315,fr25_u2).
body(r_fr25_315,fr17_y1).
head(r_fr25_316,fr25_v2).
body(r_fr25_316,fr25_z1).
body(r_fr25_316,fr25_z2).
head(r_fr25_317,fr25_v2).
body(r_fr25_317,fr14_u1).
body(r_fr25_317,fr25_p3).
body(r_fr25_317,fr23_x4).
body(r_fr25_317,fr25_x2).
body(r_fr25_317,fr25_z1).
body(r_fr25_317,fr25_z2).
head(r_fr25_318,fr25_v2).
body(r_fr25_318,fr14_u1).
body(r_fr25_318,fr25_q3).
body(r_fr25_318,fr25_z2).
head(r_fr25_319,fr25_v2).
body(r_fr25_319,fr25_c1).
body(r_fr25_319,fr25_p3).
head(r_fr25_320,fr25_v2).
body(r_fr25_320,fr25_p2).
body(r_fr25_320,fr25_q2).
body(r_fr25_320,fr25_w2).
body(r_fr25_320,fr25_x1).
body(r_fr25_320,fr25_y1).
body(r_fr25_320,fr25_z1).
head(r_fr25_321,fr25_v2).
head(r_fr25_322,fr25_v2).
body(r_fr25_322,fr17_e1).
body(r_fr25_322,fr25_p2).
body(r_fr25_322,fr25_x1).
head(r_fr25_323,fr25_v2).
body(r_fr25_323,fr25_s2).
body(r_fr25_323,fr25_x2).
head(r_fr25_324,fr25_v2).
body(r_fr25_324,fr14_u1).
body(r_fr25_324,fr23_x4).
body(r_fr25_324,fr25_z1).
head(r_fr25_325,fr25_t1).
body(r_fr25_325,fr25_x2).
head(r_fr25_326,fr25_t1).
body(r_fr25_326,fr25_b1).
body(r_fr25_326,fr25_q3).
body(r_fr25_326,fr25_s2).
body(r_fr25_326,fr25_z1).
head(r_fr25_327,fr25_t1).
body(r_fr25_327,fr3_b3).
body(r_fr25_327,fr25_c3).
head(r_fr25_328,fr25_t1).
body(r_fr25_328,fr25_b2).
body(r_fr25_328,fr25_c2).
body(r_fr25_328,fr17_e1).
body(r_fr25_328,fr25_c1).
body(r_fr25_328,fr25_f1).
body(r_fr25_328,fr25_q2).
head(r_fr25_329,fr25_t1).
body(r_fr25_329,fr25_p3).
body(r_fr25_329,fr25_r1).
head(r_fr25_330,fr25_t1).
body(r_fr25_330,fr4_a1).
head(r_fr25_331,fr25_t1).
body(r_fr25_331,fr25_q1).
body(r_fr25_331,fr25_v2).
body(r_fr25_331,fr25_w1).
head(r_fr25_332,fr25_t1).
body(r_fr25_332,fr25_e2).
head(r_fr25_333,fr25_t1).
body(r_fr25_333,fr25_a3).
body(r_fr25_333,fr25_c1).
head(r_fr25_334,fr25_t1).
body(r_fr25_334,fr25_b3).
body(r_fr25_334,fr25_c1).
body(r_fr25_334,fr25_r2).
body(r_fr25_334,fr17_y1).
body(r_fr25_334,fr25_w1).
head(r_fr25_335,fr25_t1).
body(r_fr25_335,fr3_b3).
body(r_fr25_335,fr17_e1).
body(r_fr25_335,fr4_a1).
body(r_fr25_335,fr25_r1).
body(r_fr25_335,fr25_w1).
body(r_fr25_335,fr25_z1).
head(r_fr25_336,fr25_t1).
body(r_fr25_336,fr25_z2).
head(r_fr25_337,fr25_t1).
head(r_fr25_338,fr25_t1).
body(r_fr25_338,fr25_r2).
body(r_fr25_338,fr25_u1).
body(r_fr25_338,fr17_y1).
body(r_fr25_338,fr25_v2).
head(r_fr25_339,fr25_t1).
body(r_fr25_339,fr3_b3).
body(r_fr25_339,fr25_b1).
body(r_fr25_339,fr25_b3).
body(r_fr25_339,fr25_c3).
body(r_fr25_339,fr25_c1).
body(r_fr25_339,fr25_v2).
head(r_fr25_340,fr25_t1).
body(r_fr25_340,fr3_b3).
body(r_fr25_340,fr25_b2).
body(r_fr25_340,fr25_b3).
body(r_fr25_340,fr25_e2).
body(r_fr25_340,fr25_f2).
head(r_fr25_341,fr25_t1).
body(r_fr25_341,fr3_b3).
body(r_fr25_341,fr18_a1).
body(r_fr25_341,fr17_y1).
head(r_fr25_342,fr25_t1).
body(r_fr25_342,fr18_a1).
body(r_fr25_342,fr25_b3).
body(r_fr25_342,fr25_c2).
head(r_fr25_343,fr25_t1).
body(r_fr25_343,fr25_b3).
body(r_fr25_343,fr25_c1).
body(r_fr25_343,fr4_a1).
body(r_fr25_343,fr25_c1).
body(r_fr25_343,fr25_f1).
body(r_fr25_343,fr25_q3).
head(r_fr25_344,fr25_t1).
body(r_fr25_344,fr25_c3).
body(r_fr25_344,fr4_a1).
body(r_fr25_344,fr25_c1).
head(r_fr25_345,fr25_t1).
body(r_fr25_345,fr25_u2).
head(r_fr25_346,fr25_t1).
body(r_fr25_346,fr25_b2).
body(r_fr25_346,fr25_c3).
body(r_fr25_346,fr25_f1).
body(r_fr25_346,fr25_x1).
head(r_fr25_347,fr25_p3).
body(r_fr25_347,fr25_b1).
body(r_fr25_347,fr25_b2).
body(r_fr25_347,fr25_c3).
body(r_fr25_347,fr4_a1).
body(r_fr25_347,fr25_c1).
body(r_fr25_347,fr25_f1).
head(r_fr25_348,fr25_p3).
body(r_fr25_348,fr25_r1).
body(r_fr25_348,fr25_s2).
body(r_fr25_348,fr25_u1).
body(r_fr25_348,fr23_x4).
head(r_fr25_349,fr25_p3).
body(r_fr25_349,fr25_a3).
body(r_fr25_349,fr25_b2).
body(r_fr25_349,fr25_y1).
head(r_fr25_350,fr25_p3).
body(r_fr25_350,fr25_c2).
body(r_fr25_350,fr25_c1).
body(r_fr25_350,fr25_e2).
body(r_fr25_350,fr25_f2).
head(r_fr25_351,fr25_p3).
body(r_fr25_351,fr25_t1).
body(r_fr25_351,fr25_u2).
body(r_fr25_351,fr25_z1).
body(r_fr25_351,fr25_z2).
head(r_fr25_352,fr25_p3).
body(r_fr25_352,fr25_c1).
body(r_fr25_352,fr25_w2).
head(r_fr25_353,fr25_p3).
body(r_fr25_353,fr25_q1).
body(r_fr25_353,fr25_r2).
body(r_fr25_353,fr25_x1).
body(r_fr25_353,fr25_y1).
body(r_fr25_353,fr25_z1).
head(r_fr25_354,fr25_p3).
body(r_fr25_354,fr25_r1).
body(r_fr25_354,fr25_t1).
body(r_fr25_354,fr17_y1).
body(r_fr25_354,fr25_x2).
head(r_fr25_355,fr25_p3).
body(r_fr25_355,fr25_y1).
head(r_fr25_356,fr25_p3).
body(r_fr25_356,fr25_c1).
body(r_fr25_356,fr25_e2).
body(r_fr25_356,fr25_f2).
body(r_fr25_356,fr16_p2).
head(r_fr25_357,fr25_p3).
body(r_fr25_357,fr25_p2).
body(r_fr25_357,fr25_q2).
body(r_fr25_357,fr23_x4).
body(r_fr25_357,fr25_s2).
body(r_fr25_357,fr25_w2).
body(r_fr25_357,fr23_x4).
head(r_fr25_358,fr25_p3).
body(r_fr25_358,fr25_r2).
body(r_fr25_358,fr25_u2).
body(r_fr25_358,fr25_z1).
head(r_fr25_359,fr25_p3).
body(r_fr25_359,fr25_c1).
body(r_fr25_359,fr25_z1).
head(r_fr25_360,fr25_p3).
body(r_fr25_360,fr25_q2).
body(r_fr25_360,fr25_q3).
body(r_fr25_360,fr25_w1).
head(r_fr25_361,fr25_p3).
body(r_fr25_361,fr25_r1).
head(r_fr25_362,fr25_p3).
body(r_fr25_362,fr25_p2).
body(r_fr25_362,fr25_r1).
body(r_fr25_362,fr16_p2).
body(r_fr25_362,fr25_z2).
head(r_fr25_363,fr25_p3).
body(r_fr25_363,fr25_b1).
body(r_fr25_363,fr25_b3).
head(r_fr25_364,fr25_p3).
body(r_fr25_364,fr25_f1).
head(r_fr25_365,fr25_p3).
body(r_fr25_365,fr4_a1).
body(r_fr25_365,fr25_q1).
body(r_fr25_365,fr25_q3).
body(r_fr25_365,fr25_x2).
head(r_fr25_366,fr25_p3).
head(r_fr25_367,fr25_p3).
body(r_fr25_367,fr3_b3).
body(r_fr25_367,fr25_c3).
head(r_fr25_368,fr25_y1).
body(r_fr25_368,fr3_b3).
body(r_fr25_368,fr25_q1).
body(r_fr25_368,fr25_w1).
head(r_fr25_369,fr25_y1).
body(r_fr25_369,fr17_e1).
head(r_fr25_370,fr25_y1).
body(r_fr25_370,fr25_p2).
body(r_fr25_370,fr25_q2).
body(r_fr25_370,fr25_s2).
body(r_fr25_370,fr25_u1).
body(r_fr25_370,fr25_w2).
head(r_fr25_371,fr25_y1).
body(r_fr25_371,fr25_e2).
body(r_fr25_371,fr25_q1).
body(r_fr25_371,fr25_q3).
body(r_fr25_371,fr25_v2).
body(r_fr25_371,fr25_x1).
body(r_fr25_371,fr23_x4).
head(r_fr25_372,fr25_y1).
body(r_fr25_372,fr25_a3).
head(r_fr25_373,fr25_y1).
body(r_fr25_373,fr3_b3).
body(r_fr25_373,fr25_a3).
body(r_fr25_373,fr25_b2).
body(r_fr25_373,fr25_e2).
body(r_fr25_373,fr16_p2).
body(r_fr25_373,fr25_u1).
head(r_fr25_374,fr25_y1).
body(r_fr25_374,fr25_p3).
body(r_fr25_374,fr25_r1).
body(r_fr25_374,fr25_t1).
body(r_fr25_374,fr17_y1).
body(r_fr25_374,fr25_v2).
head(r_fr25_375,fr25_y1).
body(r_fr25_375,fr25_f1).
body(r_fr25_375,fr25_r1).
body(r_fr25_375,fr23_x4).
body(r_fr25_375,fr16_p2).
body(r_fr25_375,fr25_t1).
head(r_fr25_376,fr25_y1).
body(r_fr25_376,fr25_a3).
body(r_fr25_376,fr25_c2).
body(r_fr25_376,fr23_x4).
body(r_fr25_376,fr25_w2).
body(r_fr25_376,fr25_x1).
head(r_fr25_377,fr25_y1).
body(r_fr25_377,fr3_b3).
body(r_fr25_377,fr18_a1).
body(r_fr25_377,fr25_b3).
body(r_fr25_377,fr25_c1).
body(r_fr25_377,fr25_r2).
head(r_fr25_378,fr25_y1).
body(r_fr25_378,fr17_y1).
body(r_fr25_378,fr25_w2).
body(r_fr25_378,fr25_z2).
head(r_fr25_379,fr25_y1).
body(r_fr25_379,fr25_p3).
head(r_fr25_380,fr25_y1).
body(r_fr25_380,fr25_f2).
head(r_fr25_381,fr25_y1).
body(r_fr25_381,fr25_x2).
head(r_fr25_382,fr25_y1).
body(r_fr25_382,fr25_c3).
body(r_fr25_382,fr4_a1).
body(r_fr25_382,fr25_r1).
body(r_fr25_382,fr25_t1).
body(r_fr25_382,fr25_u2).
body(r_fr25_382,fr25_w1).
head(r_fr25_383,fr25_y1).
body(r_fr25_383,fr23_x4).
head(r_fr25_384,fr25_y1).
body(r_fr25_384,fr25_b3).
body(r_fr25_384,fr17_e1).
body(r_fr25_384,fr25_f2).
head(r_fr25_385,fr25_y1).
head(r_fr25_386,fr25_y1).
body(r_fr25_386,fr25_b1).
body(r_fr25_386,fr25_f2).
head(r_fr25_387,fr25_y1).
body(r_fr25_387,fr3_b3).
body(r_fr25_387,fr25_b1).
body(r_fr25_387,fr4_a1).
body(r_fr25_387,fr25_e2).
body(r_fr25_387,fr25_f2).
head(r_fr25_388,fr25_y1).
body(r_fr25_388,fr25_p2).
body(r_fr25_388,fr25_r1).
body(r_fr25_388,fr25_s2).
body(r_fr25_388,fr25_t1).
body(r_fr25_388,fr25_u2).
body(r_fr25_388,fr25_w2).
head(r_fr25_389,fr25_y1).
body(r_fr25_389,fr18_a1).
body(r_fr25_389,fr25_c2).
body(r_fr25_389,fr25_p2).
body(r_fr25_389,fr25_t1).
body(r_fr25_389,fr23_x4).
head(r_fr25_390,fr25_y1).
body(r_fr25_390,fr25_c1).
body(r_fr25_390,fr25_c2).
body(r_fr25_390,fr25_c3).
body(r_fr25_390,fr25_q1).
body(r_fr25_390,fr25_r1).
body(r_fr25_390,fr25_u1).
head(r_fr25_391,fr25_r2).
body(r_fr25_391,fr25_b2).
body(r_fr25_391,fr25_c3).
body(r_fr25_391,fr25_r1).
body(r_fr25_391,fr25_w2).
head(r_fr25_392,fr25_r2).
head(r_fr25_393,fr25_r2).
body(r_fr25_393,fr25_r1).
body(r_fr25_393,fr23_x4).
body(r_fr25_393,fr25_u1).
body(r_fr25_393,fr25_v2).
head(r_fr25_394,fr25_r2).
body(r_fr25_394,fr25_p2).
body(r_fr25_394,fr25_r1).
body(r_fr25_394,fr25_s2).
body(r_fr25_394,fr25_u1).
body(r_fr25_394,fr25_w1).
head(r_fr25_395,fr25_r2).
body(r_fr25_395,fr3_b3).
body(r_fr25_395,fr25_b1).
body(r_fr25_395,fr25_c2).
body(r_fr25_395,fr17_e1).
body(r_fr25_395,fr25_e2).
head(r_fr25_396,fr25_r2).
body(r_fr25_396,fr25_a3).
body(r_fr25_396,fr25_b2).
body(r_fr25_396,fr25_b3).
body(r_fr25_396,fr25_w1).
body(r_fr25_396,fr25_x2).
head(r_fr25_397,fr25_r2).
body(r_fr25_397,fr16_p2).
head(r_fr25_398,fr25_r2).
body(r_fr25_398,fr25_q1).
body(r_fr25_398,fr23_x4).
body(r_fr25_398,fr25_w1).
body(r_fr25_398,fr25_x1).
body(r_fr25_398,fr25_y1).
body(r_fr25_398,fr23_x4).
head(r_fr25_399,fr25_r2).
body(r_fr25_399,fr3_b3).
body(r_fr25_399,fr25_a3).
body(r_fr25_399,fr25_f2).
body(r_fr25_399,fr25_q2).
body(r_fr25_399,fr25_r1).
head(r_fr25_400,fr25_r2).
body(r_fr25_400,fr18_a1).
body(r_fr25_400,fr25_f1).
body(r_fr25_400,fr25_q3).
head(r_fr25_401,fr25_r2).
body(r_fr25_401,fr25_f2).
head(r_fr25_402,fr25_r2).
body(r_fr25_402,fr25_r1).
head(r_fr25_403,fr25_r2).
body(r_fr25_403,fr25_b3).
body(r_fr25_403,fr17_e1).
head(r_fr25_404,fr25_r2).
body(r_fr25_404,fr3_b3).
body(r_fr25_404,fr25_p2).
body(r_fr25_404,fr25_r1).
body(r_fr25_404,fr25_v2).
body(r_fr25_404,fr25_z2).
head(r_fr25_405,fr25_r2).
body(r_fr25_405,fr25_q1).
body(r_fr25_405,fr25_q3).
body(r_fr25_405,fr25_r1).
body(r_fr25_405,fr25_s2).
body(r_fr25_405,fr25_y1).
head(r_fr25_406,fr25_r2).
body(r_fr25_406,fr25_c1).
body(r_fr25_406,fr4_a1).
body(r_fr25_406,fr25_q2).
body(r_fr25_406,fr23_x4).
head(r_fr25_407,fr25_r2).
body(r_fr25_407,fr25_c1).
body(r_fr25_407,fr25_e2).
body(r_fr25_407,fr25_f2).
body(r_fr25_407,fr25_x1).
head(r_fr25_408,fr25_r2).
body(r_fr25_408,fr25_b3).
body(r_fr25_408,fr25_p3).
head(r_fr25_409,fr25_r2).
body(r_fr25_409,fr25_v2).
head(r_fr25_410,fr25_r2).
body(r_fr25_410,fr4_a1).
body(r_fr25_410,fr25_w1).
body(r_fr25_410,fr25_w2).
body(r_fr25_410,fr25_z1).
body(r_fr25_410,fr25_z2).
head(r_fr25_411,fr25_r2).
body(r_fr25_411,fr25_c3).
body(r_fr25_411,fr23_x4).
body(r_fr25_411,fr25_u2).
head(r_fr25_412,fr25_x1).
body(r_fr25_412,fr25_c1).
body(r_fr25_412,fr25_c2).
body(r_fr25_412,fr25_c3).
head(r_fr25_413,fr25_x1).
body(r_fr25_413,fr25_w1).
head(r_fr25_414,fr25_x1).
body(r_fr25_414,fr25_c2).
head(r_fr25_415,fr25_x1).
body(r_fr25_415,fr3_b3).
body(r_fr25_415,fr25_c2).
body(r_fr25_415,fr17_e1).
body(r_fr25_415,fr25_f1).
body(r_fr25_415,fr25_r2).
body(r_fr25_415,fr17_y1).
head(r_fr25_416,fr25_x1).
body(r_fr25_416,fr18_a1).
body(r_fr25_416,fr25_c3).
body(r_fr25_416,fr25_c1).
body(r_fr25_416,fr25_r1).
head(r_fr25_417,fr25_x1).
body(r_fr25_417,fr18_a1).
body(r_fr25_417,fr25_a3).
body(r_fr25_417,fr25_b1).
body(r_fr25_417,fr25_b3).
body(r_fr25_417,fr25_c1).
body(r_fr25_417,fr25_p2).
head(r_fr25_418,fr25_x1).
body(r_fr25_418,fr25_b1).
body(r_fr25_418,fr25_s2).
body(r_fr25_418,fr25_t1).
head(r_fr25_419,fr25_x1).
body(r_fr25_419,fr25_u2).
head(r_fr25_420,fr25_x1).
body(r_fr25_420,fr25_q2).
body(r_fr25_420,fr16_p2).
body(r_fr25_420,fr25_v2).
body(r_fr25_420,fr25_z1).
head(r_fr25_421,fr25_x1).
head(r_fr25_422,fr25_x1).
body(r_fr25_422,fr25_q2).
head(r_fr25_423,fr25_x1).
body(r_fr25_423,fr25_c3).
body(r_fr25_423,fr25_t1).
body(r_fr25_423,fr25_z1).
body(r_fr25_423,fr25_z2).
head(r_fr25_424,fr25_x1).
body(r_fr25_424,fr3_b3).
body(r_fr25_424,fr25_c1).
body(r_fr25_424,fr25_z2).
head(r_fr25_425,fr25_x1).
body(r_fr25_425,fr14_u1).
body(r_fr25_425,fr25_q1).
body(r_fr25_425,fr25_q3).
body(r_fr25_425,fr25_u1).
body(r_fr25_425,fr17_y1).
head(r_fr25_426,fr25_x1).
body(r_fr25_426,fr14_u1).
body(r_fr25_426,fr25_q2).
head(r_fr25_427,fr25_x1).
body(r_fr25_427,fr25_c1).
head(r_fr25_428,fr25_x1).
body(r_fr25_428,fr25_b2).
body(r_fr25_428,fr25_c2).
head(r_fr25_429,fr25_x1).
body(r_fr25_429,fr25_y1).
head(r_fr25_430,fr25_x1).
body(r_fr25_430,fr18_a1).
body(r_fr25_430,fr25_b1).
body(r_fr25_430,fr25_b3).
body(r_fr25_430,fr17_e1).
head(r_fr25_431,fr25_x1).
body(r_fr25_431,fr25_a3).
body(r_fr25_431,fr25_b2).
body(r_fr25_431,fr25_s2).
body(r_fr25_431,fr25_u2).
body(r_fr25_431,fr25_x2).
body(r_fr25_431,fr25_y1).

