assumption(fr3_a1).
assumption(fr1_b1).
assumption(fr3_a1).
assumption(fr16_a3).
assumption(fr1_e1).
assumption(fr20_a3).
assumption(fr2_a3).
assumption(fr1_b2).
assumption(fr1_c2).
assumption(fr1_d2).
assumption(fr1_e2).
assumption(fr2_f4).
assumption(fr1_a3).
assumption(fr1_b3).
assumption(fr3_a1).
contrary(fr3_a1,fr20_v3).
contrary(fr2_a3,fr1_b2).
contrary(fr1_a3,fr4_s3).
contrary(fr1_b1,fr4_s3).
contrary(fr1_b2,fr2_f4).
contrary(fr1_b3,fr1_y1).
contrary(fr3_a1,fr20_a3).
contrary(fr1_c2,fr1_w1).
contrary(fr3_a1,fr1_t2).
contrary(fr16_a3,fr3_a1).
contrary(fr1_d2,fr1_w1).
contrary(fr1_e1,fr3_p3).
contrary(fr1_e2,fr12_s2).
contrary(fr20_a3,fr16_w2).
contrary(fr2_f4,fr2_a3).
head(r_fr1_0,fr12_s2).
body(r_fr1_0,fr1_d2).
body(r_fr1_0,fr2_f4).
head(r_fr1_1,fr12_s2).
body(r_fr1_1,fr3_a1).
body(r_fr1_1,fr1_b2).
body(r_fr1_1,fr3_a1).
body(r_fr1_1,fr20_a3).
body(r_fr1_1,fr2_f4).
body(r_fr1_1,fr8_p2).
head(r_fr1_2,fr12_s2).
body(r_fr1_2,fr1_b2).
body(r_fr1_2,fr1_q3).
body(r_fr1_2,fr5_y1).
body(r_fr1_2,fr2_v4).
body(r_fr1_2,fr12_p3).
head(r_fr1_3,fr2_v4).
body(r_fr1_3,fr3_a1).
body(r_fr1_3,fr3_a1).
body(r_fr1_3,fr1_e1).
head(r_fr1_4,fr2_v4).
body(r_fr1_4,fr1_b1).
body(r_fr1_4,fr2_f4).
body(r_fr1_4,fr5_y1).
body(r_fr1_4,fr20_p1).
body(r_fr1_4,fr12_p3).
body(r_fr1_4,fr12_p3).
head(r_fr1_5,fr2_v4).
body(r_fr1_5,fr16_w2).
body(r_fr1_5,fr12_p3).
body(r_fr1_5,fr8_p2).
head(r_fr1_6,fr2_v4).
body(r_fr1_6,fr2_a3).
body(r_fr1_6,fr16_a3).
body(r_fr1_6,fr1_d2).
body(r_fr1_6,fr20_a3).
body(r_fr1_6,fr2_f4).
body(r_fr1_6,fr2_v4).
head(r_fr1_7,fr2_v4).
body(r_fr1_7,fr16_w2).
body(r_fr1_7,fr1_w1).
body(r_fr1_7,fr8_p2).
head(r_fr1_8,fr23_r2).
body(r_fr1_8,fr1_b1).
body(r_fr1_8,fr1_e2).
body(r_fr1_8,fr20_a3).
body(r_fr1_8,fr1_t1).
body(r_fr1_8,fr20_p1).
body(r_fr1_8,fr23_r2).
head(r_fr1_9,fr23_r2).
body(r_fr1_9,fr1_b1).
body(r_fr1_9,fr1_b2).
head(r_fr1_10,fr12_p3).
body(r_fr1_10,fr2_a3).
body(r_fr1_10,fr3_a1).
body(r_fr1_10,fr16_a3).
body(r_fr1_10,fr2_f4).
head(r_fr1_11,fr12_p3).
body(r_fr1_11,fr3_a1).
body(r_fr1_11,fr12_p3).
head(r_fr1_12,fr12_p3).
body(r_fr1_12,fr1_b2).
body(r_fr1_12,fr3_a1).
body(r_fr1_12,fr1_e2).
body(r_fr1_12,fr16_w2).
body(r_fr1_12,fr20_v3).
head(r_fr1_13,fr5_y1).
body(r_fr1_13,fr3_a1).
body(r_fr1_13,fr1_a3).
body(r_fr1_13,fr1_e2).
body(r_fr1_13,fr3_p3).
body(r_fr1_13,fr1_q2).
body(r_fr1_13,fr2_v4).
head(r_fr1_14,fr5_y1).
body(r_fr1_14,fr3_a1).
body(r_fr1_14,fr1_d2).
body(r_fr1_14,fr2_f4).
head(r_fr1_15,fr5_y1).
body(r_fr1_15,fr1_t1).
body(r_fr1_15,fr1_t2).
head(r_fr1_16,fr5_y1).
head(r_fr1_17,fr5_y1).
body(r_fr1_17,fr20_v3).
head(r_fr1_18,fr1_y1).
head(r_fr1_19,fr1_y1).
body(r_fr1_19,fr1_a3).
body(r_fr1_19,fr1_b1).
body(r_fr1_19,fr1_b3).
body(r_fr1_19,fr3_a1).
body(r_fr1_19,fr1_c2).
body(r_fr1_19,fr16_a3).
head(r_fr1_20,fr1_y1).
body(r_fr1_20,fr2_a3).
body(r_fr1_20,fr3_a1).
body(r_fr1_20,fr1_d2).
body(r_fr1_20,fr1_e2).
body(r_fr1_20,fr20_v3).
body(r_fr1_20,fr8_p2).
head(r_fr1_21,fr3_p3).
body(r_fr1_21,fr3_a1).
body(r_fr1_21,fr1_a3).
body(r_fr1_21,fr3_a1).
body(r_fr1_21,fr1_e1).
body(r_fr1_21,fr1_e2).
body(r_fr1_21,fr1_t1).
head(r_fr1_22,fr3_p3).
body(r_fr1_22,fr16_a3).
body(r_fr1_22,fr1_e2).
body(r_fr1_22,fr1_q2).
body(r_fr1_22,fr20_v3).
body(r_fr1_22,fr1_w1).
body(r_fr1_22,fr1_z2).
head(r_fr1_23,fr3_p3).
body(r_fr1_23,fr1_e2).
body(r_fr1_23,fr1_p2).
body(r_fr1_23,fr4_s3).
head(r_fr1_24,fr20_v3).
body(r_fr1_24,fr1_c2).
body(r_fr1_24,fr4_s3).
body(r_fr1_24,fr8_p2).
body(r_fr1_24,fr1_z1).
head(r_fr1_25,fr20_v3).
body(r_fr1_25,fr1_b2).
body(r_fr1_25,fr1_p2).
body(r_fr1_25,fr2_v4).
body(r_fr1_25,fr12_p3).
body(r_fr1_25,fr8_p2).
body(r_fr1_25,fr1_z1).
head(r_fr1_26,fr20_v3).
body(r_fr1_26,fr1_b1).
body(r_fr1_26,fr1_b3).
body(r_fr1_26,fr3_a1).
body(r_fr1_26,fr3_a1).
head(r_fr1_27,fr20_v3).
head(r_fr1_28,fr1_z2).
body(r_fr1_28,fr1_p2).
body(r_fr1_28,fr2_v4).
body(r_fr1_28,fr20_p1).
body(r_fr1_28,fr1_z1).
head(r_fr1_29,fr1_z2).
head(r_fr1_30,fr1_z2).
body(r_fr1_30,fr1_e2).
body(r_fr1_30,fr2_v4).
body(r_fr1_30,fr20_v3).
head(r_fr1_31,fr8_p2).
body(r_fr1_31,fr1_c2).
body(r_fr1_31,fr1_z1).
head(r_fr1_32,fr8_p2).
body(r_fr1_32,fr2_a3).
body(r_fr1_32,fr1_b3).
body(r_fr1_32,fr1_e2).
head(r_fr1_33,fr8_p2).
body(r_fr1_33,fr3_a1).
body(r_fr1_33,fr1_b1).
body(r_fr1_33,fr1_b2).
body(r_fr1_33,fr3_a1).
body(r_fr1_33,fr20_a3).
body(r_fr1_33,fr2_f4).
head(r_fr1_34,fr16_w2).
body(r_fr1_34,fr1_b1).
body(r_fr1_34,fr1_b3).
body(r_fr1_34,fr16_a3).
body(r_fr1_34,fr1_d2).
body(r_fr1_34,fr1_e1).
body(r_fr1_34,fr20_a3).
head(r_fr1_35,fr16_w2).
body(r_fr1_35,fr3_a1).
body(r_fr1_35,fr2_v4).
body(r_fr1_35,fr20_v3).
body(r_fr1_35,fr12_p3).
head(r_fr1_36,fr16_w2).
body(r_fr1_36,fr2_a3).
body(r_fr1_36,fr1_b1).
body(r_fr1_36,fr1_t2).
body(r_fr1_36,fr12_p3).
head(r_fr1_37,fr16_w2).
head(r_fr1_38,fr4_s3).
head(r_fr1_39,fr4_s3).
body(r_fr1_39,fr1_b3).
body(r_fr1_39,fr1_d2).
body(r_fr1_39,fr1_p2).
body(r_fr1_39,fr20_v3).
body(r_fr1_39,fr2_v4).
body(r_fr1_39,fr23_r2).
head(r_fr1_40,fr12_p3).
body(r_fr1_40,fr1_e2).
head(r_fr1_41,fr12_p3).
body(r_fr1_41,fr1_b2).
body(r_fr1_41,fr20_a3).
head(r_fr1_42,fr1_p2).
head(r_fr1_43,fr1_p2).
body(r_fr1_43,fr1_b1).
body(r_fr1_43,fr1_w1).
head(r_fr1_44,fr1_p2).
body(r_fr1_44,fr3_a1).
body(r_fr1_44,fr1_b2).
body(r_fr1_44,fr1_d2).
head(r_fr1_45,fr1_t2).
body(r_fr1_45,fr1_c2).
body(r_fr1_45,fr1_e1).
head(r_fr1_46,fr1_t2).
body(r_fr1_46,fr1_a3).
body(r_fr1_46,fr1_b3).
body(r_fr1_46,fr16_a3).
body(r_fr1_46,fr20_v3).
body(r_fr1_46,fr20_p1).
head(r_fr1_47,fr1_t2).
head(r_fr1_48,fr1_t2).
body(r_fr1_48,fr1_b1).
body(r_fr1_48,fr1_b2).
body(r_fr1_48,fr16_a3).
body(r_fr1_48,fr1_d2).
body(r_fr1_48,fr1_t1).
head(r_fr1_49,fr20_p1).
body(r_fr1_49,fr20_a3).
head(r_fr1_50,fr20_p1).
head(r_fr1_51,fr20_p1).
body(r_fr1_51,fr2_a3).
body(r_fr1_51,fr1_b3).
body(r_fr1_51,fr3_a1).
body(r_fr1_51,fr1_d2).
body(r_fr1_51,fr1_e1).
body(r_fr1_51,fr2_f4).
head(r_fr1_52,fr20_p1).
body(r_fr1_52,fr3_a1).
head(r_fr1_53,fr20_p1).
body(r_fr1_53,fr20_v3).
body(r_fr1_53,fr1_t1).
head(r_fr1_54,fr2_v4).
head(r_fr1_55,fr2_v4).
body(r_fr1_55,fr1_b3).
body(r_fr1_55,fr16_a3).
head(r_fr1_56,fr2_v4).
body(r_fr1_56,fr3_a1).
body(r_fr1_56,fr1_t1).
head(r_fr1_57,fr2_v4).
body(r_fr1_57,fr3_a1).
body(r_fr1_57,fr16_a3).
body(r_fr1_57,fr1_e2).
body(r_fr1_57,fr1_q3).
body(r_fr1_57,fr20_v3).
body(r_fr1_57,fr1_z1).
head(r_fr1_58,fr1_q2).
body(r_fr1_58,fr1_b1).
body(r_fr1_58,fr3_a1).
body(r_fr1_58,fr1_e2).
head(r_fr1_59,fr1_q2).
body(r_fr1_59,fr1_b1).
body(r_fr1_59,fr1_d2).
body(r_fr1_59,fr1_e1).
body(r_fr1_59,fr2_f4).
body(r_fr1_59,fr1_w1).
head(r_fr1_60,fr1_q2).
body(r_fr1_60,fr3_a1).
body(r_fr1_60,fr1_q3).
head(r_fr1_61,fr1_q2).
body(r_fr1_61,fr1_b1).
body(r_fr1_61,fr16_a3).
body(r_fr1_61,fr1_t1).
body(r_fr1_61,fr1_z1).
head(r_fr1_62,fr1_q2).
body(r_fr1_62,fr1_q3).
body(r_fr1_62,fr20_v3).
body(r_fr1_62,fr1_w1).
head(r_fr1_63,fr1_w1).
body(r_fr1_63,fr1_a3).
body(r_fr1_63,fr3_a1).
body(r_fr1_63,fr20_v3).
head(r_fr1_64,fr1_w1).
body(r_fr1_64,fr1_a3).
body(r_fr1_64,fr1_e2).
body(r_fr1_64,fr20_a3).
body(r_fr1_64,fr1_t1).
body(r_fr1_64,fr23_r2).
head(r_fr1_65,fr1_w1).
body(r_fr1_65,fr1_a3).
body(r_fr1_65,fr2_f4).
body(r_fr1_65,fr1_q3).
body(r_fr1_65,fr1_t1).
head(r_fr1_66,fr1_w1).
body(r_fr1_66,fr1_q3).
body(r_fr1_66,fr1_t1).
head(r_fr1_67,fr1_q3).
head(r_fr1_68,fr1_q3).
body(r_fr1_68,fr16_a3).
body(r_fr1_68,fr20_v3).

assumption(fr2_a1).
assumption(fr2_b1).
assumption(fr2_c1).
assumption(fr3_a1).
assumption(fr2_e1).
assumption(fr2_f1).
assumption(fr2_a1).
assumption(fr2_b2).
assumption(fr2_c2).
assumption(fr2_a1).
assumption(fr2_e2).
assumption(fr2_f4).
assumption(fr2_a3).
assumption(fr3_a1).
assumption(fr2_c3).
assumption(fr2_d3).
assumption(fr2_e3).
assumption(fr16_a3).
assumption(fr3_e1).
assumption(fr2_b4).
assumption(fr2_c4).
assumption(fr2_d4).
assumption(fr2_e4).
assumption(fr2_f4).
contrary(fr2_a1,fr2_b1).
contrary(fr2_a1,fr17_w1).
contrary(fr2_a3,fr2_r3).
contrary(fr3_e1,fr2_y3).
contrary(fr2_b1,fr2_t1).
contrary(fr2_b2,fr2_u4).
contrary(fr3_a1,fr2_w1).
contrary(fr2_b4,fr2_e2).
contrary(fr2_c1,fr2_v4).
contrary(fr2_c2,fr2_t1).
contrary(fr2_c3,fr2_w1).
contrary(fr2_c4,fr2_x3).
contrary(fr3_a1,fr2_u4).
contrary(fr2_a1,fr2_s2).
contrary(fr2_d3,fr2_r2).
contrary(fr2_d4,fr2_e2).
contrary(fr2_e1,fr2_v3).
contrary(fr2_e2,fr2_e4).
contrary(fr2_e3,fr2_u1).
contrary(fr2_e4,fr7_s6).
contrary(fr2_f1,fr7_s6).
contrary(fr2_f4,fr2_r3).
contrary(fr16_a3,fr7_s6).
contrary(fr2_f4,fr12_p3).
head(r_fr2_0,fr2_s2).
body(r_fr2_0,fr2_a1).
body(r_fr2_0,fr2_a1).
body(r_fr2_0,fr2_e4).
body(r_fr2_0,fr19_x7).
body(r_fr2_0,fr12_p3).
body(r_fr2_0,fr14_s2).
body(r_fr2_0,fr2_w2).
body(r_fr2_0,fr19_v1).
head(r_fr2_1,fr2_s2).
body(r_fr2_1,fr2_b1).
body(r_fr2_1,fr2_c3).
body(r_fr2_1,fr3_a1).
body(r_fr2_1,fr2_e1).
body(r_fr2_1,fr2_e4).
body(r_fr2_1,fr2_f1).
body(r_fr2_1,fr2_f4).
head(r_fr2_2,fr2_s2).
body(r_fr2_2,fr2_a1).
body(r_fr2_2,fr2_d4).
body(r_fr2_2,fr2_e4).
body(r_fr2_2,fr12_p3).
body(r_fr2_2,fr8_p2).
body(r_fr2_2,fr2_w2).
head(r_fr2_3,fr23_r2).
body(r_fr2_3,fr2_c2).
body(r_fr2_3,fr2_e4).
body(r_fr2_3,fr2_f4).
body(r_fr2_3,fr14_s2).
body(r_fr2_3,fr2_x3).
head(r_fr2_4,fr23_r2).
body(r_fr2_4,fr2_a1).
body(r_fr2_4,fr2_c2).
body(r_fr2_4,fr2_f4).
body(r_fr2_4,fr20_p1).
body(r_fr2_4,fr2_s4).
body(r_fr2_4,fr2_w3).
body(r_fr2_4,fr2_x3).
body(r_fr2_4,fr2_z3).
head(r_fr2_5,fr23_r2).
body(r_fr2_5,fr3_e1).
body(r_fr2_5,fr2_f4).
body(r_fr2_5,fr7_w4).
body(r_fr2_5,fr2_r1).
body(r_fr2_5,fr2_t1).
body(r_fr2_5,fr2_u2).
head(r_fr2_6,fr23_r2).
body(r_fr2_6,fr2_a3).
body(r_fr2_6,fr2_e3).
body(r_fr2_6,fr2_e4).
body(r_fr2_6,fr23_r2).
body(r_fr2_6,fr20_p1).
head(r_fr2_7,fr23_r2).
body(r_fr2_7,fr8_p2).
body(r_fr2_7,fr2_x3).
head(r_fr2_8,fr23_r2).
body(r_fr2_8,fr2_e1).
body(r_fr2_8,fr2_f1).
body(r_fr2_8,fr17_w1).
body(r_fr2_8,fr24_s1).
body(r_fr2_8,fr2_v3).
body(r_fr2_8,fr2_y1).
head(r_fr2_9,fr2_r3).
body(r_fr2_9,fr2_a3).
body(r_fr2_9,fr3_e1).
body(r_fr2_9,fr2_b2).
body(r_fr2_9,fr2_c2).
body(r_fr2_9,fr2_c4).
body(r_fr2_9,fr2_e2).
body(r_fr2_9,fr2_f4).
body(r_fr2_9,fr16_a3).
body(r_fr2_9,fr2_f4).
head(r_fr2_10,fr2_r3).
body(r_fr2_10,fr2_a1).
body(r_fr2_10,fr16_a3).
body(r_fr2_10,fr2_p4).
body(r_fr2_10,fr2_q1).
body(r_fr2_10,fr7_w4).
body(r_fr2_10,fr2_s2).
body(r_fr2_10,fr20_p1).
head(r_fr2_11,fr2_r3).
body(r_fr2_11,fr3_a1).
body(r_fr2_11,fr19_x7).
body(r_fr2_11,fr12_p3).
body(r_fr2_11,fr24_s1).
body(r_fr2_11,fr14_s2).
head(r_fr2_12,fr2_r3).
body(r_fr2_12,fr2_c3).
body(r_fr2_12,fr19_x7).
body(r_fr2_12,fr24_s1).
body(r_fr2_12,fr2_y1).
head(r_fr2_13,fr2_r3).
body(r_fr2_13,fr2_a3).
body(r_fr2_13,fr3_e1).
body(r_fr2_13,fr2_c2).
body(r_fr2_13,fr2_c4).
body(r_fr2_13,fr2_d4).
body(r_fr2_13,fr2_e4).
body(r_fr2_13,fr2_z3).
head(r_fr2_14,fr2_r3).
body(r_fr2_14,fr2_a3).
body(r_fr2_14,fr3_e1).
body(r_fr2_14,fr2_c1).
body(r_fr2_14,fr2_c2).
body(r_fr2_14,fr3_a1).
body(r_fr2_14,fr2_d3).
body(r_fr2_14,fr2_v3).
head(r_fr2_15,fr2_r3).
body(r_fr2_15,fr2_a1).
body(r_fr2_15,fr2_c3).
body(r_fr2_15,fr2_c4).
body(r_fr2_15,fr2_e3).
body(r_fr2_15,fr19_x7).
body(r_fr2_15,fr12_u2).
body(r_fr2_15,fr12_p3).
body(r_fr2_15,fr24_s1).
body(r_fr2_15,fr20_p1).
head(r_fr2_16,fr2_r3).
body(r_fr2_16,fr2_a1).
body(r_fr2_16,fr2_a1).
body(r_fr2_16,fr2_c4).
body(r_fr2_16,fr2_e1).
body(r_fr2_16,fr2_e3).
body(r_fr2_16,fr2_f4).
body(r_fr2_16,fr23_r2).
body(r_fr2_16,fr8_p2).
body(r_fr2_16,fr19_v1).
head(r_fr2_17,fr8_p2).
body(r_fr2_17,fr3_e1).
body(r_fr2_17,fr2_c3).
body(r_fr2_17,fr2_f1).
body(r_fr2_17,fr2_f4).
body(r_fr2_17,fr2_q1).
body(r_fr2_17,fr2_r2).
body(r_fr2_17,fr2_r3).
body(r_fr2_17,fr20_p1).
body(r_fr2_17,fr2_z2).
head(r_fr2_18,fr8_p2).
head(r_fr2_19,fr8_p2).
body(r_fr2_19,fr2_a1).
head(r_fr2_20,fr8_p2).
body(r_fr2_20,fr2_d3).
head(r_fr2_21,fr8_p2).
body(r_fr2_21,fr2_s3).
head(r_fr2_22,fr8_p2).
body(r_fr2_22,fr7_s6).
body(r_fr2_22,fr23_r2).
body(r_fr2_22,fr2_u2).
head(r_fr2_23,fr8_p2).
body(r_fr2_23,fr2_a1).
body(r_fr2_23,fr2_c4).
body(r_fr2_23,fr19_x7).
head(r_fr2_24,fr19_x7).
body(r_fr2_24,fr2_f1).
body(r_fr2_24,fr16_a3).
body(r_fr2_24,fr7_s6).
body(r_fr2_24,fr20_p1).
body(r_fr2_24,fr2_w3).
body(r_fr2_24,fr19_v1).
body(r_fr2_24,fr2_x3).
body(r_fr2_24,fr2_y3).
head(r_fr2_25,fr19_x7).
body(r_fr2_25,fr3_a1).
body(r_fr2_25,fr2_e1).
body(r_fr2_25,fr2_e4).
body(r_fr2_25,fr20_p1).
body(r_fr2_25,fr2_u1).
head(r_fr2_26,fr19_x7).
head(r_fr2_27,fr19_x7).
body(r_fr2_27,fr2_d3).
body(r_fr2_27,fr2_y2).
head(r_fr2_28,fr19_x7).
body(r_fr2_28,fr2_a1).
body(r_fr2_28,fr2_a3).
body(r_fr2_28,fr2_b4).
body(r_fr2_28,fr2_d4).
body(r_fr2_28,fr2_e3).
body(r_fr2_28,fr2_v3).
head(r_fr2_29,fr7_w4).
body(r_fr2_29,fr2_c4).
body(r_fr2_29,fr2_f4).
body(r_fr2_29,fr2_s3).
body(r_fr2_29,fr12_p3).
body(r_fr2_29,fr2_u2).
body(r_fr2_29,fr2_y3).
head(r_fr2_30,fr7_w4).
body(r_fr2_30,fr2_v3).
body(r_fr2_30,fr2_w2).
body(r_fr2_30,fr2_x3).
head(r_fr2_31,fr12_u2).
body(r_fr2_31,fr2_r2).
body(r_fr2_31,fr2_r3).
head(r_fr2_32,fr12_u2).
body(r_fr2_32,fr2_e1).
body(r_fr2_32,fr17_w1).
body(r_fr2_32,fr2_u1).
body(r_fr2_32,fr24_s1).
body(r_fr2_32,fr2_w1).
body(r_fr2_32,fr2_x3).
body(r_fr2_32,fr2_y3).
head(r_fr2_33,fr17_w1).
body(r_fr2_33,fr3_e1).
body(r_fr2_33,fr2_b4).
body(r_fr2_33,fr3_a1).
body(r_fr2_33,fr2_a1).
body(r_fr2_33,fr2_f4).
body(r_fr2_33,fr2_r2).
body(r_fr2_33,fr20_p1).
body(r_fr2_33,fr24_s1).
body(r_fr2_33,fr20_p1).
head(r_fr2_34,fr17_w1).
body(r_fr2_34,fr23_r2).
body(r_fr2_34,fr2_u4).
head(r_fr2_35,fr17_w1).
head(r_fr2_36,fr2_y2).
body(r_fr2_36,fr2_d4).
body(r_fr2_36,fr2_e3).
body(r_fr2_36,fr2_e4).
body(r_fr2_36,fr2_v4).
head(r_fr2_37,fr2_y2).
body(r_fr2_37,fr23_r2).
body(r_fr2_37,fr2_u4).
body(r_fr2_37,fr2_w2).
head(r_fr2_38,fr2_y2).
head(r_fr2_39,fr2_y2).
body(r_fr2_39,fr2_b2).
body(r_fr2_39,fr2_b4).
body(r_fr2_39,fr2_e3).
body(r_fr2_39,fr12_u2).
body(r_fr2_39,fr20_p1).
body(r_fr2_39,fr2_t1).
body(r_fr2_39,fr12_p3).
body(r_fr2_39,fr2_u1).
head(r_fr2_40,fr2_y2).
body(r_fr2_40,fr2_a1).
body(r_fr2_40,fr2_b1).
body(r_fr2_40,fr3_a1).
body(r_fr2_40,fr2_e4).
body(r_fr2_40,fr24_s1).
body(r_fr2_40,fr19_v1).
body(r_fr2_40,fr2_x3).
head(r_fr2_41,fr2_y2).
body(r_fr2_41,fr2_a1).
body(r_fr2_41,fr2_c1).
body(r_fr2_41,fr2_f4).
body(r_fr2_41,fr2_p4).
body(r_fr2_41,fr2_s3).
head(r_fr2_42,fr2_y2).
body(r_fr2_42,fr2_b2).
body(r_fr2_42,fr2_d4).
body(r_fr2_42,fr2_f4).
body(r_fr2_42,fr19_x7).
body(r_fr2_42,fr23_r2).
head(r_fr2_43,fr2_y2).
body(r_fr2_43,fr2_e3).
body(r_fr2_43,fr2_p4).
body(r_fr2_43,fr2_q1).
body(r_fr2_43,fr7_w4).
body(r_fr2_43,fr17_w1).
body(r_fr2_43,fr24_s1).
body(r_fr2_43,fr2_w2).
body(r_fr2_43,fr2_w3).
body(r_fr2_43,fr2_z2).
head(r_fr2_44,fr7_s6).
body(r_fr2_44,fr2_s4).
body(r_fr2_44,fr2_w3).
head(r_fr2_45,fr7_s6).
body(r_fr2_45,fr2_a1).
body(r_fr2_45,fr2_e2).
body(r_fr2_45,fr2_f4).
head(r_fr2_46,fr7_s6).
body(r_fr2_46,fr2_a1).
body(r_fr2_46,fr2_b2).
body(r_fr2_46,fr2_b4).
body(r_fr2_46,fr2_e2).
body(r_fr2_46,fr2_f1).
body(r_fr2_46,fr2_p4).
head(r_fr2_47,fr7_s6).
body(r_fr2_47,fr2_c4).
body(r_fr2_47,fr2_e2).
body(r_fr2_47,fr5_x2).
body(r_fr2_47,fr2_p3).
body(r_fr2_47,fr2_r1).
body(r_fr2_47,fr2_u1).
body(r_fr2_47,fr2_v4).
body(r_fr2_47,fr2_z2).
head(r_fr2_48,fr7_s6).
body(r_fr2_48,fr2_e2).
body(r_fr2_48,fr17_w1).
head(r_fr2_49,fr7_s6).
body(r_fr2_49,fr2_d4).
head(r_fr2_50,fr7_s6).
body(r_fr2_50,fr2_u1).
body(r_fr2_50,fr2_y2).
head(r_fr2_51,fr2_w3).
body(r_fr2_51,fr2_b1).
body(r_fr2_51,fr24_s1).
head(r_fr2_52,fr2_w3).
body(r_fr2_52,fr7_w4).
body(r_fr2_52,fr2_r3).
body(r_fr2_52,fr20_p1).
body(r_fr2_52,fr2_t1).
body(r_fr2_52,fr2_v3).
body(r_fr2_52,fr2_v4).
body(r_fr2_52,fr2_w1).
body(r_fr2_52,fr8_p2).
body(r_fr2_52,fr2_z2).
head(r_fr2_53,fr2_w3).
body(r_fr2_53,fr2_c3).
body(r_fr2_53,fr2_p3).
body(r_fr2_53,fr2_q1).
body(r_fr2_53,fr20_p1).
body(r_fr2_53,fr20_p1).
head(r_fr2_54,fr2_w3).
body(r_fr2_54,fr2_d3).
body(r_fr2_54,fr2_e2).
body(r_fr2_54,fr2_r1).
body(r_fr2_54,fr2_w2).
body(r_fr2_54,fr2_x3).
head(r_fr2_55,fr2_w3).
body(r_fr2_55,fr2_a3).
body(r_fr2_55,fr2_e2).
body(r_fr2_55,fr19_x7).
body(r_fr2_55,fr5_x2).
body(r_fr2_55,fr2_s4).
body(r_fr2_55,fr2_y2).
head(r_fr2_56,fr2_w3).
body(r_fr2_56,fr19_v1).
head(r_fr2_57,fr2_w3).
body(r_fr2_57,fr3_e1).
body(r_fr2_57,fr2_c3).
body(r_fr2_57,fr3_a1).
body(r_fr2_57,fr2_a1).
body(r_fr2_57,fr2_e1).
body(r_fr2_57,fr2_f4).
body(r_fr2_57,fr16_a3).
body(r_fr2_57,fr2_r2).
body(r_fr2_57,fr19_v1).
head(r_fr2_58,fr2_y1).
body(r_fr2_58,fr3_e1).
body(r_fr2_58,fr2_b1).
body(r_fr2_58,fr2_b4).
body(r_fr2_58,fr2_e2).
body(r_fr2_58,fr2_f1).
body(r_fr2_58,fr16_a3).
body(r_fr2_58,fr2_p3).
body(r_fr2_58,fr2_s2).
head(r_fr2_59,fr2_y1).
body(r_fr2_59,fr2_a1).
body(r_fr2_59,fr3_e1).
body(r_fr2_59,fr2_c4).
body(r_fr2_59,fr2_e4).
body(r_fr2_59,fr16_a3).
body(r_fr2_59,fr2_s4).
head(r_fr2_60,fr2_y1).
body(r_fr2_60,fr2_b2).
body(r_fr2_60,fr3_a1).
body(r_fr2_60,fr2_e1).
body(r_fr2_60,fr2_e2).
body(r_fr2_60,fr2_e4).
body(r_fr2_60,fr2_f4).
body(r_fr2_60,fr12_p3).
head(r_fr2_61,fr2_y1).
body(r_fr2_61,fr2_b2).
body(r_fr2_61,fr2_c2).
body(r_fr2_61,fr2_c4).
body(r_fr2_61,fr2_e3).
body(r_fr2_61,fr2_f4).
body(r_fr2_61,fr2_f4).
body(r_fr2_61,fr2_s4).
head(r_fr2_62,fr2_y1).
body(r_fr2_62,fr5_x2).
body(r_fr2_62,fr7_s6).
body(r_fr2_62,fr2_r2).
body(r_fr2_62,fr23_r2).
body(r_fr2_62,fr8_p2).
body(r_fr2_62,fr2_y2).
head(r_fr2_63,fr2_y1).
body(r_fr2_63,fr2_e3).
head(r_fr2_64,fr2_y1).
body(r_fr2_64,fr2_b1).
body(r_fr2_64,fr2_c2).
body(r_fr2_64,fr3_a1).
body(r_fr2_64,fr2_f4).
body(r_fr2_64,fr2_r3).
body(r_fr2_64,fr2_z2).
head(r_fr2_65,fr12_p3).
body(r_fr2_65,fr2_b2).
body(r_fr2_65,fr2_b4).
body(r_fr2_65,fr2_c4).
body(r_fr2_65,fr2_a1).
body(r_fr2_65,fr2_d3).
body(r_fr2_65,fr2_e3).
body(r_fr2_65,fr2_f1).
body(r_fr2_65,fr16_a3).
body(r_fr2_65,fr2_f4).
head(r_fr2_66,fr12_p3).
body(r_fr2_66,fr2_c1).
body(r_fr2_66,fr2_a1).
body(r_fr2_66,fr23_r2).
body(r_fr2_66,fr2_t1).
body(r_fr2_66,fr8_p2).
body(r_fr2_66,fr8_p2).
body(r_fr2_66,fr2_x3).
body(r_fr2_66,fr2_y2).
head(r_fr2_67,fr12_p3).
head(r_fr2_68,fr20_p1).
body(r_fr2_68,fr2_s3).
head(r_fr2_69,fr20_p1).
body(r_fr2_69,fr20_p1).
body(r_fr2_69,fr2_s3).
body(r_fr2_69,fr17_w1).
body(r_fr2_69,fr8_p2).
head(r_fr2_70,fr20_p1).
body(r_fr2_70,fr2_e2).
body(r_fr2_70,fr2_e4).
body(r_fr2_70,fr2_f4).
body(r_fr2_70,fr2_r3).
body(r_fr2_70,fr23_r2).
body(r_fr2_70,fr8_p2).
body(r_fr2_70,fr2_u4).
body(r_fr2_70,fr2_w3).
body(r_fr2_70,fr19_v1).
head(r_fr2_71,fr20_p1).
body(r_fr2_71,fr2_b2).
head(r_fr2_72,fr20_p1).
body(r_fr2_72,fr2_w2).
body(r_fr2_72,fr8_p2).
head(r_fr2_73,fr2_s4).
body(r_fr2_73,fr2_s2).
body(r_fr2_73,fr2_s3).
body(r_fr2_73,fr23_r2).
head(r_fr2_74,fr2_s4).
body(r_fr2_74,fr2_a1).
body(r_fr2_74,fr2_a3).
head(r_fr2_75,fr2_s4).
body(r_fr2_75,fr2_f4).
body(r_fr2_75,fr2_w3).
head(r_fr2_76,fr2_s4).
body(r_fr2_76,fr2_b1).
head(r_fr2_77,fr2_s4).
body(r_fr2_77,fr5_x2).
body(r_fr2_77,fr2_r2).
body(r_fr2_77,fr2_r3).
body(r_fr2_77,fr23_r2).
body(r_fr2_77,fr2_s2).
body(r_fr2_77,fr17_w1).
body(r_fr2_77,fr2_w1).
head(r_fr2_78,fr2_s4).
body(r_fr2_78,fr2_b1).
body(r_fr2_78,fr3_a1).
body(r_fr2_78,fr2_e1).
body(r_fr2_78,fr16_a3).
body(r_fr2_78,fr2_p3).
body(r_fr2_78,fr14_s2).
head(r_fr2_79,fr2_s4).
head(r_fr2_80,fr2_s4).
body(r_fr2_80,fr2_f1).
body(r_fr2_80,fr2_w3).
head(r_fr2_81,fr2_w1).
body(r_fr2_81,fr2_s2).
head(r_fr2_82,fr2_w1).
body(r_fr2_82,fr2_a1).
body(r_fr2_82,fr2_c2).
body(r_fr2_82,fr2_c4).
body(r_fr2_82,fr2_d3).
body(r_fr2_82,fr2_e1).
body(r_fr2_82,fr2_f4).
body(r_fr2_82,fr19_x7).
body(r_fr2_82,fr7_w4).
body(r_fr2_82,fr2_s4).
head(r_fr2_83,fr2_w1).
body(r_fr2_83,fr2_e2).
body(r_fr2_83,fr2_s4).
head(r_fr2_84,fr2_w1).
body(r_fr2_84,fr3_e1).
body(r_fr2_84,fr2_f4).
body(r_fr2_84,fr5_x2).
body(r_fr2_84,fr2_s2).
body(r_fr2_84,fr8_p2).
body(r_fr2_84,fr19_v1).
body(r_fr2_84,fr2_y1).
head(r_fr2_85,fr2_w1).
body(r_fr2_85,fr2_a1).
body(r_fr2_85,fr3_e1).
body(r_fr2_85,fr2_c3).
body(r_fr2_85,fr2_f1).
body(r_fr2_85,fr16_a3).
body(r_fr2_85,fr8_p2).
head(r_fr2_86,fr2_w1).
body(r_fr2_86,fr2_e3).
body(r_fr2_86,fr2_r2).
body(r_fr2_86,fr17_w1).
body(r_fr2_86,fr23_r2).
body(r_fr2_86,fr14_s2).
body(r_fr2_86,fr2_w3).
body(r_fr2_86,fr2_z3).
head(r_fr2_87,fr2_w1).
body(r_fr2_87,fr2_b1).
body(r_fr2_87,fr2_e4).
body(r_fr2_87,fr5_x2).
head(r_fr2_88,fr2_w1).
body(r_fr2_88,fr2_e2).
body(r_fr2_88,fr2_f1).
head(r_fr2_89,fr2_p3).
body(r_fr2_89,fr2_r3).
body(r_fr2_89,fr23_r2).
body(r_fr2_89,fr24_s1).
body(r_fr2_89,fr2_w1).
body(r_fr2_89,fr2_y2).
body(r_fr2_89,fr2_z3).
head(r_fr2_90,fr2_p3).
body(r_fr2_90,fr2_a3).
body(r_fr2_90,fr2_q1).
body(r_fr2_90,fr2_s3).
body(r_fr2_90,fr2_u1).
head(r_fr2_91,fr2_p3).
body(r_fr2_91,fr5_x2).
body(r_fr2_91,fr2_r3).
body(r_fr2_91,fr2_s2).
body(r_fr2_91,fr2_s3).
body(r_fr2_91,fr23_r2).
body(r_fr2_91,fr2_x3).
body(r_fr2_91,fr2_y1).
body(r_fr2_91,fr2_y2).
body(r_fr2_91,fr2_y3).
head(r_fr2_92,fr2_p3).
body(r_fr2_92,fr3_a1).
body(r_fr2_92,fr2_b4).
body(r_fr2_92,fr2_c2).
body(r_fr2_92,fr2_c4).
body(r_fr2_92,fr3_a1).
body(r_fr2_92,fr2_e3).
body(r_fr2_92,fr2_u4).
head(r_fr2_93,fr2_p3).
body(r_fr2_93,fr2_c2).
body(r_fr2_93,fr2_c3).
head(r_fr2_94,fr2_t1).
body(r_fr2_94,fr2_b2).
body(r_fr2_94,fr3_a1).
body(r_fr2_94,fr2_b4).
body(r_fr2_94,fr2_c3).
body(r_fr2_94,fr5_x2).
body(r_fr2_94,fr2_p3).
body(r_fr2_94,fr8_p2).
body(r_fr2_94,fr8_p2).
head(r_fr2_95,fr2_t1).
body(r_fr2_95,fr3_e1).
body(r_fr2_95,fr3_a1).
body(r_fr2_95,fr2_r1).
body(r_fr2_95,fr20_p1).
body(r_fr2_95,fr2_u1).
body(r_fr2_95,fr8_p2).
body(r_fr2_95,fr2_v3).
head(r_fr2_96,fr2_t1).
head(r_fr2_97,fr5_x2).
body(r_fr2_97,fr2_a1).
body(r_fr2_97,fr2_a3).
body(r_fr2_97,fr2_b4).
body(r_fr2_97,fr2_f1).
body(r_fr2_97,fr2_f4).
body(r_fr2_97,fr16_a3).
head(r_fr2_98,fr5_x2).
body(r_fr2_98,fr2_a3).
body(r_fr2_98,fr2_c1).
body(r_fr2_98,fr2_e1).
body(r_fr2_98,fr7_w4).
head(r_fr2_99,fr5_x2).
body(r_fr2_99,fr2_a1).
head(r_fr2_100,fr5_x2).
head(r_fr2_101,fr5_x2).
body(r_fr2_101,fr19_x7).
body(r_fr2_101,fr2_u2).
body(r_fr2_101,fr8_p2).
body(r_fr2_101,fr20_p1).
head(r_fr2_102,fr5_x2).
body(r_fr2_102,fr19_x7).
head(r_fr2_103,fr2_u4).
body(r_fr2_103,fr2_p4).
body(r_fr2_103,fr7_w4).
body(r_fr2_103,fr2_s4).
body(r_fr2_103,fr2_t1).
body(r_fr2_103,fr17_w1).
body(r_fr2_103,fr8_p2).
body(r_fr2_103,fr24_s1).
body(r_fr2_103,fr2_w2).
head(r_fr2_104,fr2_u4).
body(r_fr2_104,fr2_e4).
body(r_fr2_104,fr5_x2).
body(r_fr2_104,fr7_w4).
head(r_fr2_105,fr2_u4).
body(r_fr2_105,fr2_a1).
body(r_fr2_105,fr3_a1).
body(r_fr2_105,fr2_c4).
body(r_fr2_105,fr3_a1).
body(r_fr2_105,fr23_r2).
head(r_fr2_106,fr2_u4).
body(r_fr2_106,fr2_a1).
body(r_fr2_106,fr2_c2).
body(r_fr2_106,fr2_e2).
body(r_fr2_106,fr2_s4).
head(r_fr2_107,fr2_u4).
body(r_fr2_107,fr2_a1).
body(r_fr2_107,fr2_b2).
body(r_fr2_107,fr2_b4).
body(r_fr2_107,fr2_c2).
body(r_fr2_107,fr16_a3).
body(r_fr2_107,fr2_f4).
body(r_fr2_107,fr7_w4).
body(r_fr2_107,fr20_p1).
body(r_fr2_107,fr2_u2).
head(r_fr2_108,fr2_u4).
body(r_fr2_108,fr3_e1).
body(r_fr2_108,fr2_b2).
body(r_fr2_108,fr2_f4).
body(r_fr2_108,fr2_s2).
body(r_fr2_108,fr2_y3).
head(r_fr2_109,fr14_s2).
body(r_fr2_109,fr2_a1).
body(r_fr2_109,fr2_a3).
body(r_fr2_109,fr2_b1).
body(r_fr2_109,fr2_b4).
body(r_fr2_109,fr2_c3).
body(r_fr2_109,fr16_a3).
body(r_fr2_109,fr2_f4).
head(r_fr2_110,fr14_s2).
body(r_fr2_110,fr7_s6).
head(r_fr2_111,fr14_s2).
body(r_fr2_111,fr17_w1).
body(r_fr2_111,fr2_y1).
head(r_fr2_112,fr14_s2).
body(r_fr2_112,fr2_a3).
body(r_fr2_112,fr3_e1).
body(r_fr2_112,fr3_a1).
body(r_fr2_112,fr2_r2).
body(r_fr2_112,fr2_u1).
body(r_fr2_112,fr2_v3).
head(r_fr2_113,fr2_x3).
head(r_fr2_114,fr2_x3).
body(r_fr2_114,fr2_c4).
body(r_fr2_114,fr2_e2).
body(r_fr2_114,fr2_f4).
body(r_fr2_114,fr16_a3).
head(r_fr2_115,fr2_x3).
body(r_fr2_115,fr2_c4).
body(r_fr2_115,fr2_e1).
body(r_fr2_115,fr2_e2).
body(r_fr2_115,fr2_f1).
body(r_fr2_115,fr2_s4).
head(r_fr2_116,fr2_x3).
body(r_fr2_116,fr2_e3).
body(r_fr2_116,fr2_v3).
body(r_fr2_116,fr2_z3).
head(r_fr2_117,fr2_x3).
body(r_fr2_117,fr3_e1).
body(r_fr2_117,fr2_b1).
body(r_fr2_117,fr2_a1).
body(r_fr2_117,fr2_d3).
body(r_fr2_117,fr2_e1).
body(r_fr2_117,fr2_e4).
body(r_fr2_117,fr16_a3).
body(r_fr2_117,fr19_v1).
head(r_fr2_118,fr2_x3).
body(r_fr2_118,fr7_s6).
body(r_fr2_118,fr2_r1).
body(r_fr2_118,fr2_r3).
body(r_fr2_118,fr23_r2).
body(r_fr2_118,fr2_w3).
body(r_fr2_118,fr2_y3).
body(r_fr2_118,fr2_z2).
head(r_fr2_119,fr2_v3).
body(r_fr2_119,fr3_a1).
body(r_fr2_119,fr2_c1).
body(r_fr2_119,fr2_c4).
body(r_fr2_119,fr2_e3).
body(r_fr2_119,fr23_r2).
head(r_fr2_120,fr2_v3).
head(r_fr2_121,fr2_v3).
body(r_fr2_121,fr2_b1).
body(r_fr2_121,fr16_a3).
body(r_fr2_121,fr2_y2).
head(r_fr2_122,fr2_v3).
body(r_fr2_122,fr20_p1).
head(r_fr2_123,fr8_p2).
body(r_fr2_123,fr7_s6).
body(r_fr2_123,fr2_r1).
body(r_fr2_123,fr23_r2).
head(r_fr2_124,fr8_p2).
body(r_fr2_124,fr19_x7).
body(r_fr2_124,fr7_w4).
head(r_fr2_125,fr8_p2).
body(r_fr2_125,fr3_a1).
body(r_fr2_125,fr2_a1).
body(r_fr2_125,fr2_f4).
body(r_fr2_125,fr17_w1).
head(r_fr2_126,fr2_u2).
body(r_fr2_126,fr2_b2).
body(r_fr2_126,fr2_c4).
body(r_fr2_126,fr2_a1).
body(r_fr2_126,fr2_f4).
body(r_fr2_126,fr2_s3).
body(r_fr2_126,fr2_t1).
head(r_fr2_127,fr2_u2).
body(r_fr2_127,fr2_a1).
body(r_fr2_127,fr2_a3).
body(r_fr2_127,fr2_c4).
body(r_fr2_127,fr3_a1).
body(r_fr2_127,fr2_d3).
body(r_fr2_127,fr2_e4).
body(r_fr2_127,fr2_f1).
body(r_fr2_127,fr16_a3).
head(r_fr2_128,fr2_u2).
body(r_fr2_128,fr2_c3).
body(r_fr2_128,fr3_a1).
body(r_fr2_128,fr2_f4).
body(r_fr2_128,fr2_f4).
body(r_fr2_128,fr2_p4).
body(r_fr2_128,fr23_r2).
body(r_fr2_128,fr2_z2).
head(r_fr2_129,fr2_u2).
body(r_fr2_129,fr2_c3).
head(r_fr2_130,fr2_u2).
body(r_fr2_130,fr2_b1).
body(r_fr2_130,fr2_c1).
body(r_fr2_130,fr2_c2).
body(r_fr2_130,fr2_c3).
body(r_fr2_130,fr2_e3).
body(r_fr2_130,fr2_f1).
body(r_fr2_130,fr16_a3).
body(r_fr2_130,fr8_p2).
head(r_fr2_131,fr2_u2).
body(r_fr2_131,fr2_c1).
body(r_fr2_131,fr2_c3).
body(r_fr2_131,fr2_c4).
body(r_fr2_131,fr2_d4).
body(r_fr2_131,fr2_p3).
body(r_fr2_131,fr2_r2).
body(r_fr2_131,fr2_s2).
body(r_fr2_131,fr17_w1).
body(r_fr2_131,fr14_s2).
head(r_fr2_132,fr2_u2).
body(r_fr2_132,fr2_f1).
body(r_fr2_132,fr5_x2).
body(r_fr2_132,fr2_r2).
body(r_fr2_132,fr23_r2).
body(r_fr2_132,fr2_w3).
head(r_fr2_133,fr2_u2).
body(r_fr2_133,fr2_b1).
body(r_fr2_133,fr2_d4).
body(r_fr2_133,fr2_t1).
head(r_fr2_134,fr2_z3).
body(r_fr2_134,fr2_a1).
body(r_fr2_134,fr2_c2).
body(r_fr2_134,fr2_e3).
body(r_fr2_134,fr16_a3).
body(r_fr2_134,fr2_f4).
head(r_fr2_135,fr2_z3).
body(r_fr2_135,fr2_c2).
body(r_fr2_135,fr2_e3).
body(r_fr2_135,fr16_a3).
body(r_fr2_135,fr20_p1).
body(r_fr2_135,fr2_u2).
body(r_fr2_135,fr2_v3).
body(r_fr2_135,fr8_p2).
body(r_fr2_135,fr2_x3).
head(r_fr2_136,fr2_z3).
body(r_fr2_136,fr2_a3).
body(r_fr2_136,fr3_e1).
body(r_fr2_136,fr2_c1).
body(r_fr2_136,fr2_e1).
body(r_fr2_136,fr2_e3).
body(r_fr2_136,fr16_a3).
body(r_fr2_136,fr2_t1).
body(r_fr2_136,fr2_v4).
head(r_fr2_137,fr2_z3).
body(r_fr2_137,fr2_a1).
body(r_fr2_137,fr2_a3).
body(r_fr2_137,fr2_a1).
body(r_fr2_137,fr2_d3).
body(r_fr2_137,fr2_e2).
body(r_fr2_137,fr2_q1).
head(r_fr2_138,fr2_z3).
body(r_fr2_138,fr2_a1).
body(r_fr2_138,fr2_c1).
body(r_fr2_138,fr2_c4).
body(r_fr2_138,fr2_e1).
body(r_fr2_138,fr2_e4).
head(r_fr2_139,fr2_z3).
body(r_fr2_139,fr2_a1).
body(r_fr2_139,fr2_b4).
body(r_fr2_139,fr2_c1).
body(r_fr2_139,fr2_s4).
body(r_fr2_139,fr12_p3).
body(r_fr2_139,fr2_u1).
body(r_fr2_139,fr19_v1).
head(r_fr2_140,fr2_w2).
head(r_fr2_141,fr2_w2).
body(r_fr2_141,fr16_a3).
body(r_fr2_141,fr14_s2).
head(r_fr2_142,fr2_w2).
body(r_fr2_142,fr3_a1).
body(r_fr2_142,fr2_f4).
body(r_fr2_142,fr2_y3).
head(r_fr2_143,fr2_w2).
body(r_fr2_143,fr2_e2).
body(r_fr2_143,fr19_x7).
body(r_fr2_143,fr2_v3).
head(r_fr2_144,fr2_w2).
body(r_fr2_144,fr3_e1).
body(r_fr2_144,fr2_d4).
body(r_fr2_144,fr2_e1).
body(r_fr2_144,fr2_f1).
body(r_fr2_144,fr2_r1).
body(r_fr2_144,fr17_w1).
body(r_fr2_144,fr2_y1).
head(r_fr2_145,fr2_w2).
body(r_fr2_145,fr2_a3).
body(r_fr2_145,fr2_e1).
body(r_fr2_145,fr16_a3).
body(r_fr2_145,fr2_p4).
body(r_fr2_145,fr7_w4).
body(r_fr2_145,fr2_r3).
body(r_fr2_145,fr14_s2).
head(r_fr2_146,fr2_y3).
body(r_fr2_146,fr2_e1).
body(r_fr2_146,fr7_w4).
body(r_fr2_146,fr2_z3).
head(r_fr2_147,fr2_y3).
body(r_fr2_147,fr2_b2).
body(r_fr2_147,fr2_c1).
body(r_fr2_147,fr2_a1).
body(r_fr2_147,fr2_f4).
body(r_fr2_147,fr2_r2).
body(r_fr2_147,fr2_u1).
body(r_fr2_147,fr20_p1).
body(r_fr2_147,fr2_z3).
head(r_fr2_148,fr2_y3).
body(r_fr2_148,fr2_c4).
head(r_fr2_149,fr2_y3).
body(r_fr2_149,fr2_c3).
body(r_fr2_149,fr2_e1).
body(r_fr2_149,fr23_r2).
body(r_fr2_149,fr2_z2).
head(r_fr2_150,fr2_r2).
body(r_fr2_150,fr2_e4).
body(r_fr2_150,fr2_r1).
head(r_fr2_151,fr2_r2).
body(r_fr2_151,fr2_e3).
head(r_fr2_152,fr2_r2).
body(r_fr2_152,fr2_a1).
body(r_fr2_152,fr2_a1).
body(r_fr2_152,fr2_b1).
body(r_fr2_152,fr2_c4).
body(r_fr2_152,fr3_a1).
body(r_fr2_152,fr2_e4).
body(r_fr2_152,fr2_f4).
body(r_fr2_152,fr16_a3).
body(r_fr2_152,fr2_f4).
head(r_fr2_153,fr2_r2).
body(r_fr2_153,fr2_c3).
head(r_fr2_154,fr2_p4).
body(r_fr2_154,fr2_q1).
body(r_fr2_154,fr23_r2).
body(r_fr2_154,fr2_x3).
head(r_fr2_155,fr2_p4).
body(r_fr2_155,fr17_w1).
body(r_fr2_155,fr2_u4).
body(r_fr2_155,fr24_s1).
body(r_fr2_155,fr2_z3).
head(r_fr2_156,fr2_p4).
body(r_fr2_156,fr2_c3).
body(r_fr2_156,fr3_a1).
body(r_fr2_156,fr16_a3).
head(r_fr2_157,fr2_s3).
body(r_fr2_157,fr2_a1).
body(r_fr2_157,fr2_a3).
body(r_fr2_157,fr2_b1).
body(r_fr2_157,fr2_c2).
body(r_fr2_157,fr2_c4).
body(r_fr2_157,fr3_a1).
head(r_fr2_158,fr2_s3).
body(r_fr2_158,fr2_a1).
body(r_fr2_158,fr3_a1).
body(r_fr2_158,fr2_e1).
body(r_fr2_158,fr2_f4).
body(r_fr2_158,fr2_u1).
head(r_fr2_159,fr2_s3).
body(r_fr2_159,fr5_x2).
head(r_fr2_160,fr2_s3).
body(r_fr2_160,fr2_f4).
head(r_fr2_161,fr19_v1).
body(r_fr2_161,fr2_q1).
body(r_fr2_161,fr2_u1).
body(r_fr2_161,fr2_u2).
body(r_fr2_161,fr20_p1).
head(r_fr2_162,fr19_v1).
body(r_fr2_162,fr2_y1).
head(r_fr2_163,fr19_v1).
body(r_fr2_163,fr2_b2).
body(r_fr2_163,fr2_c2).
body(r_fr2_163,fr3_a1).
body(r_fr2_163,fr2_d3).
body(r_fr2_163,fr2_e1).
body(r_fr2_163,fr2_f4).
body(r_fr2_163,fr5_x2).
body(r_fr2_163,fr7_s6).
body(r_fr2_163,fr20_p1).

assumption(fr3_a1).
assumption(fr2_f4).
assumption(fr3_c1).
assumption(fr3_d1).
assumption(fr3_e1).
assumption(fr3_a1).
assumption(fr2_a1).
assumption(fr3_a1).
assumption(fr2_a1).
assumption(fr3_d2).
assumption(fr3_e2).
assumption(fr3_f2).
assumption(fr19_c1).
assumption(fr3_b3).
assumption(fr3_a1).
contrary(fr3_a1,fr21_s1).
contrary(fr2_a1,fr3_a1).
contrary(fr19_c1,fr3_w2).
contrary(fr2_f4,fr9_s2).
contrary(fr3_a1,fr3_w3).
contrary(fr3_b3,fr3_p1).
contrary(fr3_c1,fr17_w1).
contrary(fr2_a1,fr19_y3).
contrary(fr3_a1,fr17_w1).
contrary(fr3_d1,fr20_p1).
contrary(fr3_d2,fr15_v1).
contrary(fr3_e1,fr19_y3).
contrary(fr3_e2,fr2_a1).
contrary(fr3_a1,fr3_x2).
contrary(fr3_f2,fr19_v1).
head(r_fr3_0,fr17_w1).
body(r_fr3_0,fr19_y3).
head(r_fr3_1,fr17_w1).
head(r_fr3_2,fr20_p1).
head(r_fr3_3,fr20_p1).
body(r_fr3_3,fr3_y2).
head(r_fr3_4,fr3_z1).
body(r_fr3_4,fr3_y2).
head(r_fr3_5,fr3_z1).
body(r_fr3_5,fr8_z1).
body(r_fr3_5,fr17_w1).
head(r_fr3_6,fr3_z1).
body(r_fr3_6,fr2_a1).
body(r_fr3_6,fr2_f4).
body(r_fr3_6,fr3_d1).
head(r_fr3_7,fr3_z1).
body(r_fr3_7,fr3_a1).
body(r_fr3_7,fr20_p1).
body(r_fr3_7,fr20_p1).
head(r_fr3_8,fr3_z1).
body(r_fr3_8,fr19_c1).
body(r_fr3_8,fr3_b3).
body(r_fr3_8,fr3_a1).
head(r_fr3_9,fr19_y3).
body(r_fr3_9,fr3_r2).
body(r_fr3_9,fr20_q3).
head(r_fr3_10,fr19_y3).
body(r_fr3_10,fr3_b3).
body(r_fr3_10,fr3_f2).
body(r_fr3_10,fr3_x1).
head(r_fr3_11,fr19_y3).
body(r_fr3_11,fr3_p3).
body(r_fr3_11,fr17_w1).
body(r_fr3_11,fr9_s2).
head(r_fr3_12,fr19_y3).
head(r_fr3_13,fr20_p1).
body(r_fr3_13,fr3_d1).
head(r_fr3_14,fr20_p1).
body(r_fr3_14,fr17_w1).
head(r_fr3_15,fr17_w1).
body(r_fr3_15,fr3_a1).
body(r_fr3_15,fr3_f2).
head(r_fr3_16,fr17_w1).
body(r_fr3_16,fr3_a1).
body(r_fr3_16,fr3_a1).
head(r_fr3_17,fr17_w1).
head(r_fr3_18,fr17_w1).
body(r_fr3_18,fr3_a1).
body(r_fr3_18,fr3_t2).
head(r_fr3_19,fr3_w2).
body(r_fr3_19,fr3_u2).
head(r_fr3_20,fr3_w2).
body(r_fr3_20,fr3_f2).
head(r_fr3_21,fr3_w2).
head(r_fr3_22,fr3_w2).
body(r_fr3_22,fr2_f4).
body(r_fr3_22,fr3_c1).
body(r_fr3_22,fr2_a1).
head(r_fr3_23,fr3_w2).
body(r_fr3_23,fr15_v1).
head(r_fr3_24,fr3_u2).
body(r_fr3_24,fr3_b3).
body(r_fr3_24,fr3_c1).
body(r_fr3_24,fr2_a1).
head(r_fr3_25,fr3_u2).
body(r_fr3_25,fr3_p3).
body(r_fr3_25,fr3_p4).
head(r_fr3_26,fr3_u2).
body(r_fr3_26,fr3_d1).
body(r_fr3_26,fr3_d2).
head(r_fr3_27,fr3_u2).
head(r_fr3_28,fr21_s1).
head(r_fr3_29,fr21_s1).
body(r_fr3_29,fr2_f4).
body(r_fr3_29,fr2_a1).
body(r_fr3_29,fr3_f2).
head(r_fr3_30,fr3_x2).
body(r_fr3_30,fr3_p4).
body(r_fr3_30,fr3_t2).
body(r_fr3_30,fr3_w3).
head(r_fr3_31,fr3_x2).
body(r_fr3_31,fr2_a1).
body(r_fr3_31,fr17_w1).
body(r_fr3_31,fr20_p1).
head(r_fr3_32,fr3_x2).
body(r_fr3_32,fr3_d2).
body(r_fr3_32,fr3_p1).
body(r_fr3_32,fr3_w3).
head(r_fr3_33,fr3_x2).
body(r_fr3_33,fr20_p1).
body(r_fr3_33,fr3_z1).
head(r_fr3_34,fr3_x2).
body(r_fr3_34,fr3_t2).
body(r_fr3_34,fr17_w1).
body(r_fr3_34,fr3_w3).
head(r_fr3_35,fr19_v1).
body(r_fr3_35,fr3_b3).
body(r_fr3_35,fr3_u2).
head(r_fr3_36,fr19_v1).
body(r_fr3_36,fr3_w3).
head(r_fr3_37,fr3_p4).
body(r_fr3_37,fr3_p1).
head(r_fr3_38,fr3_p4).
body(r_fr3_38,fr3_z1).
head(r_fr3_39,fr3_p4).
body(r_fr3_39,fr16_y2).
body(r_fr3_39,fr17_w1).
head(r_fr3_40,fr3_p4).
head(r_fr3_41,fr3_p4).
body(r_fr3_41,fr19_v1).
head(r_fr3_42,fr2_x3).
body(r_fr3_42,fr3_b3).
body(r_fr3_42,fr3_d2).
body(r_fr3_42,fr3_w2).
head(r_fr3_43,fr2_x3).
head(r_fr3_44,fr9_s2).
body(r_fr3_44,fr3_a1).
body(r_fr3_44,fr8_z1).
head(r_fr3_45,fr9_s2).
body(r_fr3_45,fr3_a1).
body(r_fr3_45,fr3_d1).
body(r_fr3_45,fr3_e1).
head(r_fr3_46,fr19_y3).
body(r_fr3_46,fr3_c1).
body(r_fr3_46,fr19_v1).
head(r_fr3_47,fr19_y3).
body(r_fr3_47,fr20_p1).
head(r_fr3_48,fr20_q3).
body(r_fr3_48,fr16_y2).
body(r_fr3_48,fr3_w3).
body(r_fr3_48,fr2_x3).
head(r_fr3_49,fr20_q3).
body(r_fr3_49,fr2_a1).
head(r_fr3_50,fr20_q3).
body(r_fr3_50,fr3_r2).
head(r_fr3_51,fr20_q3).
head(r_fr3_52,fr3_z2).
body(r_fr3_52,fr3_f2).
body(r_fr3_52,fr3_z3).
head(r_fr3_53,fr3_z2).
body(r_fr3_53,fr19_c1).
head(r_fr3_54,fr3_z2).
body(r_fr3_54,fr3_c1).
body(r_fr3_54,fr17_w1).
head(r_fr3_55,fr3_z2).
body(r_fr3_55,fr3_d2).
body(r_fr3_55,fr3_u2).
body(r_fr3_55,fr20_p1).
head(r_fr3_56,fr17_w1).
body(r_fr3_56,fr19_c1).
body(r_fr3_56,fr2_f4).
body(r_fr3_56,fr3_f2).
head(r_fr3_57,fr17_w1).
body(r_fr3_57,fr3_d2).
body(r_fr3_57,fr3_a1).
head(r_fr3_58,fr17_w1).
body(r_fr3_58,fr2_f4).
head(r_fr3_59,fr17_w1).
body(r_fr3_59,fr2_a1).
body(r_fr3_59,fr3_a1).
body(r_fr3_59,fr3_f2).
head(r_fr3_60,fr17_w1).
body(r_fr3_60,fr3_d1).
head(r_fr3_61,fr3_q3).
body(r_fr3_61,fr17_w1).
head(r_fr3_62,fr3_q3).
body(r_fr3_62,fr17_w1).
body(r_fr3_62,fr3_z3).

assumption(fr3_a1).
assumption(fr4_b1).
assumption(fr11_d2).
assumption(fr4_d1).
assumption(fr4_e1).
assumption(fr2_a1).
assumption(fr2_a3).
assumption(fr4_b2).
assumption(fr3_a1).
assumption(fr4_d2).
assumption(fr2_a3).
assumption(fr2_a1).
assumption(fr4_a3).
assumption(fr13_f1).
assumption(fr4_c3).
contrary(fr3_a1,fr4_y2).
contrary(fr2_a3,fr1_z1).
contrary(fr4_a3,fr3_a1).
contrary(fr4_b1,fr4_d2).
contrary(fr4_b2,fr20_q3).
contrary(fr13_f1,fr4_p4).
contrary(fr11_d2,fr4_u2).
contrary(fr3_a1,fr4_c3).
contrary(fr4_c3,fr12_r3).
contrary(fr4_d1,fr4_e1).
contrary(fr4_d2,fr4_z2).
contrary(fr4_e1,fr4_b2).
contrary(fr2_a3,fr4_s3).
contrary(fr2_a1,fr19_x7).
contrary(fr2_a1,fr4_u1).
head(r_fr4_0,fr4_q4).
body(r_fr4_0,fr4_b2).
body(r_fr4_0,fr13_f1).
body(r_fr4_0,fr4_d2).
body(r_fr4_0,fr4_e1).
body(r_fr4_0,fr24_s1).
head(r_fr4_1,fr4_q4).
body(r_fr4_1,fr4_b1).
body(r_fr4_1,fr4_b2).
body(r_fr4_1,fr13_f1).
head(r_fr4_2,fr4_q4).
body(r_fr4_2,fr11_d2).
body(r_fr4_2,fr4_e1).
body(r_fr4_2,fr4_y1).
head(r_fr4_3,fr4_q4).
body(r_fr4_3,fr13_f1).
body(r_fr4_3,fr3_a1).
body(r_fr4_3,fr4_c3).
body(r_fr4_3,fr4_d1).
body(r_fr4_3,fr4_d2).
body(r_fr4_3,fr2_a3).
head(r_fr4_4,fr4_t2).
body(r_fr4_4,fr4_b2).
body(r_fr4_4,fr4_d1).
body(r_fr4_4,fr23_r2).
body(r_fr4_4,fr4_y1).
head(r_fr4_5,fr4_t2).
body(r_fr4_5,fr3_a1).
body(r_fr4_5,fr13_f1).
body(r_fr4_5,fr11_d2).
body(r_fr4_5,fr19_p2).
head(r_fr4_6,fr4_t2).
body(r_fr4_6,fr3_a1).
body(r_fr4_6,fr24_s1).
body(r_fr4_6,fr23_p2).
body(r_fr4_6,fr4_u3).
head(r_fr4_7,fr4_x3).
body(r_fr4_7,fr3_a1).
body(r_fr4_7,fr13_f1).
body(r_fr4_7,fr4_d2).
body(r_fr4_7,fr2_a1).
body(r_fr4_7,fr17_w1).
body(r_fr4_7,fr23_r2).
head(r_fr4_8,fr4_x3).
body(r_fr4_8,fr4_a3).
body(r_fr4_8,fr4_b1).
body(r_fr4_8,fr4_b2).
body(r_fr4_8,fr1_z1).
body(r_fr4_8,fr20_q3).
body(r_fr4_8,fr11_p5).
head(r_fr4_9,fr4_x3).
body(r_fr4_9,fr4_b1).
body(r_fr4_9,fr4_c3).
body(r_fr4_9,fr4_d2).
body(r_fr4_9,fr4_e1).
body(r_fr4_9,fr4_t2).
body(r_fr4_9,fr12_r3).
head(r_fr4_10,fr4_x3).
body(r_fr4_10,fr4_a3).
body(r_fr4_10,fr4_r1).
body(r_fr4_10,fr4_u2).
body(r_fr4_10,fr4_y1).
head(r_fr4_11,fr4_x3).
body(r_fr4_11,fr4_d1).
body(r_fr4_11,fr4_e1).
body(r_fr4_11,fr2_a1).
head(r_fr4_12,fr4_r3).
body(r_fr4_12,fr4_b2).
body(r_fr4_12,fr4_r1).
body(r_fr4_12,fr11_z1).
body(r_fr4_12,fr17_w1).
head(r_fr4_13,fr4_r3).
body(r_fr4_13,fr11_d2).
body(r_fr4_13,fr4_d1).
body(r_fr4_13,fr4_p4).
body(r_fr4_13,fr11_p5).
head(r_fr4_14,fr4_r3).
body(r_fr4_14,fr11_p5).
body(r_fr4_14,fr23_r2).
body(r_fr4_14,fr4_z2).
head(r_fr4_15,fr4_p3).
body(r_fr4_15,fr24_s1).
body(r_fr4_15,fr4_s3).
body(r_fr4_15,fr4_t2).
body(r_fr4_15,fr4_y3).
head(r_fr4_16,fr4_p3).
body(r_fr4_16,fr2_a3).
body(r_fr4_16,fr4_b1).
body(r_fr4_16,fr4_d2).
body(r_fr4_16,fr2_a3).
body(r_fr4_16,fr11_p5).
head(r_fr4_17,fr4_p3).
body(r_fr4_17,fr4_b2).
body(r_fr4_17,fr4_c3).
body(r_fr4_17,fr4_e1).
body(r_fr4_17,fr1_z1).
body(r_fr4_17,fr19_p2).
body(r_fr4_17,fr4_y1).
head(r_fr4_18,fr4_p3).
body(r_fr4_18,fr2_a3).
body(r_fr4_18,fr24_s1).
body(r_fr4_18,fr4_p4).
body(r_fr4_18,fr4_t2).
body(r_fr4_18,fr4_x2).
head(r_fr4_19,fr4_p3).
body(r_fr4_19,fr11_d2).
body(r_fr4_19,fr2_a1).
body(r_fr4_19,fr4_p4).
body(r_fr4_19,fr1_z1).
body(r_fr4_19,fr23_p2).
body(r_fr4_19,fr4_r3).
head(r_fr4_20,fr9_x1).
body(r_fr4_20,fr4_b1).
body(r_fr4_20,fr13_f1).
body(r_fr4_20,fr4_d1).
body(r_fr4_20,fr2_a1).
body(r_fr4_20,fr4_u3).
body(r_fr4_20,fr11_p5).
head(r_fr4_21,fr9_x1).
body(r_fr4_21,fr2_a3).
body(r_fr4_21,fr11_d2).
body(r_fr4_21,fr2_a3).
body(r_fr4_21,fr2_a1).
body(r_fr4_21,fr4_w3).
body(r_fr4_21,fr20_q3).
head(r_fr4_22,fr4_u2).
body(r_fr4_22,fr4_b1).
body(r_fr4_22,fr4_c3).
body(r_fr4_22,fr24_s1).
head(r_fr4_23,fr4_u2).
body(r_fr4_23,fr3_a1).
body(r_fr4_23,fr3_a1).
body(r_fr4_23,fr2_a3).
body(r_fr4_23,fr2_a1).
body(r_fr4_23,fr4_p3).
head(r_fr4_24,fr4_u2).
body(r_fr4_24,fr4_b2).
body(r_fr4_24,fr4_p1).
body(r_fr4_24,fr4_q4).
body(r_fr4_24,fr4_s3).
head(r_fr4_25,fr4_u2).
body(r_fr4_25,fr11_d2).
body(r_fr4_25,fr19_p5).
body(r_fr4_25,fr4_y1).
head(r_fr4_26,fr4_u2).
body(r_fr4_26,fr2_a3).
body(r_fr4_26,fr4_d1).
body(r_fr4_26,fr2_a1).
body(r_fr4_26,fr4_p4).
body(r_fr4_26,fr4_y2).
head(r_fr4_27,fr4_u1).
body(r_fr4_27,fr4_p3).
body(r_fr4_27,fr4_u3).
body(r_fr4_27,fr4_w3).
body(r_fr4_27,fr23_r2).
body(r_fr4_27,fr4_y2).
head(r_fr4_28,fr4_u1).
body(r_fr4_28,fr4_b1).
body(r_fr4_28,fr11_d2).
body(r_fr4_28,fr4_d1).
body(r_fr4_28,fr4_e1).
body(r_fr4_28,fr2_a3).
body(r_fr4_28,fr2_a1).
head(r_fr4_29,fr4_u1).
body(r_fr4_29,fr4_b2).
body(r_fr4_29,fr4_c3).
body(r_fr4_29,fr4_d2).
body(r_fr4_29,fr2_a3).
body(r_fr4_29,fr11_z1).
body(r_fr4_29,fr4_u3).
head(r_fr4_30,fr24_s1).
body(r_fr4_30,fr4_a3).
body(r_fr4_30,fr4_b2).
body(r_fr4_30,fr11_d2).
body(r_fr4_30,fr4_p1).
head(r_fr4_31,fr24_s1).
body(r_fr4_31,fr4_a3).
body(r_fr4_31,fr11_d2).
body(r_fr4_31,fr3_a1).
body(r_fr4_31,fr4_e1).
head(r_fr4_32,fr24_s1).
body(r_fr4_32,fr2_a3).
body(r_fr4_32,fr4_a3).
body(r_fr4_32,fr4_c3).
body(r_fr4_32,fr12_r3).
head(r_fr4_33,fr24_s1).
body(r_fr4_33,fr4_a3).
body(r_fr4_33,fr13_f1).
body(r_fr4_33,fr11_d2).
body(r_fr4_33,fr3_a1).
body(r_fr4_33,fr2_a3).
head(r_fr4_34,fr24_s1).
body(r_fr4_34,fr19_p2).
body(r_fr4_34,fr19_p5).
body(r_fr4_34,fr14_z1).
body(r_fr4_34,fr12_r3).
head(r_fr4_35,fr19_p5).
body(r_fr4_35,fr3_a1).
body(r_fr4_35,fr4_d1).
body(r_fr4_35,fr4_x2).
head(r_fr4_36,fr19_p5).
body(r_fr4_36,fr3_a1).
body(r_fr4_36,fr2_a3).
body(r_fr4_36,fr4_b2).
body(r_fr4_36,fr13_f1).
body(r_fr4_36,fr3_a1).
body(r_fr4_36,fr2_a1).
head(r_fr4_37,fr19_p5).
body(r_fr4_37,fr2_a3).
body(r_fr4_37,fr4_d1).
body(r_fr4_37,fr4_e1).
head(r_fr4_38,fr19_p5).
body(r_fr4_38,fr4_p4).
body(r_fr4_38,fr4_r3).
body(r_fr4_38,fr4_t2).
body(r_fr4_38,fr20_q3).
body(r_fr4_38,fr4_y3).
body(r_fr4_38,fr20_q3).
head(r_fr4_39,fr19_p5).
body(r_fr4_39,fr4_p1).
body(r_fr4_39,fr4_p3).
body(r_fr4_39,fr19_p2).
body(r_fr4_39,fr4_u3).
body(r_fr4_39,fr14_z1).
body(r_fr4_39,fr4_x3).
head(r_fr4_40,fr24_s1).
body(r_fr4_40,fr4_a3).
body(r_fr4_40,fr11_d2).
body(r_fr4_40,fr4_c3).
body(r_fr4_40,fr2_a1).
body(r_fr4_40,fr19_x7).
body(r_fr4_40,fr4_u1).
head(r_fr4_41,fr24_s1).
body(r_fr4_41,fr13_f1).
body(r_fr4_41,fr4_d2).
body(r_fr4_41,fr4_e1).
body(r_fr4_41,fr2_a1).
body(r_fr4_41,fr19_x7).
head(r_fr4_42,fr4_y1).
body(r_fr4_42,fr4_b2).
body(r_fr4_42,fr4_c3).
body(r_fr4_42,fr4_e1).
body(r_fr4_42,fr2_a1).
body(r_fr4_42,fr2_a1).
head(r_fr4_43,fr4_y1).
body(r_fr4_43,fr4_p3).
body(r_fr4_43,fr1_z1).
body(r_fr4_43,fr24_s1).
head(r_fr4_44,fr4_y1).
body(r_fr4_44,fr3_a1).
body(r_fr4_44,fr4_t2).
body(r_fr4_44,fr9_x1).
head(r_fr4_45,fr4_y1).
body(r_fr4_45,fr11_d2).
body(r_fr4_45,fr4_p4).
body(r_fr4_45,fr4_t1).
body(r_fr4_45,fr14_z1).
head(r_fr4_46,fr4_y1).
body(r_fr4_46,fr2_a1).
body(r_fr4_46,fr19_x7).
body(r_fr4_46,fr24_s1).
body(r_fr4_46,fr23_r2).
body(r_fr4_46,fr4_z2).
head(r_fr4_47,fr17_w1).
body(r_fr4_47,fr3_a1).
body(r_fr4_47,fr3_a1).
body(r_fr4_47,fr2_a1).
body(r_fr4_47,fr4_u1).
head(r_fr4_48,fr17_w1).
body(r_fr4_48,fr11_d2).
body(r_fr4_48,fr4_c3).
body(r_fr4_48,fr4_d2).
body(r_fr4_48,fr2_a1).
head(r_fr4_49,fr17_w1).
body(r_fr4_49,fr4_a3).
body(r_fr4_49,fr13_f1).
body(r_fr4_49,fr11_d2).
body(r_fr4_49,fr3_a1).
body(r_fr4_49,fr4_c3).
head(r_fr4_50,fr11_p5).
body(r_fr4_50,fr3_a1).
body(r_fr4_50,fr4_d2).
body(r_fr4_50,fr4_e1).
body(r_fr4_50,fr4_r3).
head(r_fr4_51,fr11_p5).
body(r_fr4_51,fr2_a3).
body(r_fr4_51,fr4_a3).
body(r_fr4_51,fr4_b1).
body(r_fr4_51,fr4_d2).
body(r_fr4_51,fr2_a1).
body(r_fr4_51,fr23_p2).
head(r_fr4_52,fr4_s3).
body(r_fr4_52,fr3_a1).
body(r_fr4_52,fr4_a3).
body(r_fr4_52,fr11_d2).
body(r_fr4_52,fr2_a1).
body(r_fr4_52,fr19_x7).
body(r_fr4_52,fr4_w3).
head(r_fr4_53,fr4_s3).
body(r_fr4_53,fr2_a3).
body(r_fr4_53,fr4_b2).
body(r_fr4_53,fr4_c3).
body(r_fr4_53,fr19_x7).
body(r_fr4_53,fr11_z1).
body(r_fr4_53,fr4_w3).
head(r_fr4_54,fr4_s3).
body(r_fr4_54,fr3_a1).
body(r_fr4_54,fr4_e1).
body(r_fr4_54,fr2_a1).
body(r_fr4_54,fr19_p5).
body(r_fr4_54,fr11_p5).
head(r_fr4_55,fr19_x7).
body(r_fr4_55,fr23_p2).
body(r_fr4_55,fr11_z1).
body(r_fr4_55,fr4_t2).
body(r_fr4_55,fr20_q3).
body(r_fr4_55,fr4_u2).
body(r_fr4_55,fr4_y3).
head(r_fr4_56,fr19_x7).
body(r_fr4_56,fr13_f1).
body(r_fr4_56,fr4_c3).
body(r_fr4_56,fr4_d2).
body(r_fr4_56,fr2_a3).
body(r_fr4_56,fr2_a1).
body(r_fr4_56,fr4_z2).
head(r_fr4_57,fr19_x7).
body(r_fr4_57,fr4_p1).
body(r_fr4_57,fr4_p4).
body(r_fr4_57,fr11_p5).
body(r_fr4_57,fr17_w1).
body(r_fr4_57,fr4_x3).
head(r_fr4_58,fr19_x7).
body(r_fr4_58,fr3_a1).
body(r_fr4_58,fr24_s1).
body(r_fr4_58,fr4_z2).
head(r_fr4_59,fr4_p4).
body(r_fr4_59,fr2_a1).
body(r_fr4_59,fr4_x2).
body(r_fr4_59,fr4_z2).
head(r_fr4_60,fr4_p4).
body(r_fr4_60,fr19_x7).
body(r_fr4_60,fr4_r3).
body(r_fr4_60,fr4_u3).
body(r_fr4_60,fr17_w1).
head(r_fr4_61,fr4_p4).
body(r_fr4_61,fr23_p2).
body(r_fr4_61,fr4_q4).
body(r_fr4_61,fr12_r3).
head(r_fr4_62,fr4_p4).
body(r_fr4_62,fr2_a3).
body(r_fr4_62,fr4_d2).
body(r_fr4_62,fr4_r3).
body(r_fr4_62,fr4_t2).
body(r_fr4_62,fr4_x3).
body(r_fr4_62,fr4_y1).
head(r_fr4_63,fr4_p4).
body(r_fr4_63,fr4_b2).
body(r_fr4_63,fr12_r3).
body(r_fr4_63,fr4_w3).
body(r_fr4_63,fr9_x1).
head(r_fr4_64,fr4_p1).
body(r_fr4_64,fr4_t1).
body(r_fr4_64,fr20_q3).
body(r_fr4_64,fr4_x2).
body(r_fr4_64,fr4_y2).
body(r_fr4_64,fr20_q3).
head(r_fr4_65,fr4_p1).
body(r_fr4_65,fr4_p4).
body(r_fr4_65,fr20_q3).
body(r_fr4_65,fr23_r2).
body(r_fr4_65,fr4_y2).
body(r_fr4_65,fr4_y3).
head(r_fr4_66,fr4_p1).
body(r_fr4_66,fr3_a1).
body(r_fr4_66,fr2_a3).
body(r_fr4_66,fr4_s3).
body(r_fr4_66,fr4_t1).
body(r_fr4_66,fr4_x2).
head(r_fr4_67,fr4_p1).
body(r_fr4_67,fr3_a1).
body(r_fr4_67,fr4_b1).
body(r_fr4_67,fr2_a1).
head(r_fr4_68,fr4_y2).
body(r_fr4_68,fr2_a3).
body(r_fr4_68,fr11_d2).
body(r_fr4_68,fr4_d1).
body(r_fr4_68,fr4_d2).
body(r_fr4_68,fr2_a3).
body(r_fr4_68,fr20_q3).
head(r_fr4_69,fr4_y2).
body(r_fr4_69,fr4_b1).
body(r_fr4_69,fr4_d1).
body(r_fr4_69,fr19_p2).
head(r_fr4_70,fr4_y2).
body(r_fr4_70,fr13_f1).
body(r_fr4_70,fr4_d1).
body(r_fr4_70,fr23_p2).
body(r_fr4_70,fr4_q4).
body(r_fr4_70,fr4_y1).
body(r_fr4_70,fr9_x1).
head(r_fr4_71,fr20_q3).
body(r_fr4_71,fr2_a3).
body(r_fr4_71,fr4_a3).
body(r_fr4_71,fr4_b1).
body(r_fr4_71,fr2_a3).
body(r_fr4_71,fr4_y2).
head(r_fr4_72,fr20_q3).
body(r_fr4_72,fr4_b1).
body(r_fr4_72,fr4_d2).
body(r_fr4_72,fr24_s1).
body(r_fr4_72,fr24_s1).
body(r_fr4_72,fr4_t2).
body(r_fr4_72,fr17_w1).
head(r_fr4_73,fr20_q3).
body(r_fr4_73,fr4_e1).
body(r_fr4_73,fr19_p2).
body(r_fr4_73,fr4_y2).
body(r_fr4_73,fr4_z2).
head(r_fr4_74,fr20_q3).
body(r_fr4_74,fr4_b1).
body(r_fr4_74,fr4_b2).
body(r_fr4_74,fr11_d2).
body(r_fr4_74,fr4_d1).
body(r_fr4_74,fr4_t2).
body(r_fr4_74,fr4_x3).

assumption(fr2_f4).
assumption(fr11_d2).
assumption(fr2_f4).
assumption(fr3_a1).
assumption(fr2_a1).
assumption(fr16_a3).
assumption(fr11_d1).
assumption(fr21_a2).
assumption(fr5_c2).
assumption(fr5_d2).
assumption(fr1_b2).
assumption(fr2_a3).
assumption(fr20_d4).
assumption(fr5_b3).
assumption(fr5_c3).
assumption(fr5_d3).
assumption(fr5_e3).
assumption(fr3_a1).
contrary(fr2_f4,fr5_r1).
contrary(fr11_d1,fr5_t1).
contrary(fr20_d4,fr20_p1).
contrary(fr11_d2,fr20_q3).
contrary(fr21_a2,fr5_t3).
contrary(fr5_b3,fr5_t1).
contrary(fr2_f4,fr23_p2).
contrary(fr5_c2,fr20_d4).
contrary(fr5_c3,fr20_p1).
contrary(fr3_a1,fr5_u3).
contrary(fr5_d2,fr2_r2).
contrary(fr5_d3,fr2_a3).
contrary(fr2_a1,fr2_f4).
contrary(fr1_b2,fr5_s3).
contrary(fr5_e3,fr3_a1).
contrary(fr16_a3,fr3_a1).
contrary(fr2_a3,fr5_q1).
contrary(fr3_a1,fr5_x2).
head(r_fr5_0,fr20_q3).
body(r_fr5_0,fr2_f4).
body(r_fr5_0,fr11_d1).
body(r_fr5_0,fr5_d2).
body(r_fr5_0,fr5_r1).
body(r_fr5_0,fr2_r2).
body(r_fr5_0,fr5_z1).
head(r_fr5_1,fr20_q3).
body(r_fr5_1,fr20_d4).
body(r_fr5_1,fr1_b2).
body(r_fr5_1,fr5_r1).
head(r_fr5_2,fr20_q3).
body(r_fr5_2,fr5_s1).
body(r_fr5_2,fr5_t1).
body(r_fr5_2,fr5_x1).
head(r_fr5_3,fr20_q3).
body(r_fr5_3,fr5_b3).
body(r_fr5_3,fr5_t3).
body(r_fr5_3,fr5_z1).
head(r_fr5_4,fr20_q3).
body(r_fr5_4,fr2_f4).
head(r_fr5_5,fr23_p2).
body(r_fr5_5,fr2_f4).
body(r_fr5_5,fr5_q3).
body(r_fr5_5,fr5_t3).
body(r_fr5_5,fr20_p1).
body(r_fr5_5,fr12_q3).
body(r_fr5_5,fr14_q4).
body(r_fr5_5,fr20_p1).
head(r_fr5_6,fr23_p2).
body(r_fr5_6,fr5_p2).
body(r_fr5_6,fr5_t1).
head(r_fr5_7,fr23_p2).
body(r_fr5_7,fr2_f4).
body(r_fr5_7,fr20_d4).
body(r_fr5_7,fr21_a2).
body(r_fr5_7,fr2_f4).
body(r_fr5_7,fr5_d2).
body(r_fr5_7,fr2_a1).
body(r_fr5_7,fr16_a3).
head(r_fr5_8,fr23_p2).
body(r_fr5_8,fr5_c3).
body(r_fr5_8,fr1_b2).
body(r_fr5_8,fr2_a3).
head(r_fr5_9,fr5_u3).
body(r_fr5_9,fr20_d4).
body(r_fr5_9,fr2_f4).
body(r_fr5_9,fr3_a1).
body(r_fr5_9,fr2_a1).
body(r_fr5_9,fr3_a1).
body(r_fr5_9,fr20_p1).
head(r_fr5_10,fr5_u3).
head(r_fr5_11,fr5_u3).
body(r_fr5_11,fr5_b3).
body(r_fr5_11,fr5_c3).
body(r_fr5_11,fr14_q4).
head(r_fr5_12,fr5_u3).
body(r_fr5_12,fr20_q3).
head(r_fr5_13,fr5_u3).
body(r_fr5_13,fr3_a1).
body(r_fr5_13,fr5_r2).
body(r_fr5_13,fr5_s1).
body(r_fr5_13,fr14_q4).
body(r_fr5_13,fr20_p1).
body(r_fr5_13,fr5_z2).
head(r_fr5_14,fr5_u3).
body(r_fr5_14,fr2_a3).
body(r_fr5_14,fr5_r1).
body(r_fr5_14,fr5_r3).
body(r_fr5_14,fr5_t1).
head(r_fr5_15,fr5_r1).
body(r_fr5_15,fr11_d1).
body(r_fr5_15,fr3_a1).
body(r_fr5_15,fr2_a1).
body(r_fr5_15,fr1_b2).
body(r_fr5_15,fr5_t1).
body(r_fr5_15,fr11_t5).
body(r_fr5_15,fr14_q4).
head(r_fr5_16,fr5_r1).
body(r_fr5_16,fr20_q3).
body(r_fr5_16,fr5_q3).
body(r_fr5_16,fr20_v3).
body(r_fr5_16,fr5_u3).
body(r_fr5_16,fr5_x2).
body(r_fr5_16,fr5_z2).
head(r_fr5_17,fr5_p3).
body(r_fr5_17,fr5_c3).
head(r_fr5_18,fr5_p3).
body(r_fr5_18,fr5_q1).
body(r_fr5_18,fr5_r1).
head(r_fr5_19,fr5_p3).
body(r_fr5_19,fr5_d3).
body(r_fr5_19,fr2_a1).
body(r_fr5_19,fr5_e3).
body(r_fr5_19,fr5_t3).
body(r_fr5_19,fr14_q4).
head(r_fr5_20,fr5_p3).
body(r_fr5_20,fr5_t1).
head(r_fr5_21,fr5_p3).
body(r_fr5_21,fr11_d1).
body(r_fr5_21,fr11_d2).
body(r_fr5_21,fr5_b3).
body(r_fr5_21,fr5_c2).
body(r_fr5_21,fr5_e3).
head(r_fr5_22,fr5_p3).
body(r_fr5_22,fr11_d2).
head(r_fr5_23,fr12_q3).
body(r_fr5_23,fr21_a2).
body(r_fr5_23,fr5_c2).
body(r_fr5_23,fr5_c3).
body(r_fr5_23,fr5_d3).
body(r_fr5_23,fr3_a1).
head(r_fr5_24,fr12_q3).
body(r_fr5_24,fr20_d4).
body(r_fr5_24,fr21_a2).
body(r_fr5_24,fr5_c2).
body(r_fr5_24,fr2_a3).
body(r_fr5_24,fr5_q1).
body(r_fr5_24,fr5_r2).
body(r_fr5_24,fr2_r2).
head(r_fr5_25,fr12_q3).
body(r_fr5_25,fr2_f4).
body(r_fr5_25,fr20_q3).
body(r_fr5_25,fr5_q3).
body(r_fr5_25,fr5_s1).
body(r_fr5_25,fr11_t5).
body(r_fr5_25,fr5_u3).
body(r_fr5_25,fr5_z1).
head(r_fr5_26,fr12_q3).
body(r_fr5_26,fr5_x2).
body(r_fr5_26,fr5_z2).
head(r_fr5_27,fr2_r2).
body(r_fr5_27,fr5_s1).
body(r_fr5_27,fr23_r2).
body(r_fr5_27,fr20_p1).
head(r_fr5_28,fr2_r2).
body(r_fr5_28,fr5_b3).
body(r_fr5_28,fr2_f4).
body(r_fr5_28,fr5_c2).
body(r_fr5_28,fr2_a1).
body(r_fr5_28,fr3_a1).
body(r_fr5_28,fr5_r3).
body(r_fr5_28,fr5_z1).
head(r_fr5_29,fr2_r2).
body(r_fr5_29,fr5_e3).
body(r_fr5_29,fr20_q3).
body(r_fr5_29,fr5_s1).
body(r_fr5_29,fr5_t1).
body(r_fr5_29,fr5_x1).
head(r_fr5_30,fr2_r2).
head(r_fr5_31,fr5_t3).
body(r_fr5_31,fr5_b3).
body(r_fr5_31,fr5_c3).
body(r_fr5_31,fr5_q1).
body(r_fr5_31,fr5_x2).
head(r_fr5_32,fr5_t3).
head(r_fr5_33,fr5_t3).
body(r_fr5_33,fr5_r3).
head(r_fr5_34,fr5_x1).
body(r_fr5_34,fr2_f4).
body(r_fr5_34,fr21_a2).
body(r_fr5_34,fr5_b3).
body(r_fr5_34,fr1_b2).
body(r_fr5_34,fr16_a3).
body(r_fr5_34,fr12_q3).
head(r_fr5_35,fr5_x1).
body(r_fr5_35,fr21_a2).
body(r_fr5_35,fr3_a1).
body(r_fr5_35,fr5_d3).
body(r_fr5_35,fr5_e3).
body(r_fr5_35,fr23_p2).
body(r_fr5_35,fr5_z2).
head(r_fr5_36,fr23_r2).
body(r_fr5_36,fr11_d1).
body(r_fr5_36,fr5_c3).
body(r_fr5_36,fr14_q4).
head(r_fr5_37,fr23_r2).
body(r_fr5_37,fr11_d1).
body(r_fr5_37,fr5_c3).
body(r_fr5_37,fr3_a1).
body(r_fr5_37,fr5_d3).
body(r_fr5_37,fr5_e3).
body(r_fr5_37,fr5_s1).
head(r_fr5_38,fr23_r2).
body(r_fr5_38,fr20_p1).
head(r_fr5_39,fr23_r2).
body(r_fr5_39,fr5_s1).
body(r_fr5_39,fr20_v3).
body(r_fr5_39,fr20_p1).
body(r_fr5_39,fr5_x2).
head(r_fr5_40,fr23_r2).
head(r_fr5_41,fr23_r2).
body(r_fr5_41,fr20_d4).
body(r_fr5_41,fr5_d3).
body(r_fr5_41,fr20_q3).
body(r_fr5_41,fr14_q4).
body(r_fr5_41,fr5_x2).
body(r_fr5_41,fr2_r2).
head(r_fr5_42,fr5_s3).
body(r_fr5_42,fr2_f4).
body(r_fr5_42,fr5_d3).
body(r_fr5_42,fr20_p1).
head(r_fr5_43,fr5_s3).
body(r_fr5_43,fr5_d2).
body(r_fr5_43,fr23_r2).
body(r_fr5_43,fr5_z1).
head(r_fr5_44,fr5_s3).
head(r_fr5_45,fr5_y1).
body(r_fr5_45,fr2_f4).
body(r_fr5_45,fr11_d1).
body(r_fr5_45,fr20_d4).
body(r_fr5_45,fr5_d3).
head(r_fr5_46,fr5_y1).
body(r_fr5_46,fr2_f4).
body(r_fr5_46,fr5_e3).
body(r_fr5_46,fr5_s1).
body(r_fr5_46,fr5_t1).
body(r_fr5_46,fr23_r2).
body(r_fr5_46,fr11_t5).
body(r_fr5_46,fr5_z2).
head(r_fr5_47,fr5_y1).
body(r_fr5_47,fr11_d1).
body(r_fr5_47,fr11_d2).
body(r_fr5_47,fr5_b3).
body(r_fr5_47,fr5_c3).
body(r_fr5_47,fr5_d3).
body(r_fr5_47,fr1_b2).
body(r_fr5_47,fr5_e3).
head(r_fr5_48,fr5_r3).
body(r_fr5_48,fr23_r2).
body(r_fr5_48,fr20_p1).
head(r_fr5_49,fr5_r3).
body(r_fr5_49,fr1_b2).
body(r_fr5_49,fr14_s2).
body(r_fr5_49,fr5_t3).
body(r_fr5_49,fr20_v3).
body(r_fr5_49,fr5_x1).
body(r_fr5_49,fr5_x2).
head(r_fr5_50,fr11_t5).
body(r_fr5_50,fr5_c2).
body(r_fr5_50,fr3_a1).
body(r_fr5_50,fr1_b2).
body(r_fr5_50,fr5_z1).
head(r_fr5_51,fr11_t5).
body(r_fr5_51,fr11_d2).
body(r_fr5_51,fr5_b3).
head(r_fr5_52,fr11_t5).
body(r_fr5_52,fr5_c2).
head(r_fr5_53,fr11_t5).
body(r_fr5_53,fr2_f4).
body(r_fr5_53,fr3_a1).
head(r_fr5_54,fr11_t5).
head(r_fr5_55,fr11_t5).
body(r_fr5_55,fr3_a1).
body(r_fr5_55,fr5_q1).
body(r_fr5_55,fr5_r3).
body(r_fr5_55,fr20_v3).
body(r_fr5_55,fr12_q3).
head(r_fr5_56,fr5_q1).
body(r_fr5_56,fr11_d1).
body(r_fr5_56,fr2_f4).
body(r_fr5_56,fr5_c2).
body(r_fr5_56,fr5_c3).
body(r_fr5_56,fr2_a1).
body(r_fr5_56,fr16_a3).
body(r_fr5_56,fr2_r2).
head(r_fr5_57,fr5_q1).
head(r_fr5_58,fr5_q1).
body(r_fr5_58,fr5_c2).
body(r_fr5_58,fr1_b2).
head(r_fr5_59,fr5_q1).
body(r_fr5_59,fr5_p2).
body(r_fr5_59,fr5_s1).
body(r_fr5_59,fr5_t3).
body(r_fr5_59,fr20_v3).
body(r_fr5_59,fr20_p1).
body(r_fr5_59,fr5_w1).
body(r_fr5_59,fr20_p1).
head(r_fr5_60,fr5_q1).
body(r_fr5_60,fr2_f4).
body(r_fr5_60,fr5_d3).
body(r_fr5_60,fr5_p3).
body(r_fr5_60,fr23_r2).
head(r_fr5_61,fr5_q1).
body(r_fr5_61,fr20_d4).
body(r_fr5_61,fr5_p2).
body(r_fr5_61,fr2_r2).
head(r_fr5_62,fr5_w1).
body(r_fr5_62,fr12_q3).
body(r_fr5_62,fr14_q4).
body(r_fr5_62,fr20_p1).
head(r_fr5_63,fr5_w1).
body(r_fr5_63,fr5_p3).
body(r_fr5_63,fr20_q3).
body(r_fr5_63,fr5_r3).
body(r_fr5_63,fr5_t3).
body(r_fr5_63,fr11_t5).
body(r_fr5_63,fr20_p1).
head(r_fr5_64,fr20_p1).
body(r_fr5_64,fr21_a2).
body(r_fr5_64,fr5_b3).
body(r_fr5_64,fr5_c3).
body(r_fr5_64,fr5_t3).
head(r_fr5_65,fr20_p1).
head(r_fr5_66,fr20_p1).
body(r_fr5_66,fr2_f4).
body(r_fr5_66,fr1_b2).
body(r_fr5_66,fr2_a3).
body(r_fr5_66,fr5_q1).
body(r_fr5_66,fr23_r2).
body(r_fr5_66,fr23_r2).
head(r_fr5_67,fr20_p1).
body(r_fr5_67,fr1_b2).
body(r_fr5_67,fr5_p3).
body(r_fr5_67,fr5_q1).
body(r_fr5_67,fr5_t3).
body(r_fr5_67,fr11_t5).
body(r_fr5_67,fr14_q4).
body(r_fr5_67,fr20_p1).
head(r_fr5_68,fr20_p1).
head(r_fr5_69,fr20_p1).
body(r_fr5_69,fr5_s1).
head(r_fr5_70,fr14_s2).
body(r_fr5_70,fr5_p3).
body(r_fr5_70,fr23_r2).
body(r_fr5_70,fr23_p2).
body(r_fr5_70,fr5_x2).
body(r_fr5_70,fr5_y1).
body(r_fr5_70,fr5_z2).
head(r_fr5_71,fr14_s2).
body(r_fr5_71,fr5_z2).
head(r_fr5_72,fr14_s2).
head(r_fr5_73,fr14_s2).
body(r_fr5_73,fr2_f4).
body(r_fr5_73,fr3_a1).
body(r_fr5_73,fr20_q3).
body(r_fr5_73,fr5_q3).
body(r_fr5_73,fr20_v3).
body(r_fr5_73,fr5_x2).
head(r_fr5_74,fr5_x2).
body(r_fr5_74,fr5_c3).
body(r_fr5_74,fr16_a3).
head(r_fr5_75,fr5_x2).
body(r_fr5_75,fr21_a2).
body(r_fr5_75,fr5_d2).
body(r_fr5_75,fr16_a3).
head(r_fr5_76,fr5_x2).
body(r_fr5_76,fr5_d3).
body(r_fr5_76,fr20_q3).
body(r_fr5_76,fr5_q3).
body(r_fr5_76,fr5_z2).
head(r_fr5_77,fr5_x2).
body(r_fr5_77,fr5_z1).
head(r_fr5_78,fr5_x2).
body(r_fr5_78,fr2_f4).
body(r_fr5_78,fr11_d1).
body(r_fr5_78,fr20_d4).
body(r_fr5_78,fr2_f4).
body(r_fr5_78,fr1_b2).
body(r_fr5_78,fr5_e3).
body(r_fr5_78,fr5_z2).
head(r_fr5_79,fr5_x2).
body(r_fr5_79,fr3_a1).
body(r_fr5_79,fr5_q3).
body(r_fr5_79,fr20_p1).
body(r_fr5_79,fr12_q3).
body(r_fr5_79,fr20_p1).
head(r_fr5_80,fr5_s1).
body(r_fr5_80,fr14_s2).
body(r_fr5_80,fr5_q3).
body(r_fr5_80,fr11_t5).
body(r_fr5_80,fr14_q4).
body(r_fr5_80,fr5_x2).
head(r_fr5_81,fr5_s1).
head(r_fr5_82,fr5_z2).
body(r_fr5_82,fr5_p2).
body(r_fr5_82,fr5_p3).
body(r_fr5_82,fr5_q1).
body(r_fr5_82,fr5_r1).
body(r_fr5_82,fr5_r3).
body(r_fr5_82,fr14_q4).
body(r_fr5_82,fr2_r2).
head(r_fr5_83,fr5_z2).
body(r_fr5_83,fr2_f4).
body(r_fr5_83,fr20_d4).
body(r_fr5_83,fr2_f4).
body(r_fr5_83,fr5_c2).
body(r_fr5_83,fr3_a1).
body(r_fr5_83,fr2_a3).
body(r_fr5_83,fr5_r1).
head(r_fr5_84,fr5_z2).
body(r_fr5_84,fr2_f4).
body(r_fr5_84,fr5_c3).
body(r_fr5_84,fr5_r3).
body(r_fr5_84,fr5_x1).
head(r_fr5_85,fr5_z2).
body(r_fr5_85,fr21_a2).
body(r_fr5_85,fr5_q3).
head(r_fr5_86,fr5_z2).
body(r_fr5_86,fr11_d1).
body(r_fr5_86,fr20_d4).
body(r_fr5_86,fr5_c2).
body(r_fr5_86,fr5_e3).
body(r_fr5_86,fr3_a1).
body(r_fr5_86,fr5_p2).
head(r_fr5_87,fr5_r2).
body(r_fr5_87,fr5_p3).
body(r_fr5_87,fr5_t1).
body(r_fr5_87,fr11_t5).
body(r_fr5_87,fr20_v3).
body(r_fr5_87,fr5_y1).
body(r_fr5_87,fr2_r2).
head(r_fr5_88,fr5_r2).
body(r_fr5_88,fr11_d1).
body(r_fr5_88,fr5_q3).
body(r_fr5_88,fr5_s1).
body(r_fr5_88,fr12_q3).
head(r_fr5_89,fr5_r2).
body(r_fr5_89,fr2_a3).
head(r_fr5_90,fr5_q3).
body(r_fr5_90,fr2_f4).
body(r_fr5_90,fr11_d2).
body(r_fr5_90,fr5_b3).
body(r_fr5_90,fr2_f4).
body(r_fr5_90,fr5_c2).
body(r_fr5_90,fr5_w1).
head(r_fr5_91,fr5_q3).
body(r_fr5_91,fr11_d1).
body(r_fr5_91,fr16_a3).
head(r_fr5_92,fr5_q3).
body(r_fr5_92,fr5_b3).
body(r_fr5_92,fr23_r2).
body(r_fr5_92,fr5_t1).
body(r_fr5_92,fr11_t5).
body(r_fr5_92,fr20_v3).
body(r_fr5_92,fr23_p2).
body(r_fr5_92,fr5_w1).
head(r_fr5_93,fr5_q3).
body(r_fr5_93,fr20_d4).
body(r_fr5_93,fr5_d3).
body(r_fr5_93,fr16_a3).
body(r_fr5_93,fr5_s1).
body(r_fr5_93,fr5_u3).
head(r_fr5_94,fr5_q3).

assumption(fr2_a3).
assumption(fr6_b1).
assumption(fr2_b4).
assumption(fr2_a3).
assumption(fr2_a1).
assumption(fr11_c2).
assumption(fr6_a2).
assumption(fr3_a1).
assumption(fr3_a1).
assumption(fr3_a1).
assumption(fr6_e2).
assumption(fr3_a1).
assumption(fr6_a3).
assumption(fr6_b3).
assumption(fr2_f4).
contrary(fr2_a3,fr2_b4).
contrary(fr6_a2,fr8_p2).
contrary(fr6_a3,fr17_w1).
contrary(fr6_b1,fr6_w1).
contrary(fr3_a1,fr3_a1).
contrary(fr6_b3,fr6_w1).
contrary(fr2_b4,fr13_v1).
contrary(fr3_a1,fr8_p2).
contrary(fr2_f4,fr1_z1).
contrary(fr2_a3,fr17_w1).
contrary(fr3_a1,fr6_p1).
contrary(fr2_a1,fr6_u1).
contrary(fr6_e2,fr11_c2).
contrary(fr11_c2,fr2_a1).
contrary(fr3_a1,fr6_e2).
head(r_fr6_0,fr6_w1).
body(r_fr6_0,fr2_a3).
body(r_fr6_0,fr2_b4).
body(r_fr6_0,fr2_a3).
body(r_fr6_0,fr3_a1).
body(r_fr6_0,fr6_e2).
body(r_fr6_0,fr19_y3).
head(r_fr6_1,fr6_w1).
body(r_fr6_1,fr6_a2).
body(r_fr6_1,fr2_a1).
head(r_fr6_2,fr6_w1).
body(r_fr6_2,fr6_b1).
body(r_fr6_2,fr6_b3).
body(r_fr6_2,fr2_b4).
body(r_fr6_2,fr2_f4).
body(r_fr6_2,fr2_a1).
head(r_fr6_3,fr6_w1).
body(r_fr6_3,fr17_w1).
body(r_fr6_3,fr9_w3).
body(r_fr6_3,fr6_u1).
body(r_fr6_3,fr8_p2).
head(r_fr6_4,fr6_w1).
body(r_fr6_4,fr20_p1).
head(r_fr6_5,fr1_z1).
body(r_fr6_5,fr2_b4).
body(r_fr6_5,fr2_a1).
body(r_fr6_5,fr7_y2).
body(r_fr6_5,fr8_p2).
head(r_fr6_6,fr1_z1).
body(r_fr6_6,fr2_a3).
body(r_fr6_6,fr6_a3).
body(r_fr6_6,fr6_b3).
body(r_fr6_6,fr2_b4).
body(r_fr6_6,fr6_e2).
head(r_fr6_7,fr1_z1).
body(r_fr6_7,fr6_b1).
body(r_fr6_7,fr2_b4).
body(r_fr6_7,fr3_a1).
body(r_fr6_7,fr2_a3).
head(r_fr6_8,fr1_z1).
body(r_fr6_8,fr3_a1).
body(r_fr6_8,fr2_f4).
body(r_fr6_8,fr6_e2).
body(r_fr6_8,fr3_a1).
head(r_fr6_9,fr1_z1).
head(r_fr6_10,fr8_p2).
head(r_fr6_11,fr8_p2).
body(r_fr6_11,fr6_p1).
body(r_fr6_11,fr7_y2).
body(r_fr6_11,fr6_u1).
body(r_fr6_11,fr17_w1).
head(r_fr6_12,fr6_p1).
body(r_fr6_12,fr6_a2).
body(r_fr6_12,fr3_a1).
body(r_fr6_12,fr2_b4).
body(r_fr6_12,fr2_a3).
body(r_fr6_12,fr3_a1).
body(r_fr6_12,fr7_y2).
head(r_fr6_13,fr6_p1).
head(r_fr6_14,fr6_p1).
body(r_fr6_14,fr6_a3).
body(r_fr6_14,fr2_b4).
body(r_fr6_14,fr3_a1).
body(r_fr6_14,fr3_a1).
body(r_fr6_14,fr2_a1).
body(r_fr6_14,fr9_w3).
head(r_fr6_15,fr6_p1).
body(r_fr6_15,fr3_a1).
body(r_fr6_15,fr3_a1).
body(r_fr6_15,fr2_a1).
body(r_fr6_15,fr1_z1).
body(r_fr6_15,fr17_w1).
body(r_fr6_15,fr17_w1).
head(r_fr6_16,fr9_w3).
body(r_fr6_16,fr6_a2).
body(r_fr6_16,fr6_a3).
body(r_fr6_16,fr3_a1).
body(r_fr6_16,fr2_b4).
body(r_fr6_16,fr2_f4).
head(r_fr6_17,fr9_w3).
body(r_fr6_17,fr6_b3).
body(r_fr6_17,fr3_a1).
body(r_fr6_17,fr2_a3).
body(r_fr6_17,fr13_v1).
body(r_fr6_17,fr1_z1).
body(r_fr6_17,fr17_w1).
head(r_fr6_18,fr9_w3).
body(r_fr6_18,fr3_a1).
head(r_fr6_19,fr19_y3).
body(r_fr6_19,fr6_b1).
body(r_fr6_19,fr13_v1).
body(r_fr6_19,fr1_z1).
body(r_fr6_19,fr20_p1).
body(r_fr6_19,fr8_p2).
head(r_fr6_20,fr19_y3).
body(r_fr6_20,fr3_a1).
body(r_fr6_20,fr2_a1).
head(r_fr6_21,fr19_y3).
body(r_fr6_21,fr2_f4).
body(r_fr6_21,fr7_y2).
head(r_fr6_22,fr19_y3).
body(r_fr6_22,fr2_a3).
body(r_fr6_22,fr6_b1).
body(r_fr6_22,fr6_e2).
body(r_fr6_22,fr3_a1).
body(r_fr6_22,fr1_z1).
head(r_fr6_23,fr19_y3).
body(r_fr6_23,fr6_b3).
head(r_fr6_24,fr8_p2).
body(r_fr6_24,fr6_e2).
body(r_fr6_24,fr19_y3).
head(r_fr6_25,fr8_p2).
body(r_fr6_25,fr6_b1).
body(r_fr6_25,fr6_b3).
body(r_fr6_25,fr2_a1).
head(r_fr6_26,fr8_p2).
body(r_fr6_26,fr6_u1).
head(r_fr6_27,fr2_v4).
body(r_fr6_27,fr17_w1).
head(r_fr6_28,fr2_v4).
head(r_fr6_29,fr17_w1).
body(r_fr6_29,fr6_e2).
body(r_fr6_29,fr19_y3).
body(r_fr6_29,fr15_u4).
body(r_fr6_29,fr6_w1).
body(r_fr6_29,fr17_w1).
head(r_fr6_30,fr17_w1).
head(r_fr6_31,fr17_w1).
body(r_fr6_31,fr2_a3).
body(r_fr6_31,fr6_p1).
head(r_fr6_32,fr17_w1).
body(r_fr6_32,fr6_a3).
body(r_fr6_32,fr6_b3).
body(r_fr6_32,fr2_b4).
body(r_fr6_32,fr2_f4).
body(r_fr6_32,fr6_e2).
body(r_fr6_32,fr6_u1).
head(r_fr6_33,fr6_u1).
body(r_fr6_33,fr6_a2).
body(r_fr6_33,fr6_b1).
body(r_fr6_33,fr3_a1).
body(r_fr6_33,fr6_e2).
body(r_fr6_33,fr1_z1).
body(r_fr6_33,fr19_y3).
head(r_fr6_34,fr6_u1).
body(r_fr6_34,fr6_a2).
body(r_fr6_34,fr6_a3).
body(r_fr6_34,fr3_a1).
body(r_fr6_34,fr2_a1).
body(r_fr6_34,fr11_c2).
body(r_fr6_34,fr1_z1).
head(r_fr6_35,fr6_u1).
body(r_fr6_35,fr13_v1).
body(r_fr6_35,fr2_v4).
head(r_fr6_36,fr6_u1).
body(r_fr6_36,fr6_b3).
body(r_fr6_36,fr2_b4).
body(r_fr6_36,fr11_c2).
body(r_fr6_36,fr15_u4).
head(r_fr6_37,fr6_u1).
body(r_fr6_37,fr7_y2).
body(r_fr6_37,fr17_w1).
body(r_fr6_37,fr8_p2).
head(r_fr6_38,fr15_u4).
body(r_fr6_38,fr6_a3).
body(r_fr6_38,fr2_a3).
body(r_fr6_38,fr6_w1).
body(r_fr6_38,fr8_p2).
head(r_fr6_39,fr15_u4).
body(r_fr6_39,fr6_b1).
head(r_fr6_40,fr15_u4).
body(r_fr6_40,fr6_b3).
body(r_fr6_40,fr3_a1).
body(r_fr6_40,fr13_v1).
head(r_fr6_41,fr7_y2).
body(r_fr6_41,fr6_b1).
body(r_fr6_41,fr3_a1).
head(r_fr6_42,fr7_y2).
body(r_fr6_42,fr6_b1).
head(r_fr6_43,fr7_y2).
body(r_fr6_43,fr1_z1).
body(r_fr6_43,fr8_p2).
head(r_fr6_44,fr17_w1).
head(r_fr6_45,fr17_w1).
body(r_fr6_45,fr2_a3).
body(r_fr6_45,fr6_e2).
head(r_fr6_46,fr17_w1).
body(r_fr6_46,fr6_a2).
body(r_fr6_46,fr6_b1).
body(r_fr6_46,fr6_b3).
body(r_fr6_46,fr3_a1).
body(r_fr6_46,fr6_e2).
body(r_fr6_46,fr11_c2).
head(r_fr6_47,fr17_w1).
body(r_fr6_47,fr2_f4).
body(r_fr6_47,fr17_w1).
body(r_fr6_47,fr15_u4).
body(r_fr6_47,fr2_v4).
body(r_fr6_47,fr8_p2).
head(r_fr6_48,fr13_v1).
body(r_fr6_48,fr6_a3).
body(r_fr6_48,fr20_p1).
head(r_fr6_49,fr13_v1).
head(r_fr6_50,fr13_v1).
body(r_fr6_50,fr6_b1).
body(r_fr6_50,fr6_b3).
body(r_fr6_50,fr2_a3).
body(r_fr6_50,fr1_z1).
body(r_fr6_50,fr6_w1).
head(r_fr6_51,fr13_v1).
body(r_fr6_51,fr6_b3).
body(r_fr6_51,fr2_b4).
body(r_fr6_51,fr11_c2).
body(r_fr6_51,fr1_z1).
body(r_fr6_51,fr6_w1).
head(r_fr6_52,fr13_v1).
body(r_fr6_52,fr6_b3).
body(r_fr6_52,fr11_c2).
body(r_fr6_52,fr20_p1).
body(r_fr6_52,fr6_w1).
body(r_fr6_52,fr8_p2).
head(r_fr6_53,fr20_p1).
head(r_fr6_54,fr20_p1).
body(r_fr6_54,fr2_b4).
body(r_fr6_54,fr2_a3).
body(r_fr6_54,fr2_a1).
body(r_fr6_54,fr19_y3).
body(r_fr6_54,fr9_w3).
head(r_fr6_55,fr20_p1).
body(r_fr6_55,fr6_b1).
body(r_fr6_55,fr3_a1).
body(r_fr6_55,fr2_f4).
body(r_fr6_55,fr3_a1).
body(r_fr6_55,fr11_c2).
body(r_fr6_55,fr15_u4).
head(r_fr6_56,fr20_p1).
body(r_fr6_56,fr6_b1).
body(r_fr6_56,fr2_a3).
body(r_fr6_56,fr3_a1).
head(r_fr6_57,fr20_p1).
body(r_fr6_57,fr6_a3).
body(r_fr6_57,fr6_b3).
body(r_fr6_57,fr3_a1).
body(r_fr6_57,fr11_c2).

assumption(fr16_a1).
assumption(fr7_b1).
assumption(fr2_f4).
assumption(fr2_a3).
assumption(fr7_e1).
assumption(fr7_f1).
assumption(fr2_a3).
assumption(fr8_a1).
assumption(fr7_c2).
assumption(fr7_d2).
assumption(fr2_f4).
assumption(fr2_a3).
assumption(fr7_a3).
assumption(fr2_a1).
assumption(fr7_c3).
contrary(fr16_a1,fr11_r2).
contrary(fr2_a3,fr25_t1).
contrary(fr7_a3,fr7_w3).
contrary(fr7_b1,fr7_d2).
contrary(fr8_a1,fr7_p5).
contrary(fr2_a1,fr7_w4).
contrary(fr2_f4,fr7_y2).
contrary(fr7_c2,fr7_r2).
contrary(fr7_c3,fr1_z1).
contrary(fr2_a3,fr7_z4).
contrary(fr7_d2,fr7_y3).
contrary(fr7_e1,fr7_z4).
contrary(fr2_f4,fr7_w3).
contrary(fr7_f1,fr7_y1).
contrary(fr2_a3,fr7_r1).
head(r_fr7_0,fr7_t1).
body(r_fr7_0,fr2_a3).
body(r_fr7_0,fr20_p1).
head(r_fr7_1,fr7_t1).
body(r_fr7_1,fr25_p3).
head(r_fr7_2,fr7_t1).
body(r_fr7_2,fr7_e1).
head(r_fr7_3,fr7_t1).
body(r_fr7_3,fr16_a1).
body(r_fr7_3,fr1_z1).
head(r_fr7_4,fr7_t1).
body(r_fr7_4,fr7_a3).
body(r_fr7_4,fr7_b1).
body(r_fr7_4,fr2_f4).
body(r_fr7_4,fr7_e1).
body(r_fr7_4,fr2_f4).
head(r_fr7_5,fr7_q5).
body(r_fr7_5,fr7_d2).
body(r_fr7_5,fr7_u6).
body(r_fr7_5,fr7_u7).
body(r_fr7_5,fr7_x7).
head(r_fr7_6,fr7_q5).
body(r_fr7_6,fr2_f4).
body(r_fr7_6,fr7_d2).
body(r_fr7_6,fr25_p3).
body(r_fr7_6,fr7_v6).
body(r_fr7_6,fr7_x3).
head(r_fr7_7,fr7_q5).
head(r_fr7_8,fr7_q5).
body(r_fr7_8,fr8_a1).
body(r_fr7_8,fr2_a1).
body(r_fr7_8,fr7_d2).
body(r_fr7_8,fr7_f1).
body(r_fr7_8,fr2_a3).
head(r_fr7_9,fr7_p5).
head(r_fr7_10,fr7_p5).
body(r_fr7_10,fr7_a3).
body(r_fr7_10,fr2_a3).
body(r_fr7_10,fr9_x1).
head(r_fr7_11,fr7_p5).
body(r_fr7_11,fr2_f4).
head(r_fr7_12,fr7_r7).
head(r_fr7_13,fr7_r7).
body(r_fr7_13,fr16_a1).
body(r_fr7_13,fr8_a1).
body(r_fr7_13,fr2_a3).
body(r_fr7_13,fr7_e1).
head(r_fr7_14,fr7_r7).
body(r_fr7_14,fr2_a3).
head(r_fr7_15,fr7_y3).
body(r_fr7_15,fr7_e1).
body(r_fr7_15,fr7_r2).
body(r_fr7_15,fr7_r5).
body(r_fr7_15,fr20_p1).
body(r_fr7_15,fr7_v1).
body(r_fr7_15,fr7_x7).
head(r_fr7_16,fr7_y3).
body(r_fr7_16,fr2_a3).
body(r_fr7_16,fr7_d2).
body(r_fr7_16,fr11_u4).
body(r_fr7_16,fr7_r3).
body(r_fr7_16,fr7_t7).
body(r_fr7_16,fr20_p1).
head(r_fr7_17,fr7_y3).
body(r_fr7_17,fr7_d2).
body(r_fr7_17,fr7_s1).
body(r_fr7_17,fr7_s6).
body(r_fr7_17,fr9_p4).
body(r_fr7_17,fr7_u7).
body(r_fr7_17,fr7_y2).
head(r_fr7_18,fr7_y3).
head(r_fr7_19,fr7_y3).
body(r_fr7_19,fr16_a1).
body(r_fr7_19,fr7_s3).
body(r_fr7_19,fr7_u4).
body(r_fr7_19,fr7_y2).
head(r_fr7_20,fr7_q1).
head(r_fr7_21,fr7_q1).
body(r_fr7_21,fr7_u7).
head(r_fr7_22,fr7_q1).
body(r_fr7_22,fr7_b1).
body(r_fr7_22,fr2_a3).
body(r_fr7_22,fr2_a3).
body(r_fr7_22,fr7_t1).
body(r_fr7_22,fr7_x7).
head(r_fr7_23,fr7_q1).
body(r_fr7_23,fr7_q5).
body(r_fr7_23,fr7_y2).
body(r_fr7_23,fr7_z6).
head(r_fr7_24,fr7_q1).
body(r_fr7_24,fr2_a3).
body(r_fr7_24,fr7_e1).
head(r_fr7_25,fr7_v1).
body(r_fr7_25,fr2_a3).
body(r_fr7_25,fr7_v2).
head(r_fr7_26,fr7_v1).
body(r_fr7_26,fr2_a3).
body(r_fr7_26,fr7_q7).
body(r_fr7_26,fr7_y1).
head(r_fr7_27,fr20_p1).
body(r_fr7_27,fr8_a1).
body(r_fr7_27,fr2_f4).
head(r_fr7_28,fr20_p1).
body(r_fr7_28,fr7_q1).
head(r_fr7_29,fr20_p1).
head(r_fr7_30,fr20_p1).
body(r_fr7_30,fr7_y2).
head(r_fr7_31,fr7_s4).
body(r_fr7_31,fr16_a1).
body(r_fr7_31,fr7_b1).
body(r_fr7_31,fr7_d2).
body(r_fr7_31,fr2_f4).
head(r_fr7_32,fr7_s4).
body(r_fr7_32,fr7_v1).
head(r_fr7_33,fr7_s4).
body(r_fr7_33,fr7_w1).
head(r_fr7_34,fr7_s4).
body(r_fr7_34,fr8_a1).
body(r_fr7_34,fr7_r5).
body(r_fr7_34,fr9_p4).
body(r_fr7_34,fr7_y6).
head(r_fr7_35,fr7_s4).
head(r_fr7_36,fr7_t3).
body(r_fr7_36,fr8_a1).
body(r_fr7_36,fr7_q7).
body(r_fr7_36,fr7_r3).
head(r_fr7_37,fr7_t3).
body(r_fr7_37,fr8_a1).
body(r_fr7_37,fr2_f4).
body(r_fr7_37,fr2_f4).
head(r_fr7_38,fr7_t3).
body(r_fr7_38,fr2_a3).
body(r_fr7_38,fr7_q5).
body(r_fr7_38,fr7_q7).
body(r_fr7_38,fr7_s1).
body(r_fr7_38,fr7_v5).
body(r_fr7_38,fr7_x3).
head(r_fr7_39,fr7_t3).
body(r_fr7_39,fr2_a3).
body(r_fr7_39,fr7_r2).
body(r_fr7_39,fr25_t1).
head(r_fr7_40,fr7_t3).
body(r_fr7_40,fr2_a3).
body(r_fr7_40,fr2_a1).
body(r_fr7_40,fr7_c2).
body(r_fr7_40,fr7_q1).
body(r_fr7_40,fr1_z1).
body(r_fr7_40,fr7_s3).
head(r_fr7_41,fr7_r2).
body(r_fr7_41,fr7_b1).
body(r_fr7_41,fr2_a1).
body(r_fr7_41,fr7_c2).
body(r_fr7_41,fr7_f1).
head(r_fr7_42,fr7_r2).
body(r_fr7_42,fr2_a3).
body(r_fr7_42,fr7_q5).
body(r_fr7_42,fr12_p3).
body(r_fr7_42,fr9_p4).
body(r_fr7_42,fr7_y6).
head(r_fr7_43,fr7_r2).
body(r_fr7_43,fr7_b1).
body(r_fr7_43,fr2_a1).
body(r_fr7_43,fr7_c3).
head(r_fr7_44,fr7_r2).
body(r_fr7_44,fr25_p3).
body(r_fr7_44,fr9_x1).
body(r_fr7_44,fr7_w3).
head(r_fr7_45,fr7_r2).
body(r_fr7_45,fr16_a1).
body(r_fr7_45,fr7_a3).
body(r_fr7_45,fr2_f4).
body(r_fr7_45,fr7_s5).
body(r_fr7_45,fr7_z5).
head(r_fr7_46,fr7_t4).
body(r_fr7_46,fr7_b1).
body(r_fr7_46,fr7_f1).
body(r_fr7_46,fr7_y6).
head(r_fr7_47,fr7_t4).
body(r_fr7_47,fr16_a1).
body(r_fr7_47,fr2_a1).
body(r_fr7_47,fr2_a3).
head(r_fr7_48,fr7_t4).
body(r_fr7_48,fr7_c3).
body(r_fr7_48,fr7_e1).
head(r_fr7_49,fr20_v4).
body(r_fr7_49,fr2_a3).
body(r_fr7_49,fr7_e1).
body(r_fr7_49,fr7_u6).
body(r_fr7_49,fr7_v3).
head(r_fr7_50,fr20_v4).
head(r_fr7_51,fr20_v4).
body(r_fr7_51,fr16_a1).
body(r_fr7_51,fr8_a1).
body(r_fr7_51,fr2_a1).
body(r_fr7_51,fr2_f4).
head(r_fr7_52,fr7_z5).
head(r_fr7_53,fr7_z5).
body(r_fr7_53,fr7_f1).
head(r_fr7_54,fr14_z1).
body(r_fr7_54,fr2_a3).
body(r_fr7_54,fr7_e1).
body(r_fr7_54,fr7_p5).
body(r_fr7_54,fr17_w1).
body(r_fr7_54,fr7_t6).
body(r_fr7_54,fr7_w5).
head(r_fr7_55,fr14_z1).
body(r_fr7_55,fr7_b1).
body(r_fr7_55,fr2_a3).
head(r_fr7_56,fr7_z2).
body(r_fr7_56,fr7_e1).
body(r_fr7_56,fr2_a3).
head(r_fr7_57,fr7_z2).
body(r_fr7_57,fr2_a3).
body(r_fr7_57,fr7_b1).
body(r_fr7_57,fr2_a1).
body(r_fr7_57,fr2_a3).
body(r_fr7_57,fr7_x6).
head(r_fr7_58,fr7_u6).
body(r_fr7_58,fr7_b1).
body(r_fr7_58,fr2_f4).
body(r_fr7_58,fr20_p1).
body(r_fr7_58,fr7_v3).
head(r_fr7_59,fr7_u6).
head(r_fr7_60,fr7_u6).
body(r_fr7_60,fr2_a3).
body(r_fr7_60,fr8_p2).
head(r_fr7_61,fr7_u6).
body(r_fr7_61,fr7_c3).
body(r_fr7_61,fr2_a3).
head(r_fr7_62,fr11_u4).
body(r_fr7_62,fr16_a1).
body(r_fr7_62,fr2_a3).
head(r_fr7_63,fr11_u4).
body(r_fr7_63,fr16_a1).
body(r_fr7_63,fr2_a3).
body(r_fr7_63,fr9_x1).
body(r_fr7_63,fr20_p1).
body(r_fr7_63,fr7_v2).
head(r_fr7_64,fr11_u4).
body(r_fr7_64,fr2_a3).
body(r_fr7_64,fr7_t3).
head(r_fr7_65,fr11_u4).
body(r_fr7_65,fr7_a3).
body(r_fr7_65,fr2_a1).
body(r_fr7_65,fr2_f4).
head(r_fr7_66,fr7_v3).
body(r_fr7_66,fr7_y2).
head(r_fr7_67,fr7_v3).
body(r_fr7_67,fr2_a3).
body(r_fr7_67,fr1_z1).
body(r_fr7_67,fr7_q5).
body(r_fr7_67,fr7_t5).
body(r_fr7_67,fr7_u6).
body(r_fr7_67,fr7_u7).
head(r_fr7_68,fr7_v3).
body(r_fr7_68,fr16_a1).
body(r_fr7_68,fr7_e1).
body(r_fr7_68,fr2_f4).
body(r_fr7_68,fr3_p4).
head(r_fr7_69,fr7_v3).
body(r_fr7_69,fr16_a1).
body(r_fr7_69,fr7_f1).
body(r_fr7_69,fr9_p4).
head(r_fr7_70,fr7_v3).
body(r_fr7_70,fr7_b1).
body(r_fr7_70,fr8_a1).
body(r_fr7_70,fr7_c2).
body(r_fr7_70,fr2_a3).
body(r_fr7_70,fr7_r2).
head(r_fr7_71,fr7_u4).
body(r_fr7_71,fr7_r2).
head(r_fr7_72,fr7_u4).
body(r_fr7_72,fr16_a1).
body(r_fr7_72,fr7_b1).
body(r_fr7_72,fr2_a1).
body(r_fr7_72,fr7_c2).
body(r_fr7_72,fr7_c3).
head(r_fr7_73,fr7_u4).
body(r_fr7_73,fr2_f4).
body(r_fr7_73,fr7_c2).
body(r_fr7_73,fr2_a3).
body(r_fr7_73,fr25_p3).
body(r_fr7_73,fr20_p1).
body(r_fr7_73,fr7_r1).
head(r_fr7_74,fr7_u4).
body(r_fr7_74,fr2_a3).
body(r_fr7_74,fr2_a3).
body(r_fr7_74,fr7_d2).
body(r_fr7_74,fr7_s4).
body(r_fr7_74,fr7_s6).
body(r_fr7_74,fr7_z2).

assumption(fr8_a1).
assumption(fr8_b1).
assumption(fr8_a1).
assumption(fr8_d1).
assumption(fr11_d2).
assumption(fr8_f1).
assumption(fr8_a2).
assumption(fr8_b2).
assumption(fr3_a1).
assumption(fr8_d2).
assumption(fr21_a3).
assumption(fr8_f2).
assumption(fr8_a1).
assumption(fr2_a3).
assumption(fr2_b4).
contrary(fr8_a1,fr8_z1).
contrary(fr8_a2,fr3_a1).
contrary(fr8_a1,fr8_b2).
contrary(fr8_b1,fr8_w2).
contrary(fr8_b2,fr3_a1).
contrary(fr2_a3,fr8_a1).
contrary(fr8_a1,fr2_y1).
contrary(fr3_a1,fr8_p2).
contrary(fr2_b4,fr20_p1).
contrary(fr8_d1,fr8_a2).
contrary(fr8_d2,fr8_s1).
contrary(fr11_d2,fr8_d1).
contrary(fr21_a3,fr3_u2).
contrary(fr8_f1,fr8_a1).
contrary(fr8_f2,fr8_p2).
head(r_fr8_0,fr20_p1).
body(r_fr8_0,fr2_a3).
body(r_fr8_0,fr3_a1).
body(r_fr8_0,fr8_d2).
body(r_fr8_0,fr8_f1).
body(r_fr8_0,fr8_f2).
body(r_fr8_0,fr17_w1).
head(r_fr8_1,fr20_p1).
body(r_fr8_1,fr8_t1).
body(r_fr8_1,fr5_w1).
body(r_fr8_1,fr3_x2).
body(r_fr8_1,fr8_r3).
head(r_fr8_2,fr20_p1).
head(r_fr8_3,fr20_p1).
body(r_fr8_3,fr8_p2).
body(r_fr8_3,fr8_t1).
head(r_fr8_4,fr20_p1).
body(r_fr8_4,fr8_a2).
body(r_fr8_4,fr21_a3).
head(r_fr8_5,fr20_p1).
body(r_fr8_5,fr8_a1).
body(r_fr8_5,fr8_d2).
body(r_fr8_5,fr8_x1).
head(r_fr8_6,fr20_p1).
body(r_fr8_6,fr8_b2).
body(r_fr8_6,fr8_r3).
body(r_fr8_6,fr8_x1).
head(r_fr8_7,fr17_w1).
body(r_fr8_7,fr8_a2).
head(r_fr8_8,fr17_w1).
body(r_fr8_8,fr3_x2).
body(r_fr8_8,fr9_w3).
head(r_fr8_9,fr17_w1).
body(r_fr8_9,fr8_f2).
body(r_fr8_9,fr2_y1).
body(r_fr8_9,fr3_x2).
body(r_fr8_9,fr8_r3).
body(r_fr8_9,fr8_y2).
head(r_fr8_10,fr17_w1).
body(r_fr8_10,fr8_b1).
body(r_fr8_10,fr2_b4).
body(r_fr8_10,fr8_d2).
body(r_fr8_10,fr11_d2).
body(r_fr8_10,fr21_a3).
body(r_fr8_10,fr8_f1).
head(r_fr8_11,fr17_w1).
body(r_fr8_11,fr9_w3).
body(r_fr8_11,fr8_x1).
body(r_fr8_11,fr20_p1).
head(r_fr8_12,fr5_w1).
body(r_fr8_12,fr8_a2).
body(r_fr8_12,fr8_x1).
body(r_fr8_12,fr17_w1).
head(r_fr8_13,fr5_w1).
body(r_fr8_13,fr8_b1).
body(r_fr8_13,fr8_t1).
body(r_fr8_13,fr8_z1).
head(r_fr8_14,fr5_w1).
head(r_fr8_15,fr5_w1).
body(r_fr8_15,fr8_a1).
body(r_fr8_15,fr8_b1).
body(r_fr8_15,fr8_b2).
body(r_fr8_15,fr8_a1).
body(r_fr8_15,fr3_a1).
body(r_fr8_15,fr8_d1).
head(r_fr8_16,fr5_w1).
body(r_fr8_16,fr8_b2).
body(r_fr8_16,fr8_a1).
head(r_fr8_17,fr5_w1).
body(r_fr8_17,fr3_a1).
body(r_fr8_17,fr11_d2).
body(r_fr8_17,fr3_x2).
body(r_fr8_17,fr8_s1).
body(r_fr8_17,fr15_v3).
head(r_fr8_18,fr5_w1).
body(r_fr8_18,fr8_a1).
body(r_fr8_18,fr8_d1).
body(r_fr8_18,fr8_f1).
head(r_fr8_19,fr17_w1).
body(r_fr8_19,fr8_a2).
body(r_fr8_19,fr8_d1).
body(r_fr8_19,fr8_f2).
body(r_fr8_19,fr8_z1).
body(r_fr8_19,fr20_p1).
head(r_fr8_20,fr17_w1).
head(r_fr8_21,fr17_w1).
body(r_fr8_21,fr3_a1).
head(r_fr8_22,fr17_w1).
body(r_fr8_22,fr8_t1).
body(r_fr8_22,fr17_w1).
body(r_fr8_22,fr3_x2).
body(r_fr8_22,fr17_w1).
body(r_fr8_22,fr3_u2).
head(r_fr8_23,fr17_w1).
body(r_fr8_23,fr5_w1).
body(r_fr8_23,fr17_w1).
body(r_fr8_23,fr8_w2).
head(r_fr8_24,fr17_w1).
body(r_fr8_24,fr8_r1).
body(r_fr8_24,fr3_x2).
body(r_fr8_24,fr20_p1).
head(r_fr8_25,fr17_w1).
body(r_fr8_25,fr8_a1).
body(r_fr8_25,fr8_a1).
body(r_fr8_25,fr2_b4).
body(r_fr8_25,fr8_d1).
head(r_fr8_26,fr17_w1).
body(r_fr8_26,fr8_a2).
body(r_fr8_26,fr8_d1).
body(r_fr8_26,fr8_f1).
body(r_fr8_26,fr3_u2).
body(r_fr8_26,fr8_w2).
body(r_fr8_26,fr8_z1).
head(r_fr8_27,fr8_w2).
body(r_fr8_27,fr8_a1).
body(r_fr8_27,fr8_b2).
body(r_fr8_27,fr8_a1).
body(r_fr8_27,fr3_a1).
body(r_fr8_27,fr8_d2).
head(r_fr8_28,fr8_w2).
body(r_fr8_28,fr2_b4).
body(r_fr8_28,fr8_p2).
body(r_fr8_28,fr8_r1).
body(r_fr8_28,fr8_r3).
body(r_fr8_28,fr17_w1).
body(r_fr8_28,fr8_y2).
head(r_fr8_29,fr8_w2).
body(r_fr8_29,fr21_a3).
body(r_fr8_29,fr2_y1).
head(r_fr8_30,fr8_w2).
head(r_fr8_31,fr8_w2).
body(r_fr8_31,fr8_a1).
body(r_fr8_31,fr8_b2).
body(r_fr8_31,fr2_a3).
body(r_fr8_31,fr2_b4).
body(r_fr8_31,fr8_f1).
body(r_fr8_31,fr8_z1).
head(r_fr8_32,fr8_s1).
body(r_fr8_32,fr2_a3).
body(r_fr8_32,fr2_b4).
body(r_fr8_32,fr17_w1).
body(r_fr8_32,fr8_t1).
body(r_fr8_32,fr8_x1).
body(r_fr8_32,fr20_v3).
head(r_fr8_33,fr8_s1).
body(r_fr8_33,fr8_a1).
body(r_fr8_33,fr2_x3).
body(r_fr8_33,fr5_w1).
body(r_fr8_33,fr15_v3).
body(r_fr8_33,fr3_u2).
body(r_fr8_33,fr8_z1).
head(r_fr8_34,fr8_s1).
body(r_fr8_34,fr17_w1).
head(r_fr8_35,fr8_s1).
body(r_fr8_35,fr21_a3).
body(r_fr8_35,fr20_v3).
body(r_fr8_35,fr8_y2).
head(r_fr8_36,fr8_s1).
body(r_fr8_36,fr2_a3).
body(r_fr8_36,fr17_w1).
head(r_fr8_37,fr8_s1).
body(r_fr8_37,fr2_a3).
head(r_fr8_38,fr8_s1).
body(r_fr8_38,fr2_b4).
body(r_fr8_38,fr5_w1).
body(r_fr8_38,fr8_r1).
body(r_fr8_38,fr8_t1).
body(r_fr8_38,fr8_x1).
body(r_fr8_38,fr20_p1).
head(r_fr8_39,fr2_x3).
body(r_fr8_39,fr8_p2).
body(r_fr8_39,fr8_r1).
body(r_fr8_39,fr3_x2).
body(r_fr8_39,fr8_r3).
body(r_fr8_39,fr9_w3).
body(r_fr8_39,fr8_t1).
head(r_fr8_40,fr2_x3).
head(r_fr8_41,fr2_x3).
body(r_fr8_41,fr8_b2).
body(r_fr8_41,fr8_p2).
body(r_fr8_41,fr8_t1).
body(r_fr8_41,fr20_p1).
body(r_fr8_41,fr20_p1).
head(r_fr8_42,fr2_x3).
body(r_fr8_42,fr2_a3).
body(r_fr8_42,fr8_a1).
body(r_fr8_42,fr8_f1).
body(r_fr8_42,fr8_f2).
body(r_fr8_42,fr8_r3).
body(r_fr8_42,fr17_w1).
head(r_fr8_43,fr2_x3).
body(r_fr8_43,fr8_x1).
head(r_fr8_44,fr3_x2).
head(r_fr8_45,fr3_x2).
body(r_fr8_45,fr3_a1).
body(r_fr8_45,fr20_v3).
head(r_fr8_46,fr3_x2).
body(r_fr8_46,fr8_b2).
head(r_fr8_47,fr3_x2).
body(r_fr8_47,fr8_d1).
body(r_fr8_47,fr11_d2).
body(r_fr8_47,fr8_s1).
head(r_fr8_48,fr3_x2).
body(r_fr8_48,fr2_a3).
body(r_fr8_48,fr8_a1).
body(r_fr8_48,fr3_a1).
body(r_fr8_48,fr2_b4).
body(r_fr8_48,fr11_d2).
body(r_fr8_48,fr8_f2).
head(r_fr8_49,fr3_x2).
body(r_fr8_49,fr8_a1).
body(r_fr8_49,fr8_b2).
body(r_fr8_49,fr2_a3).
body(r_fr8_49,fr8_a1).
body(r_fr8_49,fr2_b4).
body(r_fr8_49,fr11_d2).
head(r_fr8_50,fr17_w1).
body(r_fr8_50,fr8_b2).
body(r_fr8_50,fr8_f1).
body(r_fr8_50,fr8_f2).
body(r_fr8_50,fr8_s1).
body(r_fr8_50,fr9_w3).
body(r_fr8_50,fr3_u2).
head(r_fr8_51,fr17_w1).
body(r_fr8_51,fr8_a2).
head(r_fr8_52,fr17_w1).
body(r_fr8_52,fr8_a1).
body(r_fr8_52,fr2_x3).
head(r_fr8_53,fr17_w1).
body(r_fr8_53,fr2_a3).
body(r_fr8_53,fr2_x3).
body(r_fr8_53,fr8_y2).
head(r_fr8_54,fr17_w1).
body(r_fr8_54,fr8_a1).
body(r_fr8_54,fr8_r1).
body(r_fr8_54,fr3_x2).
body(r_fr8_54,fr8_t1).
head(r_fr8_55,fr17_w1).
body(r_fr8_55,fr8_a1).
body(r_fr8_55,fr8_y2).
head(r_fr8_56,fr17_w1).
body(r_fr8_56,fr8_a1).
body(r_fr8_56,fr8_f1).
body(r_fr8_56,fr8_z1).
head(r_fr8_57,fr17_w1).
body(r_fr8_57,fr8_b1).
body(r_fr8_57,fr8_a1).
body(r_fr8_57,fr8_p2).
body(r_fr8_57,fr8_t1).
head(r_fr8_58,fr3_u2).
body(r_fr8_58,fr21_a3).
body(r_fr8_58,fr8_f2).
head(r_fr8_59,fr3_u2).
body(r_fr8_59,fr8_t1).
body(r_fr8_59,fr5_w1).
body(r_fr8_59,fr8_t1).
body(r_fr8_59,fr17_w1).
body(r_fr8_59,fr17_w1).
body(r_fr8_59,fr8_z1).
head(r_fr8_60,fr3_u2).
body(r_fr8_60,fr2_a3).
body(r_fr8_60,fr15_v3).
head(r_fr8_61,fr3_u2).
body(r_fr8_61,fr8_f2).
head(r_fr8_62,fr3_u2).
head(r_fr8_63,fr3_u2).
body(r_fr8_63,fr8_a1).
body(r_fr8_63,fr8_a2).
body(r_fr8_63,fr8_s1).
head(r_fr8_64,fr3_u2).
body(r_fr8_64,fr5_w1).
head(r_fr8_65,fr17_w1).
body(r_fr8_65,fr2_x3).
body(r_fr8_65,fr8_t1).
head(r_fr8_66,fr17_w1).
body(r_fr8_66,fr2_y1).
body(r_fr8_66,fr9_w3).
head(r_fr8_67,fr17_w1).
body(r_fr8_67,fr20_p1).
head(r_fr8_68,fr17_w1).
body(r_fr8_68,fr8_p2).
body(r_fr8_68,fr8_t1).
body(r_fr8_68,fr8_t1).
body(r_fr8_68,fr8_x1).
head(r_fr8_69,fr17_w1).
head(r_fr8_70,fr17_w1).
body(r_fr8_70,fr5_w1).
body(r_fr8_70,fr3_u2).
body(r_fr8_70,fr8_x1).
head(r_fr8_71,fr17_w1).
body(r_fr8_71,fr8_a1).
body(r_fr8_71,fr8_b2).
body(r_fr8_71,fr8_f1).
body(r_fr8_71,fr8_f2).
head(r_fr8_72,fr17_w1).
body(r_fr8_72,fr8_b2).
body(r_fr8_72,fr2_y1).
body(r_fr8_72,fr9_w3).
head(r_fr8_73,fr2_y1).
body(r_fr8_73,fr8_b1).
body(r_fr8_73,fr8_p2).
body(r_fr8_73,fr9_w3).
body(r_fr8_73,fr8_y2).
head(r_fr8_74,fr2_y1).
body(r_fr8_74,fr9_w3).
head(r_fr8_75,fr2_y1).
body(r_fr8_75,fr8_f1).
head(r_fr8_76,fr2_y1).
body(r_fr8_76,fr8_a2).
body(r_fr8_76,fr8_a1).
body(r_fr8_76,fr8_f1).
head(r_fr8_77,fr2_y1).
body(r_fr8_77,fr8_a1).
body(r_fr8_77,fr8_a2).
body(r_fr8_77,fr8_d1).
body(r_fr8_77,fr8_d2).
body(r_fr8_77,fr11_d2).
body(r_fr8_77,fr8_f1).
head(r_fr8_78,fr2_y1).
body(r_fr8_78,fr17_w1).
head(r_fr8_79,fr2_y1).
head(r_fr8_80,fr2_y1).
body(r_fr8_80,fr20_p1).
head(r_fr8_81,fr8_t1).
body(r_fr8_81,fr8_f1).
body(r_fr8_81,fr20_p1).
head(r_fr8_82,fr8_t1).
body(r_fr8_82,fr8_f1).
head(r_fr8_83,fr8_t1).
body(r_fr8_83,fr8_f2).
head(r_fr8_84,fr8_t1).
body(r_fr8_84,fr8_a1).
body(r_fr8_84,fr8_b1).
body(r_fr8_84,fr2_a3).
body(r_fr8_84,fr8_a1).
body(r_fr8_84,fr8_z1).
head(r_fr8_85,fr8_t1).
body(r_fr8_85,fr17_w1).
body(r_fr8_85,fr17_w1).
body(r_fr8_85,fr20_v3).
head(r_fr8_86,fr8_y2).
body(r_fr8_86,fr8_r1).
body(r_fr8_86,fr3_x2).
body(r_fr8_86,fr8_r3).
body(r_fr8_86,fr9_w3).
body(r_fr8_86,fr3_u2).
body(r_fr8_86,fr20_p1).
head(r_fr8_87,fr8_y2).
body(r_fr8_87,fr8_r1).
head(r_fr8_88,fr8_y2).
head(r_fr8_89,fr8_y2).
body(r_fr8_89,fr17_w1).
head(r_fr8_90,fr8_y2).
body(r_fr8_90,fr8_a1).
body(r_fr8_90,fr8_b1).
body(r_fr8_90,fr8_b2).
body(r_fr8_90,fr2_b4).
body(r_fr8_90,fr8_d1).
body(r_fr8_90,fr21_a3).
head(r_fr8_91,fr8_z1).
body(r_fr8_91,fr8_a2).
head(r_fr8_92,fr8_z1).
head(r_fr8_93,fr8_z1).
body(r_fr8_93,fr8_f2).
body(r_fr8_93,fr8_r3).
body(r_fr8_93,fr8_s1).
body(r_fr8_93,fr17_w1).
head(r_fr8_94,fr8_z1).
body(r_fr8_94,fr8_a1).
body(r_fr8_94,fr8_p2).
body(r_fr8_94,fr3_u2).
body(r_fr8_94,fr8_w2).
body(r_fr8_94,fr8_x1).
head(r_fr8_95,fr8_z1).
body(r_fr8_95,fr8_a2).
body(r_fr8_95,fr21_a3).
body(r_fr8_95,fr8_f2).
body(r_fr8_95,fr8_r3).
body(r_fr8_95,fr17_w1).
head(r_fr8_96,fr8_z1).
body(r_fr8_96,fr8_a1).
body(r_fr8_96,fr8_w2).
body(r_fr8_96,fr8_x1).
head(r_fr8_97,fr8_z1).
body(r_fr8_97,fr8_b1).
body(r_fr8_97,fr8_b2).
head(r_fr8_98,fr8_z1).
body(r_fr8_98,fr8_b2).
body(r_fr8_98,fr3_a1).
body(r_fr8_98,fr8_f2).
body(r_fr8_98,fr17_w1).
head(r_fr8_99,fr20_p1).
body(r_fr8_99,fr8_a2).
body(r_fr8_99,fr8_a1).
body(r_fr8_99,fr3_a1).
body(r_fr8_99,fr2_b4).
body(r_fr8_99,fr8_d2).
head(r_fr8_100,fr20_p1).
body(r_fr8_100,fr21_a3).
head(r_fr8_101,fr20_p1).
body(r_fr8_101,fr2_b4).
body(r_fr8_101,fr8_d1).
head(r_fr8_102,fr20_p1).
body(r_fr8_102,fr8_a1).
body(r_fr8_102,fr11_d2).
head(r_fr8_103,fr20_p1).
body(r_fr8_103,fr8_f2).
body(r_fr8_103,fr8_s1).
head(r_fr8_104,fr20_p1).
body(r_fr8_104,fr8_b1).
body(r_fr8_104,fr8_a1).
body(r_fr8_104,fr2_b4).
body(r_fr8_104,fr21_a3).
head(r_fr8_105,fr20_p1).
body(r_fr8_105,fr11_d2).
body(r_fr8_105,fr8_r1).
body(r_fr8_105,fr3_x2).
body(r_fr8_105,fr20_p1).
body(r_fr8_105,fr8_y2).
head(r_fr8_106,fr8_r3).
body(r_fr8_106,fr3_a1).
head(r_fr8_107,fr8_r3).
head(r_fr8_108,fr8_r3).
body(r_fr8_108,fr8_a1).
body(r_fr8_108,fr8_b2).
body(r_fr8_108,fr21_a3).
body(r_fr8_108,fr17_w1).
body(r_fr8_108,fr9_w3).
head(r_fr8_109,fr8_r3).
body(r_fr8_109,fr2_y1).
body(r_fr8_109,fr17_w1).
body(r_fr8_109,fr9_w3).
body(r_fr8_109,fr8_w2).
body(r_fr8_109,fr8_z1).
head(r_fr8_110,fr8_r3).
body(r_fr8_110,fr11_d2).
body(r_fr8_110,fr8_f1).
body(r_fr8_110,fr8_t1).
body(r_fr8_110,fr8_t1).
body(r_fr8_110,fr3_u2).
head(r_fr8_111,fr8_t1).
body(r_fr8_111,fr8_b2).
body(r_fr8_111,fr2_b4).
body(r_fr8_111,fr8_f2).
body(r_fr8_111,fr17_w1).
body(r_fr8_111,fr3_u2).
body(r_fr8_111,fr20_v3).
head(r_fr8_112,fr8_t1).
body(r_fr8_112,fr11_d2).
body(r_fr8_112,fr8_f1).
head(r_fr8_113,fr8_t1).
body(r_fr8_113,fr8_a1).
body(r_fr8_113,fr3_a1).
body(r_fr8_113,fr8_d2).
head(r_fr8_114,fr8_t1).
head(r_fr8_115,fr8_t1).
body(r_fr8_115,fr8_a1).
head(r_fr8_116,fr8_t1).
body(r_fr8_116,fr8_a1).
body(r_fr8_116,fr8_b1).
body(r_fr8_116,fr8_d2).
body(r_fr8_116,fr3_x2).
body(r_fr8_116,fr8_w2).
head(r_fr8_117,fr8_t1).
body(r_fr8_117,fr8_f1).
body(r_fr8_117,fr8_s1).
head(r_fr8_118,fr8_r1).
body(r_fr8_118,fr8_a1).
head(r_fr8_119,fr8_r1).
body(r_fr8_119,fr8_b2).
body(r_fr8_119,fr2_a3).
body(r_fr8_119,fr8_a1).
body(r_fr8_119,fr8_d1).
body(r_fr8_119,fr11_d2).
body(r_fr8_119,fr8_f2).
head(r_fr8_120,fr8_r1).
body(r_fr8_120,fr17_w1).
body(r_fr8_120,fr8_t1).
head(r_fr8_121,fr8_r1).
body(r_fr8_121,fr8_f1).
body(r_fr8_121,fr8_f2).
body(r_fr8_121,fr9_w3).
body(r_fr8_121,fr8_t1).
head(r_fr8_122,fr8_r1).
body(r_fr8_122,fr8_a2).
body(r_fr8_122,fr8_d1).
body(r_fr8_122,fr8_f2).
head(r_fr8_123,fr20_v3).
body(r_fr8_123,fr2_a3).
body(r_fr8_123,fr8_a1).
body(r_fr8_123,fr3_u2).
head(r_fr8_124,fr20_v3).
body(r_fr8_124,fr8_a1).
body(r_fr8_124,fr8_r1).
body(r_fr8_124,fr17_w1).
body(r_fr8_124,fr9_w3).
head(r_fr8_125,fr20_v3).
body(r_fr8_125,fr3_a1).
body(r_fr8_125,fr15_v3).
head(r_fr8_126,fr20_v3).
body(r_fr8_126,fr9_w3).
head(r_fr8_127,fr20_v3).
body(r_fr8_127,fr8_b2).
body(r_fr8_127,fr3_a1).
body(r_fr8_127,fr8_f2).
body(r_fr8_127,fr17_w1).
body(r_fr8_127,fr17_w1).
head(r_fr8_128,fr20_v3).
body(r_fr8_128,fr8_b2).
body(r_fr8_128,fr8_a1).
body(r_fr8_128,fr2_b4).
head(r_fr8_129,fr20_v3).
body(r_fr8_129,fr2_a3).
body(r_fr8_129,fr8_a1).
body(r_fr8_129,fr8_d1).
body(r_fr8_129,fr2_x3).
body(r_fr8_129,fr9_w3).
body(r_fr8_129,fr3_u2).
head(r_fr8_130,fr20_v3).

assumption(fr22_e2).
assumption(fr16_a3).
assumption(fr9_c1).
assumption(fr9_d1).
assumption(fr9_e1).
assumption(fr9_f1).
assumption(fr2_a1).
assumption(fr3_a1).
assumption(fr9_c2).
assumption(fr21_a3).
assumption(fr9_e2).
assumption(fr9_f2).
assumption(fr2_e3).
assumption(fr9_b3).
assumption(fr3_a1).
contrary(fr22_e2,fr20_v3).
contrary(fr2_a1,fr20_v3).
contrary(fr2_e3,fr7_y2).
contrary(fr16_a3,fr22_e2).
contrary(fr3_a1,fr13_w1).
contrary(fr9_b3,fr9_y1).
contrary(fr9_c1,fr9_y3).
contrary(fr9_c2,fr7_y2).
contrary(fr3_a1,fr2_e3).
contrary(fr9_d1,fr15_u3).
contrary(fr21_a3,fr12_p3).
contrary(fr9_e1,fr9_s2).
contrary(fr9_e2,fr3_a1).
contrary(fr9_f1,fr9_x1).
contrary(fr9_f2,fr2_a1).
head(r_fr9_0,fr20_v3).
body(r_fr9_0,fr16_a3).
body(r_fr9_0,fr3_a1).
body(r_fr9_0,fr9_b3).
body(r_fr9_0,fr9_c2).
body(r_fr9_0,fr9_d1).
body(r_fr9_0,fr9_f1).
body(r_fr9_0,fr23_r2).
body(r_fr9_0,fr13_w1).
body(r_fr9_0,fr9_r1).
body(r_fr9_0,fr9_x1).
body(r_fr9_0,fr9_u3).
body(r_fr9_0,fr9_v1).
body(r_fr9_0,fr12_p3).
body(r_fr9_0,fr9_w1).
body(r_fr9_0,fr9_x2).
body(r_fr9_0,fr20_p1).
body(r_fr9_0,fr9_y1).
body(r_fr9_0,fr17_w1).
body(r_fr9_0,fr9_z3).
head(r_fr9_1,fr20_v3).
body(r_fr9_1,fr3_a1).
body(r_fr9_1,fr9_b3).
body(r_fr9_1,fr3_a1).
body(r_fr9_1,fr21_a3).
body(r_fr9_1,fr9_f1).
body(r_fr9_1,fr9_f2).
body(r_fr9_1,fr9_q2).
body(r_fr9_1,fr9_r1).
body(r_fr9_1,fr21_p2).
body(r_fr9_1,fr9_s2).
body(r_fr9_1,fr20_p1).
body(r_fr9_1,fr9_x1).
body(r_fr9_1,fr12_s2).
body(r_fr9_1,fr7_y2).
body(r_fr9_1,fr9_x1).
body(r_fr9_1,fr9_y1).
body(r_fr9_1,fr9_y3).
body(r_fr9_1,fr9_z3).
head(r_fr9_2,fr20_v3).
body(r_fr9_2,fr22_e2).
body(r_fr9_2,fr16_a3).
body(r_fr9_2,fr21_a3).
body(r_fr9_2,fr9_e1).
body(r_fr9_2,fr9_f1).
body(r_fr9_2,fr9_f2).
body(r_fr9_2,fr15_u3).
body(r_fr9_2,fr23_r2).
body(r_fr9_2,fr9_p4).
body(r_fr9_2,fr7_y2).
body(r_fr9_2,fr13_w1).
body(r_fr9_2,fr20_p1).
body(r_fr9_2,fr20_v3).
body(r_fr9_2,fr9_u3).
body(r_fr9_2,fr12_p3).
body(r_fr9_2,fr9_w3).
body(r_fr9_2,fr9_x1).
body(r_fr9_2,fr9_x2).
body(r_fr9_2,fr20_p1).
body(r_fr9_2,fr9_y1).
body(r_fr9_2,fr17_w1).
head(r_fr9_3,fr20_v3).
body(r_fr9_3,fr9_c2).
body(r_fr9_3,fr9_p4).
body(r_fr9_3,fr7_y2).
body(r_fr9_3,fr9_q2).
body(r_fr9_3,fr20_p1).
body(r_fr9_3,fr9_s2).
body(r_fr9_3,fr20_v3).
body(r_fr9_3,fr9_x1).
body(r_fr9_3,fr12_p3).
body(r_fr9_3,fr7_y2).
body(r_fr9_3,fr9_w1).
body(r_fr9_3,fr23_r2).
body(r_fr9_3,fr9_w3).
body(r_fr9_3,fr9_x1).
body(r_fr9_3,fr9_x2).
body(r_fr9_3,fr9_y1).
body(r_fr9_3,fr9_y2).
body(r_fr9_3,fr9_y3).
body(r_fr9_3,fr15_t1).
head(r_fr9_4,fr20_v3).
body(r_fr9_4,fr2_e3).
body(r_fr9_4,fr16_a3).
body(r_fr9_4,fr9_b3).
body(r_fr9_4,fr9_d1).
body(r_fr9_4,fr21_a3).
body(r_fr9_4,fr9_e2).
body(r_fr9_4,fr23_r2).
body(r_fr9_4,fr9_x1).
body(r_fr9_4,fr9_p4).
body(r_fr9_4,fr7_y2).
body(r_fr9_4,fr13_w1).
body(r_fr9_4,fr23_r2).
body(r_fr9_4,fr9_s2).
body(r_fr9_4,fr20_v3).
body(r_fr9_4,fr20_q3).
body(r_fr9_4,fr12_p3).
body(r_fr9_4,fr7_y2).
body(r_fr9_4,fr9_y2).
body(r_fr9_4,fr9_y3).
body(r_fr9_4,fr15_t1).
body(r_fr9_4,fr9_z3).
head(r_fr9_5,fr9_v1).
body(r_fr9_5,fr3_a1).
body(r_fr9_5,fr23_r2).
body(r_fr9_5,fr9_p4).
body(r_fr9_5,fr7_y2).
body(r_fr9_5,fr9_q2).
body(r_fr9_5,fr13_w1).
body(r_fr9_5,fr9_r1).
body(r_fr9_5,fr20_v3).
body(r_fr9_5,fr20_p1).
body(r_fr9_5,fr9_s2).
body(r_fr9_5,fr20_q3).
body(r_fr9_5,fr20_v3).
body(r_fr9_5,fr9_u3).
body(r_fr9_5,fr12_p3).
body(r_fr9_5,fr7_y2).
body(r_fr9_5,fr9_w1).
body(r_fr9_5,fr9_x1).
body(r_fr9_5,fr9_x2).
body(r_fr9_5,fr9_y3).
body(r_fr9_5,fr15_t1).
body(r_fr9_5,fr17_w1).
head(r_fr9_6,fr9_v1).
body(r_fr9_6,fr16_a3).
body(r_fr9_6,fr9_c1).
body(r_fr9_6,fr9_e2).
body(r_fr9_6,fr9_f1).
body(r_fr9_6,fr15_u3).
body(r_fr9_6,fr23_r2).
body(r_fr9_6,fr9_x1).
body(r_fr9_6,fr9_q2).
body(r_fr9_6,fr13_w1).
body(r_fr9_6,fr23_r2).
body(r_fr9_6,fr9_s2).
body(r_fr9_6,fr20_q3).
body(r_fr9_6,fr9_x1).
body(r_fr9_6,fr20_v3).
body(r_fr9_6,fr12_p3).
body(r_fr9_6,fr9_x2).
body(r_fr9_6,fr20_p1).
body(r_fr9_6,fr9_y1).
body(r_fr9_6,fr9_y2).
body(r_fr9_6,fr9_y3).
body(r_fr9_6,fr17_w1).
head(r_fr9_7,fr9_v1).
body(r_fr9_7,fr22_e2).
body(r_fr9_7,fr16_a3).
body(r_fr9_7,fr3_a1).
body(r_fr9_7,fr3_a1).
body(r_fr9_7,fr9_d1).
body(r_fr9_7,fr9_e1).
body(r_fr9_7,fr15_u3).
body(r_fr9_7,fr7_y2).
body(r_fr9_7,fr13_w1).
body(r_fr9_7,fr20_v3).
body(r_fr9_7,fr21_p2).
body(r_fr9_7,fr9_s2).
body(r_fr9_7,fr20_q3).
body(r_fr9_7,fr9_u3).
body(r_fr9_7,fr12_p3).
body(r_fr9_7,fr23_r2).
body(r_fr9_7,fr9_w3).
body(r_fr9_7,fr9_y1).
body(r_fr9_7,fr9_y3).
body(r_fr9_7,fr9_z3).
head(r_fr9_8,fr9_v1).
body(r_fr9_8,fr9_b3).
body(r_fr9_8,fr9_c2).
body(r_fr9_8,fr3_a1).
body(r_fr9_8,fr23_r2).
body(r_fr9_8,fr9_x1).
body(r_fr9_8,fr9_p4).
body(r_fr9_8,fr7_y2).
body(r_fr9_8,fr20_v3).
body(r_fr9_8,fr20_v3).
body(r_fr9_8,fr20_v3).
body(r_fr9_8,fr9_u3).
body(r_fr9_8,fr7_y2).
body(r_fr9_8,fr23_r2).
body(r_fr9_8,fr9_w3).
body(r_fr9_8,fr9_x1).
body(r_fr9_8,fr9_x2).
body(r_fr9_8,fr17_w1).
body(r_fr9_8,fr9_z3).
head(r_fr9_9,fr9_v1).
body(r_fr9_9,fr9_b3).
body(r_fr9_9,fr3_a1).
body(r_fr9_9,fr9_e2).
body(r_fr9_9,fr9_p4).
body(r_fr9_9,fr7_y2).
body(r_fr9_9,fr13_w1).
body(r_fr9_9,fr23_r2).
body(r_fr9_9,fr21_p2).
body(r_fr9_9,fr9_s2).
body(r_fr9_9,fr20_p1).
body(r_fr9_9,fr20_v3).
body(r_fr9_9,fr20_q3).
body(r_fr9_9,fr9_x1).
body(r_fr9_9,fr12_s2).
body(r_fr9_9,fr12_p3).
body(r_fr9_9,fr9_w1).
body(r_fr9_9,fr9_x2).
body(r_fr9_9,fr9_y2).
body(r_fr9_9,fr15_t1).
body(r_fr9_9,fr17_w1).
head(r_fr9_10,fr9_x1).
body(r_fr9_10,fr22_e2).
body(r_fr9_10,fr16_a3).
body(r_fr9_10,fr9_c1).
body(r_fr9_10,fr21_a3).
body(r_fr9_10,fr15_u3).
body(r_fr9_10,fr9_p4).
body(r_fr9_10,fr9_r1).
body(r_fr9_10,fr21_p2).
body(r_fr9_10,fr20_p1).
body(r_fr9_10,fr20_v3).
body(r_fr9_10,fr20_q3).
body(r_fr9_10,fr12_s2).
body(r_fr9_10,fr9_v1).
body(r_fr9_10,fr9_w1).
body(r_fr9_10,fr23_r2).
body(r_fr9_10,fr9_y1).
body(r_fr9_10,fr9_y2).
body(r_fr9_10,fr9_y3).
body(r_fr9_10,fr9_z3).
head(r_fr9_11,fr9_x1).
body(r_fr9_11,fr2_a1).
body(r_fr9_11,fr9_c1).
body(r_fr9_11,fr9_c2).
body(r_fr9_11,fr3_a1).
body(r_fr9_11,fr23_r2).
body(r_fr9_11,fr9_q2).
body(r_fr9_11,fr13_w1).
body(r_fr9_11,fr9_r1).
body(r_fr9_11,fr20_v3).
body(r_fr9_11,fr20_p1).
body(r_fr9_11,fr9_s2).
body(r_fr9_11,fr20_p1).
body(r_fr9_11,fr20_v3).
body(r_fr9_11,fr20_v3).
body(r_fr9_11,fr9_v1).
body(r_fr9_11,fr12_p3).
body(r_fr9_11,fr9_x1).
body(r_fr9_11,fr9_y1).
head(r_fr9_12,fr9_x1).
body(r_fr9_12,fr22_e2).
body(r_fr9_12,fr9_d1).
body(r_fr9_12,fr9_e2).
body(r_fr9_12,fr23_r2).
body(r_fr9_12,fr9_p4).
body(r_fr9_12,fr7_y2).
body(r_fr9_12,fr9_q2).
body(r_fr9_12,fr20_v3).
body(r_fr9_12,fr21_p2).
body(r_fr9_12,fr20_q3).
body(r_fr9_12,fr12_p3).
body(r_fr9_12,fr7_y2).
body(r_fr9_12,fr23_r2).
body(r_fr9_12,fr9_w3).
body(r_fr9_12,fr9_x2).
body(r_fr9_12,fr20_p1).
body(r_fr9_12,fr9_y2).
body(r_fr9_12,fr15_t1).
body(r_fr9_12,fr9_z3).
head(r_fr9_13,fr9_x1).
body(r_fr9_13,fr21_a3).
body(r_fr9_13,fr9_q2).
body(r_fr9_13,fr13_w1).
body(r_fr9_13,fr20_p1).
body(r_fr9_13,fr21_p2).
body(r_fr9_13,fr20_p1).
body(r_fr9_13,fr20_q3).
body(r_fr9_13,fr20_v3).
body(r_fr9_13,fr12_p3).
body(r_fr9_13,fr7_y2).
body(r_fr9_13,fr9_w1).
body(r_fr9_13,fr23_r2).
body(r_fr9_13,fr9_w3).
body(r_fr9_13,fr9_x1).
body(r_fr9_13,fr9_y1).
body(r_fr9_13,fr9_y2).
body(r_fr9_13,fr9_y3).
body(r_fr9_13,fr17_w1).
body(r_fr9_13,fr9_z3).
head(r_fr9_14,fr9_x1).
body(r_fr9_14,fr2_e3).
body(r_fr9_14,fr9_b3).
body(r_fr9_14,fr9_c1).
body(r_fr9_14,fr9_c2).
body(r_fr9_14,fr9_d1).
body(r_fr9_14,fr9_f1).
body(r_fr9_14,fr9_p4).
body(r_fr9_14,fr7_y2).
body(r_fr9_14,fr13_w1).
body(r_fr9_14,fr9_r1).
body(r_fr9_14,fr21_p2).
body(r_fr9_14,fr20_p1).
body(r_fr9_14,fr9_x1).
body(r_fr9_14,fr12_s2).
body(r_fr9_14,fr20_v3).
body(r_fr9_14,fr9_u3).
body(r_fr9_14,fr12_p3).
body(r_fr9_14,fr20_p1).
body(r_fr9_14,fr9_y2).
head(r_fr9_15,fr7_y2).
body(r_fr9_15,fr23_r2).
body(r_fr9_15,fr9_x1).
body(r_fr9_15,fr20_v3).
body(r_fr9_15,fr20_p1).
body(r_fr9_15,fr21_p2).
body(r_fr9_15,fr9_s2).
body(r_fr9_15,fr20_p1).
body(r_fr9_15,fr9_x1).
body(r_fr9_15,fr12_s2).
body(r_fr9_15,fr20_v3).
body(r_fr9_15,fr9_u3).
body(r_fr9_15,fr7_y2).
body(r_fr9_15,fr9_w1).
body(r_fr9_15,fr23_r2).
body(r_fr9_15,fr9_x1).
body(r_fr9_15,fr9_x2).
body(r_fr9_15,fr20_p1).
body(r_fr9_15,fr9_y1).
body(r_fr9_15,fr9_y2).
body(r_fr9_15,fr9_y3).
body(r_fr9_15,fr17_w1).
head(r_fr9_16,fr7_y2).
body(r_fr9_16,fr2_a1).
body(r_fr9_16,fr16_a3).
body(r_fr9_16,fr9_b3).
body(r_fr9_16,fr9_e2).
body(r_fr9_16,fr9_f1).
body(r_fr9_16,fr15_u3).
body(r_fr9_16,fr23_r2).
body(r_fr9_16,fr9_x1).
body(r_fr9_16,fr23_r2).
body(r_fr9_16,fr20_p1).
body(r_fr9_16,fr9_s2).
body(r_fr9_16,fr20_p1).
body(r_fr9_16,fr20_v3).
body(r_fr9_16,fr20_v3).
body(r_fr9_16,fr9_u3).
body(r_fr9_16,fr12_p3).
body(r_fr9_16,fr23_r2).
body(r_fr9_16,fr9_y2).
body(r_fr9_16,fr9_y3).
body(r_fr9_16,fr15_t1).
body(r_fr9_16,fr17_w1).
head(r_fr9_17,fr9_x2).
body(r_fr9_17,fr9_b3).
body(r_fr9_17,fr23_r2).
body(r_fr9_17,fr9_x1).
body(r_fr9_17,fr9_r1).
body(r_fr9_17,fr20_v3).
body(r_fr9_17,fr21_p2).
body(r_fr9_17,fr9_s2).
body(r_fr9_17,fr20_p1).
body(r_fr9_17,fr20_v3).
body(r_fr9_17,fr9_x1).
body(r_fr9_17,fr12_s2).
body(r_fr9_17,fr9_v1).
body(r_fr9_17,fr12_p3).
body(r_fr9_17,fr7_y2).
body(r_fr9_17,fr20_p1).
body(r_fr9_17,fr9_y1).
body(r_fr9_17,fr9_y2).
body(r_fr9_17,fr9_y3).
body(r_fr9_17,fr9_z3).
head(r_fr9_18,fr9_x2).
body(r_fr9_18,fr15_u3).
body(r_fr9_18,fr9_x1).
body(r_fr9_18,fr7_y2).
body(r_fr9_18,fr9_q2).
body(r_fr9_18,fr9_r1).
body(r_fr9_18,fr20_v3).
body(r_fr9_18,fr20_p1).
body(r_fr9_18,fr21_p2).
body(r_fr9_18,fr20_p1).
body(r_fr9_18,fr20_q3).
body(r_fr9_18,fr9_x1).
body(r_fr9_18,fr20_v3).
body(r_fr9_18,fr9_u3).
body(r_fr9_18,fr9_v1).
body(r_fr9_18,fr7_y2).
body(r_fr9_18,fr9_w1).
body(r_fr9_18,fr20_p1).
body(r_fr9_18,fr9_y2).
body(r_fr9_18,fr9_y3).
body(r_fr9_18,fr15_t1).
body(r_fr9_18,fr17_w1).
head(r_fr9_19,fr9_x2).
body(r_fr9_19,fr2_e3).
body(r_fr9_19,fr3_a1).
body(r_fr9_19,fr9_f1).
body(r_fr9_19,fr9_r1).
body(r_fr9_19,fr21_p2).
body(r_fr9_19,fr9_x1).
body(r_fr9_19,fr20_v3).
body(r_fr9_19,fr9_v1).
body(r_fr9_19,fr12_p3).
body(r_fr9_19,fr23_r2).
body(r_fr9_19,fr9_w3).
body(r_fr9_19,fr9_x1).
body(r_fr9_19,fr20_p1).
body(r_fr9_19,fr9_y1).
body(r_fr9_19,fr9_y2).
body(r_fr9_19,fr9_y3).
body(r_fr9_19,fr15_t1).
body(r_fr9_19,fr9_z3).
head(r_fr9_20,fr9_x2).
body(r_fr9_20,fr3_a1).
body(r_fr9_20,fr9_b3).
body(r_fr9_20,fr9_d1).
body(r_fr9_20,fr15_u3).
body(r_fr9_20,fr9_x1).
body(r_fr9_20,fr9_q2).
body(r_fr9_20,fr9_r1).
body(r_fr9_20,fr20_v3).
body(r_fr9_20,fr9_s2).
body(r_fr9_20,fr20_p1).
body(r_fr9_20,fr9_x1).
body(r_fr9_20,fr20_v3).
body(r_fr9_20,fr9_u3).
body(r_fr9_20,fr7_y2).
body(r_fr9_20,fr9_x1).
body(r_fr9_20,fr20_p1).
body(r_fr9_20,fr9_y1).
body(r_fr9_20,fr9_y3).
body(r_fr9_20,fr9_z3).
head(r_fr9_21,fr9_x2).
body(r_fr9_21,fr2_a1).
body(r_fr9_21,fr2_e3).
body(r_fr9_21,fr9_b3).
body(r_fr9_21,fr21_a3).
body(r_fr9_21,fr9_e1).
body(r_fr9_21,fr9_e2).
body(r_fr9_21,fr23_r2).
body(r_fr9_21,fr9_x1).
body(r_fr9_21,fr13_w1).
body(r_fr9_21,fr23_r2).
body(r_fr9_21,fr20_v3).
body(r_fr9_21,fr20_p1).
body(r_fr9_21,fr9_x1).
body(r_fr9_21,fr9_v1).
body(r_fr9_21,fr7_y2).
body(r_fr9_21,fr20_p1).
body(r_fr9_21,fr9_y2).
body(r_fr9_21,fr9_y3).
body(r_fr9_21,fr17_w1).
head(r_fr9_22,fr23_r2).
body(r_fr9_22,fr22_e2).
body(r_fr9_22,fr16_a3).
body(r_fr9_22,fr9_c1).
body(r_fr9_22,fr9_f1).
body(r_fr9_22,fr13_w1).
body(r_fr9_22,fr9_s2).
body(r_fr9_22,fr20_p1).
body(r_fr9_22,fr20_v3).
body(r_fr9_22,fr20_q3).
body(r_fr9_22,fr9_x1).
body(r_fr9_22,fr12_s2).
body(r_fr9_22,fr9_u3).
body(r_fr9_22,fr12_p3).
body(r_fr9_22,fr23_r2).
body(r_fr9_22,fr9_x1).
body(r_fr9_22,fr9_x2).
body(r_fr9_22,fr20_p1).
body(r_fr9_22,fr9_y1).
body(r_fr9_22,fr17_w1).
body(r_fr9_22,fr9_z3).
head(r_fr9_23,fr23_r2).
body(r_fr9_23,fr22_e2).
body(r_fr9_23,fr2_a1).
body(r_fr9_23,fr9_d1).
body(r_fr9_23,fr23_r2).
body(r_fr9_23,fr9_p4).
body(r_fr9_23,fr7_y2).
body(r_fr9_23,fr9_r1).
body(r_fr9_23,fr21_p2).
body(r_fr9_23,fr20_q3).
body(r_fr9_23,fr9_x1).
body(r_fr9_23,fr20_v3).
body(r_fr9_23,fr12_p3).
body(r_fr9_23,fr9_x1).
body(r_fr9_23,fr9_x2).
body(r_fr9_23,fr9_y2).
body(r_fr9_23,fr9_y3).
body(r_fr9_23,fr15_t1).
body(r_fr9_23,fr17_w1).
body(r_fr9_23,fr9_z3).
head(r_fr9_24,fr23_r2).
body(r_fr9_24,fr16_a3).
body(r_fr9_24,fr3_a1).
body(r_fr9_24,fr23_r2).
body(r_fr9_24,fr9_p4).
body(r_fr9_24,fr9_q2).
body(r_fr9_24,fr23_r2).
body(r_fr9_24,fr9_r1).
body(r_fr9_24,fr20_p1).
body(r_fr9_24,fr21_p2).
body(r_fr9_24,fr20_v3).
body(r_fr9_24,fr20_q3).
body(r_fr9_24,fr9_x1).
body(r_fr9_24,fr20_v3).
body(r_fr9_24,fr9_u3).
body(r_fr9_24,fr9_v1).
body(r_fr9_24,fr9_w1).
body(r_fr9_24,fr9_x1).
body(r_fr9_24,fr9_x2).
body(r_fr9_24,fr20_p1).
body(r_fr9_24,fr9_y2).
body(r_fr9_24,fr9_z3).
head(r_fr9_25,fr23_r2).
body(r_fr9_25,fr22_e2).
body(r_fr9_25,fr16_a3).
body(r_fr9_25,fr9_d1).
body(r_fr9_25,fr9_f1).
body(r_fr9_25,fr15_u3).
body(r_fr9_25,fr9_x1).
body(r_fr9_25,fr9_p4).
body(r_fr9_25,fr7_y2).
body(r_fr9_25,fr13_w1).
body(r_fr9_25,fr23_r2).
body(r_fr9_25,fr20_v3).
body(r_fr9_25,fr9_s2).
body(r_fr9_25,fr20_p1).
body(r_fr9_25,fr20_q3).
body(r_fr9_25,fr12_s2).
body(r_fr9_25,fr9_v1).
body(r_fr9_25,fr12_p3).
body(r_fr9_25,fr9_x1).
body(r_fr9_25,fr9_y3).
body(r_fr9_25,fr9_z3).
head(r_fr9_26,fr23_r2).
body(r_fr9_26,fr22_e2).
body(r_fr9_26,fr3_a1).
body(r_fr9_26,fr9_e2).
body(r_fr9_26,fr23_r2).
body(r_fr9_26,fr7_y2).
body(r_fr9_26,fr9_q2).
body(r_fr9_26,fr13_w1).
body(r_fr9_26,fr9_r1).
body(r_fr9_26,fr20_v3).
body(r_fr9_26,fr21_p2).
body(r_fr9_26,fr9_u3).
body(r_fr9_26,fr9_v1).
body(r_fr9_26,fr12_p3).
body(r_fr9_26,fr9_x1).
body(r_fr9_26,fr9_x2).
body(r_fr9_26,fr20_p1).
body(r_fr9_26,fr15_t1).
body(r_fr9_26,fr17_w1).
body(r_fr9_26,fr9_z3).
head(r_fr9_27,fr23_r2).
body(r_fr9_27,fr2_a1).
body(r_fr9_27,fr9_c2).
body(r_fr9_27,fr9_f1).
body(r_fr9_27,fr9_f2).
body(r_fr9_27,fr23_r2).
body(r_fr9_27,fr23_r2).
body(r_fr9_27,fr9_r1).
body(r_fr9_27,fr20_v3).
body(r_fr9_27,fr21_p2).
body(r_fr9_27,fr20_v3).
body(r_fr9_27,fr9_u3).
body(r_fr9_27,fr9_v1).
body(r_fr9_27,fr12_p3).
body(r_fr9_27,fr9_w1).
body(r_fr9_27,fr20_p1).
body(r_fr9_27,fr9_y1).
body(r_fr9_27,fr9_y3).
body(r_fr9_27,fr17_w1).
head(r_fr9_28,fr20_v3).
body(r_fr9_28,fr2_e3).
body(r_fr9_28,fr23_r2).
body(r_fr9_28,fr9_p4).
body(r_fr9_28,fr23_r2).
body(r_fr9_28,fr20_v3).
body(r_fr9_28,fr21_p2).
body(r_fr9_28,fr20_p1).
body(r_fr9_28,fr20_q3).
body(r_fr9_28,fr9_x1).
body(r_fr9_28,fr12_s2).
body(r_fr9_28,fr12_p3).
body(r_fr9_28,fr7_y2).
body(r_fr9_28,fr23_r2).
body(r_fr9_28,fr9_x2).
body(r_fr9_28,fr20_p1).
body(r_fr9_28,fr9_y1).
body(r_fr9_28,fr9_y2).
body(r_fr9_28,fr9_y3).
body(r_fr9_28,fr15_t1).
body(r_fr9_28,fr17_w1).
body(r_fr9_28,fr9_z3).
head(r_fr9_29,fr20_v3).
body(r_fr9_29,fr9_f1).
body(r_fr9_29,fr9_f2).
body(r_fr9_29,fr23_r2).
body(r_fr9_29,fr9_p4).
body(r_fr9_29,fr7_y2).
body(r_fr9_29,fr23_r2).
body(r_fr9_29,fr9_s2).
body(r_fr9_29,fr20_p1).
body(r_fr9_29,fr12_s2).
body(r_fr9_29,fr20_v3).
body(r_fr9_29,fr9_u3).
body(r_fr9_29,fr9_v1).
body(r_fr9_29,fr7_y2).
body(r_fr9_29,fr9_w1).
body(r_fr9_29,fr20_p1).
body(r_fr9_29,fr9_y1).
body(r_fr9_29,fr9_y3).
body(r_fr9_29,fr15_t1).
body(r_fr9_29,fr9_z3).
head(r_fr9_30,fr7_y2).
body(r_fr9_30,fr22_e2).
body(r_fr9_30,fr2_e3).
body(r_fr9_30,fr9_c2).
body(r_fr9_30,fr3_a1).
body(r_fr9_30,fr9_f2).
body(r_fr9_30,fr7_y2).
body(r_fr9_30,fr23_r2).
body(r_fr9_30,fr20_v3).
body(r_fr9_30,fr20_p1).
body(r_fr9_30,fr20_p1).
body(r_fr9_30,fr20_v3).
body(r_fr9_30,fr20_q3).
body(r_fr9_30,fr9_x1).
body(r_fr9_30,fr20_v3).
body(r_fr9_30,fr9_w1).
body(r_fr9_30,fr9_w3).
body(r_fr9_30,fr9_x2).
body(r_fr9_30,fr20_p1).
body(r_fr9_30,fr9_y3).
body(r_fr9_30,fr17_w1).
head(r_fr9_31,fr7_y2).
body(r_fr9_31,fr15_u3).
body(r_fr9_31,fr9_x1).
body(r_fr9_31,fr9_p4).
body(r_fr9_31,fr7_y2).
body(r_fr9_31,fr13_w1).
body(r_fr9_31,fr9_r1).
body(r_fr9_31,fr20_p1).
body(r_fr9_31,fr21_p2).
body(r_fr9_31,fr20_p1).
body(r_fr9_31,fr20_v3).
body(r_fr9_31,fr20_q3).
body(r_fr9_31,fr9_x1).
body(r_fr9_31,fr20_v3).
body(r_fr9_31,fr9_w1).
body(r_fr9_31,fr9_w3).
body(r_fr9_31,fr9_x1).
body(r_fr9_31,fr9_x2).
body(r_fr9_31,fr9_y2).
body(r_fr9_31,fr15_t1).
head(r_fr9_32,fr7_y2).
body(r_fr9_32,fr9_c2).
body(r_fr9_32,fr3_a1).
body(r_fr9_32,fr9_f1).
body(r_fr9_32,fr9_f2).
body(r_fr9_32,fr15_u3).
body(r_fr9_32,fr9_x1).
body(r_fr9_32,fr7_y2).
body(r_fr9_32,fr9_q2).
body(r_fr9_32,fr13_w1).
body(r_fr9_32,fr20_p1).
body(r_fr9_32,fr20_p1).
body(r_fr9_32,fr20_q3).
body(r_fr9_32,fr9_u3).
body(r_fr9_32,fr9_v1).
body(r_fr9_32,fr12_p3).
body(r_fr9_32,fr9_w1).
body(r_fr9_32,fr9_y3).
body(r_fr9_32,fr15_t1).
head(r_fr9_33,fr20_p1).
body(r_fr9_33,fr9_c1).
body(r_fr9_33,fr23_r2).
body(r_fr9_33,fr9_x1).
body(r_fr9_33,fr9_r1).
body(r_fr9_33,fr20_v3).
body(r_fr9_33,fr21_p2).
body(r_fr9_33,fr9_s2).
body(r_fr9_33,fr20_v3).
body(r_fr9_33,fr12_s2).
body(r_fr9_33,fr20_v3).
body(r_fr9_33,fr12_p3).
body(r_fr9_33,fr9_w1).
body(r_fr9_33,fr23_r2).
body(r_fr9_33,fr9_w3).
body(r_fr9_33,fr9_x1).
body(r_fr9_33,fr9_y1).
body(r_fr9_33,fr9_y2).
body(r_fr9_33,fr9_y3).
body(r_fr9_33,fr15_t1).
body(r_fr9_33,fr17_w1).
body(r_fr9_33,fr9_z3).
head(r_fr9_34,fr20_p1).
body(r_fr9_34,fr23_r2).
body(r_fr9_34,fr9_p4).
body(r_fr9_34,fr9_q2).
body(r_fr9_34,fr13_w1).
body(r_fr9_34,fr9_r1).
body(r_fr9_34,fr21_p2).
body(r_fr9_34,fr20_v3).
body(r_fr9_34,fr20_q3).
body(r_fr9_34,fr9_x1).
body(r_fr9_34,fr12_s2).
body(r_fr9_34,fr9_v1).
body(r_fr9_34,fr12_p3).
body(r_fr9_34,fr9_w3).
body(r_fr9_34,fr9_x2).
body(r_fr9_34,fr9_y1).
body(r_fr9_34,fr9_y2).
body(r_fr9_34,fr15_t1).
body(r_fr9_34,fr17_w1).
body(r_fr9_34,fr9_z3).
head(r_fr9_35,fr20_p1).
body(r_fr9_35,fr2_a1).
body(r_fr9_35,fr2_e3).
body(r_fr9_35,fr9_c1).
body(r_fr9_35,fr9_e1).
body(r_fr9_35,fr9_f2).
body(r_fr9_35,fr15_u3).
body(r_fr9_35,fr9_p4).
body(r_fr9_35,fr7_y2).
body(r_fr9_35,fr23_r2).
body(r_fr9_35,fr20_v3).
body(r_fr9_35,fr21_p2).
body(r_fr9_35,fr12_p3).
body(r_fr9_35,fr7_y2).
body(r_fr9_35,fr23_r2).
body(r_fr9_35,fr9_x2).
body(r_fr9_35,fr9_y2).
body(r_fr9_35,fr9_y3).
body(r_fr9_35,fr17_w1).
head(r_fr9_36,fr9_p4).
body(r_fr9_36,fr2_a1).
body(r_fr9_36,fr9_b3).
body(r_fr9_36,fr3_a1).
body(r_fr9_36,fr9_e1).
body(r_fr9_36,fr9_f2).
body(r_fr9_36,fr15_u3).
body(r_fr9_36,fr9_q2).
body(r_fr9_36,fr13_w1).
body(r_fr9_36,fr23_r2).
body(r_fr9_36,fr20_p1).
body(r_fr9_36,fr21_p2).
body(r_fr9_36,fr9_s2).
body(r_fr9_36,fr20_v3).
body(r_fr9_36,fr20_v3).
body(r_fr9_36,fr9_w1).
body(r_fr9_36,fr9_x1).
body(r_fr9_36,fr20_p1).
body(r_fr9_36,fr9_y2).
body(r_fr9_36,fr9_y3).
body(r_fr9_36,fr17_w1).
body(r_fr9_36,fr9_z3).
head(r_fr9_37,fr9_p4).
body(r_fr9_37,fr2_e3).
body(r_fr9_37,fr9_b3).
body(r_fr9_37,fr9_f1).
body(r_fr9_37,fr9_f2).
body(r_fr9_37,fr15_u3).
body(r_fr9_37,fr9_r1).
body(r_fr9_37,fr21_p2).
body(r_fr9_37,fr9_s2).
body(r_fr9_37,fr20_p1).
body(r_fr9_37,fr20_v3).
body(r_fr9_37,fr20_q3).
body(r_fr9_37,fr9_x1).
body(r_fr9_37,fr12_s2).
body(r_fr9_37,fr9_u3).
body(r_fr9_37,fr9_v1).
body(r_fr9_37,fr23_r2).
body(r_fr9_37,fr9_w3).
body(r_fr9_37,fr9_x1).
body(r_fr9_37,fr9_x2).
body(r_fr9_37,fr20_p1).
body(r_fr9_37,fr15_t1).
head(r_fr9_38,fr9_p4).
body(r_fr9_38,fr3_a1).
body(r_fr9_38,fr9_b3).
body(r_fr9_38,fr3_a1).
body(r_fr9_38,fr21_a3).
body(r_fr9_38,fr9_f1).
body(r_fr9_38,fr9_f2).
body(r_fr9_38,fr15_u3).
body(r_fr9_38,fr23_r2).
body(r_fr9_38,fr20_v3).
body(r_fr9_38,fr21_p2).
body(r_fr9_38,fr9_x1).
body(r_fr9_38,fr20_v3).
body(r_fr9_38,fr9_v1).
body(r_fr9_38,fr23_r2).
body(r_fr9_38,fr9_w3).
body(r_fr9_38,fr9_x1).
body(r_fr9_38,fr9_y1).
body(r_fr9_38,fr9_y2).
body(r_fr9_38,fr9_z3).
head(r_fr9_39,fr21_p2).
body(r_fr9_39,fr15_u3).
body(r_fr9_39,fr23_r2).
body(r_fr9_39,fr23_r2).
body(r_fr9_39,fr9_r1).
body(r_fr9_39,fr20_p1).
body(r_fr9_39,fr9_s2).
body(r_fr9_39,fr20_p1).
body(r_fr9_39,fr20_v3).
body(r_fr9_39,fr20_v3).
body(r_fr9_39,fr9_u3).
body(r_fr9_39,fr9_v1).
body(r_fr9_39,fr9_w3).
body(r_fr9_39,fr9_x1).
body(r_fr9_39,fr9_x2).
body(r_fr9_39,fr20_p1).
body(r_fr9_39,fr9_y1).
body(r_fr9_39,fr9_y2).
body(r_fr9_39,fr9_y3).
body(r_fr9_39,fr15_t1).
body(r_fr9_39,fr17_w1).
head(r_fr9_40,fr21_p2).
body(r_fr9_40,fr9_c2).
body(r_fr9_40,fr9_d1).
body(r_fr9_40,fr23_r2).
body(r_fr9_40,fr9_p4).
body(r_fr9_40,fr7_y2).
body(r_fr9_40,fr23_r2).
body(r_fr9_40,fr20_p1).
body(r_fr9_40,fr20_p1).
body(r_fr9_40,fr20_v3).
body(r_fr9_40,fr20_q3).
body(r_fr9_40,fr9_x1).
body(r_fr9_40,fr12_s2).
body(r_fr9_40,fr12_p3).
body(r_fr9_40,fr9_x1).
body(r_fr9_40,fr9_x2).
body(r_fr9_40,fr20_p1).
body(r_fr9_40,fr17_w1).
body(r_fr9_40,fr9_z3).
head(r_fr9_41,fr21_p2).
body(r_fr9_41,fr2_e3).
body(r_fr9_41,fr3_a1).
body(r_fr9_41,fr15_u3).
body(r_fr9_41,fr9_p4).
body(r_fr9_41,fr13_w1).
body(r_fr9_41,fr9_r1).
body(r_fr9_41,fr20_v3).
body(r_fr9_41,fr20_p1).
body(r_fr9_41,fr20_v3).
body(r_fr9_41,fr12_s2).
body(r_fr9_41,fr9_v1).
body(r_fr9_41,fr12_p3).
body(r_fr9_41,fr9_w3).
body(r_fr9_41,fr9_x1).
body(r_fr9_41,fr9_x2).
body(r_fr9_41,fr9_y1).
body(r_fr9_41,fr9_y2).
body(r_fr9_41,fr9_y3).
body(r_fr9_41,fr17_w1).
body(r_fr9_41,fr9_z3).
head(r_fr9_42,fr20_q3).
body(r_fr9_42,fr22_e2).
body(r_fr9_42,fr9_b3).
body(r_fr9_42,fr9_c2).
body(r_fr9_42,fr9_d1).
body(r_fr9_42,fr21_a3).
body(r_fr9_42,fr15_u3).
body(r_fr9_42,fr9_x1).
body(r_fr9_42,fr9_p4).
body(r_fr9_42,fr9_q2).
body(r_fr9_42,fr13_w1).
body(r_fr9_42,fr9_r1).
body(r_fr9_42,fr20_v3).
body(r_fr9_42,fr20_p1).
body(r_fr9_42,fr9_x1).
body(r_fr9_42,fr20_v3).
body(r_fr9_42,fr9_u3).
body(r_fr9_42,fr20_p1).
body(r_fr9_42,fr9_y1).
body(r_fr9_42,fr9_y2).
body(r_fr9_42,fr15_t1).
body(r_fr9_42,fr9_z3).
head(r_fr9_43,fr20_q3).
body(r_fr9_43,fr22_e2).
body(r_fr9_43,fr2_a1).
body(r_fr9_43,fr9_c1).
body(r_fr9_43,fr9_d1).
body(r_fr9_43,fr23_r2).
body(r_fr9_43,fr9_p4).
body(r_fr9_43,fr9_q2).
body(r_fr9_43,fr13_w1).
body(r_fr9_43,fr9_r1).
body(r_fr9_43,fr21_p2).
body(r_fr9_43,fr9_s2).
body(r_fr9_43,fr20_v3).
body(r_fr9_43,fr9_x1).
body(r_fr9_43,fr9_v1).
body(r_fr9_43,fr7_y2).
body(r_fr9_43,fr23_r2).
body(r_fr9_43,fr9_x2).
body(r_fr9_43,fr20_p1).
body(r_fr9_43,fr9_y2).
head(r_fr9_44,fr20_q3).
body(r_fr9_44,fr2_a1).
body(r_fr9_44,fr16_a3).
body(r_fr9_44,fr9_c1).
body(r_fr9_44,fr9_c2).
body(r_fr9_44,fr21_a3).
body(r_fr9_44,fr23_r2).
body(r_fr9_44,fr9_x1).
body(r_fr9_44,fr9_p4).
body(r_fr9_44,fr7_y2).
body(r_fr9_44,fr9_q2).
body(r_fr9_44,fr13_w1).
body(r_fr9_44,fr20_p1).
body(r_fr9_44,fr20_p1).
body(r_fr9_44,fr20_v3).
body(r_fr9_44,fr9_u3).
body(r_fr9_44,fr7_y2).
body(r_fr9_44,fr9_w3).
body(r_fr9_44,fr20_p1).
body(r_fr9_44,fr9_y1).
body(r_fr9_44,fr9_y2).
body(r_fr9_44,fr9_y3).
head(r_fr9_45,fr12_p3).
body(r_fr9_45,fr3_a1).
body(r_fr9_45,fr9_b3).
body(r_fr9_45,fr9_c2).
body(r_fr9_45,fr9_d1).
body(r_fr9_45,fr21_a3).
body(r_fr9_45,fr23_r2).
body(r_fr9_45,fr7_y2).
body(r_fr9_45,fr9_q2).
body(r_fr9_45,fr9_r1).
body(r_fr9_45,fr9_s2).
body(r_fr9_45,fr12_s2).
body(r_fr9_45,fr9_v1).
body(r_fr9_45,fr7_y2).
body(r_fr9_45,fr9_w1).
body(r_fr9_45,fr9_x2).
body(r_fr9_45,fr20_p1).
body(r_fr9_45,fr9_y2).
body(r_fr9_45,fr15_t1).
head(r_fr9_46,fr12_p3).
body(r_fr9_46,fr23_r2).
body(r_fr9_46,fr7_y2).
body(r_fr9_46,fr9_q2).
body(r_fr9_46,fr13_w1).
body(r_fr9_46,fr23_r2).
body(r_fr9_46,fr9_r1).
body(r_fr9_46,fr20_v3).
body(r_fr9_46,fr21_p2).
body(r_fr9_46,fr20_p1).
body(r_fr9_46,fr20_v3).
body(r_fr9_46,fr20_q3).
body(r_fr9_46,fr12_s2).
body(r_fr9_46,fr20_v3).
body(r_fr9_46,fr9_w1).
body(r_fr9_46,fr23_r2).
body(r_fr9_46,fr9_x1).
body(r_fr9_46,fr9_x2).
body(r_fr9_46,fr9_y2).
body(r_fr9_46,fr9_y3).
body(r_fr9_46,fr17_w1).
body(r_fr9_46,fr9_z3).
head(r_fr9_47,fr17_w1).
body(r_fr9_47,fr15_u3).
body(r_fr9_47,fr9_x1).
body(r_fr9_47,fr9_p4).
body(r_fr9_47,fr7_y2).
body(r_fr9_47,fr9_q2).
body(r_fr9_47,fr13_w1).
body(r_fr9_47,fr23_r2).
body(r_fr9_47,fr9_r1).
body(r_fr9_47,fr20_v3).
body(r_fr9_47,fr20_p1).
body(r_fr9_47,fr21_p2).
body(r_fr9_47,fr20_q3).
body(r_fr9_47,fr12_s2).
body(r_fr9_47,fr20_v3).
body(r_fr9_47,fr9_v1).
body(r_fr9_47,fr9_w1).
body(r_fr9_47,fr9_w3).
body(r_fr9_47,fr9_x1).
body(r_fr9_47,fr9_x2).
body(r_fr9_47,fr9_y1).
body(r_fr9_47,fr9_y2).
head(r_fr9_48,fr17_w1).
body(r_fr9_48,fr2_a1).
body(r_fr9_48,fr2_e3).
body(r_fr9_48,fr3_a1).
body(r_fr9_48,fr9_c2).
body(r_fr9_48,fr9_f2).
body(r_fr9_48,fr9_x1).
body(r_fr9_48,fr9_p4).
body(r_fr9_48,fr9_q2).
body(r_fr9_48,fr13_w1).
body(r_fr9_48,fr9_r1).
body(r_fr9_48,fr9_s2).
body(r_fr9_48,fr12_s2).
body(r_fr9_48,fr9_v1).
body(r_fr9_48,fr12_p3).
body(r_fr9_48,fr7_y2).
body(r_fr9_48,fr9_y2).
body(r_fr9_48,fr9_y3).
body(r_fr9_48,fr9_z3).
head(r_fr9_49,fr15_u3).
body(r_fr9_49,fr23_r2).
body(r_fr9_49,fr9_x1).
body(r_fr9_49,fr9_p4).
body(r_fr9_49,fr7_y2).
body(r_fr9_49,fr9_r1).
body(r_fr9_49,fr20_v3).
body(r_fr9_49,fr20_p1).
body(r_fr9_49,fr21_p2).
body(r_fr9_49,fr9_s2).
body(r_fr9_49,fr9_x1).
body(r_fr9_49,fr20_v3).
body(r_fr9_49,fr9_v1).
body(r_fr9_49,fr12_p3).
body(r_fr9_49,fr23_r2).
body(r_fr9_49,fr9_w3).
body(r_fr9_49,fr9_x2).
body(r_fr9_49,fr20_p1).
body(r_fr9_49,fr9_y1).
head(r_fr9_50,fr15_u3).
body(r_fr9_50,fr2_e3).
body(r_fr9_50,fr23_r2).
body(r_fr9_50,fr9_p4).
body(r_fr9_50,fr13_w1).
body(r_fr9_50,fr23_r2).
body(r_fr9_50,fr20_v3).
body(r_fr9_50,fr20_p1).
body(r_fr9_50,fr9_s2).
body(r_fr9_50,fr20_v3).
body(r_fr9_50,fr20_q3).
body(r_fr9_50,fr9_u3).
body(r_fr9_50,fr9_v1).
body(r_fr9_50,fr12_p3).
body(r_fr9_50,fr9_w1).
body(r_fr9_50,fr23_r2).
body(r_fr9_50,fr20_p1).
body(r_fr9_50,fr9_y3).
body(r_fr9_50,fr17_w1).
body(r_fr9_50,fr9_z3).
head(r_fr9_51,fr15_u3).
body(r_fr9_51,fr22_e2).
body(r_fr9_51,fr16_a3).
body(r_fr9_51,fr9_c1).
body(r_fr9_51,fr9_d1).
body(r_fr9_51,fr9_e1).
body(r_fr9_51,fr9_f1).
body(r_fr9_51,fr23_r2).
body(r_fr9_51,fr9_p4).
body(r_fr9_51,fr7_y2).
body(r_fr9_51,fr20_p1).
body(r_fr9_51,fr9_x1).
body(r_fr9_51,fr12_s2).
body(r_fr9_51,fr12_p3).
body(r_fr9_51,fr20_p1).
body(r_fr9_51,fr9_y2).
body(r_fr9_51,fr15_t1).
body(r_fr9_51,fr17_w1).
body(r_fr9_51,fr9_z3).
head(r_fr9_52,fr15_u3).
body(r_fr9_52,fr9_e2).
body(r_fr9_52,fr9_p4).
body(r_fr9_52,fr7_y2).
body(r_fr9_52,fr13_w1).
body(r_fr9_52,fr23_r2).
body(r_fr9_52,fr20_p1).
body(r_fr9_52,fr21_p2).
body(r_fr9_52,fr20_v3).
body(r_fr9_52,fr9_x1).
body(r_fr9_52,fr20_v3).
body(r_fr9_52,fr9_u3).
body(r_fr9_52,fr9_v1).
body(r_fr9_52,fr7_y2).
body(r_fr9_52,fr23_r2).
body(r_fr9_52,fr9_w3).
body(r_fr9_52,fr9_x1).
body(r_fr9_52,fr9_y3).
body(r_fr9_52,fr17_w1).
body(r_fr9_52,fr9_z3).
head(r_fr9_53,fr9_x1).
body(r_fr9_53,fr16_a3).
body(r_fr9_53,fr3_a1).
body(r_fr9_53,fr9_c2).
body(r_fr9_53,fr3_a1).
body(r_fr9_53,fr9_f1).
body(r_fr9_53,fr23_r2).
body(r_fr9_53,fr7_y2).
body(r_fr9_53,fr9_q2).
body(r_fr9_53,fr23_r2).
body(r_fr9_53,fr20_v3).
body(r_fr9_53,fr9_s2).
body(r_fr9_53,fr12_s2).
body(r_fr9_53,fr20_v3).
body(r_fr9_53,fr12_p3).
body(r_fr9_53,fr9_w1).
body(r_fr9_53,fr9_x2).
body(r_fr9_53,fr9_y1).
body(r_fr9_53,fr9_y2).
body(r_fr9_53,fr9_z3).
head(r_fr9_54,fr9_x1).
body(r_fr9_54,fr2_a1).
body(r_fr9_54,fr7_y2).
body(r_fr9_54,fr9_q2).
body(r_fr9_54,fr20_v3).
body(r_fr9_54,fr20_p1).
body(r_fr9_54,fr9_s2).
body(r_fr9_54,fr20_v3).
body(r_fr9_54,fr20_q3).
body(r_fr9_54,fr9_u3).
body(r_fr9_54,fr9_v1).
body(r_fr9_54,fr7_y2).
body(r_fr9_54,fr9_w1).
body(r_fr9_54,fr23_r2).
body(r_fr9_54,fr9_w3).
body(r_fr9_54,fr9_x1).
body(r_fr9_54,fr9_y1).
body(r_fr9_54,fr9_y3).
body(r_fr9_54,fr15_t1).
head(r_fr9_55,fr9_x1).
body(r_fr9_55,fr22_e2).
body(r_fr9_55,fr3_a1).
body(r_fr9_55,fr9_f1).
body(r_fr9_55,fr15_u3).
body(r_fr9_55,fr9_x1).
body(r_fr9_55,fr23_r2).
body(r_fr9_55,fr9_r1).
body(r_fr9_55,fr20_v3).
body(r_fr9_55,fr20_p1).
body(r_fr9_55,fr20_q3).
body(r_fr9_55,fr12_p3).
body(r_fr9_55,fr9_w1).
body(r_fr9_55,fr23_r2).
body(r_fr9_55,fr9_w3).
body(r_fr9_55,fr9_x1).
body(r_fr9_55,fr9_x2).
body(r_fr9_55,fr20_p1).
body(r_fr9_55,fr9_y1).
body(r_fr9_55,fr9_y2).
body(r_fr9_55,fr15_t1).
body(r_fr9_55,fr9_z3).
head(r_fr9_56,fr9_x1).
body(r_fr9_56,fr22_e2).
body(r_fr9_56,fr9_c2).
body(r_fr9_56,fr9_f2).
body(r_fr9_56,fr23_r2).
body(r_fr9_56,fr13_w1).
body(r_fr9_56,fr9_r1).
body(r_fr9_56,fr20_v3).
body(r_fr9_56,fr20_p1).
body(r_fr9_56,fr20_v3).
body(r_fr9_56,fr20_q3).
body(r_fr9_56,fr20_v3).
body(r_fr9_56,fr9_v1).
body(r_fr9_56,fr12_p3).
body(r_fr9_56,fr9_w1).
body(r_fr9_56,fr9_w3).
body(r_fr9_56,fr9_x1).
body(r_fr9_56,fr9_x2).
body(r_fr9_56,fr20_p1).
body(r_fr9_56,fr9_y2).
body(r_fr9_56,fr9_y3).
body(r_fr9_56,fr9_z3).
head(r_fr9_57,fr9_x1).
body(r_fr9_57,fr3_a1).
body(r_fr9_57,fr9_f2).
body(r_fr9_57,fr23_r2).
body(r_fr9_57,fr9_x1).
body(r_fr9_57,fr7_y2).
body(r_fr9_57,fr13_w1).
body(r_fr9_57,fr23_r2).
body(r_fr9_57,fr20_v3).
body(r_fr9_57,fr20_p1).
body(r_fr9_57,fr20_q3).
body(r_fr9_57,fr12_s2).
body(r_fr9_57,fr20_v3).
body(r_fr9_57,fr9_u3).
body(r_fr9_57,fr9_v1).
body(r_fr9_57,fr12_p3).
body(r_fr9_57,fr23_r2).
body(r_fr9_57,fr9_x1).
body(r_fr9_57,fr20_p1).
body(r_fr9_57,fr9_z3).
head(r_fr9_58,fr9_y3).
body(r_fr9_58,fr2_e3).
body(r_fr9_58,fr9_b3).
body(r_fr9_58,fr9_d1).
body(r_fr9_58,fr21_a3).
body(r_fr9_58,fr9_e1).
body(r_fr9_58,fr9_e2).
body(r_fr9_58,fr15_u3).
body(r_fr9_58,fr23_r2).
body(r_fr9_58,fr9_x1).
body(r_fr9_58,fr9_p4).
body(r_fr9_58,fr7_y2).
body(r_fr9_58,fr13_w1).
body(r_fr9_58,fr9_r1).
body(r_fr9_58,fr9_s2).
body(r_fr9_58,fr20_p1).
body(r_fr9_58,fr23_r2).
body(r_fr9_58,fr9_w3).
body(r_fr9_58,fr20_p1).
body(r_fr9_58,fr9_y2).
body(r_fr9_58,fr15_t1).
head(r_fr9_59,fr9_y3).
body(r_fr9_59,fr21_a3).
body(r_fr9_59,fr9_f2).
body(r_fr9_59,fr9_x1).
body(r_fr9_59,fr9_p4).
body(r_fr9_59,fr9_q2).
body(r_fr9_59,fr13_w1).
body(r_fr9_59,fr20_v3).
body(r_fr9_59,fr20_p1).
body(r_fr9_59,fr21_p2).
body(r_fr9_59,fr20_p1).
body(r_fr9_59,fr9_x1).
body(r_fr9_59,fr12_s2).
body(r_fr9_59,fr20_v3).
body(r_fr9_59,fr9_u3).
body(r_fr9_59,fr7_y2).
body(r_fr9_59,fr23_r2).
body(r_fr9_59,fr9_w3).
body(r_fr9_59,fr20_p1).
body(r_fr9_59,fr9_y1).
body(r_fr9_59,fr17_w1).
head(r_fr9_60,fr9_y3).
body(r_fr9_60,fr22_e2).
body(r_fr9_60,fr2_e3).
body(r_fr9_60,fr9_c1).
body(r_fr9_60,fr9_d1).
body(r_fr9_60,fr9_e1).
body(r_fr9_60,fr9_f2).
body(r_fr9_60,fr23_r2).
body(r_fr9_60,fr9_p4).
body(r_fr9_60,fr7_y2).
body(r_fr9_60,fr9_q2).
body(r_fr9_60,fr20_p1).
body(r_fr9_60,fr21_p2).
body(r_fr9_60,fr20_v3).
body(r_fr9_60,fr20_q3).
body(r_fr9_60,fr9_x1).
body(r_fr9_60,fr20_v3).
body(r_fr9_60,fr12_p3).
body(r_fr9_60,fr23_r2).
body(r_fr9_60,fr9_y2).
body(r_fr9_60,fr9_z3).
head(r_fr9_61,fr9_y3).
body(r_fr9_61,fr15_u3).
body(r_fr9_61,fr7_y2).
body(r_fr9_61,fr9_q2).
body(r_fr9_61,fr13_w1).
body(r_fr9_61,fr23_r2).
body(r_fr9_61,fr9_r1).
body(r_fr9_61,fr20_v3).
body(r_fr9_61,fr20_p1).
body(r_fr9_61,fr21_p2).
body(r_fr9_61,fr9_s2).
body(r_fr9_61,fr20_p1).
body(r_fr9_61,fr9_x1).
body(r_fr9_61,fr12_s2).
body(r_fr9_61,fr20_v3).
body(r_fr9_61,fr12_p3).
body(r_fr9_61,fr7_y2).
body(r_fr9_61,fr9_w1).
body(r_fr9_61,fr23_r2).
body(r_fr9_61,fr20_p1).
body(r_fr9_61,fr9_y1).
head(r_fr9_62,fr9_y3).
body(r_fr9_62,fr2_a1).
body(r_fr9_62,fr9_b3).
body(r_fr9_62,fr21_a3).
body(r_fr9_62,fr9_e1).
body(r_fr9_62,fr15_u3).
body(r_fr9_62,fr23_r2).
body(r_fr9_62,fr9_p4).
body(r_fr9_62,fr7_y2).
body(r_fr9_62,fr9_q2).
body(r_fr9_62,fr23_r2).
body(r_fr9_62,fr21_p2).
body(r_fr9_62,fr20_p1).
body(r_fr9_62,fr12_s2).
body(r_fr9_62,fr9_u3).
body(r_fr9_62,fr12_p3).
body(r_fr9_62,fr9_w3).
body(r_fr9_62,fr20_p1).
body(r_fr9_62,fr9_y2).
body(r_fr9_62,fr15_t1).
head(r_fr9_63,fr20_v3).
body(r_fr9_63,fr9_b3).
body(r_fr9_63,fr9_c1).
body(r_fr9_63,fr9_c2).
body(r_fr9_63,fr3_a1).
body(r_fr9_63,fr23_r2).
body(r_fr9_63,fr9_p4).
body(r_fr9_63,fr7_y2).
body(r_fr9_63,fr9_q2).
body(r_fr9_63,fr20_p1).
body(r_fr9_63,fr20_v3).
body(r_fr9_63,fr20_q3).
body(r_fr9_63,fr12_s2).
body(r_fr9_63,fr9_u3).
body(r_fr9_63,fr23_r2).
body(r_fr9_63,fr9_w3).
body(r_fr9_63,fr9_y2).
body(r_fr9_63,fr17_w1).
body(r_fr9_63,fr9_z3).
head(r_fr9_64,fr20_v3).
body(r_fr9_64,fr16_a3).
body(r_fr9_64,fr9_b3).
body(r_fr9_64,fr23_r2).
body(r_fr9_64,fr9_p4).
body(r_fr9_64,fr7_y2).
body(r_fr9_64,fr13_w1).
body(r_fr9_64,fr20_v3).
body(r_fr9_64,fr20_p1).
body(r_fr9_64,fr9_s2).
body(r_fr9_64,fr20_v3).
body(r_fr9_64,fr20_q3).
body(r_fr9_64,fr9_v1).
body(r_fr9_64,fr12_p3).
body(r_fr9_64,fr9_w1).
body(r_fr9_64,fr9_w3).
body(r_fr9_64,fr9_x1).
body(r_fr9_64,fr9_y3).
body(r_fr9_64,fr15_t1).
body(r_fr9_64,fr9_z3).
head(r_fr9_65,fr9_r1).
body(r_fr9_65,fr9_b3).
body(r_fr9_65,fr9_c1).
body(r_fr9_65,fr9_d1).
body(r_fr9_65,fr9_e2).
body(r_fr9_65,fr9_f1).
body(r_fr9_65,fr23_r2).
body(r_fr9_65,fr9_x1).
body(r_fr9_65,fr9_q2).
body(r_fr9_65,fr13_w1).
body(r_fr9_65,fr23_r2).
body(r_fr9_65,fr20_v3).
body(r_fr9_65,fr20_p1).
body(r_fr9_65,fr9_s2).
body(r_fr9_65,fr12_s2).
body(r_fr9_65,fr9_u3).
body(r_fr9_65,fr9_w1).
body(r_fr9_65,fr9_w3).
body(r_fr9_65,fr20_p1).
body(r_fr9_65,fr9_y3).
body(r_fr9_65,fr17_w1).
body(r_fr9_65,fr9_z3).
head(r_fr9_66,fr9_r1).
body(r_fr9_66,fr9_c1).
body(r_fr9_66,fr3_a1).
body(r_fr9_66,fr21_a3).
body(r_fr9_66,fr9_f2).
body(r_fr9_66,fr13_w1).
body(r_fr9_66,fr20_p1).
body(r_fr9_66,fr21_p2).
body(r_fr9_66,fr20_p1).
body(r_fr9_66,fr20_v3).
body(r_fr9_66,fr12_s2).
body(r_fr9_66,fr20_v3).
body(r_fr9_66,fr9_u3).
body(r_fr9_66,fr7_y2).
body(r_fr9_66,fr9_w1).
body(r_fr9_66,fr9_x1).
body(r_fr9_66,fr9_x2).
body(r_fr9_66,fr9_y2).
body(r_fr9_66,fr15_t1).
head(r_fr9_67,fr9_r1).
body(r_fr9_67,fr2_a1).
body(r_fr9_67,fr3_a1).
body(r_fr9_67,fr9_d1).
body(r_fr9_67,fr21_a3).
body(r_fr9_67,fr9_e1).
body(r_fr9_67,fr9_f2).
body(r_fr9_67,fr15_u3).
body(r_fr9_67,fr7_y2).
body(r_fr9_67,fr23_r2).
body(r_fr9_67,fr20_v3).
body(r_fr9_67,fr20_p1).
body(r_fr9_67,fr20_v3).
body(r_fr9_67,fr20_q3).
body(r_fr9_67,fr20_v3).
body(r_fr9_67,fr9_u3).
body(r_fr9_67,fr9_w1).
body(r_fr9_67,fr23_r2).
body(r_fr9_67,fr9_x1).
body(r_fr9_67,fr20_p1).
body(r_fr9_67,fr17_w1).
head(r_fr9_68,fr9_r1).
body(r_fr9_68,fr16_a3).
body(r_fr9_68,fr3_a1).
body(r_fr9_68,fr9_b3).
body(r_fr9_68,fr3_a1).
body(r_fr9_68,fr9_d1).
body(r_fr9_68,fr9_e2).
body(r_fr9_68,fr9_x1).
body(r_fr9_68,fr9_q2).
body(r_fr9_68,fr20_p1).
body(r_fr9_68,fr21_p2).
body(r_fr9_68,fr20_p1).
body(r_fr9_68,fr20_v3).
body(r_fr9_68,fr9_u3).
body(r_fr9_68,fr12_p3).
body(r_fr9_68,fr9_w3).
body(r_fr9_68,fr9_x1).
body(r_fr9_68,fr9_y1).
body(r_fr9_68,fr9_y2).
head(r_fr9_69,fr9_r1).
body(r_fr9_69,fr15_u3).
body(r_fr9_69,fr23_r2).
body(r_fr9_69,fr9_x1).
body(r_fr9_69,fr7_y2).
body(r_fr9_69,fr9_q2).
body(r_fr9_69,fr13_w1).
body(r_fr9_69,fr23_r2).
body(r_fr9_69,fr20_v3).
body(r_fr9_69,fr20_p1).
body(r_fr9_69,fr12_s2).
body(r_fr9_69,fr20_v3).
body(r_fr9_69,fr9_u3).
body(r_fr9_69,fr12_p3).
body(r_fr9_69,fr9_w3).
body(r_fr9_69,fr9_x1).
body(r_fr9_69,fr9_x2).
body(r_fr9_69,fr9_y1).
body(r_fr9_69,fr9_y2).
body(r_fr9_69,fr9_y3).
body(r_fr9_69,fr15_t1).

assumption(fr10_a1).
assumption(fr2_b4).
assumption(fr10_c1).
assumption(fr2_a3).
assumption(fr22_a3).
assumption(fr16_a3).
assumption(fr2_a3).
assumption(fr10_b2).
assumption(fr10_c2).
assumption(fr2_f4).
assumption(fr10_e2).
assumption(fr10_f2).
assumption(fr15_e2).
assumption(fr8_a1).
assumption(fr10_c3).
assumption(fr2_e3).
assumption(fr3_a1).
assumption(fr10_f3).
contrary(fr10_a1,fr8_a1).
contrary(fr2_a3,fr10_s3).
contrary(fr15_e2,fr10_t3).
contrary(fr2_b4,fr8_z1).
contrary(fr10_b2,fr2_b4).
contrary(fr8_a1,fr10_c1).
contrary(fr10_c1,fr15_u3).
contrary(fr10_c2,fr10_f3).
contrary(fr10_c3,fr10_z2).
contrary(fr2_a3,fr16_q1).
contrary(fr2_f4,fr10_c2).
contrary(fr2_e3,fr8_a1).
contrary(fr22_a3,fr3_a1).
contrary(fr10_e2,fr15_t4).
contrary(fr3_a1,fr10_y2).
contrary(fr16_a3,fr15_u3).
contrary(fr10_f2,fr10_r1).
contrary(fr10_f3,fr15_u3).
head(r_fr10_0,fr20_q3).
body(r_fr10_0,fr10_a1).
body(r_fr10_0,fr15_e2).
body(r_fr10_0,fr2_b4).
body(r_fr10_0,fr2_a3).
body(r_fr10_0,fr2_f4).
body(r_fr10_0,fr2_e3).
body(r_fr10_0,fr10_f2).
head(r_fr10_1,fr20_q3).
body(r_fr10_1,fr15_u3).
body(r_fr10_1,fr10_r1).
body(r_fr10_1,fr10_t3).
body(r_fr10_1,fr10_x2).
body(r_fr10_1,fr10_y1).
body(r_fr10_1,fr10_z2).
head(r_fr10_2,fr20_q3).
body(r_fr10_2,fr16_a3).
head(r_fr10_3,fr20_q3).
body(r_fr10_3,fr2_b4).
body(r_fr10_3,fr10_v1).
body(r_fr10_3,fr10_v2).
head(r_fr10_4,fr8_z1).
head(r_fr10_5,fr8_z1).
body(r_fr10_5,fr15_v3).
head(r_fr10_6,fr10_w1).
head(r_fr10_7,fr10_w1).
body(r_fr10_7,fr10_z2).
body(r_fr10_7,fr10_v1).
head(r_fr10_8,fr10_w1).
body(r_fr10_8,fr10_x2).
head(r_fr10_9,fr10_w1).
body(r_fr10_9,fr3_a1).
body(r_fr10_9,fr23_r3).
body(r_fr10_9,fr10_z2).
head(r_fr10_10,fr10_w2).
body(r_fr10_10,fr10_c1).
body(r_fr10_10,fr2_f4).
body(r_fr10_10,fr22_a3).
body(r_fr10_10,fr9_x1).
body(r_fr10_10,fr10_z2).
body(r_fr10_10,fr8_z1).
head(r_fr10_11,fr10_w2).
body(r_fr10_11,fr20_q3).
body(r_fr10_11,fr10_x1).
head(r_fr10_12,fr10_w2).
body(r_fr10_12,fr10_a1).
body(r_fr10_12,fr8_a1).
body(r_fr10_12,fr10_e2).
body(r_fr10_12,fr10_f2).
head(r_fr10_13,fr10_w2).
body(r_fr10_13,fr15_u3).
body(r_fr10_13,fr10_z2).
body(r_fr10_13,fr10_v1).
head(r_fr10_14,fr10_w2).
head(r_fr10_15,fr23_r3).
body(r_fr10_15,fr10_e2).
body(r_fr10_15,fr10_t3).
body(r_fr10_15,fr10_w1).
body(r_fr10_15,fr10_z2).
head(r_fr10_16,fr23_r3).
body(r_fr10_16,fr8_a1).
body(r_fr10_16,fr16_a3).
body(r_fr10_16,fr10_s3).
body(r_fr10_16,fr10_y2).
head(r_fr10_17,fr23_r3).
body(r_fr10_17,fr15_e2).
body(r_fr10_17,fr15_u3).
body(r_fr10_17,fr15_t4).
body(r_fr10_17,fr8_z1).
body(r_fr10_17,fr10_w2).
head(r_fr10_18,fr23_r3).
body(r_fr10_18,fr2_a3).
body(r_fr10_18,fr10_c1).
body(r_fr10_18,fr2_e3).
body(r_fr10_18,fr10_f2).
body(r_fr10_18,fr10_u2).
body(r_fr10_18,fr10_v1).
body(r_fr10_18,fr10_z2).
head(r_fr10_19,fr23_r3).
body(r_fr10_19,fr10_w1).
body(r_fr10_19,fr10_w2).
body(r_fr10_19,fr23_r2).
body(r_fr10_19,fr10_x1).
body(r_fr10_19,fr11_r2).
head(r_fr10_20,fr23_r3).
body(r_fr10_20,fr2_b4).
head(r_fr10_21,fr10_u2).
body(r_fr10_21,fr10_b2).
body(r_fr10_21,fr20_q3).
body(r_fr10_21,fr10_r1).
body(r_fr10_21,fr10_t1).
body(r_fr10_21,fr10_v1).
body(r_fr10_21,fr10_y2).
head(r_fr10_22,fr10_u2).
body(r_fr10_22,fr10_a1).
body(r_fr10_22,fr2_e3).
body(r_fr10_22,fr16_a3).
body(r_fr10_22,fr8_p2).
body(r_fr10_22,fr8_z1).
body(r_fr10_22,fr10_w1).
body(r_fr10_22,fr10_y2).
head(r_fr10_23,fr10_u2).
body(r_fr10_23,fr10_a1).
body(r_fr10_23,fr10_c2).
body(r_fr10_23,fr20_q3).
head(r_fr10_24,fr10_u2).
body(r_fr10_24,fr8_p2).
head(r_fr10_25,fr10_u2).
body(r_fr10_25,fr15_t4).
body(r_fr10_25,fr16_q1).
body(r_fr10_25,fr10_s3).
body(r_fr10_25,fr15_v3).
body(r_fr10_25,fr23_r2).
body(r_fr10_25,fr10_x2).
body(r_fr10_25,fr10_z2).
head(r_fr10_26,fr10_x1).
body(r_fr10_26,fr2_e3).
head(r_fr10_27,fr10_x1).
body(r_fr10_27,fr22_a3).
body(r_fr10_27,fr10_f3).
head(r_fr10_28,fr10_x1).
body(r_fr10_28,fr10_a1).
body(r_fr10_28,fr2_f4).
body(r_fr10_28,fr15_u3).
body(r_fr10_28,fr16_q1).
body(r_fr10_28,fr5_x2).
body(r_fr10_28,fr10_v2).
head(r_fr10_29,fr10_x1).
body(r_fr10_29,fr8_a1).
body(r_fr10_29,fr10_c1).
body(r_fr10_29,fr8_p2).
body(r_fr10_29,fr10_s3).
body(r_fr10_29,fr10_z2).
body(r_fr10_29,fr10_v2).
body(r_fr10_29,fr11_r2).
head(r_fr10_30,fr10_x1).
body(r_fr10_30,fr10_s3).
head(r_fr10_31,fr10_x1).
body(r_fr10_31,fr10_a1).
body(r_fr10_31,fr10_c1).
body(r_fr10_31,fr10_f3).
head(r_fr10_32,fr10_z2).
body(r_fr10_32,fr8_a1).
head(r_fr10_33,fr10_z2).
head(r_fr10_34,fr23_r2).
body(r_fr10_34,fr10_c3).
body(r_fr10_34,fr10_f3).
body(r_fr10_34,fr15_v3).
head(r_fr10_35,fr23_r2).
body(r_fr10_35,fr10_y1).
head(r_fr10_36,fr15_t4).
body(r_fr10_36,fr10_f3).
head(r_fr10_37,fr15_t4).
body(r_fr10_37,fr16_a3).
body(r_fr10_37,fr15_u3).
body(r_fr10_37,fr11_t5).
body(r_fr10_37,fr10_u2).
body(r_fr10_37,fr23_r2).
head(r_fr10_38,fr15_t4).
body(r_fr10_38,fr15_e2).
body(r_fr10_38,fr10_c3).
body(r_fr10_38,fr2_a3).
body(r_fr10_38,fr22_a3).
body(r_fr10_38,fr9_x1).
body(r_fr10_38,fr10_u2).
head(r_fr10_39,fr15_t4).
body(r_fr10_39,fr15_u3).
body(r_fr10_39,fr9_x1).
body(r_fr10_39,fr10_s3).
body(r_fr10_39,fr10_u2).
body(r_fr10_39,fr10_v1).
body(r_fr10_39,fr8_z1).
body(r_fr10_39,fr10_z2).
head(r_fr10_40,fr10_r1).
body(r_fr10_40,fr10_c3).
body(r_fr10_40,fr15_t4).
body(r_fr10_40,fr15_u3).
body(r_fr10_40,fr8_p2).
body(r_fr10_40,fr5_x2).
body(r_fr10_40,fr15_v3).
body(r_fr10_40,fr10_y1).
head(r_fr10_41,fr10_r1).
body(r_fr10_41,fr9_x1).
body(r_fr10_41,fr5_x2).
body(r_fr10_41,fr8_z1).
body(r_fr10_41,fr10_y1).
head(r_fr10_42,fr10_r1).
body(r_fr10_42,fr16_a3).
head(r_fr10_43,fr10_r1).
head(r_fr10_44,fr10_r1).
body(r_fr10_44,fr2_b4).
body(r_fr10_44,fr10_b2).
body(r_fr10_44,fr8_a1).
body(r_fr10_44,fr10_c1).
body(r_fr10_44,fr2_f4).
body(r_fr10_44,fr10_f2).
body(r_fr10_44,fr23_r2).
head(r_fr10_45,fr10_r1).
body(r_fr10_45,fr10_b2).
body(r_fr10_45,fr8_a1).
body(r_fr10_45,fr10_c1).
body(r_fr10_45,fr10_c2).
body(r_fr10_45,fr10_e2).
body(r_fr10_45,fr16_a3).
body(r_fr10_45,fr10_f3).
head(r_fr10_46,fr10_v2).
body(r_fr10_46,fr2_a3).
body(r_fr10_46,fr10_c2).
body(r_fr10_46,fr10_s3).
body(r_fr10_46,fr10_t3).
body(r_fr10_46,fr10_z2).
body(r_fr10_46,fr8_z1).
body(r_fr10_46,fr10_z2).
head(r_fr10_47,fr10_v2).
body(r_fr10_47,fr15_e2).
body(r_fr10_47,fr5_x2).
head(r_fr10_48,fr10_v2).
body(r_fr10_48,fr2_f4).
body(r_fr10_48,fr10_e2).
body(r_fr10_48,fr10_f3).
body(r_fr10_48,fr10_r1).
body(r_fr10_48,fr9_x1).
head(r_fr10_49,fr10_v2).
body(r_fr10_49,fr2_a3).
body(r_fr10_49,fr2_e3).
body(r_fr10_49,fr16_a3).
body(r_fr10_49,fr10_f3).
body(r_fr10_49,fr15_u3).
head(r_fr10_50,fr10_v2).
body(r_fr10_50,fr10_a1).
body(r_fr10_50,fr10_f3).
head(r_fr10_51,fr10_v2).
body(r_fr10_51,fr10_c1).
body(r_fr10_51,fr10_e2).
head(r_fr10_52,fr16_q1).
body(r_fr10_52,fr15_u3).
body(r_fr10_52,fr15_v3).
body(r_fr10_52,fr10_v1).
head(r_fr10_53,fr16_q1).
body(r_fr10_53,fr10_a1).
body(r_fr10_53,fr2_a3).
body(r_fr10_53,fr2_b4).
body(r_fr10_53,fr2_a3).
body(r_fr10_53,fr10_e2).
body(r_fr10_53,fr16_a3).
head(r_fr10_54,fr11_r2).
body(r_fr10_54,fr10_r3).
body(r_fr10_54,fr10_w2).
body(r_fr10_54,fr10_y1).
body(r_fr10_54,fr10_z2).
head(r_fr10_55,fr11_r2).
body(r_fr10_55,fr2_a3).
body(r_fr10_55,fr10_f2).
body(r_fr10_55,fr23_r3).
head(r_fr10_56,fr11_r2).
head(r_fr10_57,fr11_r2).
body(r_fr10_57,fr20_q3).
body(r_fr10_57,fr15_u3).
body(r_fr10_57,fr16_q1).
head(r_fr10_58,fr11_r2).
body(r_fr10_58,fr10_b2).
body(r_fr10_58,fr10_w2).
head(r_fr10_59,fr5_x2).
body(r_fr10_59,fr2_b4).
body(r_fr10_59,fr10_e2).
body(r_fr10_59,fr10_r3).
body(r_fr10_59,fr10_s3).
head(r_fr10_60,fr5_x2).
body(r_fr10_60,fr15_e2).
body(r_fr10_60,fr10_c1).
body(r_fr10_60,fr10_c2).
body(r_fr10_60,fr10_c3).
body(r_fr10_60,fr22_a3).
body(r_fr10_60,fr3_a1).
body(r_fr10_60,fr10_f3).
head(r_fr10_61,fr5_x2).
body(r_fr10_61,fr10_c2).
body(r_fr10_61,fr22_a3).
body(r_fr10_61,fr3_a1).
body(r_fr10_61,fr16_a3).
body(r_fr10_61,fr15_t4).
body(r_fr10_61,fr15_u3).
body(r_fr10_61,fr10_v2).
head(r_fr10_62,fr5_x2).
body(r_fr10_62,fr10_e2).
head(r_fr10_63,fr10_v1).
body(r_fr10_63,fr10_c3).
body(r_fr10_63,fr10_f3).
body(r_fr10_63,fr15_t4).
body(r_fr10_63,fr15_u3).
body(r_fr10_63,fr9_x1).
body(r_fr10_63,fr10_w2).
body(r_fr10_63,fr10_z2).
head(r_fr10_64,fr10_v1).
body(r_fr10_64,fr10_b2).
body(r_fr10_64,fr2_e3).
body(r_fr10_64,fr15_t4).
body(r_fr10_64,fr8_p2).
body(r_fr10_64,fr8_z1).
head(r_fr10_65,fr10_v1).
body(r_fr10_65,fr22_a3).
body(r_fr10_65,fr10_f2).
body(r_fr10_65,fr5_x2).
head(r_fr10_66,fr10_v1).
body(r_fr10_66,fr10_a1).
body(r_fr10_66,fr15_e2).
body(r_fr10_66,fr10_b2).
body(r_fr10_66,fr10_c1).
body(r_fr10_66,fr10_c3).
body(r_fr10_66,fr2_f4).
body(r_fr10_66,fr22_a3).
head(r_fr10_67,fr10_v1).
head(r_fr10_68,fr10_v1).
body(r_fr10_68,fr10_r3).
body(r_fr10_68,fr10_y2).
head(r_fr10_69,fr10_y2).
body(r_fr10_69,fr10_b2).
body(r_fr10_69,fr16_a3).
body(r_fr10_69,fr10_f2).
head(r_fr10_70,fr10_y2).
body(r_fr10_70,fr15_e2).
body(r_fr10_70,fr2_e3).
body(r_fr10_70,fr22_a3).
body(r_fr10_70,fr10_w1).
head(r_fr10_71,fr10_y2).
body(r_fr10_71,fr10_c2).
body(r_fr10_71,fr20_q3).
body(r_fr10_71,fr10_r1).
body(r_fr10_71,fr23_r3).
body(r_fr10_71,fr8_p2).
head(r_fr10_72,fr10_y2).
body(r_fr10_72,fr10_c2).
body(r_fr10_72,fr10_c3).
body(r_fr10_72,fr2_e3).
body(r_fr10_72,fr16_a3).
body(r_fr10_72,fr10_t1).
body(r_fr10_72,fr10_w1).
body(r_fr10_72,fr10_x2).
head(r_fr10_73,fr10_y2).
body(r_fr10_73,fr10_f2).
body(r_fr10_73,fr15_t4).
body(r_fr10_73,fr15_u3).
body(r_fr10_73,fr10_r1).
body(r_fr10_73,fr10_s3).
body(r_fr10_73,fr10_w1).
head(r_fr10_74,fr10_y2).
head(r_fr10_75,fr10_y1).
body(r_fr10_75,fr2_e3).
body(r_fr10_75,fr10_t3).
head(r_fr10_76,fr10_y1).
body(r_fr10_76,fr10_c3).
body(r_fr10_76,fr10_t1).
head(r_fr10_77,fr15_v3).
body(r_fr10_77,fr10_c3).
body(r_fr10_77,fr16_a3).
body(r_fr10_77,fr9_x1).
body(r_fr10_77,fr10_t3).
head(r_fr10_78,fr15_v3).
body(r_fr10_78,fr8_a1).
body(r_fr10_78,fr2_f4).
body(r_fr10_78,fr22_a3).
body(r_fr10_78,fr10_f2).
body(r_fr10_78,fr10_f3).
body(r_fr10_78,fr23_r2).
head(r_fr10_79,fr10_t3).
body(r_fr10_79,fr2_a3).
body(r_fr10_79,fr16_a3).
body(r_fr10_79,fr10_f3).
head(r_fr10_80,fr10_t3).
body(r_fr10_80,fr10_c1).
body(r_fr10_80,fr20_q3).
head(r_fr10_81,fr10_t3).
body(r_fr10_81,fr2_f4).
body(r_fr10_81,fr10_r1).
body(r_fr10_81,fr10_x1).
head(r_fr10_82,fr10_t3).
head(r_fr10_83,fr10_z2).
body(r_fr10_83,fr10_c1).
body(r_fr10_83,fr10_c2).
body(r_fr10_83,fr22_a3).
body(r_fr10_83,fr16_a3).
body(r_fr10_83,fr10_f3).
body(r_fr10_83,fr15_u3).
body(r_fr10_83,fr15_v3).
head(r_fr10_84,fr10_z2).
body(r_fr10_84,fr15_e2).
body(r_fr10_84,fr16_a3).
body(r_fr10_84,fr20_q3).
body(r_fr10_84,fr11_t5).
body(r_fr10_84,fr23_r3).
body(r_fr10_84,fr10_t3).
head(r_fr10_85,fr10_z2).
body(r_fr10_85,fr15_u3).
body(r_fr10_85,fr8_z1).
head(r_fr10_86,fr10_z2).
head(r_fr10_87,fr10_z2).
body(r_fr10_87,fr2_a3).
body(r_fr10_87,fr16_a3).
head(r_fr10_88,fr8_p2).
body(r_fr10_88,fr10_e2).
body(r_fr10_88,fr15_u3).
body(r_fr10_88,fr16_q1).
body(r_fr10_88,fr10_z2).
body(r_fr10_88,fr10_v2).
body(r_fr10_88,fr10_z2).
head(r_fr10_89,fr8_p2).
body(r_fr10_89,fr2_a3).
body(r_fr10_89,fr2_b4).
body(r_fr10_89,fr16_a3).
body(r_fr10_89,fr10_z2).
head(r_fr10_90,fr8_p2).
body(r_fr10_90,fr10_a1).
body(r_fr10_90,fr2_a3).
body(r_fr10_90,fr10_b2).
head(r_fr10_91,fr8_p2).
body(r_fr10_91,fr10_x1).
body(r_fr10_91,fr10_z2).
head(r_fr10_92,fr8_p2).
body(r_fr10_92,fr2_a3).
body(r_fr10_92,fr2_f4).
body(r_fr10_92,fr3_a1).
body(r_fr10_92,fr10_t3).
head(r_fr10_93,fr10_s3).
body(r_fr10_93,fr2_a3).
head(r_fr10_94,fr10_s3).
body(r_fr10_94,fr15_e2).
body(r_fr10_94,fr10_c2).
body(r_fr10_94,fr10_c3).
body(r_fr10_94,fr2_f4).
body(r_fr10_94,fr2_e3).
body(r_fr10_94,fr10_f3).
body(r_fr10_94,fr10_v1).
head(r_fr10_95,fr9_x1).
body(r_fr10_95,fr10_c3).
body(r_fr10_95,fr16_a3).
body(r_fr10_95,fr20_q3).
body(r_fr10_95,fr10_r3).
body(r_fr10_95,fr10_v2).
body(r_fr10_95,fr10_y1).
body(r_fr10_95,fr10_z2).
head(r_fr10_96,fr9_x1).
body(r_fr10_96,fr10_b2).
body(r_fr10_96,fr10_c1).
body(r_fr10_96,fr2_a3).
body(r_fr10_96,fr2_e3).
body(r_fr10_96,fr22_a3).
body(r_fr10_96,fr16_a3).
body(r_fr10_96,fr10_f3).

assumption(fr2_a1).
assumption(fr11_b1).
assumption(fr10_f2).
assumption(fr11_d1).
assumption(fr11_e1).
assumption(fr11_f1).
assumption(fr3_e1).
assumption(fr11_b2).
assumption(fr11_c2).
assumption(fr11_d2).
assumption(fr11_e2).
assumption(fr2_a3).
assumption(fr2_a3).
assumption(fr11_b3).
assumption(fr3_a1).
contrary(fr2_a1,fr11_r2).
contrary(fr3_e1,fr10_f2).
contrary(fr2_a3,fr11_v2).
contrary(fr11_b1,fr11_x2).
contrary(fr11_b2,fr11_v1).
contrary(fr11_b3,fr20_v3).
contrary(fr10_f2,fr11_w5).
contrary(fr11_c2,fr11_r3).
contrary(fr3_a1,fr11_x4).
contrary(fr11_d1,fr11_x4).
contrary(fr11_d2,fr11_x2).
contrary(fr11_e1,fr11_b2).
contrary(fr11_e2,fr20_v3).
contrary(fr11_f1,fr11_x2).
contrary(fr2_a3,fr11_p2).
head(r_fr11_0,fr11_t1).
body(r_fr11_0,fr11_b2).
body(r_fr11_0,fr2_a3).
body(r_fr11_0,fr11_p3).
body(r_fr11_0,fr11_u5).
head(r_fr11_1,fr11_t1).
body(r_fr11_1,fr11_b3).
body(r_fr11_1,fr10_f2).
body(r_fr11_1,fr11_r3).
head(r_fr11_2,fr11_t1).
body(r_fr11_2,fr11_p5).
body(r_fr11_2,fr20_p1).
body(r_fr11_2,fr11_v5).
body(r_fr11_2,fr11_z3).
head(r_fr11_3,fr11_z1).
body(r_fr11_3,fr2_a3).
body(r_fr11_3,fr11_d1).
body(r_fr11_3,fr11_e2).
head(r_fr11_4,fr11_z1).
body(r_fr11_4,fr11_p1).
body(r_fr11_4,fr11_p2).
body(r_fr11_4,fr11_s2).
head(r_fr11_5,fr11_z1).
body(r_fr11_5,fr3_e1).
body(r_fr11_5,fr11_e2).
body(r_fr11_5,fr11_s1).
body(r_fr11_5,fr11_t3).
body(r_fr11_5,fr11_u4).
body(r_fr11_5,fr11_v1).
head(r_fr11_6,fr11_z1).
head(r_fr11_7,fr11_w2).
body(r_fr11_7,fr3_e1).
body(r_fr11_7,fr11_b1).
body(r_fr11_7,fr11_b2).
body(r_fr11_7,fr11_c2).
head(r_fr11_8,fr11_w2).
body(r_fr11_8,fr11_b1).
body(r_fr11_8,fr11_b2).
body(r_fr11_8,fr11_b3).
body(r_fr11_8,fr10_f2).
body(r_fr11_8,fr11_q2).
body(r_fr11_8,fr7_v1).
head(r_fr11_9,fr11_w2).
body(r_fr11_9,fr11_p2).
body(r_fr11_9,fr11_s2).
body(r_fr11_9,fr11_t2).
body(r_fr11_9,fr11_v4).
body(r_fr11_9,fr11_w5).
head(r_fr11_10,fr11_w2).
body(r_fr11_10,fr11_e1).
body(r_fr11_10,fr11_v4).
body(r_fr11_10,fr11_x4).
body(r_fr11_10,fr11_x5).
head(r_fr11_11,fr19_y3).
body(r_fr11_11,fr11_c2).
body(r_fr11_11,fr21_s1).
body(r_fr11_11,fr11_w5).
head(r_fr11_12,fr19_y3).
body(r_fr11_12,fr3_a1).
head(r_fr11_13,fr7_v1).
body(r_fr11_13,fr10_f2).
body(r_fr11_13,fr11_c2).
body(r_fr11_13,fr11_p5).
body(r_fr11_13,fr11_v4).
body(r_fr11_13,fr11_z2).
head(r_fr11_14,fr7_v1).
body(r_fr11_14,fr11_s2).
head(r_fr11_15,fr7_v1).
body(r_fr11_15,fr11_b3).
body(r_fr11_15,fr11_r2).
body(r_fr11_15,fr11_s1).
body(r_fr11_15,fr11_u4).
body(r_fr11_15,fr11_w5).
head(r_fr11_16,fr7_v1).
body(r_fr11_16,fr2_a3).
body(r_fr11_16,fr11_b1).
body(r_fr11_16,fr11_u4).
head(r_fr11_17,fr7_v1).
body(r_fr11_17,fr11_b1).
body(r_fr11_17,fr11_c2).
head(r_fr11_18,fr11_r4).
body(r_fr11_18,fr10_f2).
body(r_fr11_18,fr3_a1).
body(r_fr11_18,fr11_d2).
body(r_fr11_18,fr11_f1).
head(r_fr11_19,fr11_r4).
body(r_fr11_19,fr11_b3).
body(r_fr11_19,fr17_w1).
body(r_fr11_19,fr2_v4).
head(r_fr11_20,fr11_r4).
body(r_fr11_20,fr21_s1).
head(r_fr11_21,fr11_r4).
body(r_fr11_21,fr2_a1).
body(r_fr11_21,fr10_f2).
body(r_fr11_21,fr11_d1).
body(r_fr11_21,fr11_d2).
body(r_fr11_21,fr11_y1).
head(r_fr11_22,fr11_r4).
body(r_fr11_22,fr11_b3).
body(r_fr11_22,fr11_p5).
head(r_fr11_23,fr11_p3).
head(r_fr11_24,fr11_p3).
body(r_fr11_24,fr11_s4).
body(r_fr11_24,fr2_v4).
head(r_fr11_25,fr11_p3).
body(r_fr11_25,fr10_f2).
body(r_fr11_25,fr11_d2).
body(r_fr11_25,fr2_a3).
head(r_fr11_26,fr11_p3).
body(r_fr11_26,fr2_a3).
body(r_fr11_26,fr11_d1).
body(r_fr11_26,fr11_e1).
body(r_fr11_26,fr11_f1).
body(r_fr11_26,fr11_s1).
body(r_fr11_26,fr11_x4).
head(r_fr11_27,fr11_t5).
head(r_fr11_28,fr11_t5).
body(r_fr11_28,fr20_p1).
head(r_fr11_29,fr11_v3).
body(r_fr11_29,fr2_a3).
body(r_fr11_29,fr11_d1).
head(r_fr11_30,fr11_v3).
body(r_fr11_30,fr11_d1).
body(r_fr11_30,fr11_p2).
body(r_fr11_30,fr11_v4).
body(r_fr11_30,fr11_z2).
head(r_fr11_31,fr11_v3).
head(r_fr11_32,fr11_v3).
body(r_fr11_32,fr21_s1).
body(r_fr11_32,fr11_r5).
body(r_fr11_32,fr11_s2).
body(r_fr11_32,fr11_w5).
body(r_fr11_32,fr2_v4).
head(r_fr11_33,fr1_z1).
head(r_fr11_34,fr1_z1).
body(r_fr11_34,fr11_v2).
body(r_fr11_34,fr8_t1).
head(r_fr11_35,fr1_z1).
body(r_fr11_35,fr11_c2).
body(r_fr11_35,fr11_r2).
body(r_fr11_35,fr11_t3).
body(r_fr11_35,fr20_p1).
body(r_fr11_35,fr3_p1).
head(r_fr11_36,fr1_z1).
body(r_fr11_36,fr11_p1).
head(r_fr11_37,fr11_w5).
head(r_fr11_38,fr11_w5).
body(r_fr11_38,fr18_s1).
body(r_fr11_38,fr11_u5).
body(r_fr11_38,fr11_v5).
body(r_fr11_38,fr11_x2).
head(r_fr11_39,fr11_w5).
body(r_fr11_39,fr11_p2).
body(r_fr11_39,fr20_p1).
body(r_fr11_39,fr11_s4).
body(r_fr11_39,fr20_p1).
body(r_fr11_39,fr11_x4).
body(r_fr11_39,fr11_y1).
head(r_fr11_40,fr11_t2).
body(r_fr11_40,fr2_a1).
body(r_fr11_40,fr3_e1).
body(r_fr11_40,fr10_f2).
body(r_fr11_40,fr11_r3).
head(r_fr11_41,fr11_t2).
body(r_fr11_41,fr11_b3).
body(r_fr11_41,fr11_x5).
body(r_fr11_41,fr3_p1).
body(r_fr11_41,fr2_v4).
head(r_fr11_42,fr11_t2).
body(r_fr11_42,fr2_a1).
body(r_fr11_42,fr11_u2).
body(r_fr11_42,fr11_u4).
body(r_fr11_42,fr11_x3).
body(r_fr11_42,fr11_x4).
body(r_fr11_42,fr2_v4).
head(r_fr11_43,fr11_t2).
body(r_fr11_43,fr2_a3).
body(r_fr11_43,fr11_b3).
body(r_fr11_43,fr3_a1).
head(r_fr11_44,fr2_v4).
body(r_fr11_44,fr11_b3).
body(r_fr11_44,fr3_a1).
body(r_fr11_44,fr3_p1).
body(r_fr11_44,fr11_z5).
head(r_fr11_45,fr2_v4).
body(r_fr11_45,fr18_s1).
body(r_fr11_45,fr11_v1).
body(r_fr11_45,fr11_z3).
head(r_fr11_46,fr2_v4).
body(r_fr11_46,fr2_a1).
body(r_fr11_46,fr11_r5).
body(r_fr11_46,fr11_s1).
body(r_fr11_46,fr11_v4).
body(r_fr11_46,fr8_t1).
body(r_fr11_46,fr11_z3).
head(r_fr11_47,fr2_v4).
body(r_fr11_47,fr11_b2).
body(r_fr11_47,fr3_a1).
head(r_fr11_48,fr11_v1).
body(r_fr11_48,fr11_b1).
body(r_fr11_48,fr3_a1).
body(r_fr11_48,fr11_e2).
body(r_fr11_48,fr11_v2).
body(r_fr11_48,fr11_x3).
head(r_fr11_49,fr11_v1).
body(r_fr11_49,fr11_b3).
body(r_fr11_49,fr11_d1).
body(r_fr11_49,fr11_e2).
head(r_fr11_50,fr11_v1).
head(r_fr11_51,fr11_p1).
body(r_fr11_51,fr11_e2).
head(r_fr11_52,fr11_p1).
body(r_fr11_52,fr11_c2).
body(r_fr11_52,fr11_f1).
body(r_fr11_52,fr11_u2).
body(r_fr11_52,fr11_z4).
body(r_fr11_52,fr11_z5).
head(r_fr11_53,fr11_x1).
body(r_fr11_53,fr11_b2).
head(r_fr11_54,fr11_x1).
body(r_fr11_54,fr11_c2).
body(r_fr11_54,fr11_d1).
head(r_fr11_55,fr11_x1).
head(r_fr11_56,fr11_x1).
body(r_fr11_56,fr11_s2).
body(r_fr11_56,fr11_u4).
body(r_fr11_56,fr11_x2).
body(r_fr11_56,fr11_z5).
head(r_fr11_57,fr8_t1).
body(r_fr11_57,fr11_b2).
body(r_fr11_57,fr11_b3).
body(r_fr11_57,fr3_a1).
head(r_fr11_58,fr8_t1).
body(r_fr11_58,fr2_a3).
body(r_fr11_58,fr17_w1).
body(r_fr11_58,fr11_s5).
body(r_fr11_58,fr11_u2).
body(r_fr11_58,fr11_z4).
head(r_fr11_59,fr8_t1).
body(r_fr11_59,fr2_a1).
body(r_fr11_59,fr3_a1).
body(r_fr11_59,fr11_f1).
head(r_fr11_60,fr11_y1).
body(r_fr11_60,fr11_b3).
body(r_fr11_60,fr11_r5).
body(r_fr11_60,fr17_w1).
body(r_fr11_60,fr11_s4).
body(r_fr11_60,fr11_u4).
head(r_fr11_61,fr11_y1).
head(r_fr11_62,fr11_y1).
body(r_fr11_62,fr11_b2).
body(r_fr11_62,fr11_b3).
body(r_fr11_62,fr10_f2).
body(r_fr11_62,fr11_d1).
body(r_fr11_62,fr11_f1).
head(r_fr11_63,fr11_y1).
body(r_fr11_63,fr11_d1).
body(r_fr11_63,fr11_d2).
body(r_fr11_63,fr11_s1).
head(r_fr11_64,fr11_q2).
body(r_fr11_64,fr3_e1).
body(r_fr11_64,fr11_r3).
body(r_fr11_64,fr11_v5).
head(r_fr11_65,fr11_q2).
head(r_fr11_66,fr11_q2).
body(r_fr11_66,fr11_c2).
body(r_fr11_66,fr3_a1).
body(r_fr11_66,fr11_e1).
body(r_fr11_66,fr11_t3).
body(r_fr11_66,fr11_u2).
body(r_fr11_66,fr11_x3).
head(r_fr11_67,fr11_q2).
body(r_fr11_67,fr17_w1).
body(r_fr11_67,fr11_u4).
body(r_fr11_67,fr11_v2).
body(r_fr11_67,fr11_v5).
body(r_fr11_67,fr11_z4).
head(r_fr11_68,fr11_q2).
body(r_fr11_68,fr11_b3).
body(r_fr11_68,fr11_p2).
body(r_fr11_68,fr11_p5).
body(r_fr11_68,fr20_p1).
body(r_fr11_68,fr20_p1).
body(r_fr11_68,fr11_x3).
head(r_fr11_69,fr11_s2).
body(r_fr11_69,fr21_s1).
head(r_fr11_70,fr11_s2).
body(r_fr11_70,fr3_a1).
body(r_fr11_70,fr17_w1).
body(r_fr11_70,fr11_v4).
body(r_fr11_70,fr11_x3).
body(r_fr11_70,fr11_x5).
body(r_fr11_70,fr11_z4).
head(r_fr11_71,fr11_s2).
body(r_fr11_71,fr11_p5).
body(r_fr11_71,fr20_p1).
body(r_fr11_71,fr11_u5).
body(r_fr11_71,fr11_x4).
head(r_fr11_72,fr11_s2).
head(r_fr11_73,fr11_s2).
body(r_fr11_73,fr11_b2).
body(r_fr11_73,fr11_b3).
body(r_fr11_73,fr11_c2).
body(r_fr11_73,fr11_d2).
body(r_fr11_73,fr11_e2).
body(r_fr11_73,fr2_a3).

assumption(fr3_a1).
assumption(fr12_b1).
assumption(fr20_e4).
assumption(fr12_d1).
assumption(fr13_d1).
assumption(fr2_a1).
assumption(fr8_a1).
assumption(fr12_b2).
assumption(fr12_c2).
assumption(fr3_a1).
assumption(fr12_e2).
assumption(fr12_f2).
assumption(fr3_a1).
assumption(fr12_b3).
assumption(fr12_c3).
contrary(fr3_a1,fr12_r2).
contrary(fr8_a1,fr12_c2).
contrary(fr3_a1,fr12_s1).
contrary(fr12_b1,fr12_r2).
contrary(fr12_b2,fr20_p1).
contrary(fr12_b3,fr3_a1).
contrary(fr20_e4,fr13_w2).
contrary(fr12_c2,fr12_b1).
contrary(fr12_c3,fr12_y1).
contrary(fr12_d1,fr12_w3).
contrary(fr3_a1,fr12_w2).
contrary(fr13_d1,fr12_c3).
contrary(fr12_e2,fr3_a1).
contrary(fr2_a1,fr12_q3).
contrary(fr12_f2,fr7_y2).
head(r_fr12_0,fr7_y2).
body(r_fr12_0,fr12_b1).
body(r_fr12_0,fr20_e4).
body(r_fr12_0,fr3_a1).
body(r_fr12_0,fr12_e2).
body(r_fr12_0,fr12_f2).
body(r_fr12_0,fr11_r2).
body(r_fr12_0,fr12_q2).
body(r_fr12_0,fr12_s1).
body(r_fr12_0,fr12_t3).
head(r_fr12_1,fr7_y2).
body(r_fr12_1,fr3_a1).
body(r_fr12_1,fr20_e4).
body(r_fr12_1,fr12_e2).
body(r_fr12_1,fr12_f2).
body(r_fr12_1,fr12_p3).
body(r_fr12_1,fr25_s1).
body(r_fr12_1,fr12_s2).
body(r_fr12_1,fr12_t2).
body(r_fr12_1,fr25_v4).
body(r_fr12_1,fr11_s5).
body(r_fr12_1,fr12_x2).
head(r_fr12_2,fr7_y2).
body(r_fr12_2,fr3_a1).
body(r_fr12_2,fr12_p2).
body(r_fr12_2,fr20_p1).
body(r_fr12_2,fr12_t2).
body(r_fr12_2,fr12_u2).
body(r_fr12_2,fr12_w3).
body(r_fr12_2,fr12_x2).
body(r_fr12_2,fr19_y3).
body(r_fr12_2,fr13_w2).
head(r_fr12_3,fr11_r2).
body(r_fr12_3,fr3_a1).
body(r_fr12_3,fr12_b1).
body(r_fr12_3,fr12_b2).
body(r_fr12_3,fr12_c2).
body(r_fr12_3,fr3_a1).
body(r_fr12_3,fr12_f2).
body(r_fr12_3,fr12_s2).
body(r_fr12_3,fr25_v4).
body(r_fr12_3,fr2_x3).
body(r_fr12_3,fr12_x2).
head(r_fr12_4,fr11_r2).
body(r_fr12_4,fr3_a1).
body(r_fr12_4,fr12_b1).
body(r_fr12_4,fr12_b3).
body(r_fr12_4,fr20_e4).
body(r_fr12_4,fr2_a1).
body(r_fr12_4,fr12_q4).
body(r_fr12_4,fr12_r1).
body(r_fr12_4,fr20_p1).
body(r_fr12_4,fr12_t2).
body(r_fr12_4,fr23_r2).
body(r_fr12_4,fr12_w2).
body(r_fr12_4,fr23_r2).
head(r_fr12_5,fr11_r2).
body(r_fr12_5,fr2_a1).
body(r_fr12_5,fr12_p3).
body(r_fr12_5,fr25_s1).
body(r_fr12_5,fr12_q2).
body(r_fr12_5,fr12_s1).
body(r_fr12_5,fr20_p1).
body(r_fr12_5,fr11_s5).
body(r_fr12_5,fr2_x3).
body(r_fr12_5,fr12_w2).
body(r_fr12_5,fr12_x2).
body(r_fr12_5,fr12_y2).
head(r_fr12_6,fr11_r2).
body(r_fr12_6,fr3_a1).
body(r_fr12_6,fr12_p1).
body(r_fr12_6,fr12_p3).
body(r_fr12_6,fr12_s1).
body(r_fr12_6,fr25_v4).
body(r_fr12_6,fr11_s5).
body(r_fr12_6,fr2_x3).
body(r_fr12_6,fr12_w2).
body(r_fr12_6,fr12_x2).
body(r_fr12_6,fr15_u4).
head(r_fr12_7,fr11_r2).
body(r_fr12_7,fr8_a1).
body(r_fr12_7,fr12_c2).
body(r_fr12_7,fr12_f2).
body(r_fr12_7,fr12_p2).
body(r_fr12_7,fr12_p3).
body(r_fr12_7,fr12_q2).
body(r_fr12_7,fr12_r2).
body(r_fr12_7,fr12_s2).
body(r_fr12_7,fr11_t3).
body(r_fr12_7,fr25_u1).
body(r_fr12_7,fr11_t5).
head(r_fr12_8,fr12_r1).
body(r_fr12_8,fr12_q4).
body(r_fr12_8,fr12_r3).
body(r_fr12_8,fr12_s1).
body(r_fr12_8,fr12_s2).
body(r_fr12_8,fr11_t3).
body(r_fr12_8,fr20_p1).
body(r_fr12_8,fr12_t3).
body(r_fr12_8,fr25_v4).
body(r_fr12_8,fr12_w2).
body(r_fr12_8,fr12_w3).
body(r_fr12_8,fr13_w2).
head(r_fr12_9,fr12_r1).
body(r_fr12_9,fr8_a1).
body(r_fr12_9,fr12_b2).
body(r_fr12_9,fr12_b3).
body(r_fr12_9,fr12_c3).
body(r_fr12_9,fr2_a1).
body(r_fr12_9,fr12_r3).
body(r_fr12_9,fr25_v4).
body(r_fr12_9,fr12_u2).
body(r_fr12_9,fr12_x2).
body(r_fr12_9,fr19_y3).
body(r_fr12_9,fr12_z2).
head(r_fr12_10,fr12_r1).
body(r_fr12_10,fr3_a1).
body(r_fr12_10,fr20_e4).
body(r_fr12_10,fr12_c3).
body(r_fr12_10,fr12_q3).
body(r_fr12_10,fr12_s1).
body(r_fr12_10,fr25_v4).
body(r_fr12_10,fr11_s5).
body(r_fr12_10,fr12_w2).
body(r_fr12_10,fr12_x2).
body(r_fr12_10,fr12_y2).
body(r_fr12_10,fr11_t5).
head(r_fr12_11,fr12_y1).
body(r_fr12_11,fr20_e4).
body(r_fr12_11,fr12_c2).
body(r_fr12_11,fr12_d1).
body(r_fr12_11,fr12_f2).
body(r_fr12_11,fr12_p2).
body(r_fr12_11,fr25_u1).
body(r_fr12_11,fr19_y3).
body(r_fr12_11,fr13_w2).
body(r_fr12_11,fr15_u4).
head(r_fr12_12,fr12_y1).
body(r_fr12_12,fr12_b3).
body(r_fr12_12,fr12_c2).
body(r_fr12_12,fr3_a1).
body(r_fr12_12,fr12_e2).
body(r_fr12_12,fr2_a1).
body(r_fr12_12,fr12_f2).
body(r_fr12_12,fr12_q4).
body(r_fr12_12,fr12_s2).
body(r_fr12_12,fr12_t3).
body(r_fr12_12,fr23_r2).
body(r_fr12_12,fr11_t5).
head(r_fr12_13,fr12_y1).
body(r_fr12_13,fr12_b1).
body(r_fr12_13,fr12_b3).
body(r_fr12_13,fr12_c2).
body(r_fr12_13,fr12_d1).
body(r_fr12_13,fr25_s1).
body(r_fr12_13,fr12_r2).
body(r_fr12_13,fr11_t3).
body(r_fr12_13,fr20_p1).
body(r_fr12_13,fr12_t3).
body(r_fr12_13,fr19_y3).
body(r_fr12_13,fr15_u4).
body(r_fr12_13,fr11_t5).
head(r_fr12_14,fr12_q4).
body(r_fr12_14,fr3_a1).
body(r_fr12_14,fr8_a1).
body(r_fr12_14,fr3_a1).
body(r_fr12_14,fr20_e4).
body(r_fr12_14,fr3_a1).
body(r_fr12_14,fr12_e2).
body(r_fr12_14,fr12_p2).
body(r_fr12_14,fr2_x3).
body(r_fr12_14,fr11_t5).
head(r_fr12_15,fr12_q4).
body(r_fr12_15,fr20_e4).
body(r_fr12_15,fr12_p1).
body(r_fr12_15,fr12_q2).
body(r_fr12_15,fr12_s1).
body(r_fr12_15,fr20_p1).
body(r_fr12_15,fr2_x3).
body(r_fr12_15,fr23_r2).
body(r_fr12_15,fr15_u4).
body(r_fr12_15,fr12_z2).
head(r_fr12_16,fr12_q4).
body(r_fr12_16,fr25_s1).
body(r_fr12_16,fr12_s1).
body(r_fr12_16,fr12_s2).
body(r_fr12_16,fr20_p1).
body(r_fr12_16,fr11_s5).
body(r_fr12_16,fr12_w3).
body(r_fr12_16,fr12_x2).
body(r_fr12_16,fr13_w2).
body(r_fr12_16,fr12_z2).
body(r_fr12_16,fr11_t5).
head(r_fr12_17,fr12_q4).
body(r_fr12_17,fr3_a1).
body(r_fr12_17,fr12_b2).
body(r_fr12_17,fr12_c2).
body(r_fr12_17,fr12_c3).
body(r_fr12_17,fr13_d1).
body(r_fr12_17,fr12_f2).
body(r_fr12_17,fr11_s5).
body(r_fr12_17,fr23_r2).
body(r_fr12_17,fr12_w2).
head(r_fr12_18,fr12_q4).
body(r_fr12_18,fr3_a1).
body(r_fr12_18,fr8_a1).
body(r_fr12_18,fr12_b1).
body(r_fr12_18,fr12_c2).
body(r_fr12_18,fr13_d1).
body(r_fr12_18,fr12_p3).
body(r_fr12_18,fr12_t2).
body(r_fr12_18,fr12_t3).
body(r_fr12_18,fr25_u1).
body(r_fr12_18,fr23_r2).
body(r_fr12_18,fr12_w2).
head(r_fr12_19,fr11_t3).
body(r_fr12_19,fr12_b3).
body(r_fr12_19,fr12_r2).
body(r_fr12_19,fr12_r3).
body(r_fr12_19,fr12_s2).
body(r_fr12_19,fr12_t2).
body(r_fr12_19,fr12_t3).
body(r_fr12_19,fr23_r2).
body(r_fr12_19,fr12_w3).
body(r_fr12_19,fr12_x2).
body(r_fr12_19,fr12_y2).
head(r_fr12_20,fr11_t3).
body(r_fr12_20,fr3_a1).
body(r_fr12_20,fr8_a1).
body(r_fr12_20,fr3_a1).
body(r_fr12_20,fr13_d1).
body(r_fr12_20,fr2_a1).
body(r_fr12_20,fr12_q2).
body(r_fr12_20,fr12_r2).
body(r_fr12_20,fr11_s5).
body(r_fr12_20,fr23_r2).
body(r_fr12_20,fr11_t5).
head(r_fr12_21,fr12_p2).
body(r_fr12_21,fr3_a1).
body(r_fr12_21,fr12_b2).
body(r_fr12_21,fr12_b3).
body(r_fr12_21,fr12_c3).
body(r_fr12_21,fr3_a1).
body(r_fr12_21,fr12_f2).
body(r_fr12_21,fr12_p3).
body(r_fr12_21,fr12_t3).
body(r_fr12_21,fr12_w2).
body(r_fr12_21,fr12_x2).
body(r_fr12_21,fr13_w2).
body(r_fr12_21,fr12_z2).
head(r_fr12_22,fr12_p2).
body(r_fr12_22,fr3_a1).
body(r_fr12_22,fr12_p3).
body(r_fr12_22,fr12_q2).
body(r_fr12_22,fr12_r2).
body(r_fr12_22,fr12_r3).
body(r_fr12_22,fr20_p1).
body(r_fr12_22,fr12_t2).
body(r_fr12_22,fr19_y3).
body(r_fr12_22,fr12_y2).
body(r_fr12_22,fr13_w2).
head(r_fr12_23,fr12_p2).
body(r_fr12_23,fr8_a1).
body(r_fr12_23,fr12_b3).
body(r_fr12_23,fr13_d1).
body(r_fr12_23,fr12_e2).
body(r_fr12_23,fr2_a1).
body(r_fr12_23,fr12_f2).
body(r_fr12_23,fr12_p3).
body(r_fr12_23,fr12_r3).
body(r_fr12_23,fr12_t2).
body(r_fr12_23,fr13_w2).
head(r_fr12_24,fr12_p2).
body(r_fr12_24,fr12_c2).
body(r_fr12_24,fr12_p1).
body(r_fr12_24,fr25_s1).
body(r_fr12_24,fr12_r3).
body(r_fr12_24,fr20_p1).
body(r_fr12_24,fr25_v4).
body(r_fr12_24,fr11_s5).
body(r_fr12_24,fr12_w3).
body(r_fr12_24,fr19_y3).
body(r_fr12_24,fr13_w2).
body(r_fr12_24,fr15_u4).
body(r_fr12_24,fr12_z2).
head(r_fr12_25,fr12_p2).
body(r_fr12_25,fr12_p3).
body(r_fr12_25,fr12_r2).
body(r_fr12_25,fr12_r3).
body(r_fr12_25,fr25_v4).
body(r_fr12_25,fr25_u1).
body(r_fr12_25,fr2_x3).
body(r_fr12_25,fr12_x2).
body(r_fr12_25,fr13_w2).
body(r_fr12_25,fr12_z2).
body(r_fr12_25,fr11_t5).
head(r_fr12_26,fr12_z2).
body(r_fr12_26,fr8_a1).
body(r_fr12_26,fr3_a1).
body(r_fr12_26,fr12_c2).
body(r_fr12_26,fr3_a1).
body(r_fr12_26,fr12_f2).
body(r_fr12_26,fr25_s1).
body(r_fr12_26,fr12_q2).
body(r_fr12_26,fr25_v4).
body(r_fr12_26,fr23_r2).
body(r_fr12_26,fr12_x2).
head(r_fr12_27,fr12_z2).
body(r_fr12_27,fr3_a1).
body(r_fr12_27,fr12_b2).
body(r_fr12_27,fr12_b3).
body(r_fr12_27,fr12_c3).
body(r_fr12_27,fr12_d1).
body(r_fr12_27,fr12_r2).
body(r_fr12_27,fr20_p1).
body(r_fr12_27,fr19_y3).
body(r_fr12_27,fr12_y2).
body(r_fr12_27,fr11_t5).
head(r_fr12_28,fr20_p1).
body(r_fr12_28,fr12_b1).
body(r_fr12_28,fr12_d1).
body(r_fr12_28,fr3_a1).
body(r_fr12_28,fr12_p3).
body(r_fr12_28,fr12_q2).
body(r_fr12_28,fr12_q3).
body(r_fr12_28,fr12_t2).
body(r_fr12_28,fr12_t3).
body(r_fr12_28,fr25_v4).
body(r_fr12_28,fr12_y2).
head(r_fr12_29,fr20_p1).
body(r_fr12_29,fr12_p1).
body(r_fr12_29,fr12_p3).
body(r_fr12_29,fr12_q3).
body(r_fr12_29,fr12_r2).
body(r_fr12_29,fr12_r3).
body(r_fr12_29,fr25_u1).
body(r_fr12_29,fr11_s5).
body(r_fr12_29,fr12_x2).
body(r_fr12_29,fr19_y3).
head(r_fr12_30,fr20_p1).
body(r_fr12_30,fr3_a1).
body(r_fr12_30,fr8_a1).
body(r_fr12_30,fr3_a1).
body(r_fr12_30,fr12_c2).
body(r_fr12_30,fr13_d1).
body(r_fr12_30,fr12_f2).
body(r_fr12_30,fr12_q2).
body(r_fr12_30,fr12_r2).
body(r_fr12_30,fr19_y3).
body(r_fr12_30,fr11_t5).
head(r_fr12_31,fr20_p1).
body(r_fr12_31,fr25_s1).
body(r_fr12_31,fr12_r2).
body(r_fr12_31,fr12_s2).
body(r_fr12_31,fr12_t3).
body(r_fr12_31,fr25_v4).
body(r_fr12_31,fr25_u1).
body(r_fr12_31,fr11_s5).
body(r_fr12_31,fr23_r2).
body(r_fr12_31,fr23_r2).
body(r_fr12_31,fr12_x2).
head(r_fr12_32,fr20_p1).
body(r_fr12_32,fr8_a1).
body(r_fr12_32,fr12_b2).
body(r_fr12_32,fr20_e4).
body(r_fr12_32,fr13_d1).
body(r_fr12_32,fr25_s1).
body(r_fr12_32,fr12_r3).
body(r_fr12_32,fr12_s2).
body(r_fr12_32,fr2_x3).
body(r_fr12_32,fr23_r2).
body(r_fr12_32,fr12_x2).
head(r_fr12_33,fr25_v4).
body(r_fr12_33,fr3_a1).
body(r_fr12_33,fr12_b1).
body(r_fr12_33,fr12_b3).
body(r_fr12_33,fr12_c2).
body(r_fr12_33,fr3_a1).
body(r_fr12_33,fr12_f2).
body(r_fr12_33,fr12_p1).
body(r_fr12_33,fr12_q2).
body(r_fr12_33,fr23_r2).
body(r_fr12_33,fr12_x2).
head(r_fr12_34,fr25_v4).
body(r_fr12_34,fr12_d1).
body(r_fr12_34,fr12_r3).
body(r_fr12_34,fr12_t2).
body(r_fr12_34,fr12_u2).
body(r_fr12_34,fr11_s5).
body(r_fr12_34,fr23_r2).
body(r_fr12_34,fr12_y2).
body(r_fr12_34,fr13_w2).
body(r_fr12_34,fr15_u4).
head(r_fr12_35,fr25_v4).
body(r_fr12_35,fr12_q3).
body(r_fr12_35,fr12_t2).
body(r_fr12_35,fr12_t3).
body(r_fr12_35,fr12_u2).
body(r_fr12_35,fr25_u1).
body(r_fr12_35,fr12_w2).
body(r_fr12_35,fr12_x2).
body(r_fr12_35,fr19_y3).
body(r_fr12_35,fr15_u4).
head(r_fr12_36,fr12_q2).
body(r_fr12_36,fr12_b3).
body(r_fr12_36,fr20_e4).
body(r_fr12_36,fr12_c2).
body(r_fr12_36,fr12_d1).
body(r_fr12_36,fr2_a1).
body(r_fr12_36,fr12_f2).
body(r_fr12_36,fr12_r3).
body(r_fr12_36,fr12_t2).
body(r_fr12_36,fr2_x3).
head(r_fr12_37,fr12_q2).
body(r_fr12_37,fr20_e4).
body(r_fr12_37,fr12_d1).
body(r_fr12_37,fr12_p1).
body(r_fr12_37,fr12_r2).
body(r_fr12_37,fr12_r3).
body(r_fr12_37,fr12_s2).
body(r_fr12_37,fr12_t2).
body(r_fr12_37,fr23_r2).
body(r_fr12_37,fr23_r2).
body(r_fr12_37,fr12_x2).
body(r_fr12_37,fr13_w2).
head(r_fr12_38,fr12_q2).
body(r_fr12_38,fr3_a1).
body(r_fr12_38,fr8_a1).
body(r_fr12_38,fr12_b3).
body(r_fr12_38,fr20_e4).
body(r_fr12_38,fr12_c2).
body(r_fr12_38,fr12_d1).
body(r_fr12_38,fr11_s5).
body(r_fr12_38,fr23_r2).
body(r_fr12_38,fr23_r2).
body(r_fr12_38,fr12_y2).
body(r_fr12_38,fr13_w2).
body(r_fr12_38,fr11_t5).
head(r_fr12_39,fr25_s1).
body(r_fr12_39,fr12_b2).
body(r_fr12_39,fr20_e4).
body(r_fr12_39,fr12_c2).
body(r_fr12_39,fr12_d1).
body(r_fr12_39,fr13_d1).
body(r_fr12_39,fr2_a1).
body(r_fr12_39,fr12_p3).
body(r_fr12_39,fr12_s1).
body(r_fr12_39,fr12_s2).
body(r_fr12_39,fr23_r2).
body(r_fr12_39,fr12_w2).
body(r_fr12_39,fr12_y2).
head(r_fr12_40,fr25_s1).
body(r_fr12_40,fr3_a1).
body(r_fr12_40,fr12_b2).
body(r_fr12_40,fr12_d1).
body(r_fr12_40,fr13_d1).
body(r_fr12_40,fr12_e2).
body(r_fr12_40,fr2_a1).
body(r_fr12_40,fr12_p1).
body(r_fr12_40,fr12_p3).
body(r_fr12_40,fr12_q3).
body(r_fr12_40,fr12_s2).
body(r_fr12_40,fr12_t3).
body(r_fr12_40,fr12_x2).
head(r_fr12_41,fr25_s1).
body(r_fr12_41,fr12_c2).
body(r_fr12_41,fr12_p1).
body(r_fr12_41,fr12_p3).
body(r_fr12_41,fr12_r3).
body(r_fr12_41,fr12_s2).
body(r_fr12_41,fr12_t3).
body(r_fr12_41,fr12_u2).
body(r_fr12_41,fr25_u1).
body(r_fr12_41,fr2_x3).
body(r_fr12_41,fr23_r2).
body(r_fr12_41,fr12_y2).
head(r_fr12_42,fr25_s1).
body(r_fr12_42,fr3_a1).
body(r_fr12_42,fr12_b1).
body(r_fr12_42,fr12_b2).
body(r_fr12_42,fr13_d1).
body(r_fr12_42,fr12_p3).
body(r_fr12_42,fr12_r3).
body(r_fr12_42,fr12_t2).
body(r_fr12_42,fr12_t3).
body(r_fr12_42,fr2_x3).
body(r_fr12_42,fr19_y3).
body(r_fr12_42,fr11_t5).
head(r_fr12_43,fr12_t3).
body(r_fr12_43,fr3_a1).
body(r_fr12_43,fr8_a1).
body(r_fr12_43,fr20_e4).
body(r_fr12_43,fr3_a1).
body(r_fr12_43,fr13_d1).
body(r_fr12_43,fr12_p3).
body(r_fr12_43,fr25_u1).
body(r_fr12_43,fr11_s5).
body(r_fr12_43,fr15_u4).
head(r_fr12_44,fr12_t3).
body(r_fr12_44,fr12_b2).
body(r_fr12_44,fr12_b3).
body(r_fr12_44,fr12_c2).
body(r_fr12_44,fr12_p1).
body(r_fr12_44,fr12_q3).
body(r_fr12_44,fr12_s2).
body(r_fr12_44,fr25_u1).
body(r_fr12_44,fr11_s5).
body(r_fr12_44,fr23_r2).
body(r_fr12_44,fr12_x2).
body(r_fr12_44,fr19_y3).
body(r_fr12_44,fr12_y2).
head(r_fr12_45,fr12_t3).
body(r_fr12_45,fr8_a1).
body(r_fr12_45,fr12_b2).
body(r_fr12_45,fr12_q3).
body(r_fr12_45,fr12_r2).
body(r_fr12_45,fr12_s1).
body(r_fr12_45,fr12_s2).
body(r_fr12_45,fr12_u2).
body(r_fr12_45,fr12_w2).
body(r_fr12_45,fr19_y3).
body(r_fr12_45,fr13_w2).
body(r_fr12_45,fr15_u4).
body(r_fr12_45,fr11_t5).
head(r_fr12_46,fr12_t3).
body(r_fr12_46,fr12_b2).
body(r_fr12_46,fr13_d1).
body(r_fr12_46,fr2_a1).
body(r_fr12_46,fr12_f2).
body(r_fr12_46,fr12_p3).
body(r_fr12_46,fr2_x3).
body(r_fr12_46,fr12_w3).
body(r_fr12_46,fr23_r2).
body(r_fr12_46,fr12_y2).
body(r_fr12_46,fr15_u4).
head(r_fr12_47,fr12_t3).
body(r_fr12_47,fr12_p3).
body(r_fr12_47,fr12_r2).
body(r_fr12_47,fr12_r3).
body(r_fr12_47,fr12_s2).
body(r_fr12_47,fr12_u2).
body(r_fr12_47,fr25_u1).
body(r_fr12_47,fr12_w2).
body(r_fr12_47,fr12_w3).
body(r_fr12_47,fr12_x2).
body(r_fr12_47,fr15_u4).
head(r_fr12_48,fr12_y2).
body(r_fr12_48,fr12_e2).
body(r_fr12_48,fr12_p3).
body(r_fr12_48,fr12_q3).
body(r_fr12_48,fr12_s2).
body(r_fr12_48,fr12_t2).
body(r_fr12_48,fr11_s5).
body(r_fr12_48,fr2_x3).
body(r_fr12_48,fr15_u4).
body(r_fr12_48,fr11_t5).
head(r_fr12_49,fr12_y2).
body(r_fr12_49,fr12_b2).
body(r_fr12_49,fr20_e4).
body(r_fr12_49,fr12_c3).
body(r_fr12_49,fr12_d1).
body(r_fr12_49,fr3_a1).
body(r_fr12_49,fr2_a1).
body(r_fr12_49,fr12_p1).
body(r_fr12_49,fr12_q3).
body(r_fr12_49,fr2_x3).
body(r_fr12_49,fr19_y3).
body(r_fr12_49,fr13_w2).
body(r_fr12_49,fr11_t5).
head(r_fr12_50,fr12_y2).
body(r_fr12_50,fr3_a1).
body(r_fr12_50,fr12_c3).
body(r_fr12_50,fr2_a1).
body(r_fr12_50,fr12_p3).
body(r_fr12_50,fr12_q3).
body(r_fr12_50,fr12_s1).
body(r_fr12_50,fr12_s2).
body(r_fr12_50,fr12_u2).
body(r_fr12_50,fr11_s5).
body(r_fr12_50,fr12_w2).
body(r_fr12_50,fr12_x2).
body(r_fr12_50,fr19_y3).
head(r_fr12_51,fr12_y2).
body(r_fr12_51,fr12_b1).
body(r_fr12_51,fr2_a1).
body(r_fr12_51,fr12_p1).
body(r_fr12_51,fr12_r3).
body(r_fr12_51,fr25_u1).
body(r_fr12_51,fr11_s5).
body(r_fr12_51,fr2_x3).
body(r_fr12_51,fr12_w2).
body(r_fr12_51,fr12_x2).
body(r_fr12_51,fr13_w2).
head(r_fr12_52,fr12_q3).
body(r_fr12_52,fr3_a1).
body(r_fr12_52,fr12_b1).
body(r_fr12_52,fr3_a1).
body(r_fr12_52,fr13_d1).
body(r_fr12_52,fr12_e2).
body(r_fr12_52,fr12_p1).
body(r_fr12_52,fr12_r3).
body(r_fr12_52,fr2_x3).
body(r_fr12_52,fr15_u4).
head(r_fr12_53,fr12_q3).
body(r_fr12_53,fr12_b1).
body(r_fr12_53,fr12_b2).
body(r_fr12_53,fr20_e4).
body(r_fr12_53,fr12_c3).
body(r_fr12_53,fr12_f2).
body(r_fr12_53,fr12_p1).
body(r_fr12_53,fr12_s2).
body(r_fr12_53,fr12_u2).
body(r_fr12_53,fr2_x3).
body(r_fr12_53,fr23_r2).
body(r_fr12_53,fr12_w2).
body(r_fr12_53,fr23_r2).
head(r_fr12_54,fr12_q3).
body(r_fr12_54,fr12_c3).
body(r_fr12_54,fr12_d1).
body(r_fr12_54,fr12_r2).
body(r_fr12_54,fr12_r3).
body(r_fr12_54,fr12_s2).
body(r_fr12_54,fr25_u1).
body(r_fr12_54,fr2_x3).
body(r_fr12_54,fr23_r2).
body(r_fr12_54,fr23_r2).
head(r_fr12_55,fr12_q3).
body(r_fr12_55,fr12_p1).
body(r_fr12_55,fr12_p3).
body(r_fr12_55,fr12_r2).
body(r_fr12_55,fr12_s2).
body(r_fr12_55,fr12_u2).
body(r_fr12_55,fr25_u1).
body(r_fr12_55,fr2_x3).
body(r_fr12_55,fr12_w2).
body(r_fr12_55,fr19_y3).
body(r_fr12_55,fr13_w2).
body(r_fr12_55,fr15_u4).
body(r_fr12_55,fr11_t5).
head(r_fr12_56,fr12_t2).
body(r_fr12_56,fr12_d1).
body(r_fr12_56,fr12_p1).
body(r_fr12_56,fr12_p3).
body(r_fr12_56,fr12_r2).
body(r_fr12_56,fr12_u2).
body(r_fr12_56,fr25_u1).
body(r_fr12_56,fr11_s5).
body(r_fr12_56,fr12_w2).
body(r_fr12_56,fr12_w3).
body(r_fr12_56,fr23_r2).
body(r_fr12_56,fr19_y3).
body(r_fr12_56,fr11_t5).
head(r_fr12_57,fr12_t2).
body(r_fr12_57,fr3_a1).
body(r_fr12_57,fr12_e2).
body(r_fr12_57,fr12_p1).
body(r_fr12_57,fr12_r2).
body(r_fr12_57,fr11_s5).
body(r_fr12_57,fr23_r2).
body(r_fr12_57,fr12_w2).
body(r_fr12_57,fr12_w3).
body(r_fr12_57,fr12_x2).
body(r_fr12_57,fr11_t5).
head(r_fr12_58,fr12_u2).
body(r_fr12_58,fr20_e4).
body(r_fr12_58,fr13_d1).
body(r_fr12_58,fr2_a1).
body(r_fr12_58,fr12_p3).
body(r_fr12_58,fr12_s1).
body(r_fr12_58,fr12_s2).
body(r_fr12_58,fr11_s5).
body(r_fr12_58,fr12_w3).
body(r_fr12_58,fr12_x2).
body(r_fr12_58,fr19_y3).
body(r_fr12_58,fr15_u4).
body(r_fr12_58,fr11_t5).
head(r_fr12_59,fr12_u2).
body(r_fr12_59,fr8_a1).
body(r_fr12_59,fr12_d1).
body(r_fr12_59,fr12_e2).
body(r_fr12_59,fr12_p1).
body(r_fr12_59,fr25_u1).
body(r_fr12_59,fr12_w2).
body(r_fr12_59,fr12_w3).
body(r_fr12_59,fr12_x2).
body(r_fr12_59,fr19_y3).
body(r_fr12_59,fr13_w2).
body(r_fr12_59,fr15_u4).
head(r_fr12_60,fr12_p1).
body(r_fr12_60,fr3_a1).
body(r_fr12_60,fr12_c3).
body(r_fr12_60,fr12_e2).
body(r_fr12_60,fr2_a1).
body(r_fr12_60,fr12_r3).
body(r_fr12_60,fr12_s2).
body(r_fr12_60,fr25_u1).
body(r_fr12_60,fr2_x3).
body(r_fr12_60,fr23_r2).
body(r_fr12_60,fr12_w2).
body(r_fr12_60,fr12_w3).
body(r_fr12_60,fr19_y3).
head(r_fr12_61,fr12_p1).
body(r_fr12_61,fr8_a1).
body(r_fr12_61,fr12_e2).
body(r_fr12_61,fr12_r2).
body(r_fr12_61,fr25_u1).
body(r_fr12_61,fr11_s5).
body(r_fr12_61,fr2_x3).
body(r_fr12_61,fr23_r2).
body(r_fr12_61,fr12_w2).
body(r_fr12_61,fr15_u4).
body(r_fr12_61,fr11_t5).
head(r_fr12_62,fr12_p1).
body(r_fr12_62,fr3_a1).
body(r_fr12_62,fr12_b3).
body(r_fr12_62,fr12_d1).
body(r_fr12_62,fr2_a1).
body(r_fr12_62,fr12_r2).
body(r_fr12_62,fr12_r3).
body(r_fr12_62,fr25_u1).
body(r_fr12_62,fr12_w3).
body(r_fr12_62,fr23_r2).
head(r_fr12_63,fr12_p1).
body(r_fr12_63,fr8_a1).
body(r_fr12_63,fr12_b1).
body(r_fr12_63,fr20_e4).
body(r_fr12_63,fr12_c2).
body(r_fr12_63,fr12_d1).
body(r_fr12_63,fr12_r3).
body(r_fr12_63,fr12_s2).
body(r_fr12_63,fr2_x3).
body(r_fr12_63,fr12_w2).
body(r_fr12_63,fr12_w3).
body(r_fr12_63,fr19_y3).
head(r_fr12_64,fr12_p1).
body(r_fr12_64,fr8_a1).
body(r_fr12_64,fr12_b1).
body(r_fr12_64,fr12_b3).
body(r_fr12_64,fr12_c2).
body(r_fr12_64,fr12_p3).
body(r_fr12_64,fr12_s2).
body(r_fr12_64,fr25_u1).
body(r_fr12_64,fr12_w2).
body(r_fr12_64,fr12_w3).
body(r_fr12_64,fr19_y3).
body(r_fr12_64,fr13_w2).
body(r_fr12_64,fr11_t5).
head(r_fr12_65,fr2_x3).
body(r_fr12_65,fr3_a1).
body(r_fr12_65,fr12_b3).
body(r_fr12_65,fr12_c2).
body(r_fr12_65,fr12_c3).
body(r_fr12_65,fr12_e2).
body(r_fr12_65,fr12_f2).
body(r_fr12_65,fr12_p3).
body(r_fr12_65,fr23_r2).
body(r_fr12_65,fr13_w2).
head(r_fr12_66,fr2_x3).
body(r_fr12_66,fr12_b1).
body(r_fr12_66,fr12_b3).
body(r_fr12_66,fr12_c2).
body(r_fr12_66,fr25_u1).
body(r_fr12_66,fr11_s5).
body(r_fr12_66,fr23_r2).
body(r_fr12_66,fr12_w2).
body(r_fr12_66,fr13_w2).
body(r_fr12_66,fr15_u4).
head(r_fr12_67,fr2_x3).
body(r_fr12_67,fr12_p3).
body(r_fr12_67,fr12_r2).
body(r_fr12_67,fr12_r3).
body(r_fr12_67,fr25_u1).
body(r_fr12_67,fr23_r2).
body(r_fr12_67,fr12_w3).
body(r_fr12_67,fr23_r2).
body(r_fr12_67,fr15_u4).
body(r_fr12_67,fr11_t5).
head(r_fr12_68,fr2_x3).
body(r_fr12_68,fr12_p3).
body(r_fr12_68,fr12_r2).
body(r_fr12_68,fr12_r3).
body(r_fr12_68,fr12_s1).
body(r_fr12_68,fr11_s5).
body(r_fr12_68,fr12_w2).
body(r_fr12_68,fr12_w3).
body(r_fr12_68,fr12_x2).
body(r_fr12_68,fr19_y3).
body(r_fr12_68,fr15_u4).
head(r_fr12_69,fr12_r3).
body(r_fr12_69,fr12_c2).
body(r_fr12_69,fr12_c3).
body(r_fr12_69,fr12_p3).
body(r_fr12_69,fr12_r2).
body(r_fr12_69,fr12_s1).
body(r_fr12_69,fr12_s2).
body(r_fr12_69,fr25_u1).
body(r_fr12_69,fr12_w2).
body(r_fr12_69,fr23_r2).
body(r_fr12_69,fr12_x2).
body(r_fr12_69,fr13_w2).
body(r_fr12_69,fr15_u4).
head(r_fr12_70,fr12_r3).
body(r_fr12_70,fr20_e4).
body(r_fr12_70,fr12_p3).
body(r_fr12_70,fr12_s2).
body(r_fr12_70,fr11_s5).
body(r_fr12_70,fr12_w2).
body(r_fr12_70,fr12_w3).
body(r_fr12_70,fr12_x2).
body(r_fr12_70,fr13_w2).
body(r_fr12_70,fr15_u4).
body(r_fr12_70,fr11_t5).

assumption(fr2_a3).
assumption(fr25_f2).
assumption(fr10_b2).
assumption(fr13_d1).
assumption(fr2_f4).
assumption(fr13_f1).
assumption(fr2_f4).
assumption(fr8_a1).
assumption(fr13_c2).
assumption(fr13_d2).
assumption(fr13_e2).
assumption(fr13_f2).
assumption(fr13_a3).
assumption(fr2_e1).
assumption(fr13_c3).
contrary(fr2_a3,fr23_r2).
contrary(fr2_f4,fr10_b2).
contrary(fr13_a3,fr13_p2).
contrary(fr25_f2,fr20_p1).
contrary(fr8_a1,fr2_a3).
contrary(fr2_e1,fr13_v2).
contrary(fr10_b2,fr13_w1).
contrary(fr13_c2,fr13_r1).
contrary(fr13_c3,fr23_r2).
contrary(fr13_d1,fr13_v2).
contrary(fr13_d2,fr13_f2).
contrary(fr2_f4,fr7_y2).
contrary(fr13_e2,fr2_f4).
contrary(fr13_f1,fr13_w2).
contrary(fr13_f2,fr13_u1).
head(r_fr13_0,fr13_p2).
body(r_fr13_0,fr2_x3).
body(r_fr13_0,fr13_u1).
body(r_fr13_0,fr20_v3).
head(r_fr13_1,fr13_p2).
body(r_fr13_1,fr8_a1).
body(r_fr13_1,fr13_r1).
head(r_fr13_2,fr13_p2).
body(r_fr13_2,fr13_f1).
body(r_fr13_2,fr25_q7).
body(r_fr13_2,fr13_v1).
body(r_fr13_2,fr17_w1).
body(r_fr13_2,fr13_z1).
body(r_fr13_2,fr25_q1).
head(r_fr13_3,fr13_p2).
body(r_fr13_3,fr2_a3).
body(r_fr13_3,fr13_a3).
body(r_fr13_3,fr13_f1).
body(r_fr13_3,fr13_q2).
body(r_fr13_3,fr20_p1).
head(r_fr13_4,fr13_p2).
body(r_fr13_4,fr17_w1).
head(r_fr13_5,fr13_p2).
body(r_fr13_5,fr13_u1).
head(r_fr13_6,fr13_p2).
body(r_fr13_6,fr25_f2).
body(r_fr13_6,fr23_r2).
body(r_fr13_6,fr13_q2).
body(r_fr13_6,fr7_y2).
head(r_fr13_7,fr13_p2).
body(r_fr13_7,fr25_f2).
body(r_fr13_7,fr2_f4).
body(r_fr13_7,fr13_e2).
body(r_fr13_7,fr13_f2).
body(r_fr13_7,fr13_r1).
body(r_fr13_7,fr20_p1).
head(r_fr13_8,fr13_p2).
body(r_fr13_8,fr13_a3).
head(r_fr13_9,fr13_p2).
body(r_fr13_9,fr23_r2).
head(r_fr13_10,fr13_p2).
body(r_fr13_10,fr23_r2).
body(r_fr13_10,fr13_u2).
body(r_fr13_10,fr13_v1).
head(r_fr13_11,fr13_p2).
body(r_fr13_11,fr2_e1).
body(r_fr13_11,fr23_q3).
body(r_fr13_11,fr25_q7).
body(r_fr13_11,fr13_v1).
body(r_fr13_11,fr13_w2).
body(r_fr13_11,fr20_p1).
head(r_fr13_12,fr13_p2).
body(r_fr13_12,fr13_d2).
body(r_fr13_12,fr13_f2).
head(r_fr13_13,fr13_p2).
body(r_fr13_13,fr2_a3).
body(r_fr13_13,fr13_a3).
body(r_fr13_13,fr25_f2).
head(r_fr13_14,fr13_p2).
body(r_fr13_14,fr2_a3).
body(r_fr13_14,fr8_a1).
head(r_fr13_15,fr13_p2).
body(r_fr13_15,fr17_w1).
body(r_fr13_15,fr23_r2).
head(r_fr13_16,fr13_p2).
body(r_fr13_16,fr13_a3).
body(r_fr13_16,fr2_e1).
body(r_fr13_16,fr13_d1).
body(r_fr13_16,fr5_x2).
body(r_fr13_16,fr2_x3).
head(r_fr13_17,fr13_p2).
body(r_fr13_17,fr23_r2).
head(r_fr13_18,fr13_p2).
body(r_fr13_18,fr10_b2).
body(r_fr13_18,fr13_c2).
body(r_fr13_18,fr13_e2).
head(r_fr13_19,fr13_p2).
body(r_fr13_19,fr13_c2).
body(r_fr13_19,fr13_d1).
body(r_fr13_19,fr13_f1).
body(r_fr13_19,fr13_f2).
body(r_fr13_19,fr20_p1).
head(r_fr13_20,fr13_p2).
head(r_fr13_21,fr13_p2).
body(r_fr13_21,fr20_p1).
head(r_fr13_22,fr13_p2).
body(r_fr13_22,fr23_r2).
body(r_fr13_22,fr13_r1).
body(r_fr13_22,fr25_q7).
body(r_fr13_22,fr13_v1).
head(r_fr13_23,fr13_q2).
body(r_fr13_23,fr5_x2).
body(r_fr13_23,fr25_q1).
head(r_fr13_24,fr13_q2).
body(r_fr13_24,fr2_e1).
body(r_fr13_24,fr13_v2).
body(r_fr13_24,fr13_w2).
head(r_fr13_25,fr13_q2).
body(r_fr13_25,fr8_a1).
body(r_fr13_25,fr13_c3).
head(r_fr13_26,fr13_q2).
body(r_fr13_26,fr13_c2).
head(r_fr13_27,fr13_q2).
body(r_fr13_27,fr13_a3).
body(r_fr13_27,fr13_c2).
head(r_fr13_28,fr13_q2).
body(r_fr13_28,fr8_a1).
body(r_fr13_28,fr10_b2).
body(r_fr13_28,fr13_c2).
body(r_fr13_28,fr13_d1).
head(r_fr13_29,fr13_q2).
body(r_fr13_29,fr17_w1).
body(r_fr13_29,fr20_p1).
head(r_fr13_30,fr13_q2).
body(r_fr13_30,fr23_r2).
body(r_fr13_30,fr2_x3).
body(r_fr13_30,fr13_u1).
body(r_fr13_30,fr20_p1).
head(r_fr13_31,fr13_q2).
body(r_fr13_31,fr13_f1).
body(r_fr13_31,fr17_w1).
body(r_fr13_31,fr23_r2).
body(r_fr13_31,fr13_w1).
head(r_fr13_32,fr13_q2).
body(r_fr13_32,fr2_a3).
body(r_fr13_32,fr25_f2).
body(r_fr13_32,fr2_e1).
head(r_fr13_33,fr13_q2).
body(r_fr13_33,fr8_p2).
body(r_fr13_33,fr13_r1).
body(r_fr13_33,fr2_x3).
body(r_fr13_33,fr13_v2).
body(r_fr13_33,fr13_w1).
body(r_fr13_33,fr17_w1).
head(r_fr13_34,fr13_q2).
body(r_fr13_34,fr13_e2).
body(r_fr13_34,fr8_p2).
body(r_fr13_34,fr25_q7).
body(r_fr13_34,fr5_x2).
body(r_fr13_34,fr13_v1).
head(r_fr13_35,fr13_q2).
body(r_fr13_35,fr23_q3).
body(r_fr13_35,fr13_v1).
body(r_fr13_35,fr20_p1).
head(r_fr13_36,fr13_q2).
body(r_fr13_36,fr13_c3).
body(r_fr13_36,fr13_f2).
body(r_fr13_36,fr13_w2).
body(r_fr13_36,fr20_p1).
head(r_fr13_37,fr13_q2).
body(r_fr13_37,fr23_r2).
body(r_fr13_37,fr17_w1).
body(r_fr13_37,fr13_r1).
body(r_fr13_37,fr20_p1).
body(r_fr13_37,fr13_w2).
body(r_fr13_37,fr20_p1).
head(r_fr13_38,fr13_q2).
body(r_fr13_38,fr2_e1).
body(r_fr13_38,fr13_c2).
body(r_fr13_38,fr13_f1).
body(r_fr13_38,fr13_f2).
head(r_fr13_39,fr13_q2).
body(r_fr13_39,fr13_v2).
head(r_fr13_40,fr13_q2).
head(r_fr13_41,fr13_q2).
body(r_fr13_41,fr13_w2).
body(r_fr13_41,fr13_z1).
head(r_fr13_42,fr13_q2).
body(r_fr13_42,fr20_p1).
head(r_fr13_43,fr13_q2).
body(r_fr13_43,fr13_c2).
body(r_fr13_43,fr13_e2).
body(r_fr13_43,fr20_p1).
body(r_fr13_43,fr5_x2).
body(r_fr13_43,fr25_q1).
head(r_fr13_44,fr13_q2).
body(r_fr13_44,fr13_a3).
body(r_fr13_44,fr13_e2).
head(r_fr13_45,fr13_q2).
body(r_fr13_45,fr2_f4).
body(r_fr13_45,fr25_f2).
body(r_fr13_45,fr10_b2).
body(r_fr13_45,fr7_y2).
body(r_fr13_45,fr13_w2).
body(r_fr13_45,fr20_p1).
head(r_fr13_46,fr13_w1).
body(r_fr13_46,fr2_e1).
body(r_fr13_46,fr13_c3).
body(r_fr13_46,fr23_r2).
body(r_fr13_46,fr25_q7).
head(r_fr13_47,fr13_w1).
body(r_fr13_47,fr17_w1).
body(r_fr13_47,fr13_v1).
body(r_fr13_47,fr13_v2).
head(r_fr13_48,fr13_w1).
body(r_fr13_48,fr25_f2).
body(r_fr13_48,fr23_r2).
head(r_fr13_49,fr13_w1).
body(r_fr13_49,fr13_d1).
body(r_fr13_49,fr13_e2).
body(r_fr13_49,fr13_f2).
body(r_fr13_49,fr23_r2).
body(r_fr13_49,fr13_v2).
body(r_fr13_49,fr25_q1).
head(r_fr13_50,fr13_w1).
body(r_fr13_50,fr13_a3).
head(r_fr13_51,fr13_w1).
body(r_fr13_51,fr8_a1).
body(r_fr13_51,fr2_e1).
body(r_fr13_51,fr13_u2).
body(r_fr13_51,fr13_w2).
head(r_fr13_52,fr13_w1).
body(r_fr13_52,fr25_f2).
body(r_fr13_52,fr13_d2).
body(r_fr13_52,fr20_p1).
body(r_fr13_52,fr17_w1).
body(r_fr13_52,fr13_z1).
head(r_fr13_53,fr13_w1).
body(r_fr13_53,fr23_r2).
body(r_fr13_53,fr2_x3).
body(r_fr13_53,fr20_p1).
head(r_fr13_54,fr13_w1).
head(r_fr13_55,fr13_w1).
body(r_fr13_55,fr2_a3).
body(r_fr13_55,fr13_c2).
body(r_fr13_55,fr13_d1).
body(r_fr13_55,fr13_d2).
body(r_fr13_55,fr13_f2).
head(r_fr13_56,fr13_w1).
body(r_fr13_56,fr13_a3).
body(r_fr13_56,fr13_d1).
body(r_fr13_56,fr7_y2).
head(r_fr13_57,fr13_w1).
body(r_fr13_57,fr23_q3).
body(r_fr13_57,fr13_r1).
body(r_fr13_57,fr13_w2).
head(r_fr13_58,fr13_w1).
body(r_fr13_58,fr2_f4).
body(r_fr13_58,fr10_b2).
body(r_fr13_58,fr5_x2).
body(r_fr13_58,fr2_x3).
head(r_fr13_59,fr13_w1).
body(r_fr13_59,fr13_c2).
head(r_fr13_60,fr13_w1).
body(r_fr13_60,fr13_a3).
body(r_fr13_60,fr10_b2).
body(r_fr13_60,fr13_c3).
body(r_fr13_60,fr13_r1).
head(r_fr13_61,fr13_w1).
body(r_fr13_61,fr13_c3).
body(r_fr13_61,fr13_d2).
body(r_fr13_61,fr13_e2).
body(r_fr13_61,fr17_w1).
head(r_fr13_62,fr13_w1).
body(r_fr13_62,fr25_f2).
body(r_fr13_62,fr10_b2).
body(r_fr13_62,fr13_z1).
head(r_fr13_63,fr13_w1).
body(r_fr13_63,fr2_f4).
head(r_fr13_64,fr13_w1).
body(r_fr13_64,fr2_e1).
body(r_fr13_64,fr13_c2).
body(r_fr13_64,fr13_d1).
body(r_fr13_64,fr23_r2).
body(r_fr13_64,fr17_w1).
head(r_fr13_65,fr13_w1).
body(r_fr13_65,fr23_r2).
body(r_fr13_65,fr17_w1).
body(r_fr13_65,fr23_r2).
body(r_fr13_65,fr13_v2).
head(r_fr13_66,fr13_w1).
body(r_fr13_66,fr8_a1).
body(r_fr13_66,fr13_c3).
body(r_fr13_66,fr13_d1).
body(r_fr13_66,fr25_q7).
body(r_fr13_66,fr13_u2).
body(r_fr13_66,fr20_p1).
head(r_fr13_67,fr13_w1).
body(r_fr13_67,fr2_f4).
body(r_fr13_67,fr13_d1).
head(r_fr13_68,fr13_w1).
body(r_fr13_68,fr13_d1).
body(r_fr13_68,fr13_f2).
body(r_fr13_68,fr25_q7).
body(r_fr13_68,fr13_v2).
body(r_fr13_68,fr20_v3).
head(r_fr13_69,fr13_u2).
body(r_fr13_69,fr2_f4).
body(r_fr13_69,fr13_a3).
body(r_fr13_69,fr13_c3).
body(r_fr13_69,fr13_d1).
body(r_fr13_69,fr2_f4).
body(r_fr13_69,fr5_x2).
head(r_fr13_70,fr13_u2).
body(r_fr13_70,fr2_e1).
head(r_fr13_71,fr13_u2).
body(r_fr13_71,fr20_p1).
body(r_fr13_71,fr20_p1).
head(r_fr13_72,fr13_u2).
body(r_fr13_72,fr8_a1).
body(r_fr13_72,fr2_e1).
body(r_fr13_72,fr13_c3).
body(r_fr13_72,fr13_u1).
body(r_fr13_72,fr20_p1).
head(r_fr13_73,fr13_u2).
body(r_fr13_73,fr20_p1).
body(r_fr13_73,fr13_w2).
body(r_fr13_73,fr20_p1).
head(r_fr13_74,fr13_u2).
body(r_fr13_74,fr2_a3).
body(r_fr13_74,fr2_f4).
body(r_fr13_74,fr7_y2).
body(r_fr13_74,fr25_q7).
body(r_fr13_74,fr13_w2).
body(r_fr13_74,fr20_v3).
head(r_fr13_75,fr13_u2).
body(r_fr13_75,fr13_f1).
body(r_fr13_75,fr17_w1).
body(r_fr13_75,fr7_y2).
body(r_fr13_75,fr25_q7).
body(r_fr13_75,fr20_p1).
body(r_fr13_75,fr20_p1).
head(r_fr13_76,fr13_u2).
body(r_fr13_76,fr13_a3).
body(r_fr13_76,fr25_f2).
body(r_fr13_76,fr13_e2).
head(r_fr13_77,fr13_u2).
body(r_fr13_77,fr2_f4).
body(r_fr13_77,fr13_a3).
body(r_fr13_77,fr8_a1).
body(r_fr13_77,fr13_c2).
body(r_fr13_77,fr13_v2).
head(r_fr13_78,fr13_u2).
body(r_fr13_78,fr2_a3).
body(r_fr13_78,fr2_f4).
body(r_fr13_78,fr20_p1).
body(r_fr13_78,fr13_u1).
body(r_fr13_78,fr13_v1).
head(r_fr13_79,fr13_u2).
body(r_fr13_79,fr13_d2).
body(r_fr13_79,fr8_p2).
body(r_fr13_79,fr17_w1).
body(r_fr13_79,fr13_r1).
body(r_fr13_79,fr13_v1).
head(r_fr13_80,fr13_u2).
head(r_fr13_81,fr13_u2).
body(r_fr13_81,fr13_f1).
body(r_fr13_81,fr20_p1).
body(r_fr13_81,fr7_y2).
body(r_fr13_81,fr20_p1).
head(r_fr13_82,fr13_u2).
body(r_fr13_82,fr10_b2).
body(r_fr13_82,fr2_f4).
body(r_fr13_82,fr13_f2).
body(r_fr13_82,fr25_q7).
body(r_fr13_82,fr13_u1).
body(r_fr13_82,fr20_p1).
head(r_fr13_83,fr13_u2).
body(r_fr13_83,fr13_d2).
body(r_fr13_83,fr5_x2).
body(r_fr13_83,fr2_x3).
body(r_fr13_83,fr13_w2).
body(r_fr13_83,fr17_w1).
body(r_fr13_83,fr20_p1).
head(r_fr13_84,fr13_u2).
body(r_fr13_84,fr2_a3).
body(r_fr13_84,fr10_b2).
head(r_fr13_85,fr13_u2).
body(r_fr13_85,fr13_a3).
body(r_fr13_85,fr13_d1).
head(r_fr13_86,fr13_u2).
body(r_fr13_86,fr23_q3).
body(r_fr13_86,fr5_x2).
body(r_fr13_86,fr20_p1).
head(r_fr13_87,fr13_u2).
body(r_fr13_87,fr2_f4).
body(r_fr13_87,fr13_d2).
body(r_fr13_87,fr13_e2).
body(r_fr13_87,fr13_f1).
body(r_fr13_87,fr13_f2).
head(r_fr13_88,fr13_u2).
body(r_fr13_88,fr10_b2).
body(r_fr13_88,fr13_c2).
body(r_fr13_88,fr8_p2).
body(r_fr13_88,fr23_r2).
head(r_fr13_89,fr13_u2).
body(r_fr13_89,fr13_a3).
body(r_fr13_89,fr13_c2).
body(r_fr13_89,fr25_q7).
head(r_fr13_90,fr13_u2).
body(r_fr13_90,fr2_e1).
body(r_fr13_90,fr13_r1).
body(r_fr13_90,fr5_x2).
body(r_fr13_90,fr20_v3).
head(r_fr13_91,fr13_u2).
body(r_fr13_91,fr23_r2).
body(r_fr13_91,fr8_p2).
body(r_fr13_91,fr20_p1).
body(r_fr13_91,fr20_p1).
body(r_fr13_91,fr20_v3).
body(r_fr13_91,fr13_z1).
head(r_fr13_92,fr20_p1).
body(r_fr13_92,fr13_f2).
body(r_fr13_92,fr5_x2).
head(r_fr13_93,fr20_p1).
body(r_fr13_93,fr25_f2).
body(r_fr13_93,fr13_c2).
body(r_fr13_93,fr13_d1).
body(r_fr13_93,fr8_p2).
body(r_fr13_93,fr2_x3).
head(r_fr13_94,fr20_p1).
body(r_fr13_94,fr20_p1).
head(r_fr13_95,fr20_p1).
body(r_fr13_95,fr13_c2).
head(r_fr13_96,fr20_p1).
body(r_fr13_96,fr23_r2).
body(r_fr13_96,fr13_v1).
head(r_fr13_97,fr20_p1).
body(r_fr13_97,fr2_f4).
body(r_fr13_97,fr13_c3).
body(r_fr13_97,fr13_d2).
body(r_fr13_97,fr8_p2).
body(r_fr13_97,fr23_r2).
body(r_fr13_97,fr20_p1).
head(r_fr13_98,fr20_p1).
body(r_fr13_98,fr13_e2).
head(r_fr13_99,fr20_p1).
body(r_fr13_99,fr2_a3).
body(r_fr13_99,fr2_f4).
body(r_fr13_99,fr10_b2).
body(r_fr13_99,fr13_f1).
head(r_fr13_100,fr20_p1).
body(r_fr13_100,fr13_d2).
body(r_fr13_100,fr13_e2).
head(r_fr13_101,fr20_p1).
body(r_fr13_101,fr10_b2).
body(r_fr13_101,fr23_r2).
head(r_fr13_102,fr20_p1).
body(r_fr13_102,fr25_q1).
head(r_fr13_103,fr20_p1).
body(r_fr13_103,fr2_a3).
body(r_fr13_103,fr25_f2).
head(r_fr13_104,fr20_p1).
body(r_fr13_104,fr13_a3).
body(r_fr13_104,fr13_z1).
head(r_fr13_105,fr20_p1).
body(r_fr13_105,fr13_a3).
body(r_fr13_105,fr13_f2).
body(r_fr13_105,fr2_x3).
body(r_fr13_105,fr13_w2).
body(r_fr13_105,fr17_w1).
body(r_fr13_105,fr20_p1).
head(r_fr13_106,fr20_p1).
head(r_fr13_107,fr20_p1).
body(r_fr13_107,fr25_f2).
body(r_fr13_107,fr13_c3).
body(r_fr13_107,fr13_u1).
body(r_fr13_107,fr13_z1).
head(r_fr13_108,fr20_p1).
body(r_fr13_108,fr8_a1).
body(r_fr13_108,fr13_u1).
head(r_fr13_109,fr20_p1).
body(r_fr13_109,fr2_a3).
body(r_fr13_109,fr2_f4).
body(r_fr13_109,fr10_b2).
body(r_fr13_109,fr13_c2).
body(r_fr13_109,fr13_c3).
body(r_fr13_109,fr13_u1).
head(r_fr13_110,fr20_p1).
body(r_fr13_110,fr7_y2).
body(r_fr13_110,fr23_r2).
head(r_fr13_111,fr20_p1).
body(r_fr13_111,fr13_e2).
body(r_fr13_111,fr13_w2).
body(r_fr13_111,fr17_w1).
body(r_fr13_111,fr20_p1).
body(r_fr13_111,fr20_p1).
head(r_fr13_112,fr20_p1).
body(r_fr13_112,fr2_f4).
body(r_fr13_112,fr8_a1).
body(r_fr13_112,fr7_y2).
body(r_fr13_112,fr25_q7).
body(r_fr13_112,fr2_x3).
body(r_fr13_112,fr13_z1).
head(r_fr13_113,fr20_p1).
body(r_fr13_113,fr2_a3).
body(r_fr13_113,fr13_c3).
body(r_fr13_113,fr13_z1).
head(r_fr13_114,fr20_p1).
body(r_fr13_114,fr2_f4).
body(r_fr13_114,fr13_f1).
body(r_fr13_114,fr17_w1).
body(r_fr13_114,fr13_r1).
body(r_fr13_114,fr13_w2).
body(r_fr13_114,fr20_p1).
head(r_fr13_115,fr20_p1).
body(r_fr13_115,fr13_d1).
body(r_fr13_115,fr8_p2).
body(r_fr13_115,fr2_x3).
body(r_fr13_115,fr13_v2).
head(r_fr13_116,fr13_v1).
body(r_fr13_116,fr13_r1).
body(r_fr13_116,fr23_r2).
body(r_fr13_116,fr2_x3).
body(r_fr13_116,fr17_w1).
body(r_fr13_116,fr20_v3).
body(r_fr13_116,fr25_q1).
head(r_fr13_117,fr13_v1).
body(r_fr13_117,fr2_e1).
head(r_fr13_118,fr13_v1).
body(r_fr13_118,fr13_d1).
body(r_fr13_118,fr13_f1).
body(r_fr13_118,fr20_p1).
head(r_fr13_119,fr13_v1).
body(r_fr13_119,fr25_q7).
head(r_fr13_120,fr13_v1).
body(r_fr13_120,fr2_a3).
body(r_fr13_120,fr25_f2).
body(r_fr13_120,fr23_r2).
body(r_fr13_120,fr13_w2).
body(r_fr13_120,fr20_p1).
head(r_fr13_121,fr13_v1).
body(r_fr13_121,fr2_a3).
body(r_fr13_121,fr2_f4).
body(r_fr13_121,fr13_a3).
body(r_fr13_121,fr8_a1).
body(r_fr13_121,fr13_d2).
body(r_fr13_121,fr13_f1).
head(r_fr13_122,fr13_v1).
body(r_fr13_122,fr17_w1).
head(r_fr13_123,fr13_v1).
body(r_fr13_123,fr13_z1).
head(r_fr13_124,fr13_v1).
body(r_fr13_124,fr2_a3).
body(r_fr13_124,fr10_b2).
body(r_fr13_124,fr2_f4).
body(r_fr13_124,fr2_x3).
body(r_fr13_124,fr13_w2).
head(r_fr13_125,fr13_v1).
body(r_fr13_125,fr13_c3).
body(r_fr13_125,fr13_d1).
body(r_fr13_125,fr17_w1).
body(r_fr13_125,fr23_r2).
head(r_fr13_126,fr13_v1).
body(r_fr13_126,fr13_f1).
body(r_fr13_126,fr23_r2).
body(r_fr13_126,fr17_w1).
body(r_fr13_126,fr25_q7).
body(r_fr13_126,fr13_v2).
head(r_fr13_127,fr13_v1).
body(r_fr13_127,fr8_p2).
body(r_fr13_127,fr20_v3).
head(r_fr13_128,fr13_v1).
body(r_fr13_128,fr23_q3).
body(r_fr13_128,fr17_w1).
body(r_fr13_128,fr13_v2).
head(r_fr13_129,fr13_v1).
body(r_fr13_129,fr2_a3).
body(r_fr13_129,fr2_f4).
body(r_fr13_129,fr25_f2).
body(r_fr13_129,fr8_a1).
head(r_fr13_130,fr13_v1).
body(r_fr13_130,fr13_d2).
body(r_fr13_130,fr20_v3).
head(r_fr13_131,fr13_v1).
body(r_fr13_131,fr8_a1).
body(r_fr13_131,fr10_b2).
head(r_fr13_132,fr13_v1).
body(r_fr13_132,fr2_a3).
body(r_fr13_132,fr13_a3).
body(r_fr13_132,fr2_e1).
body(r_fr13_132,fr13_c2).
body(r_fr13_132,fr13_c3).
body(r_fr13_132,fr8_p2).
head(r_fr13_133,fr13_v1).
body(r_fr13_133,fr8_p2).
body(r_fr13_133,fr23_q3).
body(r_fr13_133,fr7_y2).
head(r_fr13_134,fr13_v1).
body(r_fr13_134,fr20_p1).
body(r_fr13_134,fr20_v3).
head(r_fr13_135,fr13_v1).
body(r_fr13_135,fr13_f2).
body(r_fr13_135,fr7_y2).
body(r_fr13_135,fr25_q7).
body(r_fr13_135,fr20_p1).
body(r_fr13_135,fr20_v3).
body(r_fr13_135,fr13_z1).
head(r_fr13_136,fr13_v1).
body(r_fr13_136,fr23_r2).
body(r_fr13_136,fr25_q7).
body(r_fr13_136,fr5_x2).
head(r_fr13_137,fr13_v1).
body(r_fr13_137,fr8_a1).
body(r_fr13_137,fr13_f1).
head(r_fr13_138,fr13_v1).
body(r_fr13_138,fr25_f2).
body(r_fr13_138,fr13_d2).
head(r_fr13_139,fr13_v1).
body(r_fr13_139,fr2_a3).
body(r_fr13_139,fr13_a3).
body(r_fr13_139,fr10_b2).
body(r_fr13_139,fr13_d1).
body(r_fr13_139,fr13_d2).
body(r_fr13_139,fr20_v3).
head(r_fr13_140,fr13_v1).
body(r_fr13_140,fr13_a3).
body(r_fr13_140,fr13_c2).
body(r_fr13_140,fr13_c3).
body(r_fr13_140,fr13_d2).
head(r_fr13_141,fr13_v1).
head(r_fr13_142,fr17_w1).
body(r_fr13_142,fr13_c3).
body(r_fr13_142,fr13_d1).
body(r_fr13_142,fr13_d2).
body(r_fr13_142,fr13_f1).
body(r_fr13_142,fr13_v2).
head(r_fr13_143,fr17_w1).
body(r_fr13_143,fr13_a3).
head(r_fr13_144,fr17_w1).
body(r_fr13_144,fr8_a1).
body(r_fr13_144,fr10_b2).
body(r_fr13_144,fr13_f1).
body(r_fr13_144,fr23_r2).
body(r_fr13_144,fr5_x2).
body(r_fr13_144,fr20_v3).
head(r_fr13_145,fr17_w1).
body(r_fr13_145,fr20_p1).
head(r_fr13_146,fr17_w1).
body(r_fr13_146,fr2_a3).
body(r_fr13_146,fr8_a1).
body(r_fr13_146,fr13_c3).
body(r_fr13_146,fr2_f4).
body(r_fr13_146,fr13_f1).
head(r_fr13_147,fr17_w1).
body(r_fr13_147,fr8_a1).
body(r_fr13_147,fr23_q3).
body(r_fr13_147,fr13_r1).
body(r_fr13_147,fr25_q7).
head(r_fr13_148,fr17_w1).
body(r_fr13_148,fr8_a1).
body(r_fr13_148,fr2_e1).
body(r_fr13_148,fr13_d2).
body(r_fr13_148,fr13_e2).
body(r_fr13_148,fr13_f1).
body(r_fr13_148,fr20_v3).
head(r_fr13_149,fr17_w1).
body(r_fr13_149,fr13_d1).
body(r_fr13_149,fr8_p2).
body(r_fr13_149,fr2_x3).
body(r_fr13_149,fr20_v3).
head(r_fr13_150,fr17_w1).
body(r_fr13_150,fr13_f2).
body(r_fr13_150,fr13_r1).
body(r_fr13_150,fr13_w2).
head(r_fr13_151,fr17_w1).
body(r_fr13_151,fr13_u1).
body(r_fr13_151,fr20_p1).
head(r_fr13_152,fr17_w1).
body(r_fr13_152,fr13_a3).
body(r_fr13_152,fr8_a1).
body(r_fr13_152,fr13_d2).
head(r_fr13_153,fr17_w1).
body(r_fr13_153,fr2_e1).
body(r_fr13_153,fr13_d1).
body(r_fr13_153,fr13_e2).
body(r_fr13_153,fr7_y2).
body(r_fr13_153,fr2_x3).
head(r_fr13_154,fr17_w1).
body(r_fr13_154,fr13_a3).
body(r_fr13_154,fr2_e1).
body(r_fr13_154,fr13_d2).
body(r_fr13_154,fr2_f4).
head(r_fr13_155,fr17_w1).
body(r_fr13_155,fr8_a1).
body(r_fr13_155,fr13_d1).
body(r_fr13_155,fr7_y2).
body(r_fr13_155,fr13_v2).
body(r_fr13_155,fr17_w1).
head(r_fr13_156,fr17_w1).
body(r_fr13_156,fr23_r2).
head(r_fr13_157,fr17_w1).
body(r_fr13_157,fr23_r2).
body(r_fr13_157,fr13_w2).
head(r_fr13_158,fr17_w1).
body(r_fr13_158,fr8_a1).
body(r_fr13_158,fr2_e1).
body(r_fr13_158,fr10_b2).
body(r_fr13_158,fr13_c3).
body(r_fr13_158,fr2_f4).
body(r_fr13_158,fr20_v3).
head(r_fr13_159,fr17_w1).
body(r_fr13_159,fr2_e1).
body(r_fr13_159,fr13_d1).
body(r_fr13_159,fr13_d2).
body(r_fr13_159,fr13_e2).
body(r_fr13_159,fr5_x2).
body(r_fr13_159,fr2_x3).
head(r_fr13_160,fr17_w1).
head(r_fr13_161,fr17_w1).
body(r_fr13_161,fr13_a3).
body(r_fr13_161,fr2_e1).
body(r_fr13_161,fr10_b2).
body(r_fr13_161,fr5_x2).
body(r_fr13_161,fr13_u1).
body(r_fr13_161,fr20_p1).
head(r_fr13_162,fr17_w1).
body(r_fr13_162,fr13_r1).
body(r_fr13_162,fr2_x3).
body(r_fr13_162,fr13_z1).
head(r_fr13_163,fr17_w1).
body(r_fr13_163,fr13_f1).
head(r_fr13_164,fr17_w1).
body(r_fr13_164,fr8_p2).
body(r_fr13_164,fr5_x2).
body(r_fr13_164,fr13_w2).
body(r_fr13_164,fr20_p1).
body(r_fr13_164,fr25_q1).
head(r_fr13_165,fr17_w1).
body(r_fr13_165,fr13_a3).
body(r_fr13_165,fr2_e1).
body(r_fr13_165,fr10_b2).
body(r_fr13_165,fr13_c2).
body(r_fr13_165,fr2_f4).
body(r_fr13_165,fr25_q7).
head(r_fr13_166,fr17_w1).
body(r_fr13_166,fr17_w1).
head(r_fr13_167,fr5_x2).
body(r_fr13_167,fr13_c3).
body(r_fr13_167,fr8_p2).
body(r_fr13_167,fr13_v2).
head(r_fr13_168,fr5_x2).
body(r_fr13_168,fr2_e1).
body(r_fr13_168,fr13_d1).
body(r_fr13_168,fr13_d2).
head(r_fr13_169,fr5_x2).
body(r_fr13_169,fr10_b2).
body(r_fr13_169,fr23_q3).
body(r_fr13_169,fr7_y2).
body(r_fr13_169,fr13_v2).
body(r_fr13_169,fr13_w2).
body(r_fr13_169,fr20_v3).
head(r_fr13_170,fr5_x2).
body(r_fr13_170,fr23_q3).
body(r_fr13_170,fr7_y2).
body(r_fr13_170,fr2_x3).
body(r_fr13_170,fr20_p1).
head(r_fr13_171,fr5_x2).
body(r_fr13_171,fr13_c2).
body(r_fr13_171,fr13_d2).
body(r_fr13_171,fr8_p2).
body(r_fr13_171,fr7_y2).
body(r_fr13_171,fr25_q7).
head(r_fr13_172,fr5_x2).
body(r_fr13_172,fr13_d2).
body(r_fr13_172,fr13_f2).
body(r_fr13_172,fr8_p2).
body(r_fr13_172,fr7_y2).
body(r_fr13_172,fr13_z1).
head(r_fr13_173,fr5_x2).
body(r_fr13_173,fr2_f4).
body(r_fr13_173,fr25_f2).
body(r_fr13_173,fr8_a1).
head(r_fr13_174,fr5_x2).
body(r_fr13_174,fr2_e1).
body(r_fr13_174,fr13_d1).
body(r_fr13_174,fr13_f1).
body(r_fr13_174,fr23_r2).
body(r_fr13_174,fr7_y2).
body(r_fr13_174,fr13_u1).
head(r_fr13_175,fr5_x2).
body(r_fr13_175,fr2_a3).
body(r_fr13_175,fr13_a3).
body(r_fr13_175,fr13_e2).
body(r_fr13_175,fr2_x3).
head(r_fr13_176,fr5_x2).
body(r_fr13_176,fr25_f2).
body(r_fr13_176,fr13_d1).
body(r_fr13_176,fr13_d2).
body(r_fr13_176,fr13_f2).
head(r_fr13_177,fr5_x2).
body(r_fr13_177,fr2_e1).
body(r_fr13_177,fr10_b2).
body(r_fr13_177,fr13_c2).
body(r_fr13_177,fr13_c3).
body(r_fr13_177,fr13_f1).
body(r_fr13_177,fr13_f2).
head(r_fr13_178,fr5_x2).
body(r_fr13_178,fr8_a1).
body(r_fr13_178,fr13_c3).
body(r_fr13_178,fr23_q3).
body(r_fr13_178,fr25_q7).
body(r_fr13_178,fr13_w2).
head(r_fr13_179,fr5_x2).
body(r_fr13_179,fr2_f4).
body(r_fr13_179,fr23_r2).
head(r_fr13_180,fr5_x2).
body(r_fr13_180,fr8_a1).
body(r_fr13_180,fr13_r1).
body(r_fr13_180,fr7_y2).
body(r_fr13_180,fr13_w2).
head(r_fr13_181,fr5_x2).
body(r_fr13_181,fr25_f2).
body(r_fr13_181,fr10_b2).
body(r_fr13_181,fr13_c2).
body(r_fr13_181,fr23_q3).
body(r_fr13_181,fr23_r2).
body(r_fr13_181,fr2_x3).
head(r_fr13_182,fr5_x2).
body(r_fr13_182,fr2_f4).
body(r_fr13_182,fr8_p2).
body(r_fr13_182,fr25_q1).
head(r_fr13_183,fr5_x2).
body(r_fr13_183,fr2_f4).
body(r_fr13_183,fr10_b2).
body(r_fr13_183,fr13_d2).
body(r_fr13_183,fr2_f4).
body(r_fr13_183,fr23_r2).
body(r_fr13_183,fr20_p1).
head(r_fr13_184,fr5_x2).
body(r_fr13_184,fr2_f4).
body(r_fr13_184,fr13_f1).
body(r_fr13_184,fr13_z1).
head(r_fr13_185,fr5_x2).
body(r_fr13_185,fr13_d1).
head(r_fr13_186,fr5_x2).
body(r_fr13_186,fr13_r1).
head(r_fr13_187,fr5_x2).
body(r_fr13_187,fr2_e1).
body(r_fr13_187,fr10_b2).
body(r_fr13_187,fr20_p1).
head(r_fr13_188,fr5_x2).
head(r_fr13_189,fr5_x2).
body(r_fr13_189,fr2_a3).
body(r_fr13_189,fr25_q7).
body(r_fr13_189,fr13_v2).
head(r_fr13_190,fr17_w1).
body(r_fr13_190,fr13_r1).
body(r_fr13_190,fr23_r2).
body(r_fr13_190,fr20_p1).
body(r_fr13_190,fr25_q1).
head(r_fr13_191,fr17_w1).
body(r_fr13_191,fr2_f4).
body(r_fr13_191,fr13_f1).
body(r_fr13_191,fr23_q3).
body(r_fr13_191,fr23_r2).
head(r_fr13_192,fr17_w1).
body(r_fr13_192,fr2_f4).
body(r_fr13_192,fr8_a1).
body(r_fr13_192,fr2_e1).
body(r_fr13_192,fr13_c3).
body(r_fr13_192,fr13_d1).
body(r_fr13_192,fr2_f4).
head(r_fr13_193,fr17_w1).
body(r_fr13_193,fr13_a3).
body(r_fr13_193,fr13_d2).
body(r_fr13_193,fr13_f1).
body(r_fr13_193,fr20_p1).
head(r_fr13_194,fr17_w1).
body(r_fr13_194,fr13_r1).
body(r_fr13_194,fr2_x3).
body(r_fr13_194,fr13_u1).
body(r_fr13_194,fr20_p1).
body(r_fr13_194,fr13_z1).
head(r_fr13_195,fr17_w1).
body(r_fr13_195,fr2_a3).
body(r_fr13_195,fr13_c3).
body(r_fr13_195,fr13_d1).
body(r_fr13_195,fr13_e2).
head(r_fr13_196,fr17_w1).
body(r_fr13_196,fr13_c2).
body(r_fr13_196,fr13_z1).
head(r_fr13_197,fr17_w1).
body(r_fr13_197,fr7_y2).
body(r_fr13_197,fr25_q7).
head(r_fr13_198,fr17_w1).
body(r_fr13_198,fr13_e2).
body(r_fr13_198,fr13_v2).
head(r_fr13_199,fr17_w1).
body(r_fr13_199,fr7_y2).
body(r_fr13_199,fr13_w2).
head(r_fr13_200,fr17_w1).
body(r_fr13_200,fr8_a1).
body(r_fr13_200,fr23_r2).
body(r_fr13_200,fr8_p2).
body(r_fr13_200,fr13_v2).
body(r_fr13_200,fr20_p1).
head(r_fr13_201,fr17_w1).
body(r_fr13_201,fr2_f4).
body(r_fr13_201,fr13_c2).
head(r_fr13_202,fr17_w1).
body(r_fr13_202,fr2_f4).
body(r_fr13_202,fr13_c3).
body(r_fr13_202,fr13_d2).
body(r_fr13_202,fr13_e2).
body(r_fr13_202,fr7_y2).
body(r_fr13_202,fr20_p1).
head(r_fr13_203,fr17_w1).
body(r_fr13_203,fr25_q1).
head(r_fr13_204,fr17_w1).
body(r_fr13_204,fr25_f2).
body(r_fr13_204,fr13_e2).
body(r_fr13_204,fr13_f1).
body(r_fr13_204,fr13_f2).
head(r_fr13_205,fr17_w1).
body(r_fr13_205,fr13_v2).
head(r_fr13_206,fr17_w1).
body(r_fr13_206,fr8_a1).
body(r_fr13_206,fr13_d1).
body(r_fr13_206,fr13_e2).
head(r_fr13_207,fr17_w1).
body(r_fr13_207,fr10_b2).
head(r_fr13_208,fr17_w1).
body(r_fr13_208,fr13_a3).
body(r_fr13_208,fr25_f2).
body(r_fr13_208,fr2_e1).
body(r_fr13_208,fr10_b2).
body(r_fr13_208,fr13_d1).
body(r_fr13_208,fr13_e2).
head(r_fr13_209,fr17_w1).
body(r_fr13_209,fr13_z1).
head(r_fr13_210,fr17_w1).
body(r_fr13_210,fr2_f4).
body(r_fr13_210,fr13_e2).
body(r_fr13_210,fr13_f2).
head(r_fr13_211,fr17_w1).
body(r_fr13_211,fr8_p2).
body(r_fr13_211,fr23_q3).
body(r_fr13_211,fr2_x3).
body(r_fr13_211,fr13_u1).
body(r_fr13_211,fr13_z1).
head(r_fr13_212,fr17_w1).
body(r_fr13_212,fr2_a3).
body(r_fr13_212,fr2_f4).
body(r_fr13_212,fr23_r2).
body(r_fr13_212,fr23_r2).
head(r_fr13_213,fr17_w1).
body(r_fr13_213,fr10_b2).
body(r_fr13_213,fr13_d2).
body(r_fr13_213,fr2_f4).
head(r_fr13_214,fr17_w1).
body(r_fr13_214,fr13_r1).
head(r_fr13_215,fr17_w1).
body(r_fr13_215,fr2_a3).
body(r_fr13_215,fr2_f4).
body(r_fr13_215,fr8_p2).
head(r_fr13_216,fr2_x3).
body(r_fr13_216,fr13_u1).
head(r_fr13_217,fr2_x3).
body(r_fr13_217,fr2_e1).
head(r_fr13_218,fr2_x3).
body(r_fr13_218,fr13_c3).
head(r_fr13_219,fr2_x3).
body(r_fr13_219,fr23_r2).
body(r_fr13_219,fr13_u1).
body(r_fr13_219,fr20_p1).
head(r_fr13_220,fr2_x3).
body(r_fr13_220,fr13_f1).
body(r_fr13_220,fr23_q3).
body(r_fr13_220,fr13_r1).
body(r_fr13_220,fr7_y2).
body(r_fr13_220,fr13_z1).
head(r_fr13_221,fr2_x3).
body(r_fr13_221,fr2_f4).
body(r_fr13_221,fr13_a3).
body(r_fr13_221,fr25_f2).
body(r_fr13_221,fr2_f4).
body(r_fr13_221,fr13_f2).
head(r_fr13_222,fr2_x3).
body(r_fr13_222,fr2_f4).
body(r_fr13_222,fr8_p2).
body(r_fr13_222,fr13_u1).
body(r_fr13_222,fr20_p1).
body(r_fr13_222,fr13_z1).
head(r_fr13_223,fr2_x3).
body(r_fr13_223,fr10_b2).
body(r_fr13_223,fr13_f2).
body(r_fr13_223,fr13_u1).
body(r_fr13_223,fr20_v3).
body(r_fr13_223,fr13_z1).
head(r_fr13_224,fr2_x3).
body(r_fr13_224,fr10_b2).
body(r_fr13_224,fr13_e2).
body(r_fr13_224,fr25_q7).
head(r_fr13_225,fr2_x3).
body(r_fr13_225,fr13_r1).
body(r_fr13_225,fr7_y2).
body(r_fr13_225,fr20_p1).
body(r_fr13_225,fr25_q1).
head(r_fr13_226,fr2_x3).
body(r_fr13_226,fr13_d1).
body(r_fr13_226,fr13_f1).
body(r_fr13_226,fr23_q3).
body(r_fr13_226,fr25_q7).
body(r_fr13_226,fr13_u1).
body(r_fr13_226,fr13_z1).
head(r_fr13_227,fr2_x3).
body(r_fr13_227,fr13_c2).
body(r_fr13_227,fr13_f2).
head(r_fr13_228,fr2_x3).
head(r_fr13_229,fr2_x3).
body(r_fr13_229,fr8_a1).
body(r_fr13_229,fr10_b2).
body(r_fr13_229,fr13_c3).
body(r_fr13_229,fr13_e2).
body(r_fr13_229,fr13_f2).
body(r_fr13_229,fr13_v2).
head(r_fr13_230,fr2_x3).
body(r_fr13_230,fr13_a3).
body(r_fr13_230,fr10_b2).
body(r_fr13_230,fr13_c3).
body(r_fr13_230,fr13_d1).
body(r_fr13_230,fr13_d2).
body(r_fr13_230,fr20_p1).
head(r_fr13_231,fr2_x3).
body(r_fr13_231,fr20_p1).
body(r_fr13_231,fr20_v3).
head(r_fr13_232,fr2_x3).
body(r_fr13_232,fr13_c3).
body(r_fr13_232,fr2_f4).
body(r_fr13_232,fr13_f1).
body(r_fr13_232,fr13_v2).
body(r_fr13_232,fr20_v3).
body(r_fr13_232,fr13_z1).
head(r_fr13_233,fr2_x3).
body(r_fr13_233,fr2_a3).
body(r_fr13_233,fr2_e1).
body(r_fr13_233,fr10_b2).
body(r_fr13_233,fr13_c3).
body(r_fr13_233,fr20_p1).
head(r_fr13_234,fr2_x3).
body(r_fr13_234,fr8_p2).
body(r_fr13_234,fr13_v2).
body(r_fr13_234,fr20_p1).
head(r_fr13_235,fr2_x3).
body(r_fr13_235,fr13_a3).
body(r_fr13_235,fr8_a1).
body(r_fr13_235,fr13_e2).
body(r_fr13_235,fr13_w2).
body(r_fr13_235,fr20_v3).
head(r_fr13_236,fr2_x3).
body(r_fr13_236,fr13_c2).
body(r_fr13_236,fr13_d1).
body(r_fr13_236,fr13_f2).
head(r_fr13_237,fr2_x3).
body(r_fr13_237,fr8_p2).
body(r_fr13_237,fr13_r1).
body(r_fr13_237,fr25_q7).
body(r_fr13_237,fr13_u1).
body(r_fr13_237,fr20_p1).
body(r_fr13_237,fr13_z1).
head(r_fr13_238,fr2_x3).
body(r_fr13_238,fr2_a3).
body(r_fr13_238,fr25_f2).
body(r_fr13_238,fr13_c3).
body(r_fr13_238,fr20_p1).
head(r_fr13_239,fr2_x3).
body(r_fr13_239,fr8_p2).
body(r_fr13_239,fr23_r2).
body(r_fr13_239,fr13_u1).
body(r_fr13_239,fr13_v2).
body(r_fr13_239,fr20_p1).
head(r_fr13_240,fr2_x3).
body(r_fr13_240,fr25_q1).
head(r_fr13_241,fr2_x3).
body(r_fr13_241,fr10_b2).
body(r_fr13_241,fr25_q7).
body(r_fr13_241,fr23_r2).
body(r_fr13_241,fr20_v3).
head(r_fr13_242,fr13_r1).
body(r_fr13_242,fr2_f4).
body(r_fr13_242,fr8_a1).
body(r_fr13_242,fr23_q3).
body(r_fr13_242,fr7_y2).
body(r_fr13_242,fr25_q7).
body(r_fr13_242,fr20_p1).
head(r_fr13_243,fr13_r1).
body(r_fr13_243,fr13_a3).
body(r_fr13_243,fr13_e2).
body(r_fr13_243,fr13_f2).
body(r_fr13_243,fr23_r2).
body(r_fr13_243,fr23_q3).
head(r_fr13_244,fr13_r1).
body(r_fr13_244,fr10_b2).
body(r_fr13_244,fr13_f1).
body(r_fr13_244,fr20_v3).
body(r_fr13_244,fr25_q1).
head(r_fr13_245,fr13_r1).
body(r_fr13_245,fr2_a3).
body(r_fr13_245,fr2_e1).
body(r_fr13_245,fr10_b2).
body(r_fr13_245,fr13_f2).
body(r_fr13_245,fr23_q3).
head(r_fr13_246,fr13_r1).
body(r_fr13_246,fr13_c2).
body(r_fr13_246,fr13_c3).
body(r_fr13_246,fr13_d2).
body(r_fr13_246,fr8_p2).
body(r_fr13_246,fr23_q3).
body(r_fr13_246,fr25_q1).
head(r_fr13_247,fr13_r1).
body(r_fr13_247,fr10_b2).
body(r_fr13_247,fr13_f2).
head(r_fr13_248,fr13_r1).
body(r_fr13_248,fr2_a3).
body(r_fr13_248,fr20_p1).
body(r_fr13_248,fr20_v3).
head(r_fr13_249,fr13_r1).
body(r_fr13_249,fr8_p2).
head(r_fr13_250,fr13_r1).
head(r_fr13_251,fr13_r1).
body(r_fr13_251,fr2_f4).
head(r_fr13_252,fr13_r1).
body(r_fr13_252,fr2_a3).
body(r_fr13_252,fr2_f4).
body(r_fr13_252,fr13_c2).
body(r_fr13_252,fr13_d2).
body(r_fr13_252,fr13_u1).
body(r_fr13_252,fr20_p1).
head(r_fr13_253,fr13_r1).
body(r_fr13_253,fr23_q3).
body(r_fr13_253,fr25_q7).
body(r_fr13_253,fr23_r2).
body(r_fr13_253,fr13_v2).
body(r_fr13_253,fr20_v3).
body(r_fr13_253,fr13_z1).
head(r_fr13_254,fr13_r1).
body(r_fr13_254,fr23_r2).
body(r_fr13_254,fr7_y2).
body(r_fr13_254,fr13_v2).
body(r_fr13_254,fr25_q1).
head(r_fr13_255,fr13_r1).
body(r_fr13_255,fr23_r2).
body(r_fr13_255,fr13_u1).
body(r_fr13_255,fr20_p1).
body(r_fr13_255,fr20_p1).
body(r_fr13_255,fr13_z1).
head(r_fr13_256,fr13_r1).
body(r_fr13_256,fr23_r2).
body(r_fr13_256,fr8_p2).
body(r_fr13_256,fr23_r2).
body(r_fr13_256,fr13_u1).
body(r_fr13_256,fr13_v2).
body(r_fr13_256,fr25_q1).
head(r_fr13_257,fr13_r1).
body(r_fr13_257,fr13_d2).
body(r_fr13_257,fr13_f1).
head(r_fr13_258,fr13_r1).
body(r_fr13_258,fr2_f4).
body(r_fr13_258,fr2_e1).
body(r_fr13_258,fr13_f2).
body(r_fr13_258,fr25_q7).
body(r_fr13_258,fr23_r2).
head(r_fr13_259,fr13_r1).
body(r_fr13_259,fr13_a3).
body(r_fr13_259,fr8_a1).
body(r_fr13_259,fr13_c3).
body(r_fr13_259,fr13_d2).
body(r_fr13_259,fr2_f4).
head(r_fr13_260,fr13_r1).
body(r_fr13_260,fr2_f4).
body(r_fr13_260,fr10_b2).
body(r_fr13_260,fr7_y2).
body(r_fr13_260,fr13_u1).
body(r_fr13_260,fr13_v2).
body(r_fr13_260,fr13_z1).
head(r_fr13_261,fr13_r1).
body(r_fr13_261,fr13_a3).
body(r_fr13_261,fr13_c2).
body(r_fr13_261,fr13_d2).
body(r_fr13_261,fr23_r2).
head(r_fr13_262,fr13_r1).
body(r_fr13_262,fr2_f4).
body(r_fr13_262,fr2_e1).
body(r_fr13_262,fr13_c3).
body(r_fr13_262,fr13_d2).
body(r_fr13_262,fr13_f2).
body(r_fr13_262,fr23_r2).
head(r_fr13_263,fr13_r1).
body(r_fr13_263,fr23_r2).
body(r_fr13_263,fr23_r2).
head(r_fr13_264,fr13_r1).
body(r_fr13_264,fr13_c2).
body(r_fr13_264,fr13_f1).
body(r_fr13_264,fr13_f2).
head(r_fr13_265,fr13_r1).
body(r_fr13_265,fr2_f4).
body(r_fr13_265,fr25_f2).
body(r_fr13_265,fr13_d2).
body(r_fr13_265,fr2_f4).
body(r_fr13_265,fr13_e2).
body(r_fr13_265,fr13_v2).
head(r_fr13_266,fr20_v3).
body(r_fr13_266,fr13_e2).
body(r_fr13_266,fr23_r2).
body(r_fr13_266,fr7_y2).
body(r_fr13_266,fr13_z1).
head(r_fr13_267,fr20_v3).
body(r_fr13_267,fr8_a1).
body(r_fr13_267,fr13_d1).
body(r_fr13_267,fr13_f2).
body(r_fr13_267,fr23_q3).
body(r_fr13_267,fr7_y2).
body(r_fr13_267,fr20_p1).
head(r_fr13_268,fr20_v3).
body(r_fr13_268,fr13_a3).
body(r_fr13_268,fr13_v2).
body(r_fr13_268,fr13_w2).
body(r_fr13_268,fr13_z1).
head(r_fr13_269,fr20_v3).
body(r_fr13_269,fr13_f1).
body(r_fr13_269,fr8_p2).
body(r_fr13_269,fr7_y2).
body(r_fr13_269,fr13_u1).
body(r_fr13_269,fr13_z1).
head(r_fr13_270,fr20_v3).
body(r_fr13_270,fr13_d1).
body(r_fr13_270,fr23_q3).
body(r_fr13_270,fr13_z1).
head(r_fr13_271,fr20_v3).
body(r_fr13_271,fr25_q7).
body(r_fr13_271,fr13_v2).
head(r_fr13_272,fr20_v3).
body(r_fr13_272,fr7_y2).
body(r_fr13_272,fr13_u1).
body(r_fr13_272,fr13_v2).
body(r_fr13_272,fr20_p1).
head(r_fr13_273,fr20_v3).
body(r_fr13_273,fr23_q3).
body(r_fr13_273,fr13_w2).
body(r_fr13_273,fr20_p1).
body(r_fr13_273,fr13_z1).
body(r_fr13_273,fr25_q1).
head(r_fr13_274,fr20_v3).
body(r_fr13_274,fr23_q3).
body(r_fr13_274,fr7_y2).
body(r_fr13_274,fr25_q7).
body(r_fr13_274,fr13_v2).
head(r_fr13_275,fr20_v3).
body(r_fr13_275,fr7_y2).
body(r_fr13_275,fr23_r2).
body(r_fr13_275,fr13_u1).
body(r_fr13_275,fr13_w2).
body(r_fr13_275,fr20_p1).
body(r_fr13_275,fr13_z1).
head(r_fr13_276,fr20_v3).
body(r_fr13_276,fr13_a3).
body(r_fr13_276,fr13_c3).
body(r_fr13_276,fr13_d2).
body(r_fr13_276,fr13_e2).
body(r_fr13_276,fr13_f1).
body(r_fr13_276,fr23_r2).
head(r_fr13_277,fr20_v3).
body(r_fr13_277,fr8_a1).
body(r_fr13_277,fr13_d1).
body(r_fr13_277,fr13_e2).
body(r_fr13_277,fr13_z1).
head(r_fr13_278,fr20_v3).
body(r_fr13_278,fr2_a3).
body(r_fr13_278,fr13_a3).
body(r_fr13_278,fr2_e1).
body(r_fr13_278,fr13_c3).
body(r_fr13_278,fr23_q3).
body(r_fr13_278,fr13_z1).
head(r_fr13_279,fr20_v3).
body(r_fr13_279,fr13_c2).
body(r_fr13_279,fr13_c3).
body(r_fr13_279,fr13_e2).
head(r_fr13_280,fr20_v3).
body(r_fr13_280,fr23_r2).
body(r_fr13_280,fr7_y2).
body(r_fr13_280,fr13_z1).
body(r_fr13_280,fr25_q1).
head(r_fr13_281,fr20_v3).
body(r_fr13_281,fr25_f2).
body(r_fr13_281,fr8_a1).
body(r_fr13_281,fr13_f1).
body(r_fr13_281,fr23_r2).
head(r_fr13_282,fr20_v3).
body(r_fr13_282,fr2_e1).
body(r_fr13_282,fr13_c3).
body(r_fr13_282,fr13_d2).
head(r_fr13_283,fr20_v3).
body(r_fr13_283,fr2_e1).
head(r_fr13_284,fr20_v3).
body(r_fr13_284,fr13_v2).
body(r_fr13_284,fr13_w2).
body(r_fr13_284,fr13_z1).
head(r_fr13_285,fr20_v3).
body(r_fr13_285,fr8_a1).
body(r_fr13_285,fr13_c2).
body(r_fr13_285,fr23_q3).
body(r_fr13_285,fr25_q1).
head(r_fr13_286,fr20_v3).
body(r_fr13_286,fr8_p2).
body(r_fr13_286,fr20_p1).
head(r_fr13_287,fr20_v3).
body(r_fr13_287,fr2_a3).
body(r_fr13_287,fr25_f2).
body(r_fr13_287,fr23_q3).
body(r_fr13_287,fr23_r2).
body(r_fr13_287,fr13_v2).
head(r_fr13_288,fr20_v3).
head(r_fr13_289,fr13_z1).
body(r_fr13_289,fr13_a3).
body(r_fr13_289,fr10_b2).
body(r_fr13_289,fr13_v2).
head(r_fr13_290,fr13_z1).
body(r_fr13_290,fr25_f2).
body(r_fr13_290,fr2_e1).
body(r_fr13_290,fr13_c3).
body(r_fr13_290,fr13_f1).
head(r_fr13_291,fr13_z1).
body(r_fr13_291,fr23_r2).
body(r_fr13_291,fr13_v2).
body(r_fr13_291,fr13_w2).
body(r_fr13_291,fr20_p1).
body(r_fr13_291,fr20_p1).
head(r_fr13_292,fr13_z1).
body(r_fr13_292,fr20_p1).
head(r_fr13_293,fr13_z1).
body(r_fr13_293,fr13_a3).
head(r_fr13_294,fr13_z1).
body(r_fr13_294,fr25_f2).
body(r_fr13_294,fr2_e1).
body(r_fr13_294,fr13_d2).
body(r_fr13_294,fr25_q7).
body(r_fr13_294,fr20_p1).
head(r_fr13_295,fr13_z1).
body(r_fr13_295,fr2_f4).
head(r_fr13_296,fr13_z1).
body(r_fr13_296,fr10_b2).
body(r_fr13_296,fr13_c2).
body(r_fr13_296,fr20_p1).
head(r_fr13_297,fr13_z1).
body(r_fr13_297,fr7_y2).
body(r_fr13_297,fr23_r2).
body(r_fr13_297,fr20_p1).
body(r_fr13_297,fr20_p1).
head(r_fr13_298,fr13_z1).
body(r_fr13_298,fr13_f2).
body(r_fr13_298,fr20_p1).
head(r_fr13_299,fr13_z1).
body(r_fr13_299,fr13_c3).
body(r_fr13_299,fr8_p2).
body(r_fr13_299,fr23_q3).
body(r_fr13_299,fr25_q7).
body(r_fr13_299,fr23_r2).
body(r_fr13_299,fr20_p1).
head(r_fr13_300,fr13_z1).
body(r_fr13_300,fr8_a1).
head(r_fr13_301,fr13_z1).
body(r_fr13_301,fr13_d1).
body(r_fr13_301,fr13_d2).
body(r_fr13_301,fr13_w2).
body(r_fr13_301,fr25_q1).
head(r_fr13_302,fr13_z1).
body(r_fr13_302,fr25_f2).
body(r_fr13_302,fr8_a1).
body(r_fr13_302,fr2_e1).
head(r_fr13_303,fr13_z1).
body(r_fr13_303,fr8_p2).
body(r_fr13_303,fr23_r2).
body(r_fr13_303,fr13_w2).
body(r_fr13_303,fr20_p1).
head(r_fr13_304,fr13_z1).
body(r_fr13_304,fr23_r2).
body(r_fr13_304,fr23_q3).
body(r_fr13_304,fr7_y2).
body(r_fr13_304,fr25_q7).
body(r_fr13_304,fr20_p1).
head(r_fr13_305,fr13_z1).
body(r_fr13_305,fr13_d2).
body(r_fr13_305,fr23_q3).
body(r_fr13_305,fr23_r2).
head(r_fr13_306,fr13_z1).
body(r_fr13_306,fr2_a3).
body(r_fr13_306,fr8_a1).
body(r_fr13_306,fr10_b2).
body(r_fr13_306,fr25_q1).
head(r_fr13_307,fr13_z1).
body(r_fr13_307,fr2_e1).
body(r_fr13_307,fr13_c3).
body(r_fr13_307,fr13_d2).
body(r_fr13_307,fr2_f4).
body(r_fr13_307,fr13_f1).
head(r_fr13_308,fr13_z1).
body(r_fr13_308,fr2_f4).
body(r_fr13_308,fr10_b2).
body(r_fr13_308,fr2_f4).
body(r_fr13_308,fr13_f2).
head(r_fr13_309,fr13_z1).
body(r_fr13_309,fr13_u1).
body(r_fr13_309,fr13_v2).
head(r_fr13_310,fr13_z1).
head(r_fr13_311,fr13_z1).
body(r_fr13_311,fr13_w2).
head(r_fr13_312,fr13_z1).
body(r_fr13_312,fr2_f4).
body(r_fr13_312,fr20_p1).
head(r_fr13_313,fr13_z1).
body(r_fr13_313,fr2_f4).
body(r_fr13_313,fr13_c2).
body(r_fr13_313,fr13_e2).
body(r_fr13_313,fr13_f1).
head(r_fr13_314,fr13_z1).
body(r_fr13_314,fr8_a1).
body(r_fr13_314,fr2_f4).
body(r_fr13_314,fr13_f2).
body(r_fr13_314,fr23_q3).
body(r_fr13_314,fr13_w2).
head(r_fr13_315,fr25_q1).
body(r_fr13_315,fr23_r2).
body(r_fr13_315,fr13_v2).
head(r_fr13_316,fr25_q1).
body(r_fr13_316,fr2_a3).
body(r_fr13_316,fr8_a1).
body(r_fr13_316,fr13_d1).
head(r_fr13_317,fr25_q1).
body(r_fr13_317,fr13_c2).
body(r_fr13_317,fr23_r2).
body(r_fr13_317,fr23_r2).
body(r_fr13_317,fr13_v2).
body(r_fr13_317,fr20_p1).
head(r_fr13_318,fr25_q1).
body(r_fr13_318,fr2_a3).
body(r_fr13_318,fr23_r2).
body(r_fr13_318,fr8_p2).
body(r_fr13_318,fr23_q3).
body(r_fr13_318,fr23_r2).
body(r_fr13_318,fr20_p1).
head(r_fr13_319,fr25_q1).
body(r_fr13_319,fr8_p2).
body(r_fr13_319,fr23_q3).
body(r_fr13_319,fr25_q7).
body(r_fr13_319,fr23_r2).
head(r_fr13_320,fr25_q1).
body(r_fr13_320,fr25_f2).
body(r_fr13_320,fr2_f4).
body(r_fr13_320,fr23_r2).
body(r_fr13_320,fr8_p2).
body(r_fr13_320,fr7_y2).
body(r_fr13_320,fr13_u1).
head(r_fr13_321,fr25_q1).
body(r_fr13_321,fr2_a3).
body(r_fr13_321,fr8_a1).
body(r_fr13_321,fr8_p2).
body(r_fr13_321,fr13_u1).
body(r_fr13_321,fr20_p1).
head(r_fr13_322,fr25_q1).
body(r_fr13_322,fr8_p2).
body(r_fr13_322,fr25_q7).
body(r_fr13_322,fr13_u1).
body(r_fr13_322,fr20_p1).
head(r_fr13_323,fr25_q1).
body(r_fr13_323,fr23_r2).
body(r_fr13_323,fr23_q3).
head(r_fr13_324,fr25_q1).
body(r_fr13_324,fr10_b2).
body(r_fr13_324,fr13_d1).
body(r_fr13_324,fr23_r2).
body(r_fr13_324,fr13_u1).
head(r_fr13_325,fr25_q1).
body(r_fr13_325,fr25_f2).
body(r_fr13_325,fr13_d1).
body(r_fr13_325,fr13_v2).
body(r_fr13_325,fr20_p1).
head(r_fr13_326,fr25_q1).
body(r_fr13_326,fr23_q3).
body(r_fr13_326,fr25_q7).
body(r_fr13_326,fr23_r2).
body(r_fr13_326,fr20_p1).
head(r_fr13_327,fr25_q1).
body(r_fr13_327,fr2_a3).
body(r_fr13_327,fr2_e1).
body(r_fr13_327,fr13_d1).
body(r_fr13_327,fr13_d2).
body(r_fr13_327,fr13_v2).
head(r_fr13_328,fr25_q1).
body(r_fr13_328,fr13_d1).
head(r_fr13_329,fr25_q1).
body(r_fr13_329,fr2_a3).
body(r_fr13_329,fr10_b2).
body(r_fr13_329,fr13_u1).
body(r_fr13_329,fr13_v2).
head(r_fr13_330,fr25_q1).
body(r_fr13_330,fr13_a3).
body(r_fr13_330,fr8_a1).
body(r_fr13_330,fr13_c2).
body(r_fr13_330,fr13_c3).
body(r_fr13_330,fr13_f2).
body(r_fr13_330,fr23_q3).
head(r_fr13_331,fr25_q1).
body(r_fr13_331,fr8_a1).
body(r_fr13_331,fr13_c2).
head(r_fr13_332,fr25_q1).
body(r_fr13_332,fr2_e1).
body(r_fr13_332,fr10_b2).
body(r_fr13_332,fr2_f4).
head(r_fr13_333,fr25_q1).
body(r_fr13_333,fr25_q7).
body(r_fr13_333,fr13_u1).
body(r_fr13_333,fr13_v2).
body(r_fr13_333,fr13_w2).
body(r_fr13_333,fr20_p1).
head(r_fr13_334,fr25_q1).
head(r_fr13_335,fr25_q1).
body(r_fr13_335,fr2_a3).
body(r_fr13_335,fr13_e2).
body(r_fr13_335,fr8_p2).
body(r_fr13_335,fr25_q7).
body(r_fr13_335,fr13_u1).
body(r_fr13_335,fr13_v2).
head(r_fr13_336,fr25_q1).
body(r_fr13_336,fr23_r2).
body(r_fr13_336,fr20_p1).
head(r_fr13_337,fr25_q1).
body(r_fr13_337,fr2_f4).
body(r_fr13_337,fr25_f2).
head(r_fr13_338,fr20_p1).
body(r_fr13_338,fr2_f4).
head(r_fr13_339,fr20_p1).
body(r_fr13_339,fr13_c2).
body(r_fr13_339,fr13_c3).
body(r_fr13_339,fr13_f1).
head(r_fr13_340,fr20_p1).
body(r_fr13_340,fr8_p2).
body(r_fr13_340,fr23_q3).
body(r_fr13_340,fr13_v2).
head(r_fr13_341,fr20_p1).
body(r_fr13_341,fr13_a3).
body(r_fr13_341,fr8_a1).
body(r_fr13_341,fr2_e1).
body(r_fr13_341,fr13_e2).
body(r_fr13_341,fr8_p2).
body(r_fr13_341,fr7_y2).
head(r_fr13_342,fr20_p1).
body(r_fr13_342,fr23_r2).
body(r_fr13_342,fr23_r2).
body(r_fr13_342,fr13_u1).
head(r_fr13_343,fr20_p1).
body(r_fr13_343,fr25_f2).
body(r_fr13_343,fr13_c2).
body(r_fr13_343,fr23_r2).
body(r_fr13_343,fr13_u1).
body(r_fr13_343,fr13_w2).
head(r_fr13_344,fr20_p1).
body(r_fr13_344,fr13_a3).
body(r_fr13_344,fr23_r2).
head(r_fr13_345,fr20_p1).
body(r_fr13_345,fr2_a3).
body(r_fr13_345,fr13_c3).
body(r_fr13_345,fr23_r2).
body(r_fr13_345,fr7_y2).
body(r_fr13_345,fr25_q7).
body(r_fr13_345,fr13_v2).
head(r_fr13_346,fr20_p1).
body(r_fr13_346,fr13_c3).
body(r_fr13_346,fr8_p2).
body(r_fr13_346,fr23_q3).
head(r_fr13_347,fr20_p1).
body(r_fr13_347,fr2_a3).
body(r_fr13_347,fr2_f4).
body(r_fr13_347,fr2_e1).
body(r_fr13_347,fr13_d1).
body(r_fr13_347,fr13_d2).
body(r_fr13_347,fr7_y2).
head(r_fr13_348,fr20_p1).
body(r_fr13_348,fr2_e1).
body(r_fr13_348,fr10_b2).
body(r_fr13_348,fr13_d1).
body(r_fr13_348,fr13_d2).
body(r_fr13_348,fr13_f2).
body(r_fr13_348,fr13_u1).
head(r_fr13_349,fr20_p1).
body(r_fr13_349,fr13_f1).
head(r_fr13_350,fr20_p1).
head(r_fr13_351,fr20_p1).
body(r_fr13_351,fr23_r2).
body(r_fr13_351,fr13_u1).
head(r_fr13_352,fr20_p1).
body(r_fr13_352,fr23_r2).
body(r_fr13_352,fr7_y2).
body(r_fr13_352,fr13_v2).
body(r_fr13_352,fr20_p1).
head(r_fr13_353,fr20_p1).
body(r_fr13_353,fr10_b2).
body(r_fr13_353,fr7_y2).
body(r_fr13_353,fr23_r2).
head(r_fr13_354,fr20_p1).
body(r_fr13_354,fr2_a3).
body(r_fr13_354,fr8_a1).
body(r_fr13_354,fr23_r2).
body(r_fr13_354,fr13_u1).
head(r_fr13_355,fr20_p1).
body(r_fr13_355,fr2_f4).
body(r_fr13_355,fr2_e1).
body(r_fr13_355,fr13_c2).
body(r_fr13_355,fr13_d2).
body(r_fr13_355,fr2_f4).
body(r_fr13_355,fr13_u1).
head(r_fr13_356,fr20_p1).
body(r_fr13_356,fr13_d1).
body(r_fr13_356,fr23_q3).
head(r_fr13_357,fr20_p1).
body(r_fr13_357,fr2_a3).
body(r_fr13_357,fr13_a3).
body(r_fr13_357,fr13_e2).
head(r_fr13_358,fr20_p1).
body(r_fr13_358,fr13_a3).
body(r_fr13_358,fr13_f1).
body(r_fr13_358,fr23_r2).
body(r_fr13_358,fr23_q3).
body(r_fr13_358,fr13_u1).
head(r_fr13_359,fr20_p1).
body(r_fr13_359,fr23_r2).
body(r_fr13_359,fr25_q7).
body(r_fr13_359,fr23_r2).
body(r_fr13_359,fr13_w2).
head(r_fr13_360,fr20_p1).
body(r_fr13_360,fr13_e2).
body(r_fr13_360,fr25_q7).
body(r_fr13_360,fr23_r2).
body(r_fr13_360,fr13_v2).
body(r_fr13_360,fr13_w2).
head(r_fr13_361,fr8_p2).
body(r_fr13_361,fr2_e1).
body(r_fr13_361,fr13_f1).
body(r_fr13_361,fr13_f2).
head(r_fr13_362,fr8_p2).
body(r_fr13_362,fr8_a1).
body(r_fr13_362,fr2_e1).
body(r_fr13_362,fr13_c3).
body(r_fr13_362,fr2_f4).
body(r_fr13_362,fr23_r2).
head(r_fr13_363,fr8_p2).
body(r_fr13_363,fr2_f4).
body(r_fr13_363,fr23_r2).
head(r_fr13_364,fr8_p2).
body(r_fr13_364,fr2_a3).
body(r_fr13_364,fr13_d1).
body(r_fr13_364,fr2_f4).
body(r_fr13_364,fr13_f2).
body(r_fr13_364,fr7_y2).
head(r_fr13_365,fr8_p2).
body(r_fr13_365,fr13_e2).
body(r_fr13_365,fr13_f2).
head(r_fr13_366,fr8_p2).
body(r_fr13_366,fr2_f4).
body(r_fr13_366,fr25_f2).
body(r_fr13_366,fr2_e1).
body(r_fr13_366,fr13_c3).
body(r_fr13_366,fr13_d2).
body(r_fr13_366,fr13_u1).
head(r_fr13_367,fr8_p2).
body(r_fr13_367,fr2_e1).
body(r_fr13_367,fr13_d2).
body(r_fr13_367,fr13_e2).
body(r_fr13_367,fr23_r2).
head(r_fr13_368,fr8_p2).
body(r_fr13_368,fr25_f2).
head(r_fr13_369,fr8_p2).
body(r_fr13_369,fr2_f4).
body(r_fr13_369,fr13_e2).
head(r_fr13_370,fr8_p2).
body(r_fr13_370,fr13_v2).
head(r_fr13_371,fr8_p2).
body(r_fr13_371,fr2_f4).
body(r_fr13_371,fr13_f2).
body(r_fr13_371,fr13_u1).
head(r_fr13_372,fr8_p2).
body(r_fr13_372,fr23_r2).
body(r_fr13_372,fr13_w2).
head(r_fr13_373,fr8_p2).
body(r_fr13_373,fr13_f2).
head(r_fr13_374,fr8_p2).
body(r_fr13_374,fr10_b2).
body(r_fr13_374,fr13_v2).
head(r_fr13_375,fr8_p2).
body(r_fr13_375,fr23_q3).
body(r_fr13_375,fr7_y2).
body(r_fr13_375,fr23_r2).
body(r_fr13_375,fr13_u1).
head(r_fr13_376,fr8_p2).
body(r_fr13_376,fr2_e1).
body(r_fr13_376,fr10_b2).
body(r_fr13_376,fr13_c2).
body(r_fr13_376,fr23_r2).
head(r_fr13_377,fr8_p2).
body(r_fr13_377,fr2_a3).
body(r_fr13_377,fr25_f2).
body(r_fr13_377,fr23_r2).
body(r_fr13_377,fr13_u1).
head(r_fr13_378,fr8_p2).
body(r_fr13_378,fr2_f4).
body(r_fr13_378,fr23_q3).
body(r_fr13_378,fr7_y2).
body(r_fr13_378,fr13_u1).
body(r_fr13_378,fr13_w2).
head(r_fr13_379,fr8_p2).
body(r_fr13_379,fr23_q3).
body(r_fr13_379,fr13_v2).
body(r_fr13_379,fr20_p1).
head(r_fr13_380,fr8_p2).
body(r_fr13_380,fr23_q3).
body(r_fr13_380,fr7_y2).
body(r_fr13_380,fr25_q7).
body(r_fr13_380,fr13_v2).
head(r_fr13_381,fr8_p2).
body(r_fr13_381,fr8_a1).
body(r_fr13_381,fr13_c2).
body(r_fr13_381,fr2_f4).
body(r_fr13_381,fr13_e2).
body(r_fr13_381,fr13_f2).
head(r_fr13_382,fr8_p2).
body(r_fr13_382,fr8_a1).
body(r_fr13_382,fr13_c2).
head(r_fr13_383,fr8_p2).
body(r_fr13_383,fr2_e1).
head(r_fr13_384,fr8_p2).
head(r_fr13_385,fr13_u1).
body(r_fr13_385,fr7_y2).
head(r_fr13_386,fr13_u1).
body(r_fr13_386,fr13_c2).
head(r_fr13_387,fr13_u1).
body(r_fr13_387,fr13_c2).
body(r_fr13_387,fr13_d1).
body(r_fr13_387,fr13_v2).
head(r_fr13_388,fr13_u1).
body(r_fr13_388,fr13_a3).
body(r_fr13_388,fr25_f2).
body(r_fr13_388,fr2_e1).
body(r_fr13_388,fr2_f4).
body(r_fr13_388,fr13_e2).
body(r_fr13_388,fr13_f2).
head(r_fr13_389,fr13_u1).
body(r_fr13_389,fr23_q3).
body(r_fr13_389,fr7_y2).
body(r_fr13_389,fr25_q7).
body(r_fr13_389,fr23_r2).
body(r_fr13_389,fr13_v2).
head(r_fr13_390,fr13_u1).
body(r_fr13_390,fr23_q3).
body(r_fr13_390,fr13_v2).
head(r_fr13_391,fr13_u1).
body(r_fr13_391,fr25_f2).
body(r_fr13_391,fr10_b2).
body(r_fr13_391,fr13_e2).
body(r_fr13_391,fr13_f1).
body(r_fr13_391,fr13_f2).
body(r_fr13_391,fr7_y2).
head(r_fr13_392,fr13_u1).
body(r_fr13_392,fr23_r2).
body(r_fr13_392,fr13_w2).
head(r_fr13_393,fr13_u1).
body(r_fr13_393,fr2_a3).
body(r_fr13_393,fr25_f2).
body(r_fr13_393,fr8_a1).
body(r_fr13_393,fr13_d1).
body(r_fr13_393,fr2_f4).
body(r_fr13_393,fr13_f2).
head(r_fr13_394,fr13_u1).
body(r_fr13_394,fr2_f4).
body(r_fr13_394,fr23_r2).
body(r_fr13_394,fr25_q7).
body(r_fr13_394,fr23_r2).
body(r_fr13_394,fr13_v2).
head(r_fr13_395,fr13_u1).
body(r_fr13_395,fr13_w2).
head(r_fr13_396,fr13_u1).
body(r_fr13_396,fr13_a3).
body(r_fr13_396,fr13_d1).
head(r_fr13_397,fr13_u1).
body(r_fr13_397,fr2_a3).
body(r_fr13_397,fr2_f4).
body(r_fr13_397,fr13_c2).
body(r_fr13_397,fr13_c3).
body(r_fr13_397,fr13_f1).
head(r_fr13_398,fr13_u1).
body(r_fr13_398,fr13_c3).
body(r_fr13_398,fr20_p1).
head(r_fr13_399,fr13_u1).
body(r_fr13_399,fr13_a3).
body(r_fr13_399,fr13_d2).
head(r_fr13_400,fr13_u1).
body(r_fr13_400,fr8_a1).
body(r_fr13_400,fr2_f4).
head(r_fr13_401,fr13_u1).
body(r_fr13_401,fr23_q3).
body(r_fr13_401,fr7_y2).
body(r_fr13_401,fr13_v2).
body(r_fr13_401,fr13_w2).
body(r_fr13_401,fr20_p1).
head(r_fr13_402,fr13_u1).
body(r_fr13_402,fr23_q3).
body(r_fr13_402,fr7_y2).
body(r_fr13_402,fr25_q7).
body(r_fr13_402,fr13_w2).
body(r_fr13_402,fr20_p1).
head(r_fr13_403,fr13_u1).
head(r_fr13_404,fr13_u1).
body(r_fr13_404,fr13_a3).
head(r_fr13_405,fr13_u1).
body(r_fr13_405,fr13_e2).
body(r_fr13_405,fr13_w2).
head(r_fr13_406,fr13_u1).
body(r_fr13_406,fr23_q3).
body(r_fr13_406,fr13_v2).
body(r_fr13_406,fr13_w2).
body(r_fr13_406,fr20_p1).
head(r_fr13_407,fr13_u1).
body(r_fr13_407,fr2_f4).
body(r_fr13_407,fr13_f2).
head(r_fr13_408,fr13_u1).
body(r_fr13_408,fr13_f1).
head(r_fr13_409,fr13_u1).
body(r_fr13_409,fr13_c3).
body(r_fr13_409,fr13_d1).
body(r_fr13_409,fr13_e2).
body(r_fr13_409,fr23_r2).
body(r_fr13_409,fr20_p1).
head(r_fr13_410,fr13_u1).
body(r_fr13_410,fr13_f1).
body(r_fr13_410,fr23_r2).
body(r_fr13_410,fr13_w2).
head(r_fr13_411,fr23_r2).
body(r_fr13_411,fr25_f2).
body(r_fr13_411,fr10_b2).
head(r_fr13_412,fr23_r2).
body(r_fr13_412,fr23_r2).
body(r_fr13_412,fr7_y2).
head(r_fr13_413,fr23_r2).
body(r_fr13_413,fr2_f4).
head(r_fr13_414,fr23_r2).
body(r_fr13_414,fr23_q3).
body(r_fr13_414,fr13_v2).
body(r_fr13_414,fr13_w2).
head(r_fr13_415,fr23_r2).
body(r_fr13_415,fr13_a3).
body(r_fr13_415,fr25_f2).
body(r_fr13_415,fr13_d2).
body(r_fr13_415,fr23_r2).
body(r_fr13_415,fr7_y2).
body(r_fr13_415,fr25_q7).
head(r_fr13_416,fr23_r2).
body(r_fr13_416,fr13_a3).
body(r_fr13_416,fr13_f1).
body(r_fr13_416,fr7_y2).
body(r_fr13_416,fr13_v2).
body(r_fr13_416,fr13_w2).
head(r_fr13_417,fr23_r2).
body(r_fr13_417,fr13_c2).
body(r_fr13_417,fr13_c3).
body(r_fr13_417,fr2_f4).
body(r_fr13_417,fr13_v2).
head(r_fr13_418,fr23_r2).
body(r_fr13_418,fr20_p1).
head(r_fr13_419,fr23_r2).
body(r_fr13_419,fr8_a1).
body(r_fr13_419,fr10_b2).
body(r_fr13_419,fr2_f4).
body(r_fr13_419,fr13_f1).
body(r_fr13_419,fr13_f2).
head(r_fr13_420,fr23_r2).
body(r_fr13_420,fr25_f2).
body(r_fr13_420,fr8_a1).
body(r_fr13_420,fr2_e1).
body(r_fr13_420,fr13_c2).
body(r_fr13_420,fr7_y2).
head(r_fr13_421,fr23_r2).
body(r_fr13_421,fr13_c3).
body(r_fr13_421,fr13_v2).
head(r_fr13_422,fr23_r2).
body(r_fr13_422,fr25_f2).
body(r_fr13_422,fr13_w2).
head(r_fr13_423,fr23_r2).
body(r_fr13_423,fr13_c2).
body(r_fr13_423,fr23_r2).
body(r_fr13_423,fr23_q3).
body(r_fr13_423,fr7_y2).
body(r_fr13_423,fr20_p1).
head(r_fr13_424,fr23_r2).
body(r_fr13_424,fr25_q7).
body(r_fr13_424,fr13_w2).
head(r_fr13_425,fr23_r2).
body(r_fr13_425,fr2_f4).
body(r_fr13_425,fr8_a1).
body(r_fr13_425,fr23_r2).
body(r_fr13_425,fr13_w2).
body(r_fr13_425,fr20_p1).
head(r_fr13_426,fr23_r2).
body(r_fr13_426,fr23_r2).
head(r_fr13_427,fr23_r2).
body(r_fr13_427,fr23_r2).
body(r_fr13_427,fr7_y2).
body(r_fr13_427,fr13_v2).
body(r_fr13_427,fr13_w2).
body(r_fr13_427,fr20_p1).
head(r_fr13_428,fr23_r2).
body(r_fr13_428,fr2_a3).
body(r_fr13_428,fr20_p1).
head(r_fr13_429,fr23_r2).
body(r_fr13_429,fr23_r2).
body(r_fr13_429,fr23_q3).
body(r_fr13_429,fr7_y2).
body(r_fr13_429,fr13_v2).
body(r_fr13_429,fr13_w2).
body(r_fr13_429,fr20_p1).
head(r_fr13_430,fr23_r2).
body(r_fr13_430,fr10_b2).
body(r_fr13_430,fr23_q3).
body(r_fr13_430,fr13_w2).
head(r_fr13_431,fr23_r2).
body(r_fr13_431,fr2_a3).
head(r_fr13_432,fr23_r2).
body(r_fr13_432,fr23_r2).
body(r_fr13_432,fr23_q3).
body(r_fr13_432,fr25_q7).
body(r_fr13_432,fr13_v2).
body(r_fr13_432,fr20_p1).
head(r_fr13_433,fr23_r2).
body(r_fr13_433,fr10_b2).
head(r_fr13_434,fr23_r2).
body(r_fr13_434,fr8_a1).
body(r_fr13_434,fr2_f4).
body(r_fr13_434,fr13_f2).
body(r_fr13_434,fr13_v2).
body(r_fr13_434,fr13_w2).
head(r_fr13_435,fr23_r2).
body(r_fr13_435,fr2_a3).
body(r_fr13_435,fr13_a3).
body(r_fr13_435,fr13_c3).
body(r_fr13_435,fr13_d1).
body(r_fr13_435,fr13_f2).
head(r_fr13_436,fr23_r2).
head(r_fr13_437,fr23_r2).
body(r_fr13_437,fr13_c3).
body(r_fr13_437,fr13_d1).
body(r_fr13_437,fr13_e2).
body(r_fr13_437,fr7_y2).
body(r_fr13_437,fr25_q7).
head(r_fr13_438,fr23_r2).
body(r_fr13_438,fr23_q3).
body(r_fr13_438,fr13_v2).
head(r_fr13_439,fr23_r2).
body(r_fr13_439,fr7_y2).
body(r_fr13_439,fr20_p1).
head(r_fr13_440,fr23_r2).
body(r_fr13_440,fr13_v2).
body(r_fr13_440,fr20_p1).
head(r_fr13_441,fr23_r2).
body(r_fr13_441,fr2_e1).
body(r_fr13_441,fr13_e2).
body(r_fr13_441,fr23_q3).
body(r_fr13_441,fr7_y2).
body(r_fr13_441,fr25_q7).
head(r_fr13_442,fr23_r2).
body(r_fr13_442,fr13_d1).
head(r_fr13_443,fr23_r2).
body(r_fr13_443,fr2_a3).
body(r_fr13_443,fr2_f4).
body(r_fr13_443,fr2_e1).
body(r_fr13_443,fr13_d2).
body(r_fr13_443,fr2_f4).
body(r_fr13_443,fr13_f1).
head(r_fr13_444,fr23_r2).
body(r_fr13_444,fr2_f4).
body(r_fr13_444,fr23_q3).
body(r_fr13_444,fr25_q7).
body(r_fr13_444,fr13_v2).
body(r_fr13_444,fr13_w2).
head(r_fr13_445,fr23_r2).
body(r_fr13_445,fr23_q3).
body(r_fr13_445,fr7_y2).
body(r_fr13_445,fr25_q7).
body(r_fr13_445,fr13_v2).
body(r_fr13_445,fr13_w2).
body(r_fr13_445,fr20_p1).
head(r_fr13_446,fr23_r2).
body(r_fr13_446,fr13_d2).
body(r_fr13_446,fr13_e2).
body(r_fr13_446,fr25_q7).
head(r_fr13_447,fr23_r2).
body(r_fr13_447,fr10_b2).
body(r_fr13_447,fr13_e2).
body(r_fr13_447,fr13_f1).
body(r_fr13_447,fr23_q3).
body(r_fr13_447,fr13_v2).
body(r_fr13_447,fr13_w2).
head(r_fr13_448,fr23_r2).
body(r_fr13_448,fr7_y2).
body(r_fr13_448,fr13_v2).
body(r_fr13_448,fr20_p1).
head(r_fr13_449,fr23_r2).
body(r_fr13_449,fr2_a3).
body(r_fr13_449,fr2_f4).
body(r_fr13_449,fr25_f2).
body(r_fr13_449,fr13_e2).
head(r_fr13_450,fr23_r2).
body(r_fr13_450,fr2_a3).
body(r_fr13_450,fr2_f4).
body(r_fr13_450,fr13_a3).
body(r_fr13_450,fr2_e1).
body(r_fr13_450,fr13_e2).
body(r_fr13_450,fr13_w2).
head(r_fr13_451,fr23_r2).
body(r_fr13_451,fr2_a3).
body(r_fr13_451,fr13_c2).
body(r_fr13_451,fr13_d2).
body(r_fr13_451,fr13_f1).
head(r_fr13_452,fr23_r2).
body(r_fr13_452,fr25_f2).
body(r_fr13_452,fr2_e1).
body(r_fr13_452,fr13_d1).
body(r_fr13_452,fr2_f4).
body(r_fr13_452,fr13_e2).
body(r_fr13_452,fr13_f1).
head(r_fr13_453,fr23_r2).
body(r_fr13_453,fr25_q7).
head(r_fr13_454,fr23_r2).
body(r_fr13_454,fr23_q3).
body(r_fr13_454,fr25_q7).
body(r_fr13_454,fr13_w2).
head(r_fr13_455,fr23_r2).
head(r_fr13_456,fr23_r2).
body(r_fr13_456,fr20_p1).
head(r_fr13_457,fr23_r2).
body(r_fr13_457,fr13_c2).
body(r_fr13_457,fr13_d1).
head(r_fr13_458,fr23_r2).
body(r_fr13_458,fr2_f4).
body(r_fr13_458,fr10_b2).
body(r_fr13_458,fr23_q3).
body(r_fr13_458,fr13_v2).
head(r_fr13_459,fr23_r2).
body(r_fr13_459,fr8_a1).
body(r_fr13_459,fr13_c2).
body(r_fr13_459,fr13_e2).
head(r_fr13_460,fr23_r2).
body(r_fr13_460,fr10_b2).
body(r_fr13_460,fr13_d2).
body(r_fr13_460,fr13_e2).
head(r_fr13_461,fr23_r2).
body(r_fr13_461,fr13_d2).
body(r_fr13_461,fr23_q3).
body(r_fr13_461,fr20_p1).
head(r_fr13_462,fr23_r2).
body(r_fr13_462,fr2_f4).
body(r_fr13_462,fr13_c3).
head(r_fr13_463,fr13_w2).
body(r_fr13_463,fr13_e2).
body(r_fr13_463,fr23_q3).
body(r_fr13_463,fr7_y2).
body(r_fr13_463,fr25_q7).
body(r_fr13_463,fr13_v2).
body(r_fr13_463,fr20_p1).
head(r_fr13_464,fr13_w2).
body(r_fr13_464,fr2_f4).
body(r_fr13_464,fr13_f1).
head(r_fr13_465,fr13_w2).
body(r_fr13_465,fr25_q7).
head(r_fr13_466,fr13_w2).
body(r_fr13_466,fr10_b2).
head(r_fr13_467,fr13_w2).
body(r_fr13_467,fr13_c2).
body(r_fr13_467,fr23_q3).
body(r_fr13_467,fr25_q7).
body(r_fr13_467,fr13_v2).
body(r_fr13_467,fr20_p1).
head(r_fr13_468,fr13_w2).
body(r_fr13_468,fr25_f2).
body(r_fr13_468,fr23_q3).
body(r_fr13_468,fr7_y2).
body(r_fr13_468,fr25_q7).
body(r_fr13_468,fr13_v2).
body(r_fr13_468,fr20_p1).
head(r_fr13_469,fr13_w2).
body(r_fr13_469,fr25_f2).
body(r_fr13_469,fr13_c3).
head(r_fr13_470,fr13_w2).
body(r_fr13_470,fr25_q7).
body(r_fr13_470,fr13_v2).
head(r_fr13_471,fr13_w2).
body(r_fr13_471,fr25_f2).
body(r_fr13_471,fr13_d1).
body(r_fr13_471,fr13_f2).
body(r_fr13_471,fr20_p1).
head(r_fr13_472,fr13_w2).
body(r_fr13_472,fr20_p1).
head(r_fr13_473,fr13_w2).
body(r_fr13_473,fr13_f1).
body(r_fr13_473,fr13_f2).
body(r_fr13_473,fr25_q7).
body(r_fr13_473,fr13_v2).
body(r_fr13_473,fr20_p1).
head(r_fr13_474,fr13_w2).
body(r_fr13_474,fr10_b2).
body(r_fr13_474,fr7_y2).
head(r_fr13_475,fr13_w2).
body(r_fr13_475,fr13_c3).
head(r_fr13_476,fr13_w2).
body(r_fr13_476,fr7_y2).
head(r_fr13_477,fr13_w2).
body(r_fr13_477,fr13_c2).
head(r_fr13_478,fr13_w2).
body(r_fr13_478,fr13_a3).
body(r_fr13_478,fr2_e1).
head(r_fr13_479,fr13_w2).
body(r_fr13_479,fr13_v2).
head(r_fr13_480,fr13_w2).
body(r_fr13_480,fr23_q3).
body(r_fr13_480,fr25_q7).
body(r_fr13_480,fr13_v2).
body(r_fr13_480,fr20_p1).
head(r_fr13_481,fr13_w2).
body(r_fr13_481,fr13_a3).
body(r_fr13_481,fr25_f2).
body(r_fr13_481,fr2_e1).
body(r_fr13_481,fr13_c3).
head(r_fr13_482,fr13_w2).
body(r_fr13_482,fr23_q3).
head(r_fr13_483,fr13_w2).
body(r_fr13_483,fr13_a3).
body(r_fr13_483,fr23_q3).
body(r_fr13_483,fr7_y2).
body(r_fr13_483,fr25_q7).
body(r_fr13_483,fr13_v2).
body(r_fr13_483,fr20_p1).
head(r_fr13_484,fr13_w2).
body(r_fr13_484,fr25_q7).
body(r_fr13_484,fr20_p1).
head(r_fr13_485,fr13_w2).
head(r_fr13_486,fr13_w2).
body(r_fr13_486,fr25_f2).
body(r_fr13_486,fr8_a1).
body(r_fr13_486,fr10_b2).
body(r_fr13_486,fr2_f4).
body(r_fr13_486,fr7_y2).
body(r_fr13_486,fr13_v2).

assumption(fr3_a1).
assumption(fr14_b1).
assumption(fr14_c1).
assumption(fr2_a3).
assumption(fr6_a3).
assumption(fr21_a3).
assumption(fr15_d2).
assumption(fr3_a1).
assumption(fr8_d2).
assumption(fr9_c1).
assumption(fr14_e2).
assumption(fr2_a3).
assumption(fr3_a1).
assumption(fr2_a1).
assumption(fr3_a1).
contrary(fr3_a1,fr14_w1).
contrary(fr15_d2,fr14_q4).
contrary(fr3_a1,fr14_v2).
contrary(fr14_b1,fr6_a3).
contrary(fr3_a1,fr23_q3).
contrary(fr2_a1,fr14_z1).
contrary(fr14_c1,fr3_a1).
contrary(fr8_d2,fr14_v3).
contrary(fr3_a1,fr14_z1).
contrary(fr2_a3,fr20_p1).
contrary(fr9_c1,fr14_y2).
contrary(fr6_a3,fr14_z2).
contrary(fr14_e2,fr2_a1).
contrary(fr21_a3,fr14_v1).
contrary(fr2_a3,fr20_p1).
head(r_fr14_0,fr14_z1).
body(r_fr14_0,fr3_a1).
body(r_fr14_0,fr3_a1).
body(r_fr14_0,fr14_c1).
body(r_fr14_0,fr1_z1).
body(r_fr14_0,fr14_q4).
body(r_fr14_0,fr20_p1).
body(r_fr14_0,fr20_v3).
body(r_fr14_0,fr14_s2).
body(r_fr14_0,fr20_p1).
body(r_fr14_0,fr14_t3).
body(r_fr14_0,fr14_u2).
body(r_fr14_0,fr20_v3).
body(r_fr14_0,fr14_v1).
body(r_fr14_0,fr14_w1).
body(r_fr14_0,fr14_x2).
head(r_fr14_1,fr14_z1).
body(r_fr14_1,fr3_a1).
body(r_fr14_1,fr9_c1).
body(r_fr14_1,fr23_r2).
body(r_fr14_1,fr1_z1).
body(r_fr14_1,fr16_r3).
body(r_fr14_1,fr14_q4).
body(r_fr14_1,fr14_r2).
body(r_fr14_1,fr20_p1).
body(r_fr14_1,fr20_p1).
body(r_fr14_1,fr14_u2).
body(r_fr14_1,fr20_p1).
body(r_fr14_1,fr21_y2).
body(r_fr14_1,fr14_z2).
head(r_fr14_2,fr1_z1).
body(r_fr14_2,fr23_r2).
body(r_fr14_2,fr21_s1).
body(r_fr14_2,fr14_q2).
body(r_fr14_2,fr14_q4).
body(r_fr14_2,fr20_p1).
body(r_fr14_2,fr20_v3).
body(r_fr14_2,fr20_p1).
body(r_fr14_2,fr14_t3).
body(r_fr14_2,fr20_p1).
body(r_fr14_2,fr14_v2).
body(r_fr14_2,fr20_p1).
body(r_fr14_2,fr23_q3).
body(r_fr14_2,fr14_z2).
head(r_fr14_3,fr1_z1).
body(r_fr14_3,fr23_r2).
body(r_fr14_3,fr20_v3).
body(r_fr14_3,fr14_q2).
body(r_fr14_3,fr14_q4).
body(r_fr14_3,fr14_r2).
body(r_fr14_3,fr20_v3).
body(r_fr14_3,fr2_v4).
body(r_fr14_3,fr25_s3).
body(r_fr14_3,fr14_t3).
body(r_fr14_3,fr20_p1).
body(r_fr14_3,fr14_v1).
body(r_fr14_3,fr20_p1).
body(r_fr14_3,fr14_y3).
body(r_fr14_3,fr14_z2).
body(r_fr14_3,fr14_z3).
head(r_fr14_4,fr1_z1).
body(r_fr14_4,fr3_a1).
body(r_fr14_4,fr14_c1).
body(r_fr14_4,fr8_d2).
body(r_fr14_4,fr9_c1).
body(r_fr14_4,fr6_a3).
body(r_fr14_4,fr14_e2).
body(r_fr14_4,fr16_r3).
body(r_fr14_4,fr14_r2).
body(r_fr14_4,fr2_v4).
body(r_fr14_4,fr20_p1).
body(r_fr14_4,fr20_p1).
body(r_fr14_4,fr23_q3).
head(r_fr14_5,fr1_z1).
body(r_fr14_5,fr3_a1).
body(r_fr14_5,fr3_a1).
body(r_fr14_5,fr3_a1).
body(r_fr14_5,fr14_c1).
body(r_fr14_5,fr8_d2).
body(r_fr14_5,fr20_p1).
body(r_fr14_5,fr20_p1).
body(r_fr14_5,fr14_s2).
body(r_fr14_5,fr2_v4).
body(r_fr14_5,fr14_t3).
body(r_fr14_5,fr14_x2).
body(r_fr14_5,fr14_y2).
body(r_fr14_5,fr14_z3).
head(r_fr14_6,fr1_z1).
body(r_fr14_6,fr15_d2).
body(r_fr14_6,fr14_c1).
body(r_fr14_6,fr8_d2).
body(r_fr14_6,fr6_a3).
body(r_fr14_6,fr21_a3).
body(r_fr14_6,fr2_a3).
body(r_fr14_6,fr23_r2).
body(r_fr14_6,fr14_q4).
body(r_fr14_6,fr20_p1).
body(r_fr14_6,fr20_v3).
body(r_fr14_6,fr14_v3).
body(r_fr14_6,fr20_p1).
head(r_fr14_7,fr14_r2).
body(r_fr14_7,fr14_b1).
body(r_fr14_7,fr8_d2).
body(r_fr14_7,fr21_a3).
body(r_fr14_7,fr21_s1).
body(r_fr14_7,fr20_v3).
body(r_fr14_7,fr14_q4).
body(r_fr14_7,fr20_p1).
body(r_fr14_7,fr20_p1).
body(r_fr14_7,fr14_u2).
body(r_fr14_7,fr14_v2).
body(r_fr14_7,fr14_w1).
body(r_fr14_7,fr20_p1).
body(r_fr14_7,fr14_y2).
body(r_fr14_7,fr14_z3).
head(r_fr14_8,fr14_r2).
body(r_fr14_8,fr21_s1).
body(r_fr14_8,fr20_p1).
body(r_fr14_8,fr14_q4).
body(r_fr14_8,fr20_p1).
body(r_fr14_8,fr20_p1).
body(r_fr14_8,fr14_s2).
body(r_fr14_8,fr20_p1).
body(r_fr14_8,fr14_v1).
body(r_fr14_8,fr14_w1).
body(r_fr14_8,fr20_p1).
body(r_fr14_8,fr23_q3).
body(r_fr14_8,fr14_y2).
body(r_fr14_8,fr14_z2).
body(r_fr14_8,fr14_z3).
head(r_fr14_9,fr14_r2).
body(r_fr14_9,fr3_a1).
body(r_fr14_9,fr8_d2).
body(r_fr14_9,fr3_a1).
body(r_fr14_9,fr2_a3).
body(r_fr14_9,fr9_c1).
body(r_fr14_9,fr21_s1).
body(r_fr14_9,fr20_p1).
body(r_fr14_9,fr16_r3).
body(r_fr14_9,fr25_s3).
body(r_fr14_9,fr14_v1).
body(r_fr14_9,fr14_x2).
body(r_fr14_9,fr23_q3).
body(r_fr14_9,fr14_y3).
head(r_fr14_10,fr14_r2).
body(r_fr14_10,fr2_a3).
body(r_fr14_10,fr9_c1).
body(r_fr14_10,fr14_e2).
body(r_fr14_10,fr21_s1).
body(r_fr14_10,fr20_v3).
body(r_fr14_10,fr14_q2).
body(r_fr14_10,fr14_s2).
body(r_fr14_10,fr14_u2).
body(r_fr14_10,fr20_v3).
body(r_fr14_10,fr14_v2).
body(r_fr14_10,fr20_p1).
body(r_fr14_10,fr14_z2).
head(r_fr14_11,fr14_q2).
body(r_fr14_11,fr3_a1).
body(r_fr14_11,fr3_a1).
body(r_fr14_11,fr9_c1).
body(r_fr14_11,fr20_v3).
body(r_fr14_11,fr14_s2).
body(r_fr14_11,fr14_t3).
body(r_fr14_11,fr14_u2).
body(r_fr14_11,fr14_v1).
body(r_fr14_11,fr14_v2).
body(r_fr14_11,fr14_v3).
body(r_fr14_11,fr14_x2).
body(r_fr14_11,fr21_y2).
body(r_fr14_11,fr14_y3).
body(r_fr14_11,fr14_z1).
head(r_fr14_12,fr14_q2).
body(r_fr14_12,fr14_c1).
body(r_fr14_12,fr23_r2).
body(r_fr14_12,fr21_s1).
body(r_fr14_12,fr20_p1).
body(r_fr14_12,fr2_v4).
body(r_fr14_12,fr25_s3).
body(r_fr14_12,fr14_t3).
body(r_fr14_12,fr20_v3).
body(r_fr14_12,fr14_v1).
body(r_fr14_12,fr20_p1).
body(r_fr14_12,fr14_x2).
body(r_fr14_12,fr14_y3).
body(r_fr14_12,fr14_z3).
head(r_fr14_13,fr14_q2).
body(r_fr14_13,fr3_a1).
body(r_fr14_13,fr3_a1).
body(r_fr14_13,fr14_c1).
body(r_fr14_13,fr6_a3).
body(r_fr14_13,fr14_e2).
body(r_fr14_13,fr2_a3).
body(r_fr14_13,fr21_s1).
body(r_fr14_13,fr20_p1).
body(r_fr14_13,fr14_q4).
body(r_fr14_13,fr25_s3).
body(r_fr14_13,fr20_p1).
body(r_fr14_13,fr20_p1).
body(r_fr14_13,fr21_y2).
body(r_fr14_13,fr14_y3).
head(r_fr14_14,fr14_q2).
body(r_fr14_14,fr3_a1).
body(r_fr14_14,fr3_a1).
body(r_fr14_14,fr14_c1).
body(r_fr14_14,fr21_s1).
body(r_fr14_14,fr20_p1).
body(r_fr14_14,fr14_s2).
body(r_fr14_14,fr20_p1).
body(r_fr14_14,fr25_s3).
body(r_fr14_14,fr20_p1).
body(r_fr14_14,fr14_u2).
body(r_fr14_14,fr14_v3).
body(r_fr14_14,fr21_y2).
body(r_fr14_14,fr14_y2).
body(r_fr14_14,fr14_y3).
head(r_fr14_15,fr14_q2).
body(r_fr14_15,fr3_a1).
body(r_fr14_15,fr3_a1).
body(r_fr14_15,fr14_b1).
body(r_fr14_15,fr3_a1).
body(r_fr14_15,fr6_a3).
body(r_fr14_15,fr23_r2).
body(r_fr14_15,fr20_p1).
body(r_fr14_15,fr20_p1).
body(r_fr14_15,fr20_p1).
body(r_fr14_15,fr14_s2).
body(r_fr14_15,fr2_v4).
body(r_fr14_15,fr14_u2).
body(r_fr14_15,fr14_v2).
body(r_fr14_15,fr14_x2).
body(r_fr14_15,fr14_z2).
head(r_fr14_16,fr21_s1).
body(r_fr14_16,fr23_r2).
body(r_fr14_16,fr20_v3).
body(r_fr14_16,fr14_q4).
body(r_fr14_16,fr20_v3).
body(r_fr14_16,fr14_s2).
body(r_fr14_16,fr20_p1).
body(r_fr14_16,fr2_v4).
body(r_fr14_16,fr20_v3).
body(r_fr14_16,fr14_v3).
body(r_fr14_16,fr14_w1).
body(r_fr14_16,fr23_q3).
body(r_fr14_16,fr14_y2).
body(r_fr14_16,fr14_z3).
head(r_fr14_17,fr21_s1).
body(r_fr14_17,fr15_d2).
body(r_fr14_17,fr3_a1).
body(r_fr14_17,fr14_b1).
body(r_fr14_17,fr3_a1).
body(r_fr14_17,fr6_a3).
body(r_fr14_17,fr2_a3).
body(r_fr14_17,fr14_q4).
body(r_fr14_17,fr2_v4).
body(r_fr14_17,fr25_s3).
body(r_fr14_17,fr14_t3).
body(r_fr14_17,fr20_p1).
body(r_fr14_17,fr14_z1).
body(r_fr14_17,fr14_z2).
head(r_fr14_18,fr14_z3).
body(r_fr14_18,fr2_a1).
body(r_fr14_18,fr23_r2).
body(r_fr14_18,fr20_v3).
body(r_fr14_18,fr20_p1).
body(r_fr14_18,fr14_s2).
body(r_fr14_18,fr20_p1).
body(r_fr14_18,fr2_v4).
body(r_fr14_18,fr14_t3).
body(r_fr14_18,fr20_p1).
body(r_fr14_18,fr14_v2).
body(r_fr14_18,fr14_x2).
body(r_fr14_18,fr21_y2).
body(r_fr14_18,fr14_y2).
body(r_fr14_18,fr14_z1).
head(r_fr14_19,fr14_z3).
body(r_fr14_19,fr15_d2).
body(r_fr14_19,fr6_a3).
body(r_fr14_19,fr23_r2).
body(r_fr14_19,fr20_v3).
body(r_fr14_19,fr16_r3).
body(r_fr14_19,fr14_s2).
body(r_fr14_19,fr2_v4).
body(r_fr14_19,fr20_v3).
body(r_fr14_19,fr14_v1).
body(r_fr14_19,fr20_p1).
body(r_fr14_19,fr20_p1).
body(r_fr14_19,fr14_z1).
head(r_fr14_20,fr14_z3).
body(r_fr14_20,fr23_r2).
body(r_fr14_20,fr20_p1).
body(r_fr14_20,fr20_p1).
body(r_fr14_20,fr14_s2).
body(r_fr14_20,fr25_s3).
body(r_fr14_20,fr20_v3).
body(r_fr14_20,fr14_v3).
body(r_fr14_20,fr20_p1).
body(r_fr14_20,fr14_x2).
body(r_fr14_20,fr21_y2).
body(r_fr14_20,fr14_y2).
body(r_fr14_20,fr14_y3).
body(r_fr14_20,fr14_z1).
head(r_fr14_21,fr14_z3).
body(r_fr14_21,fr20_p1).
body(r_fr14_21,fr16_r3).
body(r_fr14_21,fr14_q4).
body(r_fr14_21,fr20_p1).
body(r_fr14_21,fr20_p1).
body(r_fr14_21,fr20_v3).
body(r_fr14_21,fr2_v4).
body(r_fr14_21,fr14_t3).
body(r_fr14_21,fr14_u2).
body(r_fr14_21,fr14_v1).
body(r_fr14_21,fr14_v2).
body(r_fr14_21,fr20_p1).
body(r_fr14_21,fr20_p1).
head(r_fr14_22,fr23_r2).
body(r_fr14_22,fr3_a1).
body(r_fr14_22,fr2_a3).
body(r_fr14_22,fr9_c1).
body(r_fr14_22,fr14_e2).
body(r_fr14_22,fr16_r3).
body(r_fr14_22,fr14_q4).
body(r_fr14_22,fr20_p1).
body(r_fr14_22,fr20_v3).
body(r_fr14_22,fr20_p1).
body(r_fr14_22,fr14_t3).
body(r_fr14_22,fr14_u2).
body(r_fr14_22,fr20_v3).
body(r_fr14_22,fr14_w1).
body(r_fr14_22,fr23_q3).
body(r_fr14_22,fr14_z1).
head(r_fr14_23,fr23_r2).
body(r_fr14_23,fr3_a1).
body(r_fr14_23,fr3_a1).
body(r_fr14_23,fr14_c1).
body(r_fr14_23,fr8_d2).
body(r_fr14_23,fr9_c1).
body(r_fr14_23,fr6_a3).
body(r_fr14_23,fr20_v3).
body(r_fr14_23,fr20_p1).
body(r_fr14_23,fr16_r3).
body(r_fr14_23,fr14_s2).
body(r_fr14_23,fr14_t3).
body(r_fr14_23,fr21_y2).
body(r_fr14_23,fr23_q3).
body(r_fr14_23,fr14_y2).
body(r_fr14_23,fr14_y3).
head(r_fr14_24,fr23_r2).
body(r_fr14_24,fr3_a1).
body(r_fr14_24,fr14_b1).
body(r_fr14_24,fr14_c1).
body(r_fr14_24,fr8_d2).
body(r_fr14_24,fr2_a3).
body(r_fr14_24,fr21_a3).
body(r_fr14_24,fr16_r3).
body(r_fr14_24,fr14_q4).
body(r_fr14_24,fr20_p1).
body(r_fr14_24,fr20_v3).
body(r_fr14_24,fr14_s2).
body(r_fr14_24,fr25_s3).
body(r_fr14_24,fr14_t3).
body(r_fr14_24,fr14_x2).
body(r_fr14_24,fr14_y3).
head(r_fr14_25,fr23_r2).
body(r_fr14_25,fr15_d2).
body(r_fr14_25,fr8_d2).
body(r_fr14_25,fr6_a3).
body(r_fr14_25,fr14_e2).
body(r_fr14_25,fr20_v3).
body(r_fr14_25,fr16_r3).
body(r_fr14_25,fr20_p1).
body(r_fr14_25,fr14_s2).
body(r_fr14_25,fr14_u2).
body(r_fr14_25,fr14_v3).
body(r_fr14_25,fr20_p1).
body(r_fr14_25,fr14_y3).
body(r_fr14_25,fr14_z1).
head(r_fr14_26,fr23_r2).
body(r_fr14_26,fr20_v3).
body(r_fr14_26,fr14_q4).
body(r_fr14_26,fr20_p1).
body(r_fr14_26,fr14_s2).
body(r_fr14_26,fr20_p1).
body(r_fr14_26,fr25_s3).
body(r_fr14_26,fr14_v1).
body(r_fr14_26,fr14_v2).
body(r_fr14_26,fr14_v3).
body(r_fr14_26,fr14_x2).
body(r_fr14_26,fr14_y3).
body(r_fr14_26,fr14_z1).
head(r_fr14_27,fr20_p1).
body(r_fr14_27,fr3_a1).
body(r_fr14_27,fr8_d2).
body(r_fr14_27,fr3_a1).
body(r_fr14_27,fr6_a3).
body(r_fr14_27,fr21_a3).
body(r_fr14_27,fr2_a3).
body(r_fr14_27,fr16_r3).
body(r_fr14_27,fr20_p1).
body(r_fr14_27,fr2_v4).
body(r_fr14_27,fr25_s3).
body(r_fr14_27,fr20_p1).
body(r_fr14_27,fr14_v1).
body(r_fr14_27,fr14_v3).
body(r_fr14_27,fr21_y2).
head(r_fr14_28,fr20_p1).
body(r_fr14_28,fr3_a1).
body(r_fr14_28,fr14_b1).
body(r_fr14_28,fr9_c1).
body(r_fr14_28,fr20_p1).
body(r_fr14_28,fr16_r3).
body(r_fr14_28,fr14_q4).
body(r_fr14_28,fr20_p1).
body(r_fr14_28,fr14_s2).
body(r_fr14_28,fr20_p1).
body(r_fr14_28,fr2_v4).
body(r_fr14_28,fr20_p1).
body(r_fr14_28,fr14_w1).
body(r_fr14_28,fr14_x2).
body(r_fr14_28,fr23_q3).
body(r_fr14_28,fr14_y3).
head(r_fr14_29,fr20_p1).
body(r_fr14_29,fr15_d2).
body(r_fr14_29,fr14_b1).
body(r_fr14_29,fr14_c1).
body(r_fr14_29,fr6_a3).
body(r_fr14_29,fr21_a3).
body(r_fr14_29,fr20_v3).
body(r_fr14_29,fr2_v4).
body(r_fr14_29,fr20_p1).
body(r_fr14_29,fr14_v1).
body(r_fr14_29,fr20_p1).
body(r_fr14_29,fr21_y2).
body(r_fr14_29,fr14_y2).
head(r_fr14_30,fr20_p1).
body(r_fr14_30,fr3_a1).
body(r_fr14_30,fr14_e2).
body(r_fr14_30,fr20_v3).
body(r_fr14_30,fr16_r3).
body(r_fr14_30,fr25_s3).
body(r_fr14_30,fr20_p1).
body(r_fr14_30,fr14_u2).
body(r_fr14_30,fr20_v3).
body(r_fr14_30,fr14_v3).
body(r_fr14_30,fr14_w1).
body(r_fr14_30,fr20_p1).
body(r_fr14_30,fr14_x2).
body(r_fr14_30,fr21_y2).
body(r_fr14_30,fr14_z1).
head(r_fr14_31,fr14_z1).
body(r_fr14_31,fr15_d2).
body(r_fr14_31,fr14_e2).
body(r_fr14_31,fr20_v3).
body(r_fr14_31,fr20_p1).
body(r_fr14_31,fr16_r3).
body(r_fr14_31,fr20_v3).
body(r_fr14_31,fr2_v4).
body(r_fr14_31,fr14_u2).
body(r_fr14_31,fr14_v1).
body(r_fr14_31,fr14_v2).
body(r_fr14_31,fr14_w1).
body(r_fr14_31,fr20_p1).
body(r_fr14_31,fr20_p1).
body(r_fr14_31,fr21_y2).
body(r_fr14_31,fr14_y3).
head(r_fr14_32,fr14_z1).
body(r_fr14_32,fr2_a3).
body(r_fr14_32,fr20_v3).
body(r_fr14_32,fr16_r3).
body(r_fr14_32,fr20_p1).
body(r_fr14_32,fr14_t3).
body(r_fr14_32,fr14_v1).
body(r_fr14_32,fr14_v3).
body(r_fr14_32,fr14_w1).
body(r_fr14_32,fr20_p1).
body(r_fr14_32,fr23_q3).
body(r_fr14_32,fr14_y2).
body(r_fr14_32,fr14_z2).
head(r_fr14_33,fr23_q3).
body(r_fr14_33,fr8_d2).
body(r_fr14_33,fr16_r3).
body(r_fr14_33,fr20_p1).
body(r_fr14_33,fr20_v3).
body(r_fr14_33,fr14_u2).
body(r_fr14_33,fr14_v1).
body(r_fr14_33,fr14_v2).
body(r_fr14_33,fr14_w1).
body(r_fr14_33,fr20_p1).
body(r_fr14_33,fr14_x2).
body(r_fr14_33,fr21_y2).
body(r_fr14_33,fr14_y2).
body(r_fr14_33,fr14_z2).
head(r_fr14_34,fr23_q3).
body(r_fr14_34,fr15_d2).
body(r_fr14_34,fr2_a1).
body(r_fr14_34,fr14_c1).
body(r_fr14_34,fr8_d2).
body(r_fr14_34,fr2_a3).
body(r_fr14_34,fr20_v3).
body(r_fr14_34,fr20_p1).
body(r_fr14_34,fr2_v4).
body(r_fr14_34,fr25_s3).
body(r_fr14_34,fr14_u2).
body(r_fr14_34,fr14_v1).
body(r_fr14_34,fr20_p1).
body(r_fr14_34,fr20_p1).
head(r_fr14_35,fr23_q3).
body(r_fr14_35,fr3_a1).
body(r_fr14_35,fr15_d2).
body(r_fr14_35,fr9_c1).
body(r_fr14_35,fr14_q4).
body(r_fr14_35,fr20_p1).
body(r_fr14_35,fr20_v3).
body(r_fr14_35,fr14_s2).
body(r_fr14_35,fr25_s3).
body(r_fr14_35,fr20_p1).
body(r_fr14_35,fr14_u2).
body(r_fr14_35,fr14_v1).
body(r_fr14_35,fr20_p1).
body(r_fr14_35,fr21_y2).
body(r_fr14_35,fr14_z2).
head(r_fr14_36,fr20_p1).
body(r_fr14_36,fr3_a1).
body(r_fr14_36,fr2_a3).
body(r_fr14_36,fr20_v3).
body(r_fr14_36,fr14_q4).
body(r_fr14_36,fr20_p1).
body(r_fr14_36,fr20_p1).
body(r_fr14_36,fr2_v4).
body(r_fr14_36,fr25_s3).
body(r_fr14_36,fr14_v3).
body(r_fr14_36,fr20_p1).
body(r_fr14_36,fr21_y2).
body(r_fr14_36,fr14_y3).
body(r_fr14_36,fr14_z2).
head(r_fr14_37,fr20_p1).
body(r_fr14_37,fr14_e2).
body(r_fr14_37,fr20_v3).
body(r_fr14_37,fr20_p1).
body(r_fr14_37,fr16_r3).
body(r_fr14_37,fr20_p1).
body(r_fr14_37,fr20_p1).
body(r_fr14_37,fr2_v4).
body(r_fr14_37,fr14_u2).
body(r_fr14_37,fr20_v3).
body(r_fr14_37,fr14_w1).
body(r_fr14_37,fr20_p1).
body(r_fr14_37,fr21_y2).
body(r_fr14_37,fr14_y2).
body(r_fr14_37,fr14_z2).
head(r_fr14_38,fr20_p1).
body(r_fr14_38,fr20_v3).
body(r_fr14_38,fr16_r3).
body(r_fr14_38,fr14_q4).
body(r_fr14_38,fr20_p1).
body(r_fr14_38,fr20_v3).
body(r_fr14_38,fr14_s2).
body(r_fr14_38,fr2_v4).
body(r_fr14_38,fr14_v1).
body(r_fr14_38,fr14_v3).
body(r_fr14_38,fr14_w1).
body(r_fr14_38,fr20_p1).
body(r_fr14_38,fr14_y2).
body(r_fr14_38,fr14_y3).
head(r_fr14_39,fr20_p1).
body(r_fr14_39,fr14_b1).
body(r_fr14_39,fr8_d2).
body(r_fr14_39,fr3_a1).
body(r_fr14_39,fr2_a3).
body(r_fr14_39,fr20_v3).
body(r_fr14_39,fr20_p1).
body(r_fr14_39,fr20_p1).
body(r_fr14_39,fr20_v3).
body(r_fr14_39,fr20_p1).
body(r_fr14_39,fr20_p1).
body(r_fr14_39,fr14_v1).
body(r_fr14_39,fr14_v2).
body(r_fr14_39,fr14_v3).
body(r_fr14_39,fr14_w1).
body(r_fr14_39,fr14_y2).
head(r_fr14_40,fr2_v4).
body(r_fr14_40,fr14_b1).
body(r_fr14_40,fr20_v3).
body(r_fr14_40,fr20_p1).
body(r_fr14_40,fr16_r3).
body(r_fr14_40,fr14_q4).
body(r_fr14_40,fr14_s2).
body(r_fr14_40,fr14_t3).
body(r_fr14_40,fr14_u2).
body(r_fr14_40,fr14_v2).
body(r_fr14_40,fr14_v3).
body(r_fr14_40,fr14_x2).
body(r_fr14_40,fr14_y3).
body(r_fr14_40,fr14_z2).
head(r_fr14_41,fr2_v4).
body(r_fr14_41,fr3_a1).
body(r_fr14_41,fr20_v3).
body(r_fr14_41,fr20_p1).
body(r_fr14_41,fr16_r3).
body(r_fr14_41,fr20_p1).
body(r_fr14_41,fr20_v3).
body(r_fr14_41,fr14_v2).
body(r_fr14_41,fr14_v3).
body(r_fr14_41,fr14_w1).
body(r_fr14_41,fr20_p1).
body(r_fr14_41,fr14_x2).
body(r_fr14_41,fr21_y2).
body(r_fr14_41,fr14_z2).
head(r_fr14_42,fr2_v4).
body(r_fr14_42,fr15_d2).
body(r_fr14_42,fr20_v3).
body(r_fr14_42,fr14_q4).
body(r_fr14_42,fr14_s2).
body(r_fr14_42,fr25_s3).
body(r_fr14_42,fr14_t3).
body(r_fr14_42,fr20_p1).
body(r_fr14_42,fr14_u2).
body(r_fr14_42,fr20_v3).
body(r_fr14_42,fr14_v1).
body(r_fr14_42,fr14_v3).
body(r_fr14_42,fr14_w1).
body(r_fr14_42,fr20_p1).
body(r_fr14_42,fr14_y3).
head(r_fr14_43,fr14_v1).
body(r_fr14_43,fr15_d2).
body(r_fr14_43,fr3_a1).
body(r_fr14_43,fr14_c1).
body(r_fr14_43,fr9_c1).
body(r_fr14_43,fr6_a3).
body(r_fr14_43,fr21_a3).
body(r_fr14_43,fr16_r3).
body(r_fr14_43,fr20_p1).
body(r_fr14_43,fr20_v3).
body(r_fr14_43,fr14_s2).
body(r_fr14_43,fr14_t3).
body(r_fr14_43,fr14_v3).
body(r_fr14_43,fr14_z2).
head(r_fr14_44,fr14_v1).
body(r_fr14_44,fr3_a1).
body(r_fr14_44,fr14_c1).
body(r_fr14_44,fr8_d2).
body(r_fr14_44,fr2_a3).
body(r_fr14_44,fr20_p1).
body(r_fr14_44,fr14_t3).
body(r_fr14_44,fr20_p1).
body(r_fr14_44,fr20_v3).
body(r_fr14_44,fr14_v2).
body(r_fr14_44,fr20_p1).
body(r_fr14_44,fr14_y2).
body(r_fr14_44,fr14_y3).
body(r_fr14_44,fr14_z2).
head(r_fr14_45,fr14_v1).
body(r_fr14_45,fr20_p1).
body(r_fr14_45,fr16_r3).
body(r_fr14_45,fr14_q4).
body(r_fr14_45,fr20_p1).
body(r_fr14_45,fr20_v3).
body(r_fr14_45,fr25_s3).
body(r_fr14_45,fr14_t3).
body(r_fr14_45,fr20_p1).
body(r_fr14_45,fr20_v3).
body(r_fr14_45,fr14_v2).
body(r_fr14_45,fr14_w1).
body(r_fr14_45,fr20_p1).
body(r_fr14_45,fr21_y2).
body(r_fr14_45,fr14_y3).
head(r_fr14_46,fr14_v1).
body(r_fr14_46,fr15_d2).
body(r_fr14_46,fr14_b1).
body(r_fr14_46,fr14_c1).
body(r_fr14_46,fr8_d2).
body(r_fr14_46,fr9_c1).
body(r_fr14_46,fr21_a3).
body(r_fr14_46,fr20_v3).
body(r_fr14_46,fr20_p1).
body(r_fr14_46,fr20_p1).
body(r_fr14_46,fr14_u2).
body(r_fr14_46,fr20_v3).
body(r_fr14_46,fr14_w1).
body(r_fr14_46,fr14_y2).
head(r_fr14_47,fr20_p1).
body(r_fr14_47,fr2_a1).
body(r_fr14_47,fr14_c1).
body(r_fr14_47,fr8_d2).
body(r_fr14_47,fr2_a3).
body(r_fr14_47,fr14_e2).
body(r_fr14_47,fr21_a3).
body(r_fr14_47,fr20_v3).
body(r_fr14_47,fr16_r3).
body(r_fr14_47,fr14_q4).
body(r_fr14_47,fr20_p1).
body(r_fr14_47,fr14_t3).
body(r_fr14_47,fr14_y2).
body(r_fr14_47,fr14_z2).
head(r_fr14_48,fr20_p1).
body(r_fr14_48,fr20_v3).
body(r_fr14_48,fr14_q4).
body(r_fr14_48,fr20_p1).
body(r_fr14_48,fr20_v3).
body(r_fr14_48,fr14_s2).
body(r_fr14_48,fr25_s3).
body(r_fr14_48,fr14_t3).
body(r_fr14_48,fr14_u2).
body(r_fr14_48,fr14_v2).
body(r_fr14_48,fr14_x2).
body(r_fr14_48,fr21_y2).
body(r_fr14_48,fr14_y3).
body(r_fr14_48,fr14_z2).
head(r_fr14_49,fr20_p1).
body(r_fr14_49,fr20_v3).
body(r_fr14_49,fr20_p1).
body(r_fr14_49,fr20_v3).
body(r_fr14_49,fr14_s2).
body(r_fr14_49,fr20_p1).
body(r_fr14_49,fr25_s3).
body(r_fr14_49,fr20_p1).
body(r_fr14_49,fr14_u2).
body(r_fr14_49,fr14_v2).
body(r_fr14_49,fr14_w1).
body(r_fr14_49,fr21_y2).
body(r_fr14_49,fr14_y2).
head(r_fr14_50,fr20_p1).
body(r_fr14_50,fr14_c1).
body(r_fr14_50,fr3_a1).
body(r_fr14_50,fr20_v3).
body(r_fr14_50,fr20_p1).
body(r_fr14_50,fr16_r3).
body(r_fr14_50,fr20_p1).
body(r_fr14_50,fr20_v3).
body(r_fr14_50,fr25_s3).
body(r_fr14_50,fr14_t3).
body(r_fr14_50,fr20_p1).
body(r_fr14_50,fr14_u2).
body(r_fr14_50,fr14_v2).
body(r_fr14_50,fr14_x2).
head(r_fr14_51,fr20_p1).
body(r_fr14_51,fr14_b1).
body(r_fr14_51,fr21_a3).
body(r_fr14_51,fr20_v3).
body(r_fr14_51,fr20_p1).
body(r_fr14_51,fr20_v3).
body(r_fr14_51,fr14_s2).
body(r_fr14_51,fr25_s3).
body(r_fr14_51,fr20_p1).
body(r_fr14_51,fr14_u2).
body(r_fr14_51,fr14_v2).
body(r_fr14_51,fr21_y2).
body(r_fr14_51,fr14_z2).
head(r_fr14_52,fr20_p1).
body(r_fr14_52,fr3_a1).
body(r_fr14_52,fr3_a1).
body(r_fr14_52,fr3_a1).
body(r_fr14_52,fr14_c1).
body(r_fr14_52,fr8_d2).
body(r_fr14_52,fr20_v3).
body(r_fr14_52,fr20_p1).
body(r_fr14_52,fr20_p1).
body(r_fr14_52,fr14_t3).
body(r_fr14_52,fr14_v3).
body(r_fr14_52,fr14_w1).
body(r_fr14_52,fr14_x2).
body(r_fr14_52,fr21_y2).
body(r_fr14_52,fr14_y2).
body(r_fr14_52,fr14_y3).
head(r_fr14_53,fr20_p1).
body(r_fr14_53,fr3_a1).
body(r_fr14_53,fr2_a1).
body(r_fr14_53,fr14_c1).
body(r_fr14_53,fr8_d2).
body(r_fr14_53,fr21_a3).
body(r_fr14_53,fr20_p1).
body(r_fr14_53,fr14_q4).
body(r_fr14_53,fr20_p1).
body(r_fr14_53,fr20_v3).
body(r_fr14_53,fr14_v3).
body(r_fr14_53,fr14_y2).
body(r_fr14_53,fr14_y3).
head(r_fr14_54,fr20_p1).
body(r_fr14_54,fr3_a1).
body(r_fr14_54,fr15_d2).
body(r_fr14_54,fr3_a1).
body(r_fr14_54,fr3_a1).
body(r_fr14_54,fr14_e2).
body(r_fr14_54,fr20_v3).
body(r_fr14_54,fr16_r3).
body(r_fr14_54,fr14_q4).
body(r_fr14_54,fr20_p1).
body(r_fr14_54,fr25_s3).
body(r_fr14_54,fr14_t3).
body(r_fr14_54,fr14_v3).
body(r_fr14_54,fr14_w1).
body(r_fr14_54,fr14_y2).
body(r_fr14_54,fr14_z2).
head(r_fr14_55,fr20_p1).
body(r_fr14_55,fr14_c1).
body(r_fr14_55,fr8_d2).
body(r_fr14_55,fr3_a1).
body(r_fr14_55,fr14_e2).
body(r_fr14_55,fr21_a3).
body(r_fr14_55,fr2_a3).
body(r_fr14_55,fr20_v3).
body(r_fr14_55,fr16_r3).
body(r_fr14_55,fr14_q4).
body(r_fr14_55,fr20_v3).
body(r_fr14_55,fr20_p1).
body(r_fr14_55,fr14_u2).
body(r_fr14_55,fr14_v2).
body(r_fr14_55,fr14_w1).
body(r_fr14_55,fr14_y2).
head(r_fr14_56,fr20_p1).
body(r_fr14_56,fr3_a1).
body(r_fr14_56,fr8_d2).
body(r_fr14_56,fr9_c1).
body(r_fr14_56,fr16_r3).
body(r_fr14_56,fr14_q4).
body(r_fr14_56,fr20_p1).
body(r_fr14_56,fr20_v3).
body(r_fr14_56,fr14_u2).
body(r_fr14_56,fr20_v3).
body(r_fr14_56,fr14_v2).
body(r_fr14_56,fr14_w1).
body(r_fr14_56,fr14_x2).
body(r_fr14_56,fr14_y2).
body(r_fr14_56,fr14_y3).
body(r_fr14_56,fr14_z2).
head(r_fr14_57,fr20_p1).
body(r_fr14_57,fr14_b1).
body(r_fr14_57,fr3_a1).
body(r_fr14_57,fr14_e2).
body(r_fr14_57,fr21_a3).
body(r_fr14_57,fr20_v3).
body(r_fr14_57,fr16_r3).
body(r_fr14_57,fr14_q4).
body(r_fr14_57,fr20_p1).
body(r_fr14_57,fr20_v3).
body(r_fr14_57,fr14_s2).
body(r_fr14_57,fr14_t3).
body(r_fr14_57,fr14_u2).
body(r_fr14_57,fr14_v3).
body(r_fr14_57,fr14_w1).
body(r_fr14_57,fr14_x2).
head(r_fr14_58,fr20_p1).
body(r_fr14_58,fr3_a1).
body(r_fr14_58,fr3_a1).
body(r_fr14_58,fr2_a1).
body(r_fr14_58,fr8_d2).
body(r_fr14_58,fr6_a3).
body(r_fr14_58,fr21_a3).
body(r_fr14_58,fr20_v3).
body(r_fr14_58,fr20_v3).
body(r_fr14_58,fr20_p1).
body(r_fr14_58,fr25_s3).
body(r_fr14_58,fr20_v3).
body(r_fr14_58,fr14_v3).
body(r_fr14_58,fr14_w1).
body(r_fr14_58,fr21_y2).
body(r_fr14_58,fr14_z2).
head(r_fr14_59,fr14_x2).
body(r_fr14_59,fr14_c1).
body(r_fr14_59,fr3_a1).
body(r_fr14_59,fr16_r3).
body(r_fr14_59,fr14_q4).
body(r_fr14_59,fr20_p1).
body(r_fr14_59,fr20_v3).
body(r_fr14_59,fr20_p1).
body(r_fr14_59,fr25_s3).
body(r_fr14_59,fr14_u2).
body(r_fr14_59,fr20_v3).
body(r_fr14_59,fr14_v2).
body(r_fr14_59,fr14_v3).
body(r_fr14_59,fr21_y2).
body(r_fr14_59,fr14_z2).
head(r_fr14_60,fr14_x2).
body(r_fr14_60,fr3_a1).
body(r_fr14_60,fr21_a3).
body(r_fr14_60,fr20_v3).
body(r_fr14_60,fr16_r3).
body(r_fr14_60,fr14_q4).
body(r_fr14_60,fr20_v3).
body(r_fr14_60,fr14_s2).
body(r_fr14_60,fr20_p1).
body(r_fr14_60,fr25_s3).
body(r_fr14_60,fr14_u2).
body(r_fr14_60,fr14_v3).
body(r_fr14_60,fr14_w1).
body(r_fr14_60,fr21_y2).
body(r_fr14_60,fr14_y3).
body(r_fr14_60,fr14_z2).
head(r_fr14_61,fr14_z2).
body(r_fr14_61,fr20_v3).
body(r_fr14_61,fr16_r3).
body(r_fr14_61,fr20_p1).
body(r_fr14_61,fr20_v3).
body(r_fr14_61,fr14_s2).
body(r_fr14_61,fr20_p1).
body(r_fr14_61,fr25_s3).
body(r_fr14_61,fr14_t3).
body(r_fr14_61,fr14_u2).
body(r_fr14_61,fr20_v3).
body(r_fr14_61,fr14_v2).
body(r_fr14_61,fr14_v3).
body(r_fr14_61,fr14_w1).
body(r_fr14_61,fr21_y2).
body(r_fr14_61,fr14_y2).
head(r_fr14_62,fr14_z2).
body(r_fr14_62,fr14_c1).
body(r_fr14_62,fr8_d2).
body(r_fr14_62,fr20_v3).
body(r_fr14_62,fr14_q4).
body(r_fr14_62,fr20_p1).
body(r_fr14_62,fr20_v3).
body(r_fr14_62,fr20_v3).
body(r_fr14_62,fr14_v2).
body(r_fr14_62,fr14_v3).
body(r_fr14_62,fr14_w1).
body(r_fr14_62,fr21_y2).
body(r_fr14_62,fr14_y2).
head(r_fr14_63,fr21_y2).
body(r_fr14_63,fr14_c1).
body(r_fr14_63,fr8_d2).
body(r_fr14_63,fr14_e2).
body(r_fr14_63,fr21_a3).
body(r_fr14_63,fr20_v3).
body(r_fr14_63,fr16_r3).
body(r_fr14_63,fr20_v3).
body(r_fr14_63,fr25_s3).
body(r_fr14_63,fr14_v2).
body(r_fr14_63,fr14_v3).
body(r_fr14_63,fr14_w1).
body(r_fr14_63,fr14_y3).
head(r_fr14_64,fr21_y2).
body(r_fr14_64,fr2_a3).
body(r_fr14_64,fr20_v3).
body(r_fr14_64,fr16_r3).
body(r_fr14_64,fr14_q4).
body(r_fr14_64,fr20_p1).
body(r_fr14_64,fr14_s2).
body(r_fr14_64,fr14_t3).
body(r_fr14_64,fr14_u2).
body(r_fr14_64,fr20_v3).
body(r_fr14_64,fr14_v2).
body(r_fr14_64,fr14_v3).
body(r_fr14_64,fr14_w1).
body(r_fr14_64,fr14_y3).
head(r_fr14_65,fr14_q4).
body(r_fr14_65,fr15_d2).
body(r_fr14_65,fr3_a1).
body(r_fr14_65,fr14_c1).
body(r_fr14_65,fr8_d2).
body(r_fr14_65,fr3_a1).
body(r_fr14_65,fr9_c1).
body(r_fr14_65,fr16_r3).
body(r_fr14_65,fr20_v3).
body(r_fr14_65,fr14_s2).
body(r_fr14_65,fr20_p1).
body(r_fr14_65,fr14_t3).
body(r_fr14_65,fr14_u2).
body(r_fr14_65,fr20_v3).
body(r_fr14_65,fr14_v2).
body(r_fr14_65,fr14_y2).
head(r_fr14_66,fr14_q4).
body(r_fr14_66,fr14_b1).
body(r_fr14_66,fr3_a1).
body(r_fr14_66,fr14_e2).
body(r_fr14_66,fr20_v3).
body(r_fr14_66,fr20_p1).
body(r_fr14_66,fr20_v3).
body(r_fr14_66,fr14_s2).
body(r_fr14_66,fr20_p1).
body(r_fr14_66,fr25_s3).
body(r_fr14_66,fr14_u2).
body(r_fr14_66,fr14_v2).
body(r_fr14_66,fr14_w1).
body(r_fr14_66,fr14_y2).
body(r_fr14_66,fr14_y3).
head(r_fr14_67,fr14_q4).
body(r_fr14_67,fr20_v3).
body(r_fr14_67,fr16_r3).
body(r_fr14_67,fr20_p1).
body(r_fr14_67,fr20_v3).
body(r_fr14_67,fr14_s2).
body(r_fr14_67,fr20_p1).
body(r_fr14_67,fr25_s3).
body(r_fr14_67,fr14_t3).
body(r_fr14_67,fr14_u2).
body(r_fr14_67,fr20_v3).
body(r_fr14_67,fr14_v2).
body(r_fr14_67,fr14_v3).
body(r_fr14_67,fr14_w1).
body(r_fr14_67,fr14_y2).
body(r_fr14_67,fr14_y3).
head(r_fr14_68,fr14_q4).
body(r_fr14_68,fr14_b1).
body(r_fr14_68,fr2_a3).
body(r_fr14_68,fr21_a3).
body(r_fr14_68,fr20_v3).
body(r_fr14_68,fr16_r3).
body(r_fr14_68,fr20_p1).
body(r_fr14_68,fr20_v3).
body(r_fr14_68,fr14_s2).
body(r_fr14_68,fr25_s3).
body(r_fr14_68,fr14_t3).
body(r_fr14_68,fr14_u2).
body(r_fr14_68,fr20_v3).
body(r_fr14_68,fr14_v2).
body(r_fr14_68,fr14_v3).
body(r_fr14_68,fr14_y2).
head(r_fr14_69,fr14_q4).
body(r_fr14_69,fr3_a1).
body(r_fr14_69,fr14_c1).
body(r_fr14_69,fr20_v3).
body(r_fr14_69,fr20_p1).
body(r_fr14_69,fr20_v3).
body(r_fr14_69,fr20_p1).
body(r_fr14_69,fr25_s3).
body(r_fr14_69,fr14_t3).
body(r_fr14_69,fr14_u2).
body(r_fr14_69,fr14_v3).
body(r_fr14_69,fr14_w1).
body(r_fr14_69,fr14_y2).
body(r_fr14_69,fr14_y3).

assumption(fr15_a1).
assumption(fr22_e2).
assumption(fr3_e1).
assumption(fr15_d1).
assumption(fr15_e1).
assumption(fr3_a1).
assumption(fr15_a2).
assumption(fr15_b2).
assumption(fr15_c2).
assumption(fr15_d2).
assumption(fr15_e2).
assumption(fr15_f2).
assumption(fr15_a3).
assumption(fr15_b3).
assumption(fr3_a1).
contrary(fr15_a1,fr15_e2).
contrary(fr15_a2,fr23_r2).
contrary(fr15_a3,fr15_z4).
contrary(fr22_e2,fr3_a1).
contrary(fr15_b2,fr15_z4).
contrary(fr15_b3,fr3_a1).
contrary(fr3_e1,fr1_z1).
contrary(fr15_c2,fr15_a1).
contrary(fr3_a1,fr15_y3).
contrary(fr15_d1,fr17_w1).
contrary(fr15_d2,fr15_v1).
contrary(fr15_e1,fr15_u4).
contrary(fr15_e2,fr15_p4).
contrary(fr3_a1,fr15_r1).
contrary(fr15_f2,fr15_a3).
head(r_fr15_0,fr17_w1).
body(r_fr15_0,fr20_q3).
body(r_fr15_0,fr15_t4).
body(r_fr15_0,fr20_p1).
head(r_fr15_1,fr17_w1).
body(r_fr15_1,fr15_t4).
body(r_fr15_1,fr2_x3).
head(r_fr15_2,fr17_w1).
body(r_fr15_2,fr15_x4).
head(r_fr15_3,fr17_w1).
head(r_fr15_4,fr15_q3).
body(r_fr15_4,fr15_c2).
body(r_fr15_4,fr3_u2).
head(r_fr15_5,fr15_q3).
body(r_fr15_5,fr3_e1).
head(r_fr15_6,fr15_q3).
body(r_fr15_6,fr15_a1).
body(r_fr15_6,fr3_e1).
body(r_fr15_6,fr3_a1).
body(r_fr15_6,fr15_p1).
body(r_fr15_6,fr15_t2).
body(r_fr15_6,fr15_v4).
head(r_fr15_7,fr8_p2).
head(r_fr15_8,fr8_p2).
body(r_fr15_8,fr15_a1).
body(r_fr15_8,fr15_b3).
body(r_fr15_8,fr15_c2).
body(r_fr15_8,fr15_e1).
body(r_fr15_8,fr15_e2).
body(r_fr15_8,fr3_a1).
head(r_fr15_9,fr8_p2).
body(r_fr15_9,fr15_c2).
body(r_fr15_9,fr15_d1).
body(r_fr15_9,fr15_t2).
body(r_fr15_9,fr17_w1).
body(r_fr15_9,fr15_w1).
head(r_fr15_10,fr8_p2).
body(r_fr15_10,fr15_a2).
body(r_fr15_10,fr2_x3).
head(r_fr15_11,fr25_t1).
body(r_fr15_11,fr15_p5).
head(r_fr15_12,fr25_t1).
body(r_fr15_12,fr15_a1).
body(r_fr15_12,fr3_a1).
head(r_fr15_13,fr25_t1).
body(r_fr15_13,fr1_z1).
body(r_fr15_13,fr20_v3).
body(r_fr15_13,fr20_p1).
head(r_fr15_14,fr25_t1).
body(r_fr15_14,fr3_a1).
head(r_fr15_15,fr25_t1).
head(r_fr15_16,fr20_v3).
body(r_fr15_16,fr3_a1).
body(r_fr15_16,fr15_d1).
body(r_fr15_16,fr15_q2).
body(r_fr15_16,fr20_p1).
head(r_fr15_17,fr20_v3).
body(r_fr15_17,fr22_e2).
body(r_fr15_17,fr15_d2).
head(r_fr15_18,fr15_u4).
body(r_fr15_18,fr15_e2).
body(r_fr15_18,fr25_t1).
body(r_fr15_18,fr15_t1).
body(r_fr15_18,fr20_p1).
head(r_fr15_19,fr15_u4).
body(r_fr15_19,fr15_c2).
body(r_fr15_19,fr15_d1).
body(r_fr15_19,fr15_e1).
body(r_fr15_19,fr15_e2).
body(r_fr15_19,fr15_p4).
head(r_fr15_20,fr15_u4).
body(r_fr15_20,fr20_p1).
head(r_fr15_21,fr15_u4).
body(r_fr15_21,fr19_v1).
body(r_fr15_21,fr17_w1).
body(r_fr15_21,fr20_p1).
body(r_fr15_21,fr15_z4).
head(r_fr15_22,fr20_p1).
head(r_fr15_23,fr20_p1).
body(r_fr15_23,fr15_a3).
body(r_fr15_23,fr15_d2).
body(r_fr15_23,fr15_w1).
head(r_fr15_24,fr2_x3).
body(r_fr15_24,fr15_a1).
body(r_fr15_24,fr3_e1).
body(r_fr15_24,fr15_t4).
body(r_fr15_24,fr15_x1).
head(r_fr15_25,fr2_x3).
head(r_fr15_26,fr2_x3).
body(r_fr15_26,fr15_a2).
body(r_fr15_26,fr15_a3).
body(r_fr15_26,fr15_b3).
body(r_fr15_26,fr3_a1).
body(r_fr15_26,fr3_a1).
body(r_fr15_26,fr15_t2).
head(r_fr15_27,fr15_s2).
body(r_fr15_27,fr15_f2).
body(r_fr15_27,fr15_u3).
body(r_fr15_27,fr17_w1).
body(r_fr15_27,fr15_y2).
body(r_fr15_27,fr15_z4).
head(r_fr15_28,fr15_s2).
body(r_fr15_28,fr20_q3).
body(r_fr15_28,fr15_v3).
head(r_fr15_29,fr15_q4).
body(r_fr15_29,fr15_a1).
body(r_fr15_29,fr15_b2).
body(r_fr15_29,fr15_c2).
body(r_fr15_29,fr3_a1).
body(r_fr15_29,fr15_f2).
head(r_fr15_30,fr15_q4).
body(r_fr15_30,fr3_a1).
body(r_fr15_30,fr20_q3).
head(r_fr15_31,fr15_q4).
body(r_fr15_31,fr15_b3).
head(r_fr15_32,fr15_q4).
head(r_fr15_33,fr15_q4).
body(r_fr15_33,fr15_y2).
head(r_fr15_34,fr15_t2).
body(r_fr15_34,fr15_a3).
body(r_fr15_34,fr3_a1).
head(r_fr15_35,fr15_t2).
head(r_fr15_36,fr15_t2).
body(r_fr15_36,fr15_b3).
body(r_fr15_36,fr15_d2).
body(r_fr15_36,fr15_e1).
body(r_fr15_36,fr15_e2).
body(r_fr15_36,fr15_f2).
body(r_fr15_36,fr15_s3).
head(r_fr15_37,fr15_y2).
body(r_fr15_37,fr15_a1).
body(r_fr15_37,fr15_c2).
body(r_fr15_37,fr3_a1).
body(r_fr15_37,fr15_d2).
head(r_fr15_38,fr15_y2).
body(r_fr15_38,fr22_e2).
body(r_fr15_38,fr15_d1).
body(r_fr15_38,fr15_e1).
head(r_fr15_39,fr15_s3).
body(r_fr15_39,fr15_d1).
body(r_fr15_39,fr15_f2).
body(r_fr15_39,fr15_q4).
body(r_fr15_39,fr16_z2).
body(r_fr15_39,fr2_x3).
head(r_fr15_40,fr15_s3).
body(r_fr15_40,fr15_x4).
head(r_fr15_41,fr15_s3).
head(r_fr15_42,fr15_p4).
body(r_fr15_42,fr20_v3).
head(r_fr15_43,fr15_p4).
head(r_fr15_44,fr19_v1).
head(r_fr15_45,fr19_v1).
body(r_fr15_45,fr15_v3).
body(r_fr15_45,fr15_y3).
head(r_fr15_46,fr19_v1).
body(r_fr15_46,fr15_a1).
body(r_fr15_46,fr15_b3).
body(r_fr15_46,fr15_u4).
body(r_fr15_46,fr15_v3).
body(r_fr15_46,fr23_r2).
head(r_fr15_47,fr15_x4).
body(r_fr15_47,fr22_e2).
body(r_fr15_47,fr15_p5).
body(r_fr15_47,fr3_u2).
body(r_fr15_47,fr15_x1).
body(r_fr15_47,fr20_p1).
head(r_fr15_48,fr15_x4).
body(r_fr15_48,fr15_d2).
body(r_fr15_48,fr3_a1).
body(r_fr15_48,fr15_f2).
head(r_fr15_49,fr15_x4).
body(r_fr15_49,fr15_q2).
body(r_fr15_49,fr15_t2).
body(r_fr15_49,fr15_w1).
head(r_fr15_50,fr15_x4).
body(r_fr15_50,fr22_e2).
body(r_fr15_50,fr15_b3).
body(r_fr15_50,fr15_u3).
body(r_fr15_50,fr20_p1).
head(r_fr15_51,fr15_x4).
body(r_fr15_51,fr15_b3).
body(r_fr15_51,fr3_a1).
body(r_fr15_51,fr20_p1).
body(r_fr15_51,fr15_y1).
body(r_fr15_51,fr23_r2).
head(r_fr15_52,fr23_r2).
body(r_fr15_52,fr15_a1).
body(r_fr15_52,fr15_p4).
body(r_fr15_52,fr15_u4).
head(r_fr15_53,fr23_r2).
body(r_fr15_53,fr15_x1).
body(r_fr15_53,fr20_v3).
body(r_fr15_53,fr15_y3).
body(r_fr15_53,fr20_p1).
head(r_fr15_54,fr20_p1).
body(r_fr15_54,fr15_a2).
body(r_fr15_54,fr22_e2).
body(r_fr15_54,fr3_a1).
body(r_fr15_54,fr15_e2).
body(r_fr15_54,fr3_a1).
head(r_fr15_55,fr20_p1).
body(r_fr15_55,fr15_c2).
body(r_fr15_55,fr3_a1).
body(r_fr15_55,fr15_p1).
head(r_fr15_56,fr20_p1).
body(r_fr15_56,fr3_a1).
body(r_fr15_56,fr15_e2).
body(r_fr15_56,fr15_f2).
body(r_fr15_56,fr15_q2).
body(r_fr15_56,fr15_q4).
head(r_fr15_57,fr23_r2).
body(r_fr15_57,fr15_b3).
body(r_fr15_57,fr19_v1).
body(r_fr15_57,fr20_p1).
body(r_fr15_57,fr15_s3).
body(r_fr15_57,fr15_u3).
body(r_fr15_57,fr15_v4).
head(r_fr15_58,fr23_r2).
body(r_fr15_58,fr15_a2).
body(r_fr15_58,fr15_a3).
body(r_fr15_58,fr22_e2).
body(r_fr15_58,fr15_b3).
body(r_fr15_58,fr15_e2).
body(r_fr15_58,fr17_w1).
head(r_fr15_59,fr23_r2).
body(r_fr15_59,fr15_a1).
body(r_fr15_59,fr3_a1).
body(r_fr15_59,fr15_e1).
body(r_fr15_59,fr15_f2).
body(r_fr15_59,fr15_v3).
head(r_fr15_60,fr23_r2).
head(r_fr15_61,fr15_y3).
body(r_fr15_61,fr15_b3).
body(r_fr15_61,fr15_q3).
body(r_fr15_61,fr15_z4).
head(r_fr15_62,fr15_y3).
body(r_fr15_62,fr12_p3).
head(r_fr15_63,fr15_y3).
body(r_fr15_63,fr19_v1).
head(r_fr15_64,fr15_y3).
body(r_fr15_64,fr22_e2).
body(r_fr15_64,fr15_b3).
body(r_fr15_64,fr15_e2).
body(r_fr15_64,fr1_z1).
head(r_fr15_65,fr15_y3).
body(r_fr15_65,fr3_e1).
body(r_fr15_65,fr15_t2).

assumption(fr16_a1).
assumption(fr3_a1).
assumption(fr15_d2).
assumption(fr2_e3).
assumption(fr16_e1).
assumption(fr16_f1).
assumption(fr2_e3).
assumption(fr3_a1).
assumption(fr2_a3).
assumption(fr10_b2).
assumption(fr2_a3).
assumption(fr3_a1).
assumption(fr16_a3).
assumption(fr3_a1).
assumption(fr3_a1).
contrary(fr16_a1,fr23_w1).
contrary(fr2_e3,fr19_y3).
contrary(fr16_a3,fr10_b2).
contrary(fr3_a1,fr16_e1).
contrary(fr3_a1,fr15_d2).
contrary(fr3_a1,fr16_a1).
contrary(fr15_d2,fr11_u4).
contrary(fr2_a3,fr16_r3).
contrary(fr3_a1,fr16_a3).
contrary(fr2_e3,fr3_a1).
contrary(fr10_b2,fr16_q3).
contrary(fr16_e1,fr14_s2).
contrary(fr2_a3,fr3_a1).
contrary(fr16_f1,fr19_y3).
contrary(fr3_a1,fr14_s2).
head(r_fr16_0,fr20_p1).
body(r_fr16_0,fr3_a1).
body(r_fr16_0,fr19_y3).
body(r_fr16_0,fr25_u2).
body(r_fr16_0,fr16_z2).
head(r_fr16_1,fr20_p1).
head(r_fr16_2,fr20_p1).
body(r_fr16_2,fr10_b2).
head(r_fr16_3,fr20_p1).
body(r_fr16_3,fr16_a1).
body(r_fr16_3,fr2_e3).
body(r_fr16_3,fr2_e3).
body(r_fr16_3,fr16_f1).
body(r_fr16_3,fr11_u4).
head(r_fr16_4,fr20_p1).
body(r_fr16_4,fr5_x2).
body(r_fr16_4,fr16_x1).
head(r_fr16_5,fr20_p1).
body(r_fr16_5,fr2_e3).
body(r_fr16_5,fr3_a1).
body(r_fr16_5,fr16_f1).
body(r_fr16_5,fr3_a1).
body(r_fr16_5,fr20_p1).
body(r_fr16_5,fr16_y2).
head(r_fr16_6,fr20_p1).
body(r_fr16_6,fr19_y3).
body(r_fr16_6,fr16_p3).
body(r_fr16_6,fr5_x2).
body(r_fr16_6,fr16_w2).
head(r_fr16_7,fr20_p1).
body(r_fr16_7,fr25_u2).
head(r_fr16_8,fr20_p1).
body(r_fr16_8,fr3_a1).
body(r_fr16_8,fr10_b2).
body(r_fr16_8,fr16_f1).
body(r_fr16_8,fr16_z2).
head(r_fr16_9,fr20_p1).
body(r_fr16_9,fr3_a1).
body(r_fr16_9,fr2_e3).
body(r_fr16_9,fr10_b2).
body(r_fr16_9,fr16_e1).
head(r_fr16_10,fr20_p1).
body(r_fr16_10,fr16_p3).
body(r_fr16_10,fr5_x2).
body(r_fr16_10,fr16_w2).
body(r_fr16_10,fr14_s2).
head(r_fr16_11,fr20_p1).
body(r_fr16_11,fr16_a1).
body(r_fr16_11,fr2_e3).
body(r_fr16_11,fr3_a1).
body(r_fr16_11,fr2_e3).
head(r_fr16_12,fr20_p1).
body(r_fr16_12,fr8_t1).
body(r_fr16_12,fr5_x2).
body(r_fr16_12,fr25_u2).
body(r_fr16_12,fr16_w2).
body(r_fr16_12,fr16_x1).
body(r_fr16_12,fr16_y2).
head(r_fr16_13,fr20_p1).
body(r_fr16_13,fr3_a1).
body(r_fr16_13,fr3_a1).
body(r_fr16_13,fr16_y2).
head(r_fr16_14,fr16_p3).
body(r_fr16_14,fr16_r3).
body(r_fr16_14,fr17_w1).
head(r_fr16_15,fr16_p3).
body(r_fr16_15,fr2_a3).
body(r_fr16_15,fr3_a1).
body(r_fr16_15,fr25_u2).
body(r_fr16_15,fr14_s2).
body(r_fr16_15,fr17_w1).
head(r_fr16_16,fr16_p3).
body(r_fr16_16,fr3_a1).
body(r_fr16_16,fr3_a1).
body(r_fr16_16,fr2_a3).
head(r_fr16_17,fr16_p3).
body(r_fr16_17,fr16_a1).
body(r_fr16_17,fr3_a1).
body(r_fr16_17,fr2_e3).
body(r_fr16_17,fr2_a3).
body(r_fr16_17,fr3_a1).
head(r_fr16_18,fr16_p3).
body(r_fr16_18,fr19_y3).
body(r_fr16_18,fr16_q2).
body(r_fr16_18,fr16_q3).
body(r_fr16_18,fr16_r3).
body(r_fr16_18,fr25_u2).
body(r_fr16_18,fr14_s2).
head(r_fr16_19,fr16_p3).
body(r_fr16_19,fr2_a3).
body(r_fr16_19,fr2_a3).
body(r_fr16_19,fr20_p1).
head(r_fr16_20,fr16_p3).
head(r_fr16_21,fr16_p3).
body(r_fr16_21,fr2_a3).
body(r_fr16_21,fr16_q1).
body(r_fr16_21,fr16_q3).
body(r_fr16_21,fr14_s2).
head(r_fr16_22,fr16_p3).
body(r_fr16_22,fr16_q3).
body(r_fr16_22,fr16_r3).
head(r_fr16_23,fr16_p3).
body(r_fr16_23,fr8_t1).
body(r_fr16_23,fr23_w1).
head(r_fr16_24,fr16_p3).
body(r_fr16_24,fr25_u2).
body(r_fr16_24,fr20_p1).
head(r_fr16_25,fr16_p3).
body(r_fr16_25,fr16_f1).
body(r_fr16_25,fr8_t1).
head(r_fr16_26,fr16_p3).
body(r_fr16_26,fr16_a1).
body(r_fr16_26,fr3_a1).
body(r_fr16_26,fr3_a1).
body(r_fr16_26,fr2_e3).
body(r_fr16_26,fr16_f1).
body(r_fr16_26,fr20_p1).
head(r_fr16_27,fr16_p3).
body(r_fr16_27,fr3_a1).
body(r_fr16_27,fr19_y3).
body(r_fr16_27,fr8_t1).
body(r_fr16_27,fr25_u2).
body(r_fr16_27,fr20_p1).
head(r_fr16_28,fr16_q1).
body(r_fr16_28,fr16_a1).
body(r_fr16_28,fr16_y2).
head(r_fr16_29,fr16_q1).
body(r_fr16_29,fr22_t1).
body(r_fr16_29,fr16_w2).
head(r_fr16_30,fr16_q1).
body(r_fr16_30,fr16_f1).
head(r_fr16_31,fr16_q1).
body(r_fr16_31,fr11_u4).
body(r_fr16_31,fr20_p1).
body(r_fr16_31,fr23_w1).
head(r_fr16_32,fr16_q1).
body(r_fr16_32,fr3_a1).
body(r_fr16_32,fr10_b2).
head(r_fr16_33,fr16_q1).
body(r_fr16_33,fr3_a1).
body(r_fr16_33,fr15_d2).
body(r_fr16_33,fr2_e3).
body(r_fr16_33,fr16_f1).
body(r_fr16_33,fr16_w2).
body(r_fr16_33,fr16_y2).
head(r_fr16_34,fr16_q1).
body(r_fr16_34,fr16_a3).
body(r_fr16_34,fr2_e3).
body(r_fr16_34,fr2_a3).
body(r_fr16_34,fr20_p1).
body(r_fr16_34,fr22_t1).
body(r_fr16_34,fr14_s2).
head(r_fr16_35,fr16_q1).
body(r_fr16_35,fr19_y3).
head(r_fr16_36,fr16_q1).
body(r_fr16_36,fr16_a1).
body(r_fr16_36,fr16_r3).
head(r_fr16_37,fr16_q1).
body(r_fr16_37,fr3_a1).
body(r_fr16_37,fr10_b2).
body(r_fr16_37,fr25_u2).
body(r_fr16_37,fr23_w1).
body(r_fr16_37,fr14_s2).
body(r_fr16_37,fr16_y2).
head(r_fr16_38,fr16_q1).
body(r_fr16_38,fr20_p1).
head(r_fr16_39,fr16_q1).
body(r_fr16_39,fr3_a1).
body(r_fr16_39,fr3_a1).
body(r_fr16_39,fr16_f1).
head(r_fr16_40,fr16_q1).
body(r_fr16_40,fr16_r3).
head(r_fr16_41,fr19_y3).
body(r_fr16_41,fr2_e3).
head(r_fr16_42,fr19_y3).
body(r_fr16_42,fr16_a1).
body(r_fr16_42,fr3_a1).
body(r_fr16_42,fr3_a1).
body(r_fr16_42,fr2_a3).
body(r_fr16_42,fr19_y3).
body(r_fr16_42,fr16_p3).
head(r_fr16_43,fr19_y3).
body(r_fr16_43,fr16_p3).
body(r_fr16_43,fr17_w1).
head(r_fr16_44,fr19_y3).
body(r_fr16_44,fr20_p1).
head(r_fr16_45,fr19_y3).
body(r_fr16_45,fr16_a3).
body(r_fr16_45,fr16_p3).
body(r_fr16_45,fr14_s2).
body(r_fr16_45,fr16_z2).
head(r_fr16_46,fr19_y3).
body(r_fr16_46,fr25_u2).
head(r_fr16_47,fr19_y3).
body(r_fr16_47,fr2_e3).
body(r_fr16_47,fr10_b2).
body(r_fr16_47,fr16_f1).
body(r_fr16_47,fr16_p3).
body(r_fr16_47,fr16_w2).
head(r_fr16_48,fr19_y3).
body(r_fr16_48,fr16_x1).
head(r_fr16_49,fr19_y3).
body(r_fr16_49,fr3_a1).
body(r_fr16_49,fr10_b2).
body(r_fr16_49,fr16_e1).
body(r_fr16_49,fr3_a1).
head(r_fr16_50,fr19_y3).
body(r_fr16_50,fr15_d2).
body(r_fr16_50,fr2_e3).
body(r_fr16_50,fr10_b2).
body(r_fr16_50,fr16_e1).
body(r_fr16_50,fr2_a3).
head(r_fr16_51,fr19_y3).
body(r_fr16_51,fr19_y3).
body(r_fr16_51,fr16_r3).
body(r_fr16_51,fr20_p1).
body(r_fr16_51,fr23_w1).
body(r_fr16_51,fr20_p1).
body(r_fr16_51,fr16_z2).
head(r_fr16_52,fr19_y3).
body(r_fr16_52,fr10_b2).
body(r_fr16_52,fr16_e1).
body(r_fr16_52,fr16_p3).
body(r_fr16_52,fr5_x2).
body(r_fr16_52,fr16_y2).
head(r_fr16_53,fr19_y3).
body(r_fr16_53,fr16_r3).
body(r_fr16_53,fr20_p1).
head(r_fr16_54,fr19_y3).
head(r_fr16_55,fr16_x1).
body(r_fr16_55,fr3_a1).
body(r_fr16_55,fr2_a3).
body(r_fr16_55,fr5_x2).
head(r_fr16_56,fr16_x1).
body(r_fr16_56,fr16_f1).
body(r_fr16_56,fr11_u4).
body(r_fr16_56,fr8_t1).
head(r_fr16_57,fr16_x1).
body(r_fr16_57,fr3_a1).
body(r_fr16_57,fr16_q3).
body(r_fr16_57,fr8_t1).
body(r_fr16_57,fr16_w2).
head(r_fr16_58,fr16_x1).
body(r_fr16_58,fr15_d2).
body(r_fr16_58,fr2_a3).
body(r_fr16_58,fr16_p3).
body(r_fr16_58,fr16_w2).
head(r_fr16_59,fr16_x1).
body(r_fr16_59,fr20_p1).
body(r_fr16_59,fr17_w1).
head(r_fr16_60,fr16_x1).
body(r_fr16_60,fr16_q3).
body(r_fr16_60,fr20_p1).
body(r_fr16_60,fr25_u2).
body(r_fr16_60,fr17_w1).
body(r_fr16_60,fr16_w2).
body(r_fr16_60,fr20_p1).
head(r_fr16_61,fr16_x1).
body(r_fr16_61,fr11_u4).
body(r_fr16_61,fr14_s2).
head(r_fr16_62,fr16_x1).
body(r_fr16_62,fr2_e3).
body(r_fr16_62,fr2_a3).
body(r_fr16_62,fr3_a1).
body(r_fr16_62,fr17_w1).
body(r_fr16_62,fr17_w1).
body(r_fr16_62,fr16_z2).
head(r_fr16_63,fr16_x1).
body(r_fr16_63,fr2_a3).
body(r_fr16_63,fr17_w1).
head(r_fr16_64,fr16_x1).
body(r_fr16_64,fr16_q1).
body(r_fr16_64,fr25_u2).
body(r_fr16_64,fr22_t1).
head(r_fr16_65,fr16_x1).
body(r_fr16_65,fr2_e3).
head(r_fr16_66,fr16_x1).
head(r_fr16_67,fr16_x1).
body(r_fr16_67,fr3_a1).
body(r_fr16_67,fr19_y3).
body(r_fr16_67,fr8_t1).
body(r_fr16_67,fr14_s2).
body(r_fr16_67,fr17_w1).
body(r_fr16_67,fr20_p1).
head(r_fr16_68,fr16_x1).
body(r_fr16_68,fr3_a1).
body(r_fr16_68,fr8_t1).
body(r_fr16_68,fr22_t1).
body(r_fr16_68,fr16_w2).
body(r_fr16_68,fr14_s2).
head(r_fr16_69,fr11_u4).
body(r_fr16_69,fr16_a1).
body(r_fr16_69,fr16_a3).
body(r_fr16_69,fr3_a1).
body(r_fr16_69,fr2_a3).
body(r_fr16_69,fr2_e3).
head(r_fr16_70,fr11_u4).
body(r_fr16_70,fr3_a1).
body(r_fr16_70,fr2_e3).
body(r_fr16_70,fr10_b2).
body(r_fr16_70,fr16_p3).
body(r_fr16_70,fr16_w2).
body(r_fr16_70,fr14_s2).
head(r_fr16_71,fr11_u4).
body(r_fr16_71,fr25_u2).
head(r_fr16_72,fr11_u4).
body(r_fr16_72,fr3_a1).
body(r_fr16_72,fr3_a1).
body(r_fr16_72,fr2_a3).
body(r_fr16_72,fr19_y3).
head(r_fr16_73,fr11_u4).
body(r_fr16_73,fr16_a1).
body(r_fr16_73,fr2_a3).
head(r_fr16_74,fr11_u4).
body(r_fr16_74,fr16_a3).
body(r_fr16_74,fr2_e3).
body(r_fr16_74,fr16_p3).
body(r_fr16_74,fr16_q1).
body(r_fr16_74,fr25_u2).
head(r_fr16_75,fr11_u4).
body(r_fr16_75,fr3_a1).
body(r_fr16_75,fr16_q3).
body(r_fr16_75,fr8_t1).
body(r_fr16_75,fr23_w1).
head(r_fr16_76,fr11_u4).
body(r_fr16_76,fr3_a1).
body(r_fr16_76,fr15_d2).
body(r_fr16_76,fr10_b2).
head(r_fr16_77,fr11_u4).
body(r_fr16_77,fr3_a1).
head(r_fr16_78,fr11_u4).
body(r_fr16_78,fr2_e3).
body(r_fr16_78,fr16_a3).
body(r_fr16_78,fr3_a1).
body(r_fr16_78,fr3_a1).
body(r_fr16_78,fr3_a1).
body(r_fr16_78,fr17_w1).
head(r_fr16_79,fr11_u4).
body(r_fr16_79,fr3_a1).
body(r_fr16_79,fr15_d2).
body(r_fr16_79,fr16_w2).
head(r_fr16_80,fr11_u4).
body(r_fr16_80,fr25_u2).
head(r_fr16_81,fr11_u4).
body(r_fr16_81,fr3_a1).
body(r_fr16_81,fr16_x1).
body(r_fr16_81,fr14_s2).
body(r_fr16_81,fr16_y2).
head(r_fr16_82,fr11_u4).
body(r_fr16_82,fr3_a1).
body(r_fr16_82,fr2_e3).
body(r_fr16_82,fr3_a1).
body(r_fr16_82,fr19_y3).
body(r_fr16_82,fr16_q1).
head(r_fr16_83,fr20_p1).
body(r_fr16_83,fr14_s2).
body(r_fr16_83,fr14_s2).
head(r_fr16_84,fr20_p1).
body(r_fr16_84,fr16_a3).
body(r_fr16_84,fr2_a3).
body(r_fr16_84,fr16_e1).
body(r_fr16_84,fr2_a3).
body(r_fr16_84,fr23_w1).
body(r_fr16_84,fr14_s2).
head(r_fr16_85,fr20_p1).
body(r_fr16_85,fr16_a3).
head(r_fr16_86,fr20_p1).
body(r_fr16_86,fr3_a1).
body(r_fr16_86,fr16_z2).
head(r_fr16_87,fr20_p1).
body(r_fr16_87,fr3_a1).
body(r_fr16_87,fr16_q3).
body(r_fr16_87,fr11_u4).
body(r_fr16_87,fr5_x2).
body(r_fr16_87,fr20_p1).
head(r_fr16_88,fr20_p1).
body(r_fr16_88,fr16_a1).
body(r_fr16_88,fr3_a1).
body(r_fr16_88,fr2_e3).
body(r_fr16_88,fr16_e1).
body(r_fr16_88,fr16_f1).
body(r_fr16_88,fr5_x2).
head(r_fr16_89,fr20_p1).
body(r_fr16_89,fr15_d2).
body(r_fr16_89,fr2_a3).
head(r_fr16_90,fr20_p1).
body(r_fr16_90,fr19_y3).
body(r_fr16_90,fr8_t1).
body(r_fr16_90,fr25_u2).
body(r_fr16_90,fr23_w1).
body(r_fr16_90,fr14_s2).
head(r_fr16_91,fr20_p1).
body(r_fr16_91,fr3_a1).
body(r_fr16_91,fr15_d2).
body(r_fr16_91,fr16_q2).
body(r_fr16_91,fr11_u4).
body(r_fr16_91,fr25_u2).
head(r_fr16_92,fr20_p1).
head(r_fr16_93,fr20_p1).
body(r_fr16_93,fr19_y3).
body(r_fr16_93,fr16_q1).
body(r_fr16_93,fr16_q2).
body(r_fr16_93,fr11_u4).
body(r_fr16_93,fr14_s2).
head(r_fr16_94,fr19_y3).
body(r_fr16_94,fr3_a1).
body(r_fr16_94,fr2_e3).
body(r_fr16_94,fr16_f1).
body(r_fr16_94,fr20_p1).
body(r_fr16_94,fr25_u2).
body(r_fr16_94,fr16_z2).
head(r_fr16_95,fr19_y3).
body(r_fr16_95,fr16_q1).
body(r_fr16_95,fr25_u2).
body(r_fr16_95,fr20_p1).
body(r_fr16_95,fr16_y2).
head(r_fr16_96,fr19_y3).
body(r_fr16_96,fr15_d2).
body(r_fr16_96,fr16_q2).
body(r_fr16_96,fr8_t1).
body(r_fr16_96,fr20_p1).
head(r_fr16_97,fr19_y3).
body(r_fr16_97,fr14_s2).
body(r_fr16_97,fr23_w1).
body(r_fr16_97,fr17_w1).
body(r_fr16_97,fr20_p1).
body(r_fr16_97,fr16_y2).
body(r_fr16_97,fr20_p1).
head(r_fr16_98,fr19_y3).
body(r_fr16_98,fr2_e3).
body(r_fr16_98,fr3_a1).
body(r_fr16_98,fr25_u2).
head(r_fr16_99,fr19_y3).
body(r_fr16_99,fr16_a3).
body(r_fr16_99,fr2_a3).
body(r_fr16_99,fr3_a1).
body(r_fr16_99,fr16_q1).
head(r_fr16_100,fr19_y3).
body(r_fr16_100,fr15_d2).
body(r_fr16_100,fr3_a1).
body(r_fr16_100,fr16_w2).
head(r_fr16_101,fr19_y3).
body(r_fr16_101,fr19_y3).
body(r_fr16_101,fr16_r3).
body(r_fr16_101,fr20_p1).
head(r_fr16_102,fr19_y3).
head(r_fr16_103,fr19_y3).
body(r_fr16_103,fr16_q3).
body(r_fr16_103,fr8_t1).
body(r_fr16_103,fr17_w1).
head(r_fr16_104,fr19_y3).
body(r_fr16_104,fr15_d2).
body(r_fr16_104,fr16_q1).
body(r_fr16_104,fr22_t1).
body(r_fr16_104,fr14_s2).
body(r_fr16_104,fr17_w1).
body(r_fr16_104,fr16_w2).
head(r_fr16_105,fr16_q3).
body(r_fr16_105,fr3_a1).
body(r_fr16_105,fr16_q1).
body(r_fr16_105,fr8_t1).
head(r_fr16_106,fr16_q3).
body(r_fr16_106,fr3_a1).
body(r_fr16_106,fr2_a3).
head(r_fr16_107,fr16_q3).
head(r_fr16_108,fr16_q3).
body(r_fr16_108,fr16_q1).
head(r_fr16_109,fr16_q3).
body(r_fr16_109,fr16_a3).
body(r_fr16_109,fr16_f1).
head(r_fr16_110,fr16_q3).
body(r_fr16_110,fr25_u2).
body(r_fr16_110,fr17_w1).
body(r_fr16_110,fr16_w2).
body(r_fr16_110,fr16_y2).
head(r_fr16_111,fr16_q3).
body(r_fr16_111,fr3_a1).
body(r_fr16_111,fr10_b2).
body(r_fr16_111,fr16_f1).
body(r_fr16_111,fr14_s2).
head(r_fr16_112,fr16_q3).
body(r_fr16_112,fr22_t1).
body(r_fr16_112,fr25_u2).
head(r_fr16_113,fr16_q3).
body(r_fr16_113,fr3_a1).
body(r_fr16_113,fr2_e3).
body(r_fr16_113,fr16_e1).
body(r_fr16_113,fr2_a3).
head(r_fr16_114,fr16_q3).
body(r_fr16_114,fr3_a1).
body(r_fr16_114,fr15_d2).
body(r_fr16_114,fr3_a1).
body(r_fr16_114,fr19_y3).
body(r_fr16_114,fr16_w2).
body(r_fr16_114,fr20_p1).
head(r_fr16_115,fr16_q3).
body(r_fr16_115,fr16_e1).
body(r_fr16_115,fr16_r3).
body(r_fr16_115,fr25_u2).
head(r_fr16_116,fr16_q3).
body(r_fr16_116,fr3_a1).
body(r_fr16_116,fr3_a1).
body(r_fr16_116,fr22_t1).
body(r_fr16_116,fr16_z2).
head(r_fr16_117,fr14_s2).
body(r_fr16_117,fr16_a1).
body(r_fr16_117,fr16_e1).
body(r_fr16_117,fr22_t1).
head(r_fr16_118,fr14_s2).
body(r_fr16_118,fr3_a1).
body(r_fr16_118,fr10_b2).
body(r_fr16_118,fr16_r3).
body(r_fr16_118,fr16_w2).
head(r_fr16_119,fr14_s2).
body(r_fr16_119,fr3_a1).
body(r_fr16_119,fr10_b2).
body(r_fr16_119,fr25_u2).
body(r_fr16_119,fr25_u2).
body(r_fr16_119,fr17_w1).
head(r_fr16_120,fr14_s2).
body(r_fr16_120,fr14_s2).
body(r_fr16_120,fr20_p1).
head(r_fr16_121,fr14_s2).
body(r_fr16_121,fr2_e3).
body(r_fr16_121,fr3_a1).
body(r_fr16_121,fr16_r3).
body(r_fr16_121,fr16_x1).
body(r_fr16_121,fr14_s2).
head(r_fr16_122,fr14_s2).
body(r_fr16_122,fr3_a1).
body(r_fr16_122,fr20_p1).
head(r_fr16_123,fr14_s2).
head(r_fr16_124,fr14_s2).
body(r_fr16_124,fr10_b2).
body(r_fr16_124,fr23_w1).
body(r_fr16_124,fr14_s2).
body(r_fr16_124,fr16_y2).
body(r_fr16_124,fr16_z2).
head(r_fr16_125,fr14_s2).
body(r_fr16_125,fr25_u2).
head(r_fr16_126,fr14_s2).
body(r_fr16_126,fr16_a3).
body(r_fr16_126,fr3_a1).
body(r_fr16_126,fr10_b2).
head(r_fr16_127,fr14_s2).
body(r_fr16_127,fr2_e3).
body(r_fr16_127,fr17_w1).
body(r_fr16_127,fr17_w1).
body(r_fr16_127,fr20_p1).
body(r_fr16_127,fr16_z2).
head(r_fr16_128,fr8_t1).
body(r_fr16_128,fr2_e3).
body(r_fr16_128,fr3_a1).
body(r_fr16_128,fr19_y3).
head(r_fr16_129,fr8_t1).
body(r_fr16_129,fr2_e3).
body(r_fr16_129,fr3_a1).
body(r_fr16_129,fr3_a1).
body(r_fr16_129,fr2_e3).
body(r_fr16_129,fr16_e1).
body(r_fr16_129,fr16_f1).
head(r_fr16_130,fr8_t1).
body(r_fr16_130,fr2_e3).
head(r_fr16_131,fr8_t1).
body(r_fr16_131,fr16_a1).
body(r_fr16_131,fr3_a1).
body(r_fr16_131,fr15_d2).
body(r_fr16_131,fr10_b2).
body(r_fr16_131,fr16_f1).
body(r_fr16_131,fr16_x1).
head(r_fr16_132,fr8_t1).
body(r_fr16_132,fr16_a1).
body(r_fr16_132,fr2_e3).
body(r_fr16_132,fr2_a3).
body(r_fr16_132,fr16_f1).
body(r_fr16_132,fr3_a1).
head(r_fr16_133,fr8_t1).
body(r_fr16_133,fr16_q2).
body(r_fr16_133,fr16_y2).
head(r_fr16_134,fr8_t1).
body(r_fr16_134,fr16_r3).
body(r_fr16_134,fr25_u2).
body(r_fr16_134,fr16_x1).
head(r_fr16_135,fr8_t1).
body(r_fr16_135,fr16_a3).
body(r_fr16_135,fr2_e3).
body(r_fr16_135,fr2_a3).
body(r_fr16_135,fr16_p3).
body(r_fr16_135,fr5_x2).
body(r_fr16_135,fr23_w1).
head(r_fr16_136,fr8_t1).
body(r_fr16_136,fr16_e1).
body(r_fr16_136,fr19_y3).
body(r_fr16_136,fr16_q2).
body(r_fr16_136,fr5_x2).
body(r_fr16_136,fr25_u2).
body(r_fr16_136,fr17_w1).
head(r_fr16_137,fr8_t1).
body(r_fr16_137,fr19_y3).
body(r_fr16_137,fr5_x2).
body(r_fr16_137,fr14_s2).
body(r_fr16_137,fr14_s2).
body(r_fr16_137,fr20_p1).
head(r_fr16_138,fr8_t1).
body(r_fr16_138,fr20_p1).
head(r_fr16_139,fr8_t1).
head(r_fr16_140,fr8_t1).
body(r_fr16_140,fr16_p3).
body(r_fr16_140,fr16_q3).
body(r_fr16_140,fr25_u2).
body(r_fr16_140,fr16_w2).
body(r_fr16_140,fr16_x1).
head(r_fr16_141,fr8_t1).
body(r_fr16_141,fr16_a1).
body(r_fr16_141,fr19_y3).
body(r_fr16_141,fr16_q2).
body(r_fr16_141,fr17_w1).
body(r_fr16_141,fr16_y2).
head(r_fr16_142,fr16_z2).
body(r_fr16_142,fr19_y3).
body(r_fr16_142,fr23_w1).
head(r_fr16_143,fr16_z2).
body(r_fr16_143,fr2_e3).
body(r_fr16_143,fr3_a1).
body(r_fr16_143,fr16_f1).
body(r_fr16_143,fr16_q2).
body(r_fr16_143,fr16_x1).
head(r_fr16_144,fr16_z2).
body(r_fr16_144,fr16_p3).
head(r_fr16_145,fr16_z2).
body(r_fr16_145,fr19_y3).
body(r_fr16_145,fr17_w1).
body(r_fr16_145,fr16_w2).
body(r_fr16_145,fr20_p1).
head(r_fr16_146,fr16_z2).
body(r_fr16_146,fr3_a1).
body(r_fr16_146,fr15_d2).
body(r_fr16_146,fr25_u2).
body(r_fr16_146,fr23_w1).
body(r_fr16_146,fr16_w2).
head(r_fr16_147,fr16_z2).
body(r_fr16_147,fr15_d2).
body(r_fr16_147,fr8_t1).
head(r_fr16_148,fr16_z2).
body(r_fr16_148,fr16_q3).
head(r_fr16_149,fr16_z2).
head(r_fr16_150,fr16_z2).
body(r_fr16_150,fr16_q1).
body(r_fr16_150,fr16_q2).
body(r_fr16_150,fr11_u4).
body(r_fr16_150,fr16_r3).
body(r_fr16_150,fr16_w2).
head(r_fr16_151,fr16_z2).
body(r_fr16_151,fr16_p3).
body(r_fr16_151,fr20_p1).
head(r_fr16_152,fr16_z2).
body(r_fr16_152,fr2_a3).
body(r_fr16_152,fr11_u4).
body(r_fr16_152,fr14_s2).
body(r_fr16_152,fr17_w1).
head(r_fr16_153,fr25_u2).
body(r_fr16_153,fr15_d2).
head(r_fr16_154,fr25_u2).
body(r_fr16_154,fr2_e3).
body(r_fr16_154,fr19_y3).
head(r_fr16_155,fr25_u2).
body(r_fr16_155,fr2_e3).
body(r_fr16_155,fr3_a1).
body(r_fr16_155,fr3_a1).
body(r_fr16_155,fr2_a3).
head(r_fr16_156,fr25_u2).
body(r_fr16_156,fr16_a3).
body(r_fr16_156,fr3_a1).
body(r_fr16_156,fr3_a1).
head(r_fr16_157,fr25_u2).
body(r_fr16_157,fr16_p3).
body(r_fr16_157,fr17_w1).
body(r_fr16_157,fr17_w1).
head(r_fr16_158,fr25_u2).
body(r_fr16_158,fr3_a1).
body(r_fr16_158,fr3_a1).
body(r_fr16_158,fr15_d2).
body(r_fr16_158,fr16_f1).
body(r_fr16_158,fr3_a1).
body(r_fr16_158,fr16_q1).
head(r_fr16_159,fr25_u2).
body(r_fr16_159,fr15_d2).
body(r_fr16_159,fr10_b2).
body(r_fr16_159,fr17_w1).
body(r_fr16_159,fr14_s2).
head(r_fr16_160,fr25_u2).
body(r_fr16_160,fr17_w1).
head(r_fr16_161,fr25_u2).
body(r_fr16_161,fr16_a1).
body(r_fr16_161,fr3_a1).
body(r_fr16_161,fr10_b2).
body(r_fr16_161,fr16_e1).
head(r_fr16_162,fr25_u2).
body(r_fr16_162,fr16_a3).
body(r_fr16_162,fr16_f1).
body(r_fr16_162,fr16_q1).
head(r_fr16_163,fr25_u2).
body(r_fr16_163,fr16_a1).
body(r_fr16_163,fr10_b2).
body(r_fr16_163,fr16_f1).
head(r_fr16_164,fr25_u2).
head(r_fr16_165,fr20_p1).
body(r_fr16_165,fr19_y3).
body(r_fr16_165,fr11_u4).
body(r_fr16_165,fr5_x2).
body(r_fr16_165,fr14_s2).
head(r_fr16_166,fr20_p1).
body(r_fr16_166,fr5_x2).
head(r_fr16_167,fr20_p1).
body(r_fr16_167,fr25_u2).
body(r_fr16_167,fr14_s2).
body(r_fr16_167,fr14_s2).
head(r_fr16_168,fr20_p1).
body(r_fr16_168,fr3_a1).
body(r_fr16_168,fr16_e1).
body(r_fr16_168,fr16_f1).
body(r_fr16_168,fr17_w1).
head(r_fr16_169,fr20_p1).
body(r_fr16_169,fr16_z2).
head(r_fr16_170,fr20_p1).
body(r_fr16_170,fr10_b2).
body(r_fr16_170,fr3_a1).
head(r_fr16_171,fr20_p1).
body(r_fr16_171,fr3_a1).
body(r_fr16_171,fr14_s2).
head(r_fr16_172,fr20_p1).
body(r_fr16_172,fr3_a1).
body(r_fr16_172,fr15_d2).
body(r_fr16_172,fr10_b2).
body(r_fr16_172,fr3_a1).
head(r_fr16_173,fr20_p1).
body(r_fr16_173,fr16_q2).
body(r_fr16_173,fr25_u2).
body(r_fr16_173,fr16_x1).
body(r_fr16_173,fr20_p1).
head(r_fr16_174,fr20_p1).
body(r_fr16_174,fr10_b2).
body(r_fr16_174,fr2_a3).
body(r_fr16_174,fr16_r3).
head(r_fr16_175,fr20_p1).
body(r_fr16_175,fr2_e3).
head(r_fr16_176,fr20_p1).
body(r_fr16_176,fr2_e3).
body(r_fr16_176,fr3_a1).
body(r_fr16_176,fr16_q1).
body(r_fr16_176,fr16_q3).
body(r_fr16_176,fr23_w1).
body(r_fr16_176,fr17_w1).
head(r_fr16_177,fr20_p1).
head(r_fr16_178,fr14_s2).
head(r_fr16_179,fr14_s2).
body(r_fr16_179,fr20_p1).
head(r_fr16_180,fr14_s2).
body(r_fr16_180,fr14_s2).
body(r_fr16_180,fr16_z2).
head(r_fr16_181,fr14_s2).
body(r_fr16_181,fr16_a1).
body(r_fr16_181,fr2_e3).
head(r_fr16_182,fr14_s2).
body(r_fr16_182,fr3_a1).
body(r_fr16_182,fr15_d2).
body(r_fr16_182,fr2_a3).
body(r_fr16_182,fr16_f1).
body(r_fr16_182,fr3_a1).
head(r_fr16_183,fr14_s2).
body(r_fr16_183,fr2_e3).
body(r_fr16_183,fr16_a3).
body(r_fr16_183,fr3_a1).
body(r_fr16_183,fr3_a1).
body(r_fr16_183,fr2_e3).
body(r_fr16_183,fr3_a1).
head(r_fr16_184,fr14_s2).
body(r_fr16_184,fr2_a3).
body(r_fr16_184,fr3_a1).
body(r_fr16_184,fr20_p1).
head(r_fr16_185,fr14_s2).
body(r_fr16_185,fr2_a3).
body(r_fr16_185,fr16_f1).
body(r_fr16_185,fr16_x1).
body(r_fr16_185,fr16_y2).
head(r_fr16_186,fr14_s2).
body(r_fr16_186,fr16_a1).
body(r_fr16_186,fr2_e3).
body(r_fr16_186,fr19_y3).
body(r_fr16_186,fr16_x1).
body(r_fr16_186,fr20_p1).
body(r_fr16_186,fr16_y2).
head(r_fr16_187,fr14_s2).
body(r_fr16_187,fr3_a1).
body(r_fr16_187,fr16_q2).
body(r_fr16_187,fr22_t1).
body(r_fr16_187,fr16_w2).
body(r_fr16_187,fr20_p1).
body(r_fr16_187,fr16_y2).
head(r_fr16_188,fr14_s2).
body(r_fr16_188,fr22_t1).
body(r_fr16_188,fr20_p1).
head(r_fr16_189,fr14_s2).
body(r_fr16_189,fr3_a1).
body(r_fr16_189,fr15_d2).
body(r_fr16_189,fr11_u4).
body(r_fr16_189,fr16_r3).
body(r_fr16_189,fr14_s2).
body(r_fr16_189,fr16_w2).
head(r_fr16_190,fr25_u2).
body(r_fr16_190,fr3_a1).
body(r_fr16_190,fr10_b2).
head(r_fr16_191,fr25_u2).
head(r_fr16_192,fr25_u2).
body(r_fr16_192,fr16_a1).
body(r_fr16_192,fr16_r3).
body(r_fr16_192,fr16_x1).
head(r_fr16_193,fr25_u2).
body(r_fr16_193,fr2_e3).
head(r_fr16_194,fr25_u2).
body(r_fr16_194,fr3_a1).
body(r_fr16_194,fr10_b2).
body(r_fr16_194,fr8_t1).
body(r_fr16_194,fr5_x2).
body(r_fr16_194,fr25_u2).
head(r_fr16_195,fr25_u2).
body(r_fr16_195,fr16_a3).
body(r_fr16_195,fr3_a1).
body(r_fr16_195,fr5_x2).
head(r_fr16_196,fr25_u2).
body(r_fr16_196,fr3_a1).
body(r_fr16_196,fr3_a1).
body(r_fr16_196,fr10_b2).
body(r_fr16_196,fr16_e1).
body(r_fr16_196,fr2_a3).
head(r_fr16_197,fr25_u2).
body(r_fr16_197,fr11_u4).
head(r_fr16_198,fr25_u2).
body(r_fr16_198,fr10_b2).
body(r_fr16_198,fr2_a3).
body(r_fr16_198,fr16_r3).
body(r_fr16_198,fr16_w2).
body(r_fr16_198,fr16_y2).
head(r_fr16_199,fr25_u2).
body(r_fr16_199,fr16_a3).
body(r_fr16_199,fr3_a1).
body(r_fr16_199,fr3_a1).
body(r_fr16_199,fr2_a3).
body(r_fr16_199,fr16_r3).
head(r_fr16_200,fr25_u2).
body(r_fr16_200,fr16_e1).
head(r_fr16_201,fr25_u2).
body(r_fr16_201,fr16_e1).
body(r_fr16_201,fr16_q1).
head(r_fr16_202,fr23_w1).
body(r_fr16_202,fr8_t1).
body(r_fr16_202,fr16_r3).
body(r_fr16_202,fr16_x1).
head(r_fr16_203,fr23_w1).
body(r_fr16_203,fr16_a1).
body(r_fr16_203,fr25_u2).
head(r_fr16_204,fr23_w1).
body(r_fr16_204,fr2_e3).
body(r_fr16_204,fr16_a3).
head(r_fr16_205,fr23_w1).
body(r_fr16_205,fr2_e3).
body(r_fr16_205,fr16_a3).
body(r_fr16_205,fr19_y3).
body(r_fr16_205,fr25_u2).
body(r_fr16_205,fr14_s2).
head(r_fr16_206,fr23_w1).
body(r_fr16_206,fr8_t1).
head(r_fr16_207,fr23_w1).
head(r_fr16_208,fr23_w1).
body(r_fr16_208,fr2_a3).
body(r_fr16_208,fr25_u2).
head(r_fr16_209,fr23_w1).
body(r_fr16_209,fr15_d2).
body(r_fr16_209,fr3_a1).
body(r_fr16_209,fr14_s2).
head(r_fr16_210,fr23_w1).
body(r_fr16_210,fr16_q3).
body(r_fr16_210,fr14_s2).
body(r_fr16_210,fr20_p1).
body(r_fr16_210,fr16_z2).
head(r_fr16_211,fr23_w1).
body(r_fr16_211,fr16_q3).
body(r_fr16_211,fr22_t1).
body(r_fr16_211,fr14_s2).
head(r_fr16_212,fr23_w1).
body(r_fr16_212,fr16_q1).
body(r_fr16_212,fr16_r3).
body(r_fr16_212,fr20_p1).
head(r_fr16_213,fr22_t1).
body(r_fr16_213,fr16_a1).
body(r_fr16_213,fr2_a3).
body(r_fr16_213,fr10_b2).
body(r_fr16_213,fr16_f1).
body(r_fr16_213,fr3_a1).
body(r_fr16_213,fr16_q2).
head(r_fr16_214,fr22_t1).
body(r_fr16_214,fr3_a1).
body(r_fr16_214,fr10_b2).
head(r_fr16_215,fr22_t1).
body(r_fr16_215,fr3_a1).
body(r_fr16_215,fr3_a1).
body(r_fr16_215,fr5_x2).
body(r_fr16_215,fr20_p1).
head(r_fr16_216,fr22_t1).
body(r_fr16_216,fr3_a1).
head(r_fr16_217,fr22_t1).
body(r_fr16_217,fr16_a1).
body(r_fr16_217,fr2_e3).
body(r_fr16_217,fr3_a1).
body(r_fr16_217,fr16_e1).
body(r_fr16_217,fr3_a1).
head(r_fr16_218,fr22_t1).
body(r_fr16_218,fr3_a1).
body(r_fr16_218,fr16_y2).
head(r_fr16_219,fr22_t1).
body(r_fr16_219,fr16_f1).
body(r_fr16_219,fr16_x1).
head(r_fr16_220,fr22_t1).
head(r_fr16_221,fr22_t1).
body(r_fr16_221,fr16_a3).
head(r_fr16_222,fr22_t1).
body(r_fr16_222,fr2_e3).
body(r_fr16_222,fr16_q1).
body(r_fr16_222,fr20_p1).
body(r_fr16_222,fr25_u2).
body(r_fr16_222,fr14_s2).
body(r_fr16_222,fr20_p1).
head(r_fr16_223,fr22_t1).
body(r_fr16_223,fr2_a3).
body(r_fr16_223,fr16_q2).
head(r_fr16_224,fr22_t1).
body(r_fr16_224,fr2_e3).
body(r_fr16_224,fr16_a3).
body(r_fr16_224,fr3_a1).
body(r_fr16_224,fr3_a1).
body(r_fr16_224,fr2_e3).
body(r_fr16_224,fr16_e1).
head(r_fr16_225,fr22_t1).
body(r_fr16_225,fr16_q3).
body(r_fr16_225,fr11_u4).
body(r_fr16_225,fr8_t1).
body(r_fr16_225,fr5_x2).
body(r_fr16_225,fr16_w2).
head(r_fr16_226,fr16_y2).
body(r_fr16_226,fr2_a3).
body(r_fr16_226,fr2_e3).
body(r_fr16_226,fr16_e1).
body(r_fr16_226,fr2_a3).
head(r_fr16_227,fr16_y2).
body(r_fr16_227,fr16_a1).
body(r_fr16_227,fr3_a1).
body(r_fr16_227,fr16_e1).
body(r_fr16_227,fr16_x1).
head(r_fr16_228,fr16_y2).
body(r_fr16_228,fr16_a3).
body(r_fr16_228,fr3_a1).
body(r_fr16_228,fr16_e1).
head(r_fr16_229,fr16_y2).
body(r_fr16_229,fr15_d2).
head(r_fr16_230,fr16_y2).
body(r_fr16_230,fr19_y3).
body(r_fr16_230,fr11_u4).
body(r_fr16_230,fr16_r3).
body(r_fr16_230,fr17_w1).
body(r_fr16_230,fr16_w2).
body(r_fr16_230,fr20_p1).
head(r_fr16_231,fr16_y2).
body(r_fr16_231,fr3_a1).
body(r_fr16_231,fr3_a1).
head(r_fr16_232,fr16_y2).
head(r_fr16_233,fr16_y2).
body(r_fr16_233,fr16_a1).
body(r_fr16_233,fr3_a1).
body(r_fr16_233,fr3_a1).
body(r_fr16_233,fr19_y3).
body(r_fr16_233,fr5_x2).
body(r_fr16_233,fr14_s2).
head(r_fr16_234,fr16_y2).
body(r_fr16_234,fr16_q1).
body(r_fr16_234,fr16_q2).
body(r_fr16_234,fr16_q3).
body(r_fr16_234,fr8_t1).
body(r_fr16_234,fr16_x1).
head(r_fr16_235,fr16_y2).
body(r_fr16_235,fr16_f1).
head(r_fr16_236,fr16_y2).
body(r_fr16_236,fr16_w2).
head(r_fr16_237,fr16_y2).
body(r_fr16_237,fr16_a1).
body(r_fr16_237,fr19_y3).
body(r_fr16_237,fr16_q3).
body(r_fr16_237,fr16_r3).
body(r_fr16_237,fr14_s2).
head(r_fr16_238,fr16_y2).
body(r_fr16_238,fr3_a1).
body(r_fr16_238,fr2_a3).
head(r_fr16_239,fr16_y2).
body(r_fr16_239,fr19_y3).
body(r_fr16_239,fr20_p1).
body(r_fr16_239,fr16_x1).
head(r_fr16_240,fr5_x2).
body(r_fr16_240,fr16_q2).
body(r_fr16_240,fr11_u4).
body(r_fr16_240,fr16_y2).
head(r_fr16_241,fr5_x2).
body(r_fr16_241,fr2_e3).
body(r_fr16_241,fr14_s2).
head(r_fr16_242,fr5_x2).
body(r_fr16_242,fr2_e3).
body(r_fr16_242,fr3_a1).
head(r_fr16_243,fr5_x2).
body(r_fr16_243,fr15_d2).
body(r_fr16_243,fr25_u2).
head(r_fr16_244,fr5_x2).
body(r_fr16_244,fr2_e3).
body(r_fr16_244,fr20_p1).
head(r_fr16_245,fr5_x2).
body(r_fr16_245,fr11_u4).
body(r_fr16_245,fr16_r3).
body(r_fr16_245,fr20_p1).
body(r_fr16_245,fr16_z2).
head(r_fr16_246,fr5_x2).
body(r_fr16_246,fr2_a3).
body(r_fr16_246,fr3_a1).
body(r_fr16_246,fr16_q1).
head(r_fr16_247,fr5_x2).
body(r_fr16_247,fr16_a1).
body(r_fr16_247,fr15_d2).
body(r_fr16_247,fr17_w1).
head(r_fr16_248,fr5_x2).
body(r_fr16_248,fr2_e3).
body(r_fr16_248,fr25_u2).
body(r_fr16_248,fr17_w1).
body(r_fr16_248,fr16_y2).
head(r_fr16_249,fr5_x2).
body(r_fr16_249,fr16_a3).
body(r_fr16_249,fr3_a1).
body(r_fr16_249,fr3_a1).
body(r_fr16_249,fr2_a3).
body(r_fr16_249,fr16_e1).
body(r_fr16_249,fr8_t1).
head(r_fr16_250,fr5_x2).
body(r_fr16_250,fr16_x1).
head(r_fr16_251,fr5_x2).

assumption(fr2_f4).
assumption(fr17_b1).
assumption(fr2_a3).
assumption(fr17_d1).
assumption(fr11_c2).
assumption(fr3_a1).
assumption(fr8_a1).
assumption(fr16_a3).
assumption(fr22_a3).
contrary(fr2_f4,fr17_w1).
contrary(fr8_a1,fr17_u1).
contrary(fr17_b1,fr3_x2).
contrary(fr16_a3,fr23_r2).
contrary(fr2_a3,fr7_y2).
contrary(fr22_a3,fr14_z1).
contrary(fr17_d1,fr11_c2).
contrary(fr11_c2,fr17_d1).
contrary(fr3_a1,fr20_p1).
head(r_fr17_0,fr23_r2).
body(r_fr17_0,fr23_r2).
head(r_fr17_1,fr23_r2).
body(r_fr17_1,fr2_a3).
head(r_fr17_2,fr23_r2).
head(r_fr17_3,fr17_u1).
body(r_fr17_3,fr8_a1).
body(r_fr17_3,fr14_z1).
body(r_fr17_3,fr19_v1).
head(r_fr17_4,fr17_u1).
body(r_fr17_4,fr2_f4).
body(r_fr17_4,fr17_d1).
head(r_fr17_5,fr17_u1).
head(r_fr17_6,fr23_r2).
body(r_fr17_6,fr16_a3).
body(r_fr17_6,fr22_a3).
head(r_fr17_7,fr23_r2).
body(r_fr17_7,fr22_a3).
body(r_fr17_7,fr20_q3).
body(r_fr17_7,fr20_p1).
head(r_fr17_8,fr23_r2).
head(r_fr17_9,fr7_y2).
body(r_fr17_9,fr16_a3).
body(r_fr17_9,fr20_q3).
head(r_fr17_10,fr7_y2).
body(r_fr17_10,fr20_p1).
head(r_fr17_11,fr7_y2).
head(r_fr17_12,fr20_p1).
body(r_fr17_12,fr8_a1).
body(r_fr17_12,fr22_a3).
body(r_fr17_12,fr11_c2).
head(r_fr17_13,fr20_p1).
body(r_fr17_13,fr2_f4).
body(r_fr17_13,fr2_a3).
body(r_fr17_13,fr17_d1).
head(r_fr17_14,fr20_p1).
body(r_fr17_14,fr2_a3).
head(r_fr17_15,fr20_q3).
body(r_fr17_15,fr20_p1).
head(r_fr17_16,fr20_q3).
body(r_fr17_16,fr20_p1).
head(r_fr17_17,fr20_q3).
body(r_fr17_17,fr7_y2).
head(r_fr17_18,fr20_p1).
body(r_fr17_18,fr17_d1).
head(r_fr17_19,fr20_p1).
body(r_fr17_19,fr3_a1).
head(r_fr17_20,fr17_q1).
body(r_fr17_20,fr16_a3).
body(r_fr17_20,fr11_c2).
head(r_fr17_21,fr17_q1).
head(r_fr17_22,fr17_q1).
body(r_fr17_22,fr2_f4).
body(r_fr17_22,fr16_a3).
body(r_fr17_22,fr11_c2).
head(r_fr17_23,fr19_v1).
body(r_fr17_23,fr22_a3).
body(r_fr17_23,fr3_a1).
body(r_fr17_23,fr20_p1).
head(r_fr17_24,fr19_v1).
body(r_fr17_24,fr20_p1).
head(r_fr17_25,fr19_v1).
head(r_fr17_26,fr17_w1).
body(r_fr17_26,fr17_u1).
head(r_fr17_27,fr17_w1).
body(r_fr17_27,fr8_a1).
body(r_fr17_27,fr17_u1).
head(r_fr17_28,fr17_w1).
head(r_fr17_29,fr20_p1).
head(r_fr17_30,fr20_p1).
body(r_fr17_30,fr11_c2).
head(r_fr17_31,fr3_x2).
body(r_fr17_31,fr16_a3).
body(r_fr17_31,fr17_w1).
body(r_fr17_31,fr17_u1).
head(r_fr17_32,fr3_x2).
body(r_fr17_32,fr8_a1).

assumption(fr18_a1).
assumption(fr18_b1).
assumption(fr11_c2).
assumption(fr2_e3).
assumption(fr18_e1).
assumption(fr18_f1).
assumption(fr2_a3).
assumption(fr2_e3).
assumption(fr18_c2).
assumption(fr3_a1).
assumption(fr2_f4).
assumption(fr18_f2).
assumption(fr2_a3).
assumption(fr18_b3).
assumption(fr18_c3).
contrary(fr18_a1,fr11_c2).
contrary(fr2_a3,fr18_f2).
contrary(fr2_a3,fr20_p1).
contrary(fr18_b1,fr23_r2).
contrary(fr2_e3,fr25_w4).
contrary(fr18_b3,fr18_r1).
contrary(fr11_c2,fr18_u1).
contrary(fr18_c2,fr20_p1).
contrary(fr18_c3,fr20_p1).
contrary(fr2_e3,fr25_z6).
contrary(fr3_a1,fr20_p1).
contrary(fr18_e1,fr25_z6).
contrary(fr2_f4,fr11_c2).
contrary(fr18_f1,fr20_p1).
contrary(fr18_f2,fr18_s2).
head(r_fr18_0,fr20_v4).
body(r_fr18_0,fr2_a3).
body(r_fr18_0,fr2_a3).
body(r_fr18_0,fr2_e3).
body(r_fr18_0,fr18_e1).
body(r_fr18_0,fr18_r1).
body(r_fr18_0,fr5_p2).
head(r_fr18_1,fr20_v4).
body(r_fr18_1,fr23_r2).
body(r_fr18_1,fr20_p1).
head(r_fr18_2,fr20_v4).
body(r_fr18_2,fr20_p1).
body(r_fr18_2,fr18_s2).
head(r_fr18_3,fr20_v4).
body(r_fr18_3,fr23_r2).
body(r_fr18_3,fr18_u1).
body(r_fr18_3,fr25_z6).
head(r_fr18_4,fr20_v4).
body(r_fr18_4,fr2_e3).
body(r_fr18_4,fr3_a1).
body(r_fr18_4,fr11_r2).
head(r_fr18_5,fr20_v4).
head(r_fr18_6,fr20_v4).
body(r_fr18_6,fr18_c2).
body(r_fr18_6,fr18_q3).
head(r_fr18_7,fr20_v4).
body(r_fr18_7,fr2_a3).
body(r_fr18_7,fr2_e3).
body(r_fr18_7,fr18_c3).
body(r_fr18_7,fr18_e1).
body(r_fr18_7,fr2_f4).
head(r_fr18_8,fr20_v4).
body(r_fr18_8,fr11_c2).
body(r_fr18_8,fr2_f4).
body(r_fr18_8,fr20_p1).
head(r_fr18_9,fr20_v4).
body(r_fr18_9,fr20_p1).
head(r_fr18_10,fr20_v4).
body(r_fr18_10,fr18_a1).
head(r_fr18_11,fr20_v4).
body(r_fr18_11,fr2_a3).
body(r_fr18_11,fr18_b3).
body(r_fr18_11,fr18_c3).
body(r_fr18_11,fr18_f1).
body(r_fr18_11,fr1_z1).
body(r_fr18_11,fr16_z2).
head(r_fr18_12,fr20_v4).
body(r_fr18_12,fr20_p1).
body(r_fr18_12,fr8_z1).
body(r_fr18_12,fr18_s2).
head(r_fr18_13,fr20_v4).
body(r_fr18_13,fr16_z2).
body(r_fr18_13,fr11_r2).
head(r_fr18_14,fr20_v4).
body(r_fr18_14,fr2_a3).
body(r_fr18_14,fr18_b3).
body(r_fr18_14,fr11_c2).
body(r_fr18_14,fr2_f4).
body(r_fr18_14,fr18_f1).
head(r_fr18_15,fr25_w4).
body(r_fr18_15,fr18_b3).
body(r_fr18_15,fr18_c3).
body(r_fr18_15,fr18_f2).
body(r_fr18_15,fr8_z1).
body(r_fr18_15,fr1_z1).
head(r_fr18_16,fr25_w4).
body(r_fr18_16,fr18_c2).
body(r_fr18_16,fr2_e3).
head(r_fr18_17,fr25_w4).
body(r_fr18_17,fr3_a1).
body(r_fr18_17,fr18_e1).
body(r_fr18_17,fr20_p1).
body(r_fr18_17,fr18_u2).
body(r_fr18_17,fr25_z6).
body(r_fr18_17,fr20_p1).
head(r_fr18_18,fr25_w4).
head(r_fr18_19,fr25_w4).
body(r_fr18_19,fr2_a3).
body(r_fr18_19,fr11_c2).
body(r_fr18_19,fr18_f2).
head(r_fr18_20,fr25_w4).
body(r_fr18_20,fr8_z1).
body(r_fr18_20,fr18_s2).
body(r_fr18_20,fr18_u2).
body(r_fr18_20,fr23_r2).
body(r_fr18_20,fr25_z6).
body(r_fr18_20,fr11_r2).
head(r_fr18_21,fr25_w4).
body(r_fr18_21,fr18_c2).
body(r_fr18_21,fr18_f2).
body(r_fr18_21,fr8_z1).
head(r_fr18_22,fr25_w4).
body(r_fr18_22,fr2_a3).
body(r_fr18_22,fr18_c3).
body(r_fr18_22,fr2_e3).
body(r_fr18_22,fr3_a1).
body(r_fr18_22,fr18_r1).
body(r_fr18_22,fr18_s2).
head(r_fr18_23,fr25_w4).
body(r_fr18_23,fr2_a3).
body(r_fr18_23,fr18_c2).
body(r_fr18_23,fr18_c3).
body(r_fr18_23,fr18_f1).
body(r_fr18_23,fr1_z1).
body(r_fr18_23,fr5_w1).
head(r_fr18_24,fr25_w4).
body(r_fr18_24,fr18_a1).
body(r_fr18_24,fr2_a3).
body(r_fr18_24,fr2_e3).
body(r_fr18_24,fr18_f2).
head(r_fr18_25,fr25_w4).
body(r_fr18_25,fr18_r1).
body(r_fr18_25,fr5_r2).
head(r_fr18_26,fr25_w4).
body(r_fr18_26,fr2_a3).
body(r_fr18_26,fr18_b1).
body(r_fr18_26,fr2_e3).
body(r_fr18_26,fr18_c3).
body(r_fr18_26,fr3_a1).
body(r_fr18_26,fr18_e1).
head(r_fr18_27,fr25_w4).
body(r_fr18_27,fr3_a1).
body(r_fr18_27,fr23_r2).
body(r_fr18_27,fr23_r2).
body(r_fr18_27,fr18_s1).
body(r_fr18_27,fr1_z1).
head(r_fr18_28,fr25_w4).
body(r_fr18_28,fr25_z6).
head(r_fr18_29,fr25_w4).
body(r_fr18_29,fr11_c2).
body(r_fr18_29,fr18_c2).
body(r_fr18_29,fr18_e1).
body(r_fr18_29,fr2_f4).
head(r_fr18_30,fr25_w4).
body(r_fr18_30,fr18_a1).
body(r_fr18_30,fr18_e1).
body(r_fr18_30,fr1_z1).
body(r_fr18_30,fr18_s1).
body(r_fr18_30,fr18_s2).
body(r_fr18_30,fr18_u1).
head(r_fr18_31,fr18_q3).
body(r_fr18_31,fr18_a1).
body(r_fr18_31,fr2_a3).
body(r_fr18_31,fr18_b3).
body(r_fr18_31,fr20_p1).
head(r_fr18_32,fr18_q3).
body(r_fr18_32,fr2_a3).
body(r_fr18_32,fr18_c2).
body(r_fr18_32,fr18_c3).
body(r_fr18_32,fr18_e1).
body(r_fr18_32,fr2_f4).
body(r_fr18_32,fr18_f1).
head(r_fr18_33,fr18_q3).
body(r_fr18_33,fr2_e3).
body(r_fr18_33,fr18_b3).
body(r_fr18_33,fr18_c2).
body(r_fr18_33,fr2_f4).
head(r_fr18_34,fr18_q3).
body(r_fr18_34,fr2_a3).
body(r_fr18_34,fr18_c2).
body(r_fr18_34,fr2_f4).
body(r_fr18_34,fr18_f2).
head(r_fr18_35,fr18_q3).
body(r_fr18_35,fr18_b3).
body(r_fr18_35,fr3_a1).
body(r_fr18_35,fr18_u1).
body(r_fr18_35,fr1_z1).
head(r_fr18_36,fr18_q3).
body(r_fr18_36,fr18_a1).
body(r_fr18_36,fr18_b1).
body(r_fr18_36,fr2_f4).
body(r_fr18_36,fr18_s1).
body(r_fr18_36,fr18_u2).
body(r_fr18_36,fr5_p2).
head(r_fr18_37,fr18_q3).
body(r_fr18_37,fr16_z2).
body(r_fr18_37,fr25_w4).
head(r_fr18_38,fr18_q3).
body(r_fr18_38,fr11_c2).
body(r_fr18_38,fr18_e1).
body(r_fr18_38,fr23_r2).
body(r_fr18_38,fr18_s2).
head(r_fr18_39,fr18_q3).
body(r_fr18_39,fr18_a1).
body(r_fr18_39,fr18_b1).
body(r_fr18_39,fr18_b3).
body(r_fr18_39,fr1_z1).
head(r_fr18_40,fr18_q3).
body(r_fr18_40,fr1_z1).
body(r_fr18_40,fr20_p1).
body(r_fr18_40,fr5_r2).
body(r_fr18_40,fr25_w4).
body(r_fr18_40,fr23_r2).
body(r_fr18_40,fr20_p1).
head(r_fr18_41,fr18_q3).
body(r_fr18_41,fr18_c2).
body(r_fr18_41,fr8_z1).
body(r_fr18_41,fr18_s2).
head(r_fr18_42,fr18_q3).
body(r_fr18_42,fr18_b1).
body(r_fr18_42,fr2_e3).
body(r_fr18_42,fr3_a1).
body(r_fr18_42,fr5_x2).
body(r_fr18_42,fr25_w4).
head(r_fr18_43,fr18_q3).
body(r_fr18_43,fr1_z1).
body(r_fr18_43,fr18_s2).
body(r_fr18_43,fr25_w4).
body(r_fr18_43,fr20_p1).
head(r_fr18_44,fr18_q3).
body(r_fr18_44,fr5_x2).
body(r_fr18_44,fr18_r1).
body(r_fr18_44,fr25_w4).
body(r_fr18_44,fr20_p1).
head(r_fr18_45,fr18_q3).
body(r_fr18_45,fr2_a3).
body(r_fr18_45,fr2_a3).
body(r_fr18_45,fr18_b1).
body(r_fr18_45,fr11_c2).
body(r_fr18_45,fr18_c3).
body(r_fr18_45,fr1_z1).
head(r_fr18_46,fr18_q3).
body(r_fr18_46,fr2_a3).
body(r_fr18_46,fr18_e1).
head(r_fr18_47,fr18_q3).
body(r_fr18_47,fr18_a1).
body(r_fr18_47,fr2_f4).
head(r_fr18_48,fr20_p1).
body(r_fr18_48,fr5_x2).
body(r_fr18_48,fr18_s2).
body(r_fr18_48,fr18_u1).
body(r_fr18_48,fr25_w4).
body(r_fr18_48,fr20_p1).
head(r_fr18_49,fr20_p1).
body(r_fr18_49,fr23_r2).
head(r_fr18_50,fr20_p1).
body(r_fr18_50,fr18_c3).
body(r_fr18_50,fr18_e1).
head(r_fr18_51,fr20_p1).
body(r_fr18_51,fr18_a1).
body(r_fr18_51,fr23_r2).
body(r_fr18_51,fr18_s2).
body(r_fr18_51,fr1_z1).
head(r_fr18_52,fr20_p1).
body(r_fr18_52,fr18_c3).
body(r_fr18_52,fr5_x2).
body(r_fr18_52,fr18_s1).
body(r_fr18_52,fr18_u2).
head(r_fr18_53,fr20_p1).
body(r_fr18_53,fr18_b1).
body(r_fr18_53,fr18_s1).
body(r_fr18_53,fr18_s2).
body(r_fr18_53,fr23_r2).
body(r_fr18_53,fr25_z6).
body(r_fr18_53,fr20_p1).
head(r_fr18_54,fr20_p1).
body(r_fr18_54,fr18_b1).
body(r_fr18_54,fr11_c2).
body(r_fr18_54,fr5_x2).
head(r_fr18_55,fr20_p1).
body(r_fr18_55,fr2_a3).
body(r_fr18_55,fr2_a3).
body(r_fr18_55,fr23_r2).
head(r_fr18_56,fr20_p1).
body(r_fr18_56,fr18_b3).
body(r_fr18_56,fr18_c3).
body(r_fr18_56,fr2_f4).
body(r_fr18_56,fr20_p1).
body(r_fr18_56,fr20_v4).
body(r_fr18_56,fr11_r2).
head(r_fr18_57,fr20_p1).
body(r_fr18_57,fr5_x2).
body(r_fr18_57,fr5_r2).
body(r_fr18_57,fr25_w4).
body(r_fr18_57,fr23_r2).
body(r_fr18_57,fr25_z6).
body(r_fr18_57,fr1_z1).
head(r_fr18_58,fr20_p1).
body(r_fr18_58,fr2_a3).
body(r_fr18_58,fr18_b1).
body(r_fr18_58,fr18_b3).
body(r_fr18_58,fr2_e3).
body(r_fr18_58,fr3_a1).
body(r_fr18_58,fr18_f2).
head(r_fr18_59,fr20_p1).
body(r_fr18_59,fr1_z1).
body(r_fr18_59,fr18_s2).
body(r_fr18_59,fr20_p1).
body(r_fr18_59,fr20_v4).
head(r_fr18_60,fr20_p1).
body(r_fr18_60,fr2_e3).
body(r_fr18_60,fr11_c2).
body(r_fr18_60,fr3_a1).
body(r_fr18_60,fr2_f4).
body(r_fr18_60,fr25_z6).
body(r_fr18_60,fr11_r2).
head(r_fr18_61,fr20_p1).
body(r_fr18_61,fr18_c3).
body(r_fr18_61,fr2_e3).
body(r_fr18_61,fr18_e1).
body(r_fr18_61,fr5_x2).
body(r_fr18_61,fr18_u2).
head(r_fr18_62,fr20_p1).
body(r_fr18_62,fr23_r2).
body(r_fr18_62,fr1_z1).
head(r_fr18_63,fr20_p1).
head(r_fr18_64,fr20_p1).
body(r_fr18_64,fr18_u2).
body(r_fr18_64,fr23_r2).
body(r_fr18_64,fr20_v4).
head(r_fr18_65,fr23_r2).
body(r_fr18_65,fr23_r2).
body(r_fr18_65,fr20_p1).
head(r_fr18_66,fr23_r2).
body(r_fr18_66,fr18_b1).
body(r_fr18_66,fr2_e3).
body(r_fr18_66,fr18_e1).
body(r_fr18_66,fr18_f1).
body(r_fr18_66,fr20_p1).
head(r_fr18_67,fr23_r2).
body(r_fr18_67,fr18_r1).
body(r_fr18_67,fr5_r2).
body(r_fr18_67,fr20_p1).
head(r_fr18_68,fr23_r2).
body(r_fr18_68,fr18_b3).
head(r_fr18_69,fr23_r2).
body(r_fr18_69,fr2_a3).
body(r_fr18_69,fr11_c2).
body(r_fr18_69,fr18_q3).
head(r_fr18_70,fr23_r2).
body(r_fr18_70,fr2_a3).
body(r_fr18_70,fr2_a3).
body(r_fr18_70,fr11_c2).
body(r_fr18_70,fr2_e3).
head(r_fr18_71,fr23_r2).
body(r_fr18_71,fr11_c2).
body(r_fr18_71,fr1_z1).
head(r_fr18_72,fr23_r2).
body(r_fr18_72,fr18_a1).
body(r_fr18_72,fr18_f2).
body(r_fr18_72,fr5_x2).
head(r_fr18_73,fr23_r2).
body(r_fr18_73,fr16_z2).
body(r_fr18_73,fr5_r2).
body(r_fr18_73,fr20_p1).
head(r_fr18_74,fr23_r2).
body(r_fr18_74,fr18_r1).
body(r_fr18_74,fr5_p2).
body(r_fr18_74,fr1_z1).
head(r_fr18_75,fr23_r2).
body(r_fr18_75,fr18_b1).
body(r_fr18_75,fr2_e3).
body(r_fr18_75,fr18_f1).
body(r_fr18_75,fr18_s2).
body(r_fr18_75,fr20_v4).
head(r_fr18_76,fr23_r2).
body(r_fr18_76,fr18_c3).
body(r_fr18_76,fr2_f4).
body(r_fr18_76,fr18_q3).
body(r_fr18_76,fr18_s2).
body(r_fr18_76,fr5_r2).
body(r_fr18_76,fr11_r2).
head(r_fr18_77,fr23_r2).
body(r_fr18_77,fr18_a1).
body(r_fr18_77,fr18_b1).
body(r_fr18_77,fr11_c2).
body(r_fr18_77,fr18_e1).
body(r_fr18_77,fr18_f2).
head(r_fr18_78,fr23_r2).
head(r_fr18_79,fr20_p1).
body(r_fr18_79,fr18_a1).
body(r_fr18_79,fr16_z2).
body(r_fr18_79,fr18_r1).
body(r_fr18_79,fr20_v4).
body(r_fr18_79,fr20_p1).
head(r_fr18_80,fr20_p1).
body(r_fr18_80,fr11_c2).
body(r_fr18_80,fr23_r2).
head(r_fr18_81,fr20_p1).
body(r_fr18_81,fr18_b1).
body(r_fr18_81,fr2_e3).
body(r_fr18_81,fr18_c3).
body(r_fr18_81,fr2_e3).
head(r_fr18_82,fr20_p1).
body(r_fr18_82,fr18_b3).
body(r_fr18_82,fr11_c2).
body(r_fr18_82,fr18_e1).
body(r_fr18_82,fr20_p1).
body(r_fr18_82,fr18_r1).
head(r_fr18_83,fr20_p1).
body(r_fr18_83,fr18_e1).
head(r_fr18_84,fr20_p1).
body(r_fr18_84,fr18_b1).
body(r_fr18_84,fr18_b3).
body(r_fr18_84,fr18_c2).
body(r_fr18_84,fr18_f1).
body(r_fr18_84,fr18_f2).
head(r_fr18_85,fr20_p1).
body(r_fr18_85,fr18_a1).
body(r_fr18_85,fr18_c2).
body(r_fr18_85,fr23_r2).
body(r_fr18_85,fr18_q3).
body(r_fr18_85,fr18_s1).
body(r_fr18_85,fr25_z6).
head(r_fr18_86,fr20_p1).
body(r_fr18_86,fr18_b1).
body(r_fr18_86,fr2_e3).
body(r_fr18_86,fr3_a1).
head(r_fr18_87,fr20_p1).
body(r_fr18_87,fr23_r2).
body(r_fr18_87,fr5_r2).
head(r_fr18_88,fr20_p1).
body(r_fr18_88,fr18_b3).
body(r_fr18_88,fr2_f4).
body(r_fr18_88,fr5_w1).
body(r_fr18_88,fr18_u1).
body(r_fr18_88,fr25_w4).
body(r_fr18_88,fr23_r2).
head(r_fr18_89,fr20_p1).
body(r_fr18_89,fr18_a1).
head(r_fr18_90,fr20_p1).
body(r_fr18_90,fr18_a1).
body(r_fr18_90,fr18_e1).
head(r_fr18_91,fr20_p1).
body(r_fr18_91,fr18_b3).
body(r_fr18_91,fr18_c2).
body(r_fr18_91,fr18_f2).
body(r_fr18_91,fr18_u2).
body(r_fr18_91,fr20_p1).
body(r_fr18_91,fr20_p1).
head(r_fr18_92,fr20_p1).
body(r_fr18_92,fr2_a3).
body(r_fr18_92,fr2_e3).
body(r_fr18_92,fr18_b3).
body(r_fr18_92,fr18_c2).
body(r_fr18_92,fr18_e1).
body(r_fr18_92,fr2_f4).
head(r_fr18_93,fr20_p1).
body(r_fr18_93,fr5_x2).
body(r_fr18_93,fr16_z2).
body(r_fr18_93,fr18_s1).
body(r_fr18_93,fr18_s2).
body(r_fr18_93,fr23_r2).
body(r_fr18_93,fr20_v4).
head(r_fr18_94,fr20_p1).
body(r_fr18_94,fr18_b3).
head(r_fr18_95,fr20_p1).
head(r_fr18_96,fr8_z1).
body(r_fr18_96,fr18_b3).
head(r_fr18_97,fr8_z1).
body(r_fr18_97,fr2_a3).
body(r_fr18_97,fr2_e3).
body(r_fr18_97,fr18_b3).
body(r_fr18_97,fr2_e3).
body(r_fr18_97,fr18_f2).
head(r_fr18_98,fr8_z1).
body(r_fr18_98,fr2_a3).
body(r_fr18_98,fr18_e1).
body(r_fr18_98,fr2_f4).
body(r_fr18_98,fr18_f1).
body(r_fr18_98,fr5_w1).
body(r_fr18_98,fr1_z1).
head(r_fr18_99,fr8_z1).
body(r_fr18_99,fr2_a3).
body(r_fr18_99,fr2_e3).
body(r_fr18_99,fr3_a1).
body(r_fr18_99,fr18_f1).
body(r_fr18_99,fr16_z2).
body(r_fr18_99,fr20_p1).
head(r_fr18_100,fr8_z1).
body(r_fr18_100,fr18_u2).
body(r_fr18_100,fr25_w4).
head(r_fr18_101,fr8_z1).
body(r_fr18_101,fr18_c2).
body(r_fr18_101,fr18_c3).
body(r_fr18_101,fr18_f2).
body(r_fr18_101,fr20_p1).
body(r_fr18_101,fr20_v4).
head(r_fr18_102,fr8_z1).
body(r_fr18_102,fr5_x2).
body(r_fr18_102,fr5_w1).
body(r_fr18_102,fr25_z6).
body(r_fr18_102,fr5_p2).
head(r_fr18_103,fr8_z1).
head(r_fr18_104,fr8_z1).
body(r_fr18_104,fr18_c2).
body(r_fr18_104,fr2_e3).
body(r_fr18_104,fr18_r1).
body(r_fr18_104,fr5_w1).
body(r_fr18_104,fr20_p1).
body(r_fr18_104,fr5_p2).
head(r_fr18_105,fr8_z1).
body(r_fr18_105,fr18_c2).
head(r_fr18_106,fr8_z1).
body(r_fr18_106,fr2_a3).
body(r_fr18_106,fr2_e3).
body(r_fr18_106,fr18_f1).
body(r_fr18_106,fr5_r2).
body(r_fr18_106,fr5_p2).
head(r_fr18_107,fr8_z1).
body(r_fr18_107,fr18_f1).
body(r_fr18_107,fr20_p1).
body(r_fr18_107,fr5_x2).
head(r_fr18_108,fr8_z1).
body(r_fr18_108,fr18_b1).
body(r_fr18_108,fr11_c2).
body(r_fr18_108,fr18_c3).
body(r_fr18_108,fr16_z2).
body(r_fr18_108,fr5_r2).
body(r_fr18_108,fr11_r2).
head(r_fr18_109,fr8_z1).
body(r_fr18_109,fr2_a3).
body(r_fr18_109,fr5_w1).
body(r_fr18_109,fr18_u2).
body(r_fr18_109,fr5_p2).
head(r_fr18_110,fr8_z1).
body(r_fr18_110,fr20_v4).
head(r_fr18_111,fr20_p1).
body(r_fr18_111,fr18_f2).
body(r_fr18_111,fr23_r2).
body(r_fr18_111,fr20_p1).
body(r_fr18_111,fr23_r2).
body(r_fr18_111,fr5_r2).
body(r_fr18_111,fr5_w1).
head(r_fr18_112,fr20_p1).
body(r_fr18_112,fr18_r1).
head(r_fr18_113,fr20_p1).
body(r_fr18_113,fr23_r2).
head(r_fr18_114,fr20_p1).
body(r_fr18_114,fr1_z1).
body(r_fr18_114,fr8_z1).
body(r_fr18_114,fr18_u2).
body(r_fr18_114,fr5_p2).
head(r_fr18_115,fr20_p1).
body(r_fr18_115,fr18_a1).
body(r_fr18_115,fr2_e3).
body(r_fr18_115,fr11_c2).
body(r_fr18_115,fr18_c3).
body(r_fr18_115,fr3_a1).
body(r_fr18_115,fr18_e1).
head(r_fr18_116,fr20_p1).
body(r_fr18_116,fr1_z1).
body(r_fr18_116,fr23_r2).
body(r_fr18_116,fr18_s1).
body(r_fr18_116,fr18_u2).
body(r_fr18_116,fr23_r2).
body(r_fr18_116,fr20_p1).
head(r_fr18_117,fr20_p1).
body(r_fr18_117,fr18_s2).
body(r_fr18_117,fr18_u2).
body(r_fr18_117,fr25_w4).
body(r_fr18_117,fr20_v4).
head(r_fr18_118,fr20_p1).
body(r_fr18_118,fr18_b1).
body(r_fr18_118,fr2_e3).
body(r_fr18_118,fr23_r2).
body(r_fr18_118,fr18_s2).
body(r_fr18_118,fr23_r2).
body(r_fr18_118,fr1_z1).
head(r_fr18_119,fr20_p1).
body(r_fr18_119,fr18_a1).
body(r_fr18_119,fr2_a3).
body(r_fr18_119,fr18_b1).
body(r_fr18_119,fr2_e3).
head(r_fr18_120,fr20_p1).
body(r_fr18_120,fr20_p1).
body(r_fr18_120,fr18_q3).
body(r_fr18_120,fr18_s2).
head(r_fr18_121,fr20_p1).
body(r_fr18_121,fr2_a3).
body(r_fr18_121,fr18_e1).
body(r_fr18_121,fr2_f4).
body(r_fr18_121,fr18_u1).
body(r_fr18_121,fr25_z6).
head(r_fr18_122,fr20_p1).
body(r_fr18_122,fr23_r2).
body(r_fr18_122,fr25_w4).
body(r_fr18_122,fr20_p1).
head(r_fr18_123,fr20_p1).
body(r_fr18_123,fr2_a3).
body(r_fr18_123,fr11_c2).
body(r_fr18_123,fr18_c3).
body(r_fr18_123,fr2_f4).
head(r_fr18_124,fr20_p1).
head(r_fr18_125,fr5_r2).
body(r_fr18_125,fr18_b1).
body(r_fr18_125,fr18_b3).
body(r_fr18_125,fr18_f1).
body(r_fr18_125,fr18_q3).
body(r_fr18_125,fr18_s2).
body(r_fr18_125,fr25_z6).
head(r_fr18_126,fr5_r2).
body(r_fr18_126,fr20_p1).
body(r_fr18_126,fr20_v4).
head(r_fr18_127,fr5_r2).
body(r_fr18_127,fr3_a1).
body(r_fr18_127,fr16_z2).
head(r_fr18_128,fr5_r2).
body(r_fr18_128,fr8_z1).
body(r_fr18_128,fr18_s2).
body(r_fr18_128,fr5_w1).
body(r_fr18_128,fr25_w4).
body(r_fr18_128,fr20_v4).
body(r_fr18_128,fr1_z1).
head(r_fr18_129,fr5_r2).
body(r_fr18_129,fr2_a3).
body(r_fr18_129,fr2_e3).
body(r_fr18_129,fr18_b3).
body(r_fr18_129,fr18_c2).
body(r_fr18_129,fr18_f2).
body(r_fr18_129,fr23_r2).
head(r_fr18_130,fr5_r2).
body(r_fr18_130,fr5_x2).
body(r_fr18_130,fr18_u1).
body(r_fr18_130,fr20_p1).
body(r_fr18_130,fr20_p1).
head(r_fr18_131,fr5_r2).
body(r_fr18_131,fr20_p1).
body(r_fr18_131,fr18_r1).
body(r_fr18_131,fr18_s1).
head(r_fr18_132,fr5_r2).
body(r_fr18_132,fr11_c2).
body(r_fr18_132,fr3_a1).
body(r_fr18_132,fr18_u2).
head(r_fr18_133,fr5_r2).
body(r_fr18_133,fr2_a3).
body(r_fr18_133,fr1_z1).
body(r_fr18_133,fr23_r2).
body(r_fr18_133,fr18_u1).
head(r_fr18_134,fr5_r2).
body(r_fr18_134,fr18_q3).
body(r_fr18_134,fr23_r2).
body(r_fr18_134,fr25_w4).
head(r_fr18_135,fr5_r2).
body(r_fr18_135,fr18_b3).
body(r_fr18_135,fr18_c2).
head(r_fr18_136,fr5_r2).
body(r_fr18_136,fr2_e3).
body(r_fr18_136,fr18_c2).
body(r_fr18_136,fr18_f2).
body(r_fr18_136,fr23_r2).
body(r_fr18_136,fr25_z6).
body(r_fr18_136,fr11_r2).
head(r_fr18_137,fr5_r2).
body(r_fr18_137,fr2_e3).
body(r_fr18_137,fr18_c3).
body(r_fr18_137,fr18_e1).
body(r_fr18_137,fr18_f1).
body(r_fr18_137,fr18_q3).
head(r_fr18_138,fr5_r2).
body(r_fr18_138,fr2_a3).
body(r_fr18_138,fr18_b3).
body(r_fr18_138,fr3_a1).
head(r_fr18_139,fr5_r2).
body(r_fr18_139,fr2_a3).
body(r_fr18_139,fr2_a3).
head(r_fr18_140,fr5_r2).
head(r_fr18_141,fr5_r2).
body(r_fr18_141,fr18_c2).
body(r_fr18_141,fr1_z1).
body(r_fr18_141,fr16_z2).
body(r_fr18_141,fr20_v4).
head(r_fr18_142,fr18_u2).
body(r_fr18_142,fr18_f2).
body(r_fr18_142,fr5_r2).
body(r_fr18_142,fr25_w4).
body(r_fr18_142,fr20_p1).
head(r_fr18_143,fr18_u2).
body(r_fr18_143,fr2_a3).
body(r_fr18_143,fr18_b1).
body(r_fr18_143,fr11_c2).
body(r_fr18_143,fr3_a1).
body(r_fr18_143,fr18_f1).
body(r_fr18_143,fr18_f2).
head(r_fr18_144,fr18_u2).
body(r_fr18_144,fr18_q3).
body(r_fr18_144,fr8_z1).
body(r_fr18_144,fr18_s2).
body(r_fr18_144,fr20_p1).
body(r_fr18_144,fr11_r2).
head(r_fr18_145,fr18_u2).
body(r_fr18_145,fr18_b3).
body(r_fr18_145,fr11_c2).
body(r_fr18_145,fr18_c3).
body(r_fr18_145,fr18_e1).
body(r_fr18_145,fr18_f1).
body(r_fr18_145,fr5_x2).
head(r_fr18_146,fr18_u2).
body(r_fr18_146,fr18_b1).
body(r_fr18_146,fr11_c2).
body(r_fr18_146,fr16_z2).
body(r_fr18_146,fr23_r2).
body(r_fr18_146,fr20_p1).
head(r_fr18_147,fr18_u2).
body(r_fr18_147,fr2_a3).
body(r_fr18_147,fr18_f1).
body(r_fr18_147,fr5_x2).
body(r_fr18_147,fr18_q3).
body(r_fr18_147,fr23_r2).
head(r_fr18_148,fr18_u2).
body(r_fr18_148,fr11_c2).
body(r_fr18_148,fr18_c2).
body(r_fr18_148,fr3_a1).
head(r_fr18_149,fr18_u2).
body(r_fr18_149,fr2_a3).
body(r_fr18_149,fr20_p1).
head(r_fr18_150,fr18_u2).
body(r_fr18_150,fr2_e3).
body(r_fr18_150,fr1_z1).
body(r_fr18_150,fr20_p1).
body(r_fr18_150,fr18_r1).
body(r_fr18_150,fr11_r2).
head(r_fr18_151,fr18_u2).
body(r_fr18_151,fr2_e3).
body(r_fr18_151,fr18_c3).
body(r_fr18_151,fr18_e1).
body(r_fr18_151,fr2_f4).
body(r_fr18_151,fr18_f1).
head(r_fr18_152,fr18_u2).
body(r_fr18_152,fr18_a1).
body(r_fr18_152,fr2_a3).
body(r_fr18_152,fr18_b3).
body(r_fr18_152,fr2_f4).
head(r_fr18_153,fr18_u2).
head(r_fr18_154,fr18_u2).
body(r_fr18_154,fr11_c2).
body(r_fr18_154,fr18_c2).
body(r_fr18_154,fr2_f4).
body(r_fr18_154,fr18_s2).
body(r_fr18_154,fr5_r2).
body(r_fr18_154,fr20_p1).
head(r_fr18_155,fr18_u2).
body(r_fr18_155,fr18_b1).
body(r_fr18_155,fr5_x2).
body(r_fr18_155,fr23_r2).
body(r_fr18_155,fr20_p1).
body(r_fr18_155,fr25_z6).
head(r_fr18_156,fr18_u2).
body(r_fr18_156,fr20_p1).
body(r_fr18_156,fr5_x2).
body(r_fr18_156,fr1_z1).
head(r_fr18_157,fr18_u2).
body(r_fr18_157,fr2_f4).
body(r_fr18_157,fr25_z6).
head(r_fr18_158,fr16_z2).
body(r_fr18_158,fr18_a1).
body(r_fr18_158,fr8_z1).
head(r_fr18_159,fr16_z2).
body(r_fr18_159,fr1_z1).
body(r_fr18_159,fr23_r2).
body(r_fr18_159,fr23_r2).
body(r_fr18_159,fr18_u1).
body(r_fr18_159,fr18_u2).
head(r_fr18_160,fr16_z2).
body(r_fr18_160,fr18_f1).
body(r_fr18_160,fr18_f2).
body(r_fr18_160,fr5_w1).
head(r_fr18_161,fr16_z2).
body(r_fr18_161,fr18_s2).
body(r_fr18_161,fr5_r2).
body(r_fr18_161,fr5_w1).
head(r_fr18_162,fr16_z2).
body(r_fr18_162,fr18_c3).
body(r_fr18_162,fr18_q3).
body(r_fr18_162,fr20_p1).
head(r_fr18_163,fr16_z2).
body(r_fr18_163,fr2_a3).
body(r_fr18_163,fr2_e3).
body(r_fr18_163,fr11_c2).
body(r_fr18_163,fr3_a1).
body(r_fr18_163,fr18_f1).
head(r_fr18_164,fr16_z2).
body(r_fr18_164,fr2_a3).
body(r_fr18_164,fr18_e1).
body(r_fr18_164,fr20_p1).
body(r_fr18_164,fr23_r2).
body(r_fr18_164,fr25_z6).
body(r_fr18_164,fr1_z1).
head(r_fr18_165,fr16_z2).
body(r_fr18_165,fr18_c2).
body(r_fr18_165,fr18_f2).
head(r_fr18_166,fr16_z2).
body(r_fr18_166,fr18_b1).
body(r_fr18_166,fr5_x2).
body(r_fr18_166,fr23_r2).
body(r_fr18_166,fr18_u1).
head(r_fr18_167,fr16_z2).
body(r_fr18_167,fr18_c2).
body(r_fr18_167,fr23_r2).
body(r_fr18_167,fr18_s1).
head(r_fr18_168,fr16_z2).
body(r_fr18_168,fr1_z1).
head(r_fr18_169,fr16_z2).
body(r_fr18_169,fr18_a1).
body(r_fr18_169,fr5_x2).
body(r_fr18_169,fr8_z1).
body(r_fr18_169,fr18_s2).
body(r_fr18_169,fr18_u2).
head(r_fr18_170,fr16_z2).
body(r_fr18_170,fr20_p1).
head(r_fr18_171,fr16_z2).
body(r_fr18_171,fr18_f2).
body(r_fr18_171,fr1_z1).
body(r_fr18_171,fr23_r2).
head(r_fr18_172,fr16_z2).
head(r_fr18_173,fr16_z2).
body(r_fr18_173,fr23_r2).
body(r_fr18_173,fr23_r2).
body(r_fr18_173,fr18_u2).
body(r_fr18_173,fr20_p1).
body(r_fr18_173,fr20_p1).
head(r_fr18_174,fr16_z2).
body(r_fr18_174,fr2_a3).
body(r_fr18_174,fr2_a3).
body(r_fr18_174,fr25_w4).
body(r_fr18_174,fr20_p1).
head(r_fr18_175,fr18_s2).
body(r_fr18_175,fr18_s1).
head(r_fr18_176,fr18_s2).
body(r_fr18_176,fr5_x2).
body(r_fr18_176,fr18_q3).
body(r_fr18_176,fr5_r2).
body(r_fr18_176,fr25_w4).
head(r_fr18_177,fr18_s2).
body(r_fr18_177,fr3_a1).
body(r_fr18_177,fr23_r2).
head(r_fr18_178,fr18_s2).
body(r_fr18_178,fr18_a1).
body(r_fr18_178,fr2_e3).
body(r_fr18_178,fr2_f4).
body(r_fr18_178,fr18_f2).
body(r_fr18_178,fr20_p1).
body(r_fr18_178,fr5_p2).
head(r_fr18_179,fr18_s2).
body(r_fr18_179,fr18_b3).
body(r_fr18_179,fr18_s1).
body(r_fr18_179,fr25_z6).
head(r_fr18_180,fr18_s2).
body(r_fr18_180,fr3_a1).
body(r_fr18_180,fr18_e1).
body(r_fr18_180,fr25_z6).
head(r_fr18_181,fr18_s2).
body(r_fr18_181,fr3_a1).
body(r_fr18_181,fr20_p1).
body(r_fr18_181,fr5_p2).
head(r_fr18_182,fr18_s2).
body(r_fr18_182,fr1_z1).
body(r_fr18_182,fr18_q3).
body(r_fr18_182,fr18_u1).
body(r_fr18_182,fr18_u2).
body(r_fr18_182,fr23_r2).
body(r_fr18_182,fr11_r2).
head(r_fr18_183,fr18_s2).
body(r_fr18_183,fr2_f4).
body(r_fr18_183,fr18_f2).
body(r_fr18_183,fr1_z1).
body(r_fr18_183,fr23_r2).
head(r_fr18_184,fr18_s2).
body(r_fr18_184,fr2_e3).
body(r_fr18_184,fr23_r2).
head(r_fr18_185,fr18_s2).
body(r_fr18_185,fr2_a3).
head(r_fr18_186,fr18_s2).
body(r_fr18_186,fr2_e3).
body(r_fr18_186,fr11_c2).
body(r_fr18_186,fr18_c3).
body(r_fr18_186,fr25_z6).
head(r_fr18_187,fr18_s2).
body(r_fr18_187,fr2_e3).
body(r_fr18_187,fr11_c2).
head(r_fr18_188,fr18_s2).
body(r_fr18_188,fr2_a3).
body(r_fr18_188,fr18_b1).
body(r_fr18_188,fr11_c2).
body(r_fr18_188,fr2_e3).
body(r_fr18_188,fr18_e1).
head(r_fr18_189,fr18_s2).
body(r_fr18_189,fr2_a3).
body(r_fr18_189,fr2_a3).
body(r_fr18_189,fr18_b3).
body(r_fr18_189,fr18_f2).
head(r_fr18_190,fr18_s2).
body(r_fr18_190,fr18_b1).
body(r_fr18_190,fr11_c2).
body(r_fr18_190,fr2_e3).
body(r_fr18_190,fr3_a1).
body(r_fr18_190,fr18_f1).
body(r_fr18_190,fr18_f2).
head(r_fr18_191,fr18_s2).
head(r_fr18_192,fr18_s1).
body(r_fr18_192,fr18_a1).
body(r_fr18_192,fr18_b1).
body(r_fr18_192,fr18_c3).
body(r_fr18_192,fr18_e1).
head(r_fr18_193,fr18_s1).
body(r_fr18_193,fr11_c2).
head(r_fr18_194,fr18_s1).
body(r_fr18_194,fr23_r2).
body(r_fr18_194,fr11_r2).
head(r_fr18_195,fr18_s1).
body(r_fr18_195,fr18_c2).
body(r_fr18_195,fr11_r2).
body(r_fr18_195,fr20_p1).
head(r_fr18_196,fr18_s1).
body(r_fr18_196,fr2_a3).
body(r_fr18_196,fr11_c2).
body(r_fr18_196,fr2_e3).
head(r_fr18_197,fr18_s1).
body(r_fr18_197,fr18_b3).
body(r_fr18_197,fr18_c2).
head(r_fr18_198,fr18_s1).
body(r_fr18_198,fr2_f4).
body(r_fr18_198,fr18_f1).
body(r_fr18_198,fr25_w4).
head(r_fr18_199,fr18_s1).
body(r_fr18_199,fr18_e1).
body(r_fr18_199,fr2_f4).
body(r_fr18_199,fr5_w1).
head(r_fr18_200,fr18_s1).
body(r_fr18_200,fr2_a3).
body(r_fr18_200,fr18_b3).
body(r_fr18_200,fr11_c2).
body(r_fr18_200,fr2_e3).
body(r_fr18_200,fr18_f1).
body(r_fr18_200,fr20_p1).
head(r_fr18_201,fr18_s1).
body(r_fr18_201,fr18_b1).
body(r_fr18_201,fr2_e3).
body(r_fr18_201,fr3_a1).
body(r_fr18_201,fr18_e1).
body(r_fr18_201,fr2_f4).
head(r_fr18_202,fr18_s1).
body(r_fr18_202,fr18_a1).
body(r_fr18_202,fr18_b1).
body(r_fr18_202,fr2_f4).
body(r_fr18_202,fr18_f1).
body(r_fr18_202,fr25_w4).
body(r_fr18_202,fr11_r2).
head(r_fr18_203,fr18_s1).
head(r_fr18_204,fr18_s1).
body(r_fr18_204,fr2_a3).
body(r_fr18_204,fr18_b3).
body(r_fr18_204,fr18_c3).
body(r_fr18_204,fr2_e3).
body(r_fr18_204,fr18_u1).
body(r_fr18_204,fr25_w4).
head(r_fr18_205,fr18_s1).
body(r_fr18_205,fr18_s2).
body(r_fr18_205,fr5_r2).
head(r_fr18_206,fr18_s1).
body(r_fr18_206,fr18_b1).
body(r_fr18_206,fr2_e3).
body(r_fr18_206,fr18_c3).
body(r_fr18_206,fr2_e3).
body(r_fr18_206,fr3_a1).
body(r_fr18_206,fr18_u2).
head(r_fr18_207,fr23_r2).
body(r_fr18_207,fr3_a1).
body(r_fr18_207,fr1_z1).
body(r_fr18_207,fr5_w1).
head(r_fr18_208,fr23_r2).
body(r_fr18_208,fr18_b1).
body(r_fr18_208,fr2_e3).
body(r_fr18_208,fr18_b3).
body(r_fr18_208,fr2_e3).
body(r_fr18_208,fr3_a1).
body(r_fr18_208,fr18_r1).
head(r_fr18_209,fr23_r2).
body(r_fr18_209,fr18_a1).
body(r_fr18_209,fr1_z1).
body(r_fr18_209,fr18_s1).
body(r_fr18_209,fr18_s2).
head(r_fr18_210,fr23_r2).
body(r_fr18_210,fr11_c2).
body(r_fr18_210,fr18_c3).
body(r_fr18_210,fr18_e1).
body(r_fr18_210,fr18_f1).
body(r_fr18_210,fr18_f2).
body(r_fr18_210,fr18_u2).
head(r_fr18_211,fr23_r2).
body(r_fr18_211,fr18_c2).
body(r_fr18_211,fr2_f4).
head(r_fr18_212,fr23_r2).
body(r_fr18_212,fr5_r2).
body(r_fr18_212,fr18_u2).
head(r_fr18_213,fr23_r2).
body(r_fr18_213,fr18_c3).
body(r_fr18_213,fr3_a1).
body(r_fr18_213,fr8_z1).
body(r_fr18_213,fr20_p1).
head(r_fr18_214,fr23_r2).
body(r_fr18_214,fr8_z1).
body(r_fr18_214,fr18_u1).
body(r_fr18_214,fr18_u2).
head(r_fr18_215,fr23_r2).
body(r_fr18_215,fr2_a3).
head(r_fr18_216,fr23_r2).
body(r_fr18_216,fr18_f2).
body(r_fr18_216,fr20_p1).
body(r_fr18_216,fr18_r1).
body(r_fr18_216,fr20_p1).
body(r_fr18_216,fr25_z6).
body(r_fr18_216,fr20_p1).
head(r_fr18_217,fr23_r2).
head(r_fr18_218,fr23_r2).
body(r_fr18_218,fr3_a1).
body(r_fr18_218,fr2_f4).
body(r_fr18_218,fr20_p1).
head(r_fr18_219,fr23_r2).
body(r_fr18_219,fr18_c2).
head(r_fr18_220,fr23_r2).
body(r_fr18_220,fr18_a1).
body(r_fr18_220,fr3_a1).
body(r_fr18_220,fr2_f4).
head(r_fr18_221,fr23_r2).
body(r_fr18_221,fr11_c2).
body(r_fr18_221,fr18_f1).
head(r_fr18_222,fr23_r2).
body(r_fr18_222,fr1_z1).
head(r_fr18_223,fr23_r2).
body(r_fr18_223,fr8_z1).
head(r_fr18_224,fr1_z1).
body(r_fr18_224,fr2_a3).
body(r_fr18_224,fr18_b3).
body(r_fr18_224,fr11_c2).
body(r_fr18_224,fr18_s2).
head(r_fr18_225,fr1_z1).
body(r_fr18_225,fr8_z1).
body(r_fr18_225,fr18_s2).
head(r_fr18_226,fr1_z1).
body(r_fr18_226,fr2_e3).
body(r_fr18_226,fr11_c2).
body(r_fr18_226,fr18_e1).
body(r_fr18_226,fr18_f1).
body(r_fr18_226,fr5_r2).
head(r_fr18_227,fr1_z1).
body(r_fr18_227,fr18_a1).
body(r_fr18_227,fr2_a3).
body(r_fr18_227,fr18_c3).
body(r_fr18_227,fr18_f2).
head(r_fr18_228,fr1_z1).
body(r_fr18_228,fr11_c2).
body(r_fr18_228,fr18_c3).
body(r_fr18_228,fr2_f4).
body(r_fr18_228,fr18_f1).
head(r_fr18_229,fr1_z1).
body(r_fr18_229,fr18_b1).
body(r_fr18_229,fr2_e3).
body(r_fr18_229,fr11_c2).
body(r_fr18_229,fr3_a1).
body(r_fr18_229,fr18_f2).
head(r_fr18_230,fr1_z1).
body(r_fr18_230,fr18_b3).
body(r_fr18_230,fr18_c2).
body(r_fr18_230,fr18_s1).
head(r_fr18_231,fr1_z1).
body(r_fr18_231,fr2_a3).
body(r_fr18_231,fr18_e1).
body(r_fr18_231,fr18_f2).
body(r_fr18_231,fr5_w1).
body(r_fr18_231,fr20_v4).
head(r_fr18_232,fr1_z1).
body(r_fr18_232,fr18_b3).
body(r_fr18_232,fr3_a1).
head(r_fr18_233,fr1_z1).
body(r_fr18_233,fr18_f1).
head(r_fr18_234,fr1_z1).
body(r_fr18_234,fr18_a1).
body(r_fr18_234,fr2_e3).
body(r_fr18_234,fr1_z1).
body(r_fr18_234,fr5_w1).
body(r_fr18_234,fr23_r2).
head(r_fr18_235,fr1_z1).
head(r_fr18_236,fr1_z1).
body(r_fr18_236,fr18_b1).
body(r_fr18_236,fr18_b3).
body(r_fr18_236,fr18_e1).
body(r_fr18_236,fr5_r2).
body(r_fr18_236,fr11_r2).
body(r_fr18_236,fr20_p1).
head(r_fr18_237,fr1_z1).
body(r_fr18_237,fr18_q3).
body(r_fr18_237,fr18_u1).
body(r_fr18_237,fr25_w4).
body(r_fr18_237,fr20_p1).
body(r_fr18_237,fr20_p1).
head(r_fr18_238,fr1_z1).
body(r_fr18_238,fr18_a1).
body(r_fr18_238,fr18_b1).
body(r_fr18_238,fr18_b3).
body(r_fr18_238,fr23_r2).
body(r_fr18_238,fr23_r2).
body(r_fr18_238,fr20_v4).
head(r_fr18_239,fr18_r1).
body(r_fr18_239,fr2_a3).
body(r_fr18_239,fr3_a1).
body(r_fr18_239,fr18_u2).
body(r_fr18_239,fr20_p1).
head(r_fr18_240,fr18_r1).
body(r_fr18_240,fr18_b3).
body(r_fr18_240,fr2_e3).
body(r_fr18_240,fr18_u1).
head(r_fr18_241,fr18_r1).
head(r_fr18_242,fr18_r1).
body(r_fr18_242,fr2_a3).
body(r_fr18_242,fr18_c2).
body(r_fr18_242,fr18_c3).
body(r_fr18_242,fr2_e3).
body(r_fr18_242,fr3_a1).
body(r_fr18_242,fr2_f4).
head(r_fr18_243,fr18_r1).
body(r_fr18_243,fr2_a3).
body(r_fr18_243,fr18_b1).
body(r_fr18_243,fr18_f1).
body(r_fr18_243,fr18_f2).
body(r_fr18_243,fr20_v4).
body(r_fr18_243,fr11_r2).
head(r_fr18_244,fr18_r1).
body(r_fr18_244,fr8_z1).
body(r_fr18_244,fr18_s1).
body(r_fr18_244,fr18_s2).
body(r_fr18_244,fr18_u2).
body(r_fr18_244,fr1_z1).
body(r_fr18_244,fr20_p1).
head(r_fr18_245,fr18_r1).
body(r_fr18_245,fr2_a3).
body(r_fr18_245,fr18_b3).
body(r_fr18_245,fr1_z1).
head(r_fr18_246,fr18_r1).
body(r_fr18_246,fr1_z1).
body(r_fr18_246,fr23_r2).
body(r_fr18_246,fr5_w1).
body(r_fr18_246,fr18_u2).
head(r_fr18_247,fr18_r1).
body(r_fr18_247,fr2_a3).
body(r_fr18_247,fr11_c2).
body(r_fr18_247,fr2_f4).
body(r_fr18_247,fr18_f1).
body(r_fr18_247,fr18_f2).
body(r_fr18_247,fr20_v4).
head(r_fr18_248,fr18_r1).
body(r_fr18_248,fr2_a3).
body(r_fr18_248,fr11_c2).
body(r_fr18_248,fr2_e3).
body(r_fr18_248,fr3_a1).
body(r_fr18_248,fr2_f4).
body(r_fr18_248,fr18_f1).
head(r_fr18_249,fr18_r1).
body(r_fr18_249,fr2_a3).
body(r_fr18_249,fr2_a3).
body(r_fr18_249,fr18_b1).
body(r_fr18_249,fr18_c2).
body(r_fr18_249,fr18_c3).
body(r_fr18_249,fr2_f4).
head(r_fr18_250,fr18_r1).
body(r_fr18_250,fr18_c2).
body(r_fr18_250,fr1_z1).
body(r_fr18_250,fr18_s2).
head(r_fr18_251,fr18_r1).
body(r_fr18_251,fr2_e3).
body(r_fr18_251,fr16_z2).
body(r_fr18_251,fr18_s1).
body(r_fr18_251,fr5_w1).
body(r_fr18_251,fr18_u1).
body(r_fr18_251,fr11_r2).
head(r_fr18_252,fr18_r1).
body(r_fr18_252,fr18_a1).
body(r_fr18_252,fr2_e3).
body(r_fr18_252,fr18_b3).
body(r_fr18_252,fr11_c2).
body(r_fr18_252,fr18_f1).
body(r_fr18_252,fr18_f2).
head(r_fr18_253,fr18_r1).
body(r_fr18_253,fr8_z1).
body(r_fr18_253,fr23_r2).
body(r_fr18_253,fr20_p1).
head(r_fr18_254,fr11_r2).
body(r_fr18_254,fr18_e1).
body(r_fr18_254,fr8_z1).
body(r_fr18_254,fr23_r2).
body(r_fr18_254,fr20_p1).
head(r_fr18_255,fr11_r2).
body(r_fr18_255,fr2_a3).
body(r_fr18_255,fr2_e3).
body(r_fr18_255,fr18_b3).
head(r_fr18_256,fr11_r2).
body(r_fr18_256,fr2_a3).
body(r_fr18_256,fr11_c2).
body(r_fr18_256,fr18_c2).
body(r_fr18_256,fr2_e3).
body(r_fr18_256,fr18_s2).
body(r_fr18_256,fr20_p1).
head(r_fr18_257,fr11_r2).
body(r_fr18_257,fr11_c2).
body(r_fr18_257,fr18_u2).
head(r_fr18_258,fr11_r2).
body(r_fr18_258,fr2_e3).
head(r_fr18_259,fr11_r2).
body(r_fr18_259,fr2_a3).
body(r_fr18_259,fr2_e3).
body(r_fr18_259,fr18_f2).
body(r_fr18_259,fr20_p1).
head(r_fr18_260,fr11_r2).
body(r_fr18_260,fr2_a3).
body(r_fr18_260,fr2_a3).
body(r_fr18_260,fr2_e3).
body(r_fr18_260,fr11_c2).
body(r_fr18_260,fr18_f2).
head(r_fr18_261,fr11_r2).
body(r_fr18_261,fr2_a3).
body(r_fr18_261,fr18_s1).
body(r_fr18_261,fr5_r2).
body(r_fr18_261,fr5_w1).
head(r_fr18_262,fr11_r2).
body(r_fr18_262,fr16_z2).
head(r_fr18_263,fr11_r2).
body(r_fr18_263,fr5_x2).
body(r_fr18_263,fr16_z2).
body(r_fr18_263,fr23_r2).
body(r_fr18_263,fr18_s1).
body(r_fr18_263,fr23_r2).
head(r_fr18_264,fr11_r2).
body(r_fr18_264,fr18_a1).
body(r_fr18_264,fr2_a3).
body(r_fr18_264,fr18_b1).
body(r_fr18_264,fr18_c2).
body(r_fr18_264,fr2_e3).
body(r_fr18_264,fr3_a1).
head(r_fr18_265,fr11_r2).
body(r_fr18_265,fr2_e3).
body(r_fr18_265,fr18_c3).
body(r_fr18_265,fr18_f2).
body(r_fr18_265,fr5_x2).
body(r_fr18_265,fr18_u2).
head(r_fr18_266,fr11_r2).
body(r_fr18_266,fr2_e3).
body(r_fr18_266,fr16_z2).
body(r_fr18_266,fr18_s1).
body(r_fr18_266,fr23_r2).
head(r_fr18_267,fr11_r2).
body(r_fr18_267,fr20_p1).
body(r_fr18_267,fr18_u1).
body(r_fr18_267,fr23_r2).
body(r_fr18_267,fr20_v4).
head(r_fr18_268,fr11_r2).
head(r_fr18_269,fr11_r2).
body(r_fr18_269,fr2_f4).
body(r_fr18_269,fr18_q3).
body(r_fr18_269,fr18_s1).
body(r_fr18_269,fr20_v4).
head(r_fr18_270,fr23_r2).
body(r_fr18_270,fr2_e3).
body(r_fr18_270,fr18_e1).
body(r_fr18_270,fr18_q3).
body(r_fr18_270,fr1_z1).
head(r_fr18_271,fr23_r2).
body(r_fr18_271,fr2_a3).
body(r_fr18_271,fr18_b3).
body(r_fr18_271,fr18_e1).
body(r_fr18_271,fr2_f4).
body(r_fr18_271,fr18_f2).
head(r_fr18_272,fr23_r2).
body(r_fr18_272,fr23_r2).
body(r_fr18_272,fr18_s2).
body(r_fr18_272,fr25_w4).
body(r_fr18_272,fr23_r2).
body(r_fr18_272,fr20_p1).
body(r_fr18_272,fr20_v4).
head(r_fr18_273,fr23_r2).
body(r_fr18_273,fr2_f4).
body(r_fr18_273,fr1_z1).
body(r_fr18_273,fr20_p1).
body(r_fr18_273,fr18_s1).
body(r_fr18_273,fr23_r2).
head(r_fr18_274,fr23_r2).
body(r_fr18_274,fr5_r2).
head(r_fr18_275,fr23_r2).
body(r_fr18_275,fr11_c2).
body(r_fr18_275,fr18_q3).
body(r_fr18_275,fr18_r1).
body(r_fr18_275,fr5_r2).
body(r_fr18_275,fr18_u1).
body(r_fr18_275,fr23_r2).
head(r_fr18_276,fr23_r2).
body(r_fr18_276,fr18_a1).
body(r_fr18_276,fr2_a3).
body(r_fr18_276,fr11_r2).
head(r_fr18_277,fr23_r2).
body(r_fr18_277,fr18_a1).
body(r_fr18_277,fr2_a3).
body(r_fr18_277,fr8_z1).
body(r_fr18_277,fr18_u1).
body(r_fr18_277,fr5_p2).
head(r_fr18_278,fr23_r2).
body(r_fr18_278,fr18_e1).
body(r_fr18_278,fr18_r1).
head(r_fr18_279,fr23_r2).
body(r_fr18_279,fr2_a3).
body(r_fr18_279,fr3_a1).
body(r_fr18_279,fr18_e1).
head(r_fr18_280,fr23_r2).
body(r_fr18_280,fr2_e3).
head(r_fr18_281,fr23_r2).
body(r_fr18_281,fr18_b3).
body(r_fr18_281,fr18_u1).
body(r_fr18_281,fr25_z6).
head(r_fr18_282,fr23_r2).
body(r_fr18_282,fr18_b1).
body(r_fr18_282,fr18_q3).
body(r_fr18_282,fr8_z1).
body(r_fr18_282,fr23_r2).
body(r_fr18_282,fr5_w1).
body(r_fr18_282,fr25_w4).
head(r_fr18_283,fr23_r2).
body(r_fr18_283,fr18_b1).
head(r_fr18_284,fr23_r2).
body(r_fr18_284,fr11_c2).
body(r_fr18_284,fr18_e1).
body(r_fr18_284,fr2_f4).
body(r_fr18_284,fr20_p1).
body(r_fr18_284,fr25_z6).
head(r_fr18_285,fr23_r2).
body(r_fr18_285,fr18_c3).
body(r_fr18_285,fr3_a1).
body(r_fr18_285,fr2_f4).
body(r_fr18_285,fr18_f2).
body(r_fr18_285,fr18_s1).
head(r_fr18_286,fr23_r2).
body(r_fr18_286,fr2_e3).
body(r_fr18_286,fr18_e1).
body(r_fr18_286,fr18_f2).
body(r_fr18_286,fr5_x2).
head(r_fr18_287,fr5_w1).
body(r_fr18_287,fr18_b3).
body(r_fr18_287,fr18_c3).
body(r_fr18_287,fr2_f4).
body(r_fr18_287,fr18_f1).
body(r_fr18_287,fr18_f2).
head(r_fr18_288,fr5_w1).
body(r_fr18_288,fr5_x2).
body(r_fr18_288,fr11_r2).
head(r_fr18_289,fr5_w1).
body(r_fr18_289,fr18_b3).
body(r_fr18_289,fr18_s2).
body(r_fr18_289,fr18_u1).
body(r_fr18_289,fr25_z6).
head(r_fr18_290,fr5_w1).
body(r_fr18_290,fr18_s2).
head(r_fr18_291,fr5_w1).
head(r_fr18_292,fr5_w1).
body(r_fr18_292,fr1_z1).
body(r_fr18_292,fr18_q3).
body(r_fr18_292,fr18_r1).
head(r_fr18_293,fr5_w1).
body(r_fr18_293,fr2_a3).
body(r_fr18_293,fr20_p1).
body(r_fr18_293,fr8_z1).
body(r_fr18_293,fr11_r2).
body(r_fr18_293,fr20_p1).
head(r_fr18_294,fr5_w1).
body(r_fr18_294,fr18_a1).
body(r_fr18_294,fr18_c3).
body(r_fr18_294,fr3_a1).
body(r_fr18_294,fr2_f4).
body(r_fr18_294,fr5_r2).
body(r_fr18_294,fr20_v4).
head(r_fr18_295,fr5_w1).
body(r_fr18_295,fr18_r1).
body(r_fr18_295,fr23_r2).
body(r_fr18_295,fr23_r2).
head(r_fr18_296,fr5_w1).
body(r_fr18_296,fr20_v4).
head(r_fr18_297,fr5_w1).
body(r_fr18_297,fr18_f2).
body(r_fr18_297,fr5_r2).
body(r_fr18_297,fr18_u2).
head(r_fr18_298,fr5_w1).
body(r_fr18_298,fr18_a1).
body(r_fr18_298,fr18_s2).
body(r_fr18_298,fr18_u2).
head(r_fr18_299,fr5_w1).
body(r_fr18_299,fr23_r2).
body(r_fr18_299,fr18_q3).
body(r_fr18_299,fr18_r1).
body(r_fr18_299,fr18_s1).
body(r_fr18_299,fr18_u1).
body(r_fr18_299,fr1_z1).
head(r_fr18_300,fr5_w1).
body(r_fr18_300,fr11_c2).
body(r_fr18_300,fr20_p1).
body(r_fr18_300,fr18_s1).
head(r_fr18_301,fr5_w1).
body(r_fr18_301,fr2_e3).
body(r_fr18_301,fr2_f4).
head(r_fr18_302,fr25_z6).
body(r_fr18_302,fr2_a3).
body(r_fr18_302,fr18_e1).
body(r_fr18_302,fr2_f4).
body(r_fr18_302,fr18_s1).
body(r_fr18_302,fr11_r2).
head(r_fr18_303,fr25_z6).
body(r_fr18_303,fr18_b1).
body(r_fr18_303,fr2_e3).
body(r_fr18_303,fr18_e1).
body(r_fr18_303,fr18_q3).
head(r_fr18_304,fr25_z6).
body(r_fr18_304,fr5_x2).
body(r_fr18_304,fr18_s2).
body(r_fr18_304,fr5_r2).
body(r_fr18_304,fr18_u2).
body(r_fr18_304,fr25_w4).
body(r_fr18_304,fr20_v4).
head(r_fr18_305,fr25_z6).
body(r_fr18_305,fr11_c2).
body(r_fr18_305,fr18_c3).
body(r_fr18_305,fr2_f4).
body(r_fr18_305,fr18_f1).
body(r_fr18_305,fr18_q3).
head(r_fr18_306,fr25_z6).
body(r_fr18_306,fr2_a3).
body(r_fr18_306,fr18_b1).
body(r_fr18_306,fr2_e3).
body(r_fr18_306,fr18_c2).
body(r_fr18_306,fr2_f4).
head(r_fr18_307,fr25_z6).
body(r_fr18_307,fr2_a3).
head(r_fr18_308,fr25_z6).
body(r_fr18_308,fr18_b1).
body(r_fr18_308,fr18_c2).
body(r_fr18_308,fr2_f4).
body(r_fr18_308,fr20_p1).
head(r_fr18_309,fr25_z6).
body(r_fr18_309,fr18_a1).
body(r_fr18_309,fr11_c2).
body(r_fr18_309,fr2_e3).
body(r_fr18_309,fr2_f4).
body(r_fr18_309,fr18_f2).
head(r_fr18_310,fr25_z6).
body(r_fr18_310,fr2_e3).
body(r_fr18_310,fr1_z1).
body(r_fr18_310,fr20_p1).
head(r_fr18_311,fr25_z6).
body(r_fr18_311,fr20_p1).
head(r_fr18_312,fr25_z6).
body(r_fr18_312,fr18_f1).
head(r_fr18_313,fr25_z6).
head(r_fr18_314,fr25_z6).
body(r_fr18_314,fr18_a1).
body(r_fr18_314,fr23_r2).
head(r_fr18_315,fr25_z6).
body(r_fr18_315,fr18_b3).
body(r_fr18_315,fr11_c2).
body(r_fr18_315,fr18_c2).
body(r_fr18_315,fr18_f2).
head(r_fr18_316,fr25_z6).
body(r_fr18_316,fr2_e3).

assumption(fr5_c3).
assumption(fr19_b1).
assumption(fr19_c1).
assumption(fr16_a3).
assumption(fr3_a1).
assumption(fr19_f1).
assumption(fr20_a1).
assumption(fr19_b2).
assumption(fr19_c2).
assumption(fr22_e2).
assumption(fr8_a1).
assumption(fr3_a1).
assumption(fr19_a3).
assumption(fr19_b3).
assumption(fr1_b2).
contrary(fr5_c3,fr19_z6).
contrary(fr20_a1,fr20_q3).
contrary(fr19_a3,fr19_w2).
contrary(fr19_b1,fr21_s1).
contrary(fr19_b2,fr20_q3).
contrary(fr19_b3,fr19_w2).
contrary(fr19_c1,fr8_a1).
contrary(fr19_c2,fr19_w1).
contrary(fr1_b2,fr19_t7).
contrary(fr16_a3,fr5_w1).
contrary(fr22_e2,fr17_w1).
contrary(fr3_a1,fr19_x5).
contrary(fr8_a1,fr3_u2).
contrary(fr19_f1,fr9_x1).
contrary(fr3_a1,fr19_q7).
head(r_fr19_0,fr19_s7).
body(r_fr19_0,fr19_y3).
body(r_fr19_0,fr20_p1).
body(r_fr19_0,fr19_y5).
head(r_fr19_1,fr19_s7).
body(r_fr19_1,fr16_a3).
head(r_fr19_2,fr19_s7).
body(r_fr19_2,fr19_b3).
body(r_fr19_2,fr19_c1).
body(r_fr19_2,fr19_c2).
body(r_fr19_2,fr22_e2).
body(r_fr19_2,fr19_x5).
head(r_fr19_3,fr19_s7).
body(r_fr19_3,fr3_a1).
body(r_fr19_3,fr20_q3).
body(r_fr19_3,fr9_x1).
head(r_fr19_4,fr14_z1).
body(r_fr19_4,fr19_c2).
body(r_fr19_4,fr3_a1).
body(r_fr19_4,fr19_p1).
body(r_fr19_4,fr19_s6).
body(r_fr19_4,fr19_w5).
head(r_fr19_5,fr14_z1).
body(r_fr19_5,fr5_c3).
body(r_fr19_5,fr16_a3).
body(r_fr19_5,fr3_a1).
body(r_fr19_5,fr8_a1).
body(r_fr19_5,fr19_v3).
head(r_fr19_6,fr14_z1).
head(r_fr19_7,fr9_x1).
body(r_fr19_7,fr19_a3).
body(r_fr19_7,fr19_y3).
body(r_fr19_7,fr14_s2).
body(r_fr19_7,fr19_z6).
head(r_fr19_8,fr9_x1).
body(r_fr19_8,fr5_c3).
body(r_fr19_8,fr19_a3).
body(r_fr19_8,fr19_b1).
body(r_fr19_8,fr3_a1).
body(r_fr19_8,fr17_w1).
body(r_fr19_8,fr14_u2).
head(r_fr19_9,fr9_x1).
head(r_fr19_10,fr9_x1).
body(r_fr19_10,fr19_a3).
body(r_fr19_10,fr19_b1).
body(r_fr19_10,fr19_b2).
body(r_fr19_10,fr19_c2).
body(r_fr19_10,fr1_b2).
body(r_fr19_10,fr8_a1).
head(r_fr19_11,fr9_x1).
body(r_fr19_11,fr3_a1).
body(r_fr19_11,fr8_a1).
body(r_fr19_11,fr19_p3).
body(r_fr19_11,fr5_r2).
body(r_fr19_11,fr19_t2).
body(r_fr19_11,fr5_x2).
head(r_fr19_12,fr19_p2).
head(r_fr19_13,fr19_p2).
body(r_fr19_13,fr5_c3).
body(r_fr19_13,fr8_a1).
body(r_fr19_13,fr3_a1).
body(r_fr19_13,fr19_s6).
body(r_fr19_13,fr20_p1).
body(r_fr19_13,fr19_u7).
head(r_fr19_14,fr19_p2).
body(r_fr19_14,fr19_f1).
head(r_fr19_15,fr19_u1).
body(r_fr19_15,fr19_b1).
body(r_fr19_15,fr1_b2).
body(r_fr19_15,fr3_a1).
body(r_fr19_15,fr20_p1).
body(r_fr19_15,fr19_u3).
body(r_fr19_15,fr19_v3).
head(r_fr19_16,fr19_u1).
body(r_fr19_16,fr19_x2).
head(r_fr19_17,fr19_u1).
body(r_fr19_17,fr16_a3).
body(r_fr19_17,fr3_a1).
head(r_fr19_18,fr19_u1).
body(r_fr19_18,fr20_a1).
body(r_fr19_18,fr19_b2).
body(r_fr19_18,fr19_c2).
body(r_fr19_18,fr1_b2).
body(r_fr19_18,fr19_s6).
body(r_fr19_18,fr19_t1).
head(r_fr19_19,fr19_u1).
body(r_fr19_19,fr19_b1).
body(r_fr19_19,fr19_p3).
body(r_fr19_19,fr8_p2).
head(r_fr19_20,fr19_z1).
body(r_fr19_20,fr19_c2).
body(r_fr19_20,fr19_z6).
head(r_fr19_21,fr19_z1).
body(r_fr19_21,fr19_b2).
body(r_fr19_21,fr22_e2).
head(r_fr19_22,fr19_z1).
body(r_fr19_22,fr19_b2).
body(r_fr19_22,fr22_e2).
body(r_fr19_22,fr19_v7).
body(r_fr19_22,fr19_w1).
head(r_fr19_23,fr19_z1).
body(r_fr19_23,fr19_p1).
body(r_fr19_23,fr19_u7).
body(r_fr19_23,fr19_v4).
body(r_fr19_23,fr19_z6).
head(r_fr19_24,fr19_u3).
head(r_fr19_25,fr19_u3).
body(r_fr19_25,fr5_c3).
body(r_fr19_25,fr19_a3).
body(r_fr19_25,fr19_q1).
body(r_fr19_25,fr3_u2).
head(r_fr19_26,fr19_y5).
body(r_fr19_26,fr5_c3).
body(r_fr19_26,fr19_a3).
body(r_fr19_26,fr19_b1).
body(r_fr19_26,fr19_c2).
body(r_fr19_26,fr16_a3).
body(r_fr19_26,fr19_v2).
head(r_fr19_27,fr19_y5).
body(r_fr19_27,fr5_c3).
body(r_fr19_27,fr19_b3).
body(r_fr19_27,fr1_b2).
body(r_fr19_27,fr19_p5).
body(r_fr19_27,fr19_y3).
head(r_fr19_28,fr19_y5).
body(r_fr19_28,fr19_b2).
body(r_fr19_28,fr19_p1).
body(r_fr19_28,fr19_r1).
body(r_fr19_28,fr19_x2).
head(r_fr19_29,fr19_y5).
body(r_fr19_29,fr19_c1).
body(r_fr19_29,fr22_e2).
body(r_fr19_29,fr10_s3).
body(r_fr19_29,fr19_v4).
head(r_fr19_30,fr19_v4).
head(r_fr19_31,fr19_v4).
body(r_fr19_31,fr8_a1).
body(r_fr19_31,fr19_u2).
head(r_fr19_32,fr19_v4).
body(r_fr19_32,fr19_b2).
body(r_fr19_32,fr1_b2).
head(r_fr19_33,fr20_p1).
body(r_fr19_33,fr19_b2).
body(r_fr19_33,fr19_q1).
body(r_fr19_33,fr19_v2).
head(r_fr19_34,fr20_p1).
body(r_fr19_34,fr19_b2).
body(r_fr19_34,fr16_a3).
body(r_fr19_34,fr3_u2).
head(r_fr19_35,fr20_p1).
body(r_fr19_35,fr19_c1).
body(r_fr19_35,fr8_a1).
body(r_fr19_35,fr19_f1).
head(r_fr19_36,fr20_p1).
body(r_fr19_36,fr19_b1).
body(r_fr19_36,fr19_b3).
body(r_fr19_36,fr3_a1).
body(r_fr19_36,fr19_f1).
body(r_fr19_36,fr19_t2).
body(r_fr19_36,fr19_w3).
head(r_fr19_37,fr19_z3).
head(r_fr19_38,fr19_z3).
body(r_fr19_38,fr19_c1).
body(r_fr19_38,fr1_b2).
head(r_fr19_39,fr19_z3).
body(r_fr19_39,fr16_a3).
body(r_fr19_39,fr20_p1).
body(r_fr19_39,fr20_p3).
body(r_fr19_39,fr14_s2).
body(r_fr19_39,fr19_t7).
body(r_fr19_39,fr19_u7).
head(r_fr19_40,fr19_x7).
body(r_fr19_40,fr19_p3).
body(r_fr19_40,fr19_r2).
body(r_fr19_40,fr20_p1).
body(r_fr19_40,fr19_t4).
body(r_fr19_40,fr17_w1).
head(r_fr19_41,fr19_x7).
body(r_fr19_41,fr19_a3).
body(r_fr19_41,fr1_b2).
body(r_fr19_41,fr22_e2).
head(r_fr19_42,fr19_x7).
body(r_fr19_42,fr3_a1).
body(r_fr19_42,fr19_v3).
head(r_fr19_43,fr19_x7).
head(r_fr19_44,fr19_s6).
body(r_fr19_44,fr19_b1).
body(r_fr19_44,fr19_b2).
body(r_fr19_44,fr19_c2).
body(r_fr19_44,fr22_e2).
body(r_fr19_44,fr14_s2).
head(r_fr19_45,fr19_s6).
body(r_fr19_45,fr19_b3).
body(r_fr19_45,fr19_c2).
head(r_fr19_46,fr17_w1).
body(r_fr19_46,fr19_a3).
body(r_fr19_46,fr19_b3).
body(r_fr19_46,fr3_a1).
body(r_fr19_46,fr8_a1).
body(r_fr19_46,fr19_f1).
body(r_fr19_46,fr19_x2).
head(r_fr19_47,fr17_w1).
body(r_fr19_47,fr5_c3).
body(r_fr19_47,fr1_b2).
body(r_fr19_47,fr16_a3).
head(r_fr19_48,fr17_w1).
body(r_fr19_48,fr5_c3).
body(r_fr19_48,fr3_a1).
body(r_fr19_48,fr5_w1).
head(r_fr19_49,fr19_w1).
body(r_fr19_49,fr5_c3).
body(r_fr19_49,fr19_a3).
body(r_fr19_49,fr19_c2).
head(r_fr19_50,fr19_w1).
body(r_fr19_50,fr19_r2).
head(r_fr19_51,fr19_w1).
body(r_fr19_51,fr19_r1).
head(r_fr19_52,fr19_w1).
body(r_fr19_52,fr16_a3).
body(r_fr19_52,fr19_x5).
head(r_fr19_53,fr14_u2).
body(r_fr19_53,fr19_b1).
body(r_fr19_53,fr19_b2).
body(r_fr19_53,fr22_e2).
head(r_fr19_54,fr14_u2).
body(r_fr19_54,fr19_y1).
head(r_fr19_55,fr14_u2).
body(r_fr19_55,fr19_b3).
body(r_fr19_55,fr16_a3).
body(r_fr19_55,fr8_a1).
body(r_fr19_55,fr20_p1).
body(r_fr19_55,fr19_z6).
head(r_fr19_56,fr5_w1).
body(r_fr19_56,fr14_s2).
body(r_fr19_56,fr3_u2).
head(r_fr19_57,fr5_w1).
body(r_fr19_57,fr19_r7).
head(r_fr19_58,fr5_w1).
body(r_fr19_58,fr20_p1).
body(r_fr19_58,fr19_t4).
body(r_fr19_58,fr19_x2).
body(r_fr19_58,fr19_y1).
head(r_fr19_59,fr5_w1).
head(r_fr19_60,fr5_w1).
body(r_fr19_60,fr3_a1).
body(r_fr19_60,fr19_p3).
body(r_fr19_60,fr19_t7).
head(r_fr19_61,fr19_v6).
body(r_fr19_61,fr19_b3).
body(r_fr19_61,fr3_a1).
body(r_fr19_61,fr3_a1).
body(r_fr19_61,fr19_q7).
body(r_fr19_61,fr8_t1).
body(r_fr19_61,fr19_z6).
head(r_fr19_62,fr19_v6).
body(r_fr19_62,fr20_a1).
body(r_fr19_62,fr19_b3).
body(r_fr19_62,fr19_c1).
body(r_fr19_62,fr8_a1).
body(r_fr19_62,fr15_t1).
body(r_fr19_62,fr19_u7).
head(r_fr19_63,fr19_v6).
body(r_fr19_63,fr19_r2).
body(r_fr19_63,fr19_v2).
body(r_fr19_63,fr19_v7).
head(r_fr19_64,fr19_v6).
body(r_fr19_64,fr16_a3).
body(r_fr19_64,fr22_e2).
body(r_fr19_64,fr3_a1).
body(r_fr19_64,fr19_p4).
head(r_fr19_65,fr19_v1).
body(r_fr19_65,fr19_b1).
body(r_fr19_65,fr19_b3).
head(r_fr19_66,fr19_v1).
body(r_fr19_66,fr15_t1).
body(r_fr19_66,fr21_s1).
head(r_fr19_67,fr19_y3).
body(r_fr19_67,fr19_p5).
body(r_fr19_67,fr8_z1).
body(r_fr19_67,fr19_t7).
body(r_fr19_67,fr8_t1).
body(r_fr19_67,fr19_w5).
body(r_fr19_67,fr19_y1).
head(r_fr19_68,fr19_y3).
body(r_fr19_68,fr5_c3).
body(r_fr19_68,fr19_c2).
body(r_fr19_68,fr3_a1).
body(r_fr19_68,fr8_t1).
body(r_fr19_68,fr19_t2).
head(r_fr19_69,fr19_y3).
body(r_fr19_69,fr19_y3).
body(r_fr19_69,fr14_s2).
body(r_fr19_69,fr19_v3).
head(r_fr19_70,fr19_y3).
body(r_fr19_70,fr20_p1).
body(r_fr19_70,fr8_p2).
body(r_fr19_70,fr19_t1).
body(r_fr19_70,fr20_p3).
body(r_fr19_70,fr19_v7).
body(r_fr19_70,fr19_x5).

assumption(fr20_a1).
assumption(fr20_b1).
assumption(fr20_c1).
assumption(fr23_b1).
assumption(fr20_e1).
assumption(fr12_b1).
assumption(fr3_a1).
assumption(fr2_e3).
assumption(fr10_e2).
assumption(fr20_d2).
assumption(fr20_e2).
assumption(fr20_f2).
assumption(fr20_a3).
assumption(fr20_b3).
assumption(fr16_a3).
assumption(fr20_d3).
assumption(fr20_e3).
assumption(fr20_f3).
assumption(fr25_f2).
assumption(fr20_b4).
assumption(fr20_c4).
assumption(fr20_d4).
assumption(fr20_e4).
assumption(fr20_f4).
contrary(fr20_a1,fr8_p2).
contrary(fr3_a1,fr20_e4).
contrary(fr20_a3,fr20_q3).
contrary(fr25_f2,fr23_b1).
contrary(fr20_b1,fr20_b4).
contrary(fr2_e3,fr10_e2).
contrary(fr20_b3,fr15_t1).
contrary(fr20_b4,fr20_y2).
contrary(fr20_c1,fr20_p1).
contrary(fr10_e2,fr20_p3).
contrary(fr16_a3,fr20_f4).
contrary(fr20_c4,fr7_s3).
contrary(fr23_b1,fr2_e3).
contrary(fr20_d2,fr16_a3).
contrary(fr20_d3,fr8_p2).
contrary(fr20_d4,fr20_p1).
contrary(fr20_e1,fr20_p1).
contrary(fr20_e2,fr20_a3).
contrary(fr20_e3,fr20_c4).
contrary(fr20_e4,fr20_v4).
contrary(fr12_b1,fr25_f2).
contrary(fr20_f2,fr20_p1).
contrary(fr20_f3,fr20_s2).
contrary(fr20_f4,fr20_r2).
head(r_fr20_0,fr20_r1).
body(r_fr20_0,fr20_e1).
head(r_fr20_1,fr20_r1).
body(r_fr20_1,fr19_y3).
body(r_fr20_1,fr20_v4).
body(r_fr20_1,fr20_v3).
head(r_fr20_2,fr20_r1).
body(r_fr20_2,fr3_p3).
body(r_fr20_2,fr11_r2).
body(r_fr20_2,fr23_q3).
head(r_fr20_3,fr20_r1).
body(r_fr20_3,fr20_p1).
head(r_fr20_4,fr15_t1).
body(r_fr20_4,fr20_a1).
body(r_fr20_4,fr10_e2).
head(r_fr20_5,fr15_t1).
body(r_fr20_5,fr20_p3).
body(r_fr20_5,fr20_r2).
body(r_fr20_5,fr16_z2).
body(r_fr20_5,fr15_u3).
body(r_fr20_5,fr17_w1).
body(r_fr20_5,fr23_q3).
body(r_fr20_5,fr20_y2).
body(r_fr20_5,fr20_y3).
head(r_fr20_6,fr15_t1).
body(r_fr20_6,fr16_a3).
body(r_fr20_6,fr20_c4).
body(r_fr20_6,fr20_p1).
body(r_fr20_6,fr15_u3).
body(r_fr20_6,fr15_u3).
head(r_fr20_7,fr15_t1).
body(r_fr20_7,fr20_r1).
body(r_fr20_7,fr20_v3).
head(r_fr20_8,fr15_t1).
head(r_fr20_9,fr15_t1).
body(r_fr20_9,fr25_f2).
body(r_fr20_9,fr20_c1).
body(r_fr20_9,fr20_d4).
body(r_fr20_9,fr20_p1).
head(r_fr20_10,fr15_t1).
body(r_fr20_10,fr10_e2).
body(r_fr20_10,fr20_d3).
body(r_fr20_10,fr20_e1).
body(r_fr20_10,fr20_p1).
head(r_fr20_11,fr15_t1).
body(r_fr20_11,fr20_u2).
head(r_fr20_12,fr23_q3).
body(r_fr20_12,fr25_r7).
body(r_fr20_12,fr3_x2).
head(r_fr20_13,fr23_q3).
body(r_fr20_13,fr20_a3).
body(r_fr20_13,fr25_f2).
body(r_fr20_13,fr20_b1).
body(r_fr20_13,fr20_c4).
body(r_fr20_13,fr20_d2).
body(r_fr20_13,fr20_e1).
body(r_fr20_13,fr20_e3).
body(r_fr20_13,fr25_w2).
head(r_fr20_14,fr23_q3).
body(r_fr20_14,fr20_b3).
body(r_fr20_14,fr23_b1).
body(r_fr20_14,fr20_d2).
body(r_fr20_14,fr14_s2).
head(r_fr20_15,fr23_q3).
body(r_fr20_15,fr3_a1).
body(r_fr20_15,fr20_d2).
body(r_fr20_15,fr25_u2).
body(r_fr20_15,fr7_s3).
body(r_fr20_15,fr11_r2).
body(r_fr20_15,fr20_z1).
head(r_fr20_16,fr23_q3).
body(r_fr20_16,fr20_b3).
body(r_fr20_16,fr20_c4).
body(r_fr20_16,fr20_d2).
body(r_fr20_16,fr20_d3).
body(r_fr20_16,fr17_w1).
body(r_fr20_16,fr3_x2).
body(r_fr20_16,fr20_p1).
head(r_fr20_17,fr23_q3).
body(r_fr20_17,fr20_q1).
body(r_fr20_17,fr20_r1).
body(r_fr20_17,fr20_r2).
body(r_fr20_17,fr25_u2).
body(r_fr20_17,fr20_p1).
body(r_fr20_17,fr7_s3).
body(r_fr20_17,fr15_u3).
body(r_fr20_17,fr20_z1).
head(r_fr20_18,fr23_q3).
body(r_fr20_18,fr25_f2).
body(r_fr20_18,fr2_e3).
body(r_fr20_18,fr20_e3).
body(r_fr20_18,fr12_b1).
body(r_fr20_18,fr19_y3).
head(r_fr20_19,fr8_p2).
body(r_fr20_19,fr20_b4).
body(r_fr20_19,fr20_p1).
body(r_fr20_19,fr17_w1).
body(r_fr20_19,fr20_p1).
head(r_fr20_20,fr8_p2).
body(r_fr20_20,fr20_e4).
body(r_fr20_20,fr20_p3).
body(r_fr20_20,fr20_q4).
body(r_fr20_20,fr19_y3).
body(r_fr20_20,fr7_y2).
body(r_fr20_20,fr15_t1).
body(r_fr20_20,fr20_y2).
head(r_fr20_21,fr8_p2).
body(r_fr20_21,fr3_a1).
body(r_fr20_21,fr20_c4).
body(r_fr20_21,fr25_u2).
head(r_fr20_22,fr8_p2).
body(r_fr20_22,fr17_w1).
head(r_fr20_23,fr8_p2).
body(r_fr20_23,fr10_e2).
body(r_fr20_23,fr20_c4).
body(r_fr20_23,fr20_d2).
body(r_fr20_23,fr12_b1).
body(r_fr20_23,fr20_f4).
body(r_fr20_23,fr15_u3).
head(r_fr20_24,fr8_p2).
body(r_fr20_24,fr20_d4).
body(r_fr20_24,fr20_p4).
body(r_fr20_24,fr20_q3).
body(r_fr20_24,fr20_r1).
body(r_fr20_24,fr20_p1).
body(r_fr20_24,fr15_u3).
head(r_fr20_25,fr8_p2).
body(r_fr20_25,fr20_b3).
body(r_fr20_25,fr20_p1).
body(r_fr20_25,fr8_p2).
body(r_fr20_25,fr20_s2).
head(r_fr20_26,fr8_p2).
body(r_fr20_26,fr20_a1).
body(r_fr20_26,fr3_a1).
body(r_fr20_26,fr2_e3).
body(r_fr20_26,fr20_b3).
body(r_fr20_26,fr16_a3).
body(r_fr20_26,fr23_b1).
body(r_fr20_26,fr20_e2).
head(r_fr20_27,fr14_s2).
body(r_fr20_27,fr20_a3).
body(r_fr20_27,fr2_e3).
body(r_fr20_27,fr20_c1).
body(r_fr20_27,fr20_d4).
body(r_fr20_27,fr20_e1).
body(r_fr20_27,fr20_e3).
body(r_fr20_27,fr8_p2).
body(r_fr20_27,fr20_y2).
head(r_fr20_28,fr14_s2).
body(r_fr20_28,fr3_a1).
body(r_fr20_28,fr20_b4).
body(r_fr20_28,fr20_c4).
body(r_fr20_28,fr20_d2).
body(r_fr20_28,fr20_d4).
body(r_fr20_28,fr20_e1).
body(r_fr20_28,fr20_f3).
head(r_fr20_29,fr20_q4).
body(r_fr20_29,fr7_y2).
body(r_fr20_29,fr15_u3).
body(r_fr20_29,fr14_s2).
head(r_fr20_30,fr20_q4).
body(r_fr20_30,fr20_b1).
body(r_fr20_30,fr20_c1).
body(r_fr20_30,fr10_e2).
body(r_fr20_30,fr20_d2).
body(r_fr20_30,fr20_d4).
body(r_fr20_30,fr20_e1).
body(r_fr20_30,fr20_r1).
body(r_fr20_30,fr19_y3).
head(r_fr20_31,fr20_q4).
head(r_fr20_32,fr20_q4).
body(r_fr20_32,fr3_a1).
body(r_fr20_32,fr2_e3).
body(r_fr20_32,fr16_a3).
body(r_fr20_32,fr20_c4).
body(r_fr20_32,fr20_d3).
body(r_fr20_32,fr7_y2).
head(r_fr20_33,fr20_q4).
body(r_fr20_33,fr12_b1).
head(r_fr20_34,fr20_q4).
body(r_fr20_34,fr10_e2).
body(r_fr20_34,fr15_u3).
head(r_fr20_35,fr20_q3).
body(r_fr20_35,fr20_a3).
body(r_fr20_35,fr25_f2).
body(r_fr20_35,fr20_b1).
body(r_fr20_35,fr2_e3).
body(r_fr20_35,fr20_d3).
body(r_fr20_35,fr20_e3).
body(r_fr20_35,fr20_f2).
body(r_fr20_35,fr20_r1).
head(r_fr20_36,fr20_q3).
body(r_fr20_36,fr20_d4).
body(r_fr20_36,fr3_w3).
body(r_fr20_36,fr20_p1).
head(r_fr20_37,fr20_q3).
body(r_fr20_37,fr20_a3).
body(r_fr20_37,fr2_e3).
body(r_fr20_37,fr20_c1).
body(r_fr20_37,fr23_b1).
body(r_fr20_37,fr20_e1).
body(r_fr20_37,fr12_b1).
body(r_fr20_37,fr25_u2).
head(r_fr20_38,fr20_q3).
body(r_fr20_38,fr23_b1).
body(r_fr20_38,fr20_d2).
body(r_fr20_38,fr20_d3).
body(r_fr20_38,fr20_f2).
body(r_fr20_38,fr20_f4).
body(r_fr20_38,fr15_t1).
body(r_fr20_38,fr20_z1).
body(r_fr20_38,fr20_p1).
head(r_fr20_39,fr15_u3).
body(r_fr20_39,fr20_a3).
body(r_fr20_39,fr20_b1).
body(r_fr20_39,fr20_b4).
body(r_fr20_39,fr16_a3).
body(r_fr20_39,fr20_c4).
body(r_fr20_39,fr20_d2).
body(r_fr20_39,fr20_e4).
body(r_fr20_39,fr20_f3).
head(r_fr20_40,fr15_u3).
body(r_fr20_40,fr20_q4).
body(r_fr20_40,fr20_v3).
head(r_fr20_41,fr15_u3).
body(r_fr20_41,fr20_b4).
body(r_fr20_41,fr16_a3).
body(r_fr20_41,fr20_d3).
body(r_fr20_41,fr20_p1).
body(r_fr20_41,fr15_u3).
body(r_fr20_41,fr20_v4).
body(r_fr20_41,fr3_x2).
body(r_fr20_41,fr15_u3).
head(r_fr20_42,fr15_u3).
body(r_fr20_42,fr20_a3).
body(r_fr20_42,fr20_b1).
body(r_fr20_42,fr16_a3).
body(r_fr20_42,fr20_d4).
body(r_fr20_42,fr20_e2).
head(r_fr20_43,fr15_u3).
body(r_fr20_43,fr3_a1).
body(r_fr20_43,fr20_c1).
head(r_fr20_44,fr15_u3).
body(r_fr20_44,fr23_b1).
body(r_fr20_44,fr20_d3).
body(r_fr20_44,fr25_r7).
head(r_fr20_45,fr3_p3).
body(r_fr20_45,fr20_a3).
body(r_fr20_45,fr25_f2).
body(r_fr20_45,fr20_b4).
body(r_fr20_45,fr23_b1).
body(r_fr20_45,fr20_d3).
body(r_fr20_45,fr20_e4).
head(r_fr20_46,fr3_p3).
body(r_fr20_46,fr20_d2).
head(r_fr20_47,fr3_p3).
body(r_fr20_47,fr20_c4).
body(r_fr20_47,fr23_b1).
body(r_fr20_47,fr20_e2).
body(r_fr20_47,fr20_p4).
body(r_fr20_47,fr20_s2).
body(r_fr20_47,fr20_u2).
body(r_fr20_47,fr11_r2).
body(r_fr20_47,fr15_u3).
body(r_fr20_47,fr20_y2).
head(r_fr20_48,fr20_q1).
body(r_fr20_48,fr12_b1).
body(r_fr20_48,fr20_p3).
body(r_fr20_48,fr20_q4).
body(r_fr20_48,fr20_s2).
body(r_fr20_48,fr25_u2).
body(r_fr20_48,fr7_s3).
body(r_fr20_48,fr25_r7).
body(r_fr20_48,fr14_s2).
body(r_fr20_48,fr3_w3).
head(r_fr20_49,fr20_q1).
body(r_fr20_49,fr2_e3).
body(r_fr20_49,fr20_c4).
body(r_fr20_49,fr20_d3).
head(r_fr20_50,fr20_q1).
body(r_fr20_50,fr25_w2).
body(r_fr20_50,fr20_p1).
body(r_fr20_50,fr20_y3).
head(r_fr20_51,fr20_q1).
body(r_fr20_51,fr3_a1).
body(r_fr20_51,fr3_p3).
body(r_fr20_51,fr20_p1).
body(r_fr20_51,fr11_r2).
head(r_fr20_52,fr19_y3).
body(r_fr20_52,fr25_w2).
body(r_fr20_52,fr20_q4).
body(r_fr20_52,fr20_r2).
body(r_fr20_52,fr25_u2).
body(r_fr20_52,fr20_p1).
body(r_fr20_52,fr15_u3).
body(r_fr20_52,fr20_y2).
body(r_fr20_52,fr20_p1).
body(r_fr20_52,fr20_p1).
head(r_fr20_53,fr19_y3).
head(r_fr20_54,fr19_y3).
body(r_fr20_54,fr20_p4).
body(r_fr20_54,fr16_z2).
body(r_fr20_54,fr20_s2).
body(r_fr20_54,fr20_v4).
body(r_fr20_54,fr3_x2).
head(r_fr20_55,fr19_y3).
body(r_fr20_55,fr10_e2).
body(r_fr20_55,fr20_d2).
head(r_fr20_56,fr7_y2).
body(r_fr20_56,fr15_u3).
head(r_fr20_57,fr7_y2).
body(r_fr20_57,fr3_p3).
body(r_fr20_57,fr20_r2).
body(r_fr20_57,fr8_p2).
body(r_fr20_57,fr8_p2).
body(r_fr20_57,fr20_u2).
body(r_fr20_57,fr15_u3).
body(r_fr20_57,fr20_z1).
head(r_fr20_58,fr7_y2).
body(r_fr20_58,fr3_a1).
body(r_fr20_58,fr20_b1).
body(r_fr20_58,fr10_e2).
body(r_fr20_58,fr16_a3).
body(r_fr20_58,fr20_d2).
body(r_fr20_58,fr20_d3).
body(r_fr20_58,fr12_b1).
body(r_fr20_58,fr20_f2).
head(r_fr20_59,fr20_z1).
body(r_fr20_59,fr20_b4).
body(r_fr20_59,fr23_b1).
body(r_fr20_59,fr20_d2).
head(r_fr20_60,fr20_z1).
body(r_fr20_60,fr20_d2).
body(r_fr20_60,fr20_f4).
head(r_fr20_61,fr20_z1).
body(r_fr20_61,fr20_b1).
body(r_fr20_61,fr2_e3).
body(r_fr20_61,fr20_b4).
body(r_fr20_61,fr20_d4).
body(r_fr20_61,fr20_e3).
body(r_fr20_61,fr20_f4).
body(r_fr20_61,fr23_q3).
head(r_fr20_62,fr20_z1).
body(r_fr20_62,fr23_q3).
head(r_fr20_63,fr20_z1).
head(r_fr20_64,fr3_w3).
body(r_fr20_64,fr20_a1).
body(r_fr20_64,fr3_a1).
body(r_fr20_64,fr20_c4).
body(r_fr20_64,fr20_e4).
body(r_fr20_64,fr20_f2).
body(r_fr20_64,fr20_f3).
head(r_fr20_65,fr3_w3).
head(r_fr20_66,fr3_w3).
body(r_fr20_66,fr20_a1).
body(r_fr20_66,fr20_a3).
body(r_fr20_66,fr20_d3).
body(r_fr20_66,fr20_e1).
body(r_fr20_66,fr20_e2).
body(r_fr20_66,fr20_f2).
head(r_fr20_67,fr3_w3).
body(r_fr20_67,fr20_b4).
body(r_fr20_67,fr16_a3).
body(r_fr20_67,fr14_s2).
head(r_fr20_68,fr3_w3).
body(r_fr20_68,fr20_e4).
body(r_fr20_68,fr20_p3).
body(r_fr20_68,fr20_p4).
body(r_fr20_68,fr20_q1).
body(r_fr20_68,fr3_p3).
body(r_fr20_68,fr7_y2).
body(r_fr20_68,fr17_w1).
head(r_fr20_69,fr15_u3).
body(r_fr20_69,fr16_a3).
body(r_fr20_69,fr20_e3).
body(r_fr20_69,fr12_b1).
body(r_fr20_69,fr3_p3).
head(r_fr20_70,fr15_u3).
body(r_fr20_70,fr20_c4).
body(r_fr20_70,fr3_x2).
body(r_fr20_70,fr3_w3).
head(r_fr20_71,fr15_u3).
body(r_fr20_71,fr2_e3).
body(r_fr20_71,fr20_f4).
body(r_fr20_71,fr20_p1).
head(r_fr20_72,fr15_u3).
body(r_fr20_72,fr20_d4).
body(r_fr20_72,fr20_e3).
body(r_fr20_72,fr20_p1).
body(r_fr20_72,fr20_q1).
body(r_fr20_72,fr20_s2).
body(r_fr20_72,fr20_v3).
body(r_fr20_72,fr15_t1).
body(r_fr20_72,fr20_y3).
head(r_fr20_73,fr15_u3).
body(r_fr20_73,fr20_p1).
body(r_fr20_73,fr14_s2).
head(r_fr20_74,fr15_u3).
body(r_fr20_74,fr20_a3).
body(r_fr20_74,fr20_b3).
body(r_fr20_74,fr20_f3).
body(r_fr20_74,fr20_p1).
body(r_fr20_74,fr20_q3).
body(r_fr20_74,fr20_r1).
body(r_fr20_74,fr7_y2).
head(r_fr20_75,fr25_r7).
body(r_fr20_75,fr2_e3).
head(r_fr20_76,fr25_r7).
body(r_fr20_76,fr25_f2).
body(r_fr20_76,fr20_e3).
body(r_fr20_76,fr20_f3).
body(r_fr20_76,fr20_p4).
body(r_fr20_76,fr20_y3).
head(r_fr20_77,fr25_r7).
body(r_fr20_77,fr23_b1).
body(r_fr20_77,fr12_b1).
body(r_fr20_77,fr20_f2).
body(r_fr20_77,fr25_u2).
body(r_fr20_77,fr20_u2).
body(r_fr20_77,fr11_r2).
body(r_fr20_77,fr17_w1).
body(r_fr20_77,fr23_q3).
head(r_fr20_78,fr20_p1).
body(r_fr20_78,fr20_a3).
body(r_fr20_78,fr10_e2).
body(r_fr20_78,fr16_a3).
body(r_fr20_78,fr20_c4).
body(r_fr20_78,fr20_d2).
body(r_fr20_78,fr20_d3).
body(r_fr20_78,fr20_e3).
head(r_fr20_79,fr20_p1).
body(r_fr20_79,fr20_e1).
body(r_fr20_79,fr20_e3).
body(r_fr20_79,fr20_e4).
body(r_fr20_79,fr20_f2).
body(r_fr20_79,fr20_p3).
body(r_fr20_79,fr8_p2).
body(r_fr20_79,fr25_u2).
head(r_fr20_80,fr20_p1).
body(r_fr20_80,fr20_c1).
body(r_fr20_80,fr20_p3).
body(r_fr20_80,fr19_y3).
body(r_fr20_80,fr8_p2).
body(r_fr20_80,fr25_u2).
body(r_fr20_80,fr11_r2).
body(r_fr20_80,fr23_q3).
body(r_fr20_80,fr20_p1).
head(r_fr20_81,fr20_p1).
body(r_fr20_81,fr20_b1).
body(r_fr20_81,fr20_b4).
body(r_fr20_81,fr20_d4).
body(r_fr20_81,fr20_f2).
body(r_fr20_81,fr8_p2).
head(r_fr20_82,fr20_p1).
body(r_fr20_82,fr16_a3).
head(r_fr20_83,fr20_p1).
body(r_fr20_83,fr20_a3).
body(r_fr20_83,fr2_e3).
body(r_fr20_83,fr20_e3).
body(r_fr20_83,fr20_f3).
body(r_fr20_83,fr20_f4).
body(r_fr20_83,fr20_s2).
head(r_fr20_84,fr7_s3).
body(r_fr20_84,fr2_e3).
body(r_fr20_84,fr20_d2).
body(r_fr20_84,fr19_y3).
body(r_fr20_84,fr8_p2).
body(r_fr20_84,fr14_s2).
body(r_fr20_84,fr20_y3).
body(r_fr20_84,fr20_z1).
head(r_fr20_85,fr7_s3).
body(r_fr20_85,fr20_c4).
body(r_fr20_85,fr20_f2).
body(r_fr20_85,fr11_r2).
body(r_fr20_85,fr15_u3).
body(r_fr20_85,fr17_w1).
body(r_fr20_85,fr3_x2).
body(r_fr20_85,fr3_w3).
head(r_fr20_86,fr7_s3).
body(r_fr20_86,fr20_b3).
body(r_fr20_86,fr20_b4).
head(r_fr20_87,fr20_s2).
body(r_fr20_87,fr2_e3).
body(r_fr20_87,fr25_w2).
body(r_fr20_87,fr20_v3).
body(r_fr20_87,fr20_u2).
body(r_fr20_87,fr14_s2).
head(r_fr20_88,fr20_s2).
body(r_fr20_88,fr20_a1).
body(r_fr20_88,fr20_d2).
body(r_fr20_88,fr20_d4).
body(r_fr20_88,fr20_q1).
body(r_fr20_88,fr11_r2).
head(r_fr20_89,fr20_s2).
body(r_fr20_89,fr20_b1).
body(r_fr20_89,fr2_e3).
body(r_fr20_89,fr20_d2).
head(r_fr20_90,fr20_y3).
body(r_fr20_90,fr3_a1).
body(r_fr20_90,fr25_f2).
body(r_fr20_90,fr16_a3).
body(r_fr20_90,fr20_e1).
body(r_fr20_90,fr12_b1).
body(r_fr20_90,fr11_r2).
body(r_fr20_90,fr15_u3).
body(r_fr20_90,fr3_x2).
head(r_fr20_91,fr20_y3).
body(r_fr20_91,fr20_b3).
body(r_fr20_91,fr16_a3).
body(r_fr20_91,fr20_d3).
body(r_fr20_91,fr25_w2).
body(r_fr20_91,fr3_p3).
body(r_fr20_91,fr20_v3).
body(r_fr20_91,fr7_s3).
body(r_fr20_91,fr20_v3).
body(r_fr20_91,fr20_v3).
head(r_fr20_92,fr20_y3).
body(r_fr20_92,fr20_a1).
body(r_fr20_92,fr3_a1).
body(r_fr20_92,fr20_b4).
body(r_fr20_92,fr10_e2).
body(r_fr20_92,fr20_f3).
body(r_fr20_92,fr20_p3).
body(r_fr20_92,fr20_r2).
body(r_fr20_92,fr7_y2).
head(r_fr20_93,fr20_y3).
body(r_fr20_93,fr20_d4).
body(r_fr20_93,fr20_p3).
body(r_fr20_93,fr8_p2).
body(r_fr20_93,fr20_s2).
body(r_fr20_93,fr25_r7).
body(r_fr20_93,fr23_q3).
body(r_fr20_93,fr15_u3).
head(r_fr20_94,fr20_y3).
body(r_fr20_94,fr20_c1).
body(r_fr20_94,fr16_a3).
body(r_fr20_94,fr7_s3).
body(r_fr20_94,fr23_q3).
body(r_fr20_94,fr20_y2).
head(r_fr20_95,fr20_y3).
body(r_fr20_95,fr10_e2).
body(r_fr20_95,fr20_p1).
body(r_fr20_95,fr20_u2).
body(r_fr20_95,fr20_y2).
head(r_fr20_96,fr20_p3).
body(r_fr20_96,fr20_a1).
body(r_fr20_96,fr25_f2).
body(r_fr20_96,fr20_c1).
body(r_fr20_96,fr20_e1).
head(r_fr20_97,fr20_p3).
body(r_fr20_97,fr20_e1).
body(r_fr20_97,fr16_z2).
body(r_fr20_97,fr8_p2).
body(r_fr20_97,fr3_x2).
body(r_fr20_97,fr23_q3).
body(r_fr20_97,fr20_y2).
head(r_fr20_98,fr20_p3).
body(r_fr20_98,fr25_w2).
body(r_fr20_98,fr15_u3).
head(r_fr20_99,fr15_u3).
body(r_fr20_99,fr20_z1).
head(r_fr20_100,fr15_u3).
body(r_fr20_100,fr20_c4).
body(r_fr20_100,fr20_d4).
head(r_fr20_101,fr20_v3).
body(r_fr20_101,fr20_a1).
body(r_fr20_101,fr20_b1).
body(r_fr20_101,fr17_w1).
head(r_fr20_102,fr20_v3).
body(r_fr20_102,fr3_a1).
body(r_fr20_102,fr20_b1).
body(r_fr20_102,fr2_e3).
body(r_fr20_102,fr20_e4).
body(r_fr20_102,fr20_f3).
body(r_fr20_102,fr8_p2).
body(r_fr20_102,fr15_u3).
head(r_fr20_103,fr20_v3).
head(r_fr20_104,fr20_v3).
body(r_fr20_104,fr20_e3).
body(r_fr20_104,fr20_q1).
body(r_fr20_104,fr3_p3).
body(r_fr20_104,fr20_v3).
body(r_fr20_104,fr7_y2).
body(r_fr20_104,fr3_x2).
body(r_fr20_104,fr20_z1).
body(r_fr20_104,fr20_p1).
head(r_fr20_105,fr20_v3).
body(r_fr20_105,fr20_a1).
body(r_fr20_105,fr20_b3).
body(r_fr20_105,fr20_e3).
body(r_fr20_105,fr11_r2).
head(r_fr20_106,fr20_v3).
body(r_fr20_106,fr20_a1).
body(r_fr20_106,fr25_f2).
body(r_fr20_106,fr20_c1).
body(r_fr20_106,fr20_c4).
body(r_fr20_106,fr20_e4).
body(r_fr20_106,fr20_f3).
head(r_fr20_107,fr20_v3).
body(r_fr20_107,fr3_a1).
body(r_fr20_107,fr2_e3).
body(r_fr20_107,fr20_b4).
body(r_fr20_107,fr20_e1).
body(r_fr20_107,fr20_e3).
body(r_fr20_107,fr20_f4).
body(r_fr20_107,fr7_y2).
body(r_fr20_107,fr17_w1).
head(r_fr20_108,fr20_p1).
body(r_fr20_108,fr3_a1).
body(r_fr20_108,fr20_b1).
body(r_fr20_108,fr20_c4).
body(r_fr20_108,fr23_b1).
body(r_fr20_108,fr20_e3).
body(r_fr20_108,fr20_e4).
body(r_fr20_108,fr20_f2).
body(r_fr20_108,fr20_p4).
body(r_fr20_108,fr20_p1).
head(r_fr20_109,fr20_p1).
body(r_fr20_109,fr20_a3).
body(r_fr20_109,fr2_e3).
body(r_fr20_109,fr20_b3).
body(r_fr20_109,fr20_c1).
body(r_fr20_109,fr10_e2).
body(r_fr20_109,fr20_c4).
body(r_fr20_109,fr20_e2).
body(r_fr20_109,fr12_b1).
head(r_fr20_110,fr20_p1).
body(r_fr20_110,fr14_s2).
head(r_fr20_111,fr20_p1).
body(r_fr20_111,fr16_a3).
body(r_fr20_111,fr20_p1).
head(r_fr20_112,fr20_p1).
body(r_fr20_112,fr3_a1).
body(r_fr20_112,fr20_b3).
body(r_fr20_112,fr16_a3).
body(r_fr20_112,fr20_d2).
body(r_fr20_112,fr20_d3).
body(r_fr20_112,fr20_e1).
body(r_fr20_112,fr20_e2).
body(r_fr20_112,fr20_s2).
head(r_fr20_113,fr20_p1).
body(r_fr20_113,fr20_e1).
body(r_fr20_113,fr20_p1).
body(r_fr20_113,fr20_v4).
head(r_fr20_114,fr20_p1).
body(r_fr20_114,fr20_c1).
body(r_fr20_114,fr20_e2).
body(r_fr20_114,fr20_r2).
body(r_fr20_114,fr20_p1).
body(r_fr20_114,fr15_u3).
body(r_fr20_114,fr20_p1).
head(r_fr20_115,fr20_v3).
body(r_fr20_115,fr20_p3).
body(r_fr20_115,fr8_p2).
body(r_fr20_115,fr20_p1).
body(r_fr20_115,fr25_r7).
body(r_fr20_115,fr15_u3).
body(r_fr20_115,fr20_v3).
body(r_fr20_115,fr20_p1).
head(r_fr20_116,fr20_v3).
body(r_fr20_116,fr20_f3).
head(r_fr20_117,fr20_v3).
body(r_fr20_117,fr3_x2).
body(r_fr20_117,fr14_s2).
body(r_fr20_117,fr20_p1).
head(r_fr20_118,fr20_v3).
body(r_fr20_118,fr20_f4).
body(r_fr20_118,fr20_r2).
body(r_fr20_118,fr20_s2).
body(r_fr20_118,fr11_r2).
body(r_fr20_118,fr17_w1).
body(r_fr20_118,fr23_q3).
body(r_fr20_118,fr3_w3).
head(r_fr20_119,fr20_v3).
body(r_fr20_119,fr20_b4).
body(r_fr20_119,fr20_e4).
body(r_fr20_119,fr20_y3).
head(r_fr20_120,fr20_v3).
body(r_fr20_120,fr20_b1).
body(r_fr20_120,fr20_b3).
body(r_fr20_120,fr20_c4).
body(r_fr20_120,fr20_e1).
body(r_fr20_120,fr25_r7).
body(r_fr20_120,fr15_t1).
head(r_fr20_121,fr11_r2).
body(r_fr20_121,fr20_b1).
body(r_fr20_121,fr20_p1).
body(r_fr20_121,fr20_p3).
body(r_fr20_121,fr8_p2).
body(r_fr20_121,fr7_y2).
body(r_fr20_121,fr17_w1).
body(r_fr20_121,fr20_v3).
head(r_fr20_122,fr11_r2).
body(r_fr20_122,fr3_a1).
body(r_fr20_122,fr20_b3).
body(r_fr20_122,fr10_e2).
body(r_fr20_122,fr20_c4).
body(r_fr20_122,fr15_u3).
head(r_fr20_123,fr11_r2).
body(r_fr20_123,fr3_a1).
body(r_fr20_123,fr20_b4).
body(r_fr20_123,fr20_f3).
body(r_fr20_123,fr20_p1).
body(r_fr20_123,fr15_u3).
body(r_fr20_123,fr20_v3).
body(r_fr20_123,fr20_z1).
head(r_fr20_124,fr11_r2).
body(r_fr20_124,fr20_d2).
body(r_fr20_124,fr20_r1).
body(r_fr20_124,fr19_y3).
body(r_fr20_124,fr20_v3).
body(r_fr20_124,fr7_y2).
head(r_fr20_125,fr11_r2).
body(r_fr20_125,fr20_d3).
body(r_fr20_125,fr20_d4).
head(r_fr20_126,fr11_r2).
head(r_fr20_127,fr11_r2).
body(r_fr20_127,fr20_b1).
body(r_fr20_127,fr20_b4).
body(r_fr20_127,fr19_y3).
body(r_fr20_127,fr8_p2).
body(r_fr20_127,fr7_y2).
body(r_fr20_127,fr3_w3).
body(r_fr20_127,fr20_v3).
body(r_fr20_127,fr20_y2).
head(r_fr20_128,fr25_w2).
body(r_fr20_128,fr23_q3).
body(r_fr20_128,fr20_z1).
body(r_fr20_128,fr20_p1).
head(r_fr20_129,fr25_w2).
body(r_fr20_129,fr20_c1).
body(r_fr20_129,fr20_e3).
body(r_fr20_129,fr16_z2).
head(r_fr20_130,fr25_w2).
body(r_fr20_130,fr20_c4).
body(r_fr20_130,fr20_e3).
body(r_fr20_130,fr20_p1).
body(r_fr20_130,fr14_s2).
body(r_fr20_130,fr20_y3).
body(r_fr20_130,fr20_z1).
head(r_fr20_131,fr25_w2).
head(r_fr20_132,fr20_p4).
body(r_fr20_132,fr20_d3).
body(r_fr20_132,fr20_e4).
body(r_fr20_132,fr20_f3).
head(r_fr20_133,fr20_p4).
body(r_fr20_133,fr16_a3).
head(r_fr20_134,fr20_p4).
body(r_fr20_134,fr3_a1).
body(r_fr20_134,fr20_b1).
body(r_fr20_134,fr20_c4).
body(r_fr20_134,fr20_d2).
body(r_fr20_134,fr20_e1).
body(r_fr20_134,fr20_e2).
body(r_fr20_134,fr20_e4).
body(r_fr20_134,fr20_u2).
body(r_fr20_134,fr3_w3).
head(r_fr20_135,fr20_p4).
body(r_fr20_135,fr20_b3).
body(r_fr20_135,fr15_t1).
head(r_fr20_136,fr25_u2).
body(r_fr20_136,fr3_w3).
body(r_fr20_136,fr20_v3).
head(r_fr20_137,fr25_u2).
body(r_fr20_137,fr20_a3).
body(r_fr20_137,fr12_b1).
body(r_fr20_137,fr20_f4).
head(r_fr20_138,fr25_u2).
body(r_fr20_138,fr20_f2).
body(r_fr20_138,fr20_p1).
body(r_fr20_138,fr15_u3).
body(r_fr20_138,fr14_s2).
body(r_fr20_138,fr23_q3).
body(r_fr20_138,fr20_v3).
body(r_fr20_138,fr15_u3).
head(r_fr20_139,fr25_u2).
body(r_fr20_139,fr20_c4).
body(r_fr20_139,fr20_e4).
body(r_fr20_139,fr19_y3).
head(r_fr20_140,fr25_u2).
head(r_fr20_141,fr8_p2).
body(r_fr20_141,fr20_v3).
head(r_fr20_142,fr8_p2).
body(r_fr20_142,fr20_a1).
body(r_fr20_142,fr20_e3).
body(r_fr20_142,fr20_f4).
body(r_fr20_142,fr19_y3).
head(r_fr20_143,fr8_p2).
body(r_fr20_143,fr25_f2).
body(r_fr20_143,fr20_b1).
body(r_fr20_143,fr20_c1).
body(r_fr20_143,fr20_d4).
body(r_fr20_143,fr20_e1).
body(r_fr20_143,fr20_e4).
body(r_fr20_143,fr20_f2).
head(r_fr20_144,fr8_p2).
head(r_fr20_145,fr8_p2).
body(r_fr20_145,fr3_a1).
body(r_fr20_145,fr16_a3).
body(r_fr20_145,fr20_c4).
body(r_fr20_145,fr20_d3).
head(r_fr20_146,fr3_x2).
body(r_fr20_146,fr20_p3).
body(r_fr20_146,fr20_q3).
body(r_fr20_146,fr20_q4).
body(r_fr20_146,fr16_z2).
body(r_fr20_146,fr20_s2).
body(r_fr20_146,fr15_u3).
body(r_fr20_146,fr20_v4).
body(r_fr20_146,fr20_y3).
head(r_fr20_147,fr3_x2).
body(r_fr20_147,fr20_c4).
head(r_fr20_148,fr3_x2).
body(r_fr20_148,fr20_a1).
body(r_fr20_148,fr20_b3).
body(r_fr20_148,fr20_c1).
body(r_fr20_148,fr16_a3).
body(r_fr20_148,fr20_d3).
body(r_fr20_148,fr12_b1).
body(r_fr20_148,fr17_w1).
body(r_fr20_148,fr3_w3).
head(r_fr20_149,fr3_x2).
body(r_fr20_149,fr20_p4).
head(r_fr20_150,fr3_x2).
body(r_fr20_150,fr20_v4).
body(r_fr20_150,fr3_w3).
head(r_fr20_151,fr3_x2).
body(r_fr20_151,fr20_q4).
body(r_fr20_151,fr15_u3).
body(r_fr20_151,fr20_p1).
head(r_fr20_152,fr20_p1).
body(r_fr20_152,fr25_w2).
body(r_fr20_152,fr20_p3).
body(r_fr20_152,fr25_u2).
head(r_fr20_153,fr20_p1).
body(r_fr20_153,fr20_e3).
body(r_fr20_153,fr25_w2).
body(r_fr20_153,fr20_p4).
body(r_fr20_153,fr7_s3).
body(r_fr20_153,fr14_s2).
head(r_fr20_154,fr20_p1).
body(r_fr20_154,fr20_b3).
body(r_fr20_154,fr16_a3).
body(r_fr20_154,fr20_e2).
body(r_fr20_154,fr12_b1).
body(r_fr20_154,fr20_q3).
body(r_fr20_154,fr20_r1).
body(r_fr20_154,fr15_u3).
body(r_fr20_154,fr17_w1).
head(r_fr20_155,fr20_p1).
body(r_fr20_155,fr20_a1).
body(r_fr20_155,fr20_b4).
body(r_fr20_155,fr20_c4).
body(r_fr20_155,fr20_d2).
body(r_fr20_155,fr20_e2).
body(r_fr20_155,fr3_p3).
body(r_fr20_155,fr20_v3).
head(r_fr20_156,fr20_p1).
body(r_fr20_156,fr20_e2).
body(r_fr20_156,fr20_e4).
body(r_fr20_156,fr20_p3).
body(r_fr20_156,fr19_y3).
body(r_fr20_156,fr7_y2).
body(r_fr20_156,fr15_t1).
head(r_fr20_157,fr20_p1).
head(r_fr20_158,fr20_p1).
body(r_fr20_158,fr10_e2).
body(r_fr20_158,fr16_a3).
body(r_fr20_158,fr12_b1).
body(r_fr20_158,fr20_f4).
body(r_fr20_158,fr20_q3).
body(r_fr20_158,fr19_y3).

assumption(fr2_e3).
assumption(fr21_b1).
assumption(fr8_a1).
assumption(fr3_a1).
assumption(fr21_e1).
assumption(fr3_a1).
assumption(fr21_a2).
assumption(fr2_f4).
assumption(fr2_f4).
assumption(fr2_a3).
assumption(fr11_c2).
assumption(fr21_f2).
assumption(fr21_a3).
assumption(fr2_a3).
assumption(fr2_a1).
contrary(fr2_e3,fr2_f4).
contrary(fr21_a2,fr21_f2).
contrary(fr21_a3,fr21_f2).
contrary(fr21_b1,fr8_a1).
contrary(fr2_f4,fr2_a3).
contrary(fr2_a3,fr20_q3).
contrary(fr8_a1,fr21_u1).
contrary(fr2_f4,fr19_x7).
contrary(fr2_a1,fr21_f2).
contrary(fr3_a1,fr25_u2).
contrary(fr2_a3,fr8_a1).
contrary(fr21_e1,fr16_z2).
contrary(fr11_c2,fr2_a1).
contrary(fr3_a1,fr2_a3).
contrary(fr21_f2,fr2_a3).
head(r_fr21_0,fr20_v3).
body(r_fr21_0,fr21_a2).
body(r_fr21_0,fr21_a3).
body(r_fr21_0,fr21_b1).
body(r_fr21_0,fr2_a3).
body(r_fr21_0,fr2_a1).
body(r_fr21_0,fr2_a3).
head(r_fr21_1,fr20_v3).
body(r_fr21_1,fr21_a3).
body(r_fr21_1,fr16_z2).
body(r_fr21_1,fr21_s1).
body(r_fr21_1,fr21_v2).
body(r_fr21_1,fr25_u2).
head(r_fr21_2,fr20_v3).
body(r_fr21_2,fr21_a2).
body(r_fr21_2,fr21_a3).
body(r_fr21_2,fr11_c2).
body(r_fr21_2,fr21_f2).
head(r_fr21_3,fr20_v3).
body(r_fr21_3,fr2_e3).
body(r_fr21_3,fr21_a2).
body(r_fr21_3,fr21_u1).
head(r_fr21_4,fr20_v3).
head(r_fr21_5,fr20_v3).
body(r_fr21_5,fr21_a3).
head(r_fr21_6,fr20_v3).
body(r_fr21_6,fr16_z2).
head(r_fr21_7,fr20_v3).
body(r_fr21_7,fr21_a3).
body(r_fr21_7,fr21_p2).
body(r_fr21_7,fr15_v1).
body(r_fr21_7,fr16_z2).
body(r_fr21_7,fr21_w2).
body(r_fr21_7,fr25_u2).
head(r_fr21_8,fr20_v3).
body(r_fr21_8,fr2_f4).
head(r_fr21_9,fr20_v3).
body(r_fr21_9,fr2_f4).
body(r_fr21_9,fr11_c2).
body(r_fr21_9,fr20_q3).
body(r_fr21_9,fr21_u1).
body(r_fr21_9,fr21_x1).
head(r_fr21_10,fr16_z2).
body(r_fr21_10,fr21_a3).
body(r_fr21_10,fr21_p1).
body(r_fr21_10,fr21_w1).
body(r_fr21_10,fr21_z1).
head(r_fr21_11,fr16_z2).
body(r_fr21_11,fr8_a1).
body(r_fr21_11,fr2_f4).
body(r_fr21_11,fr2_a3).
body(r_fr21_11,fr21_e1).
body(r_fr21_11,fr11_c2).
body(r_fr21_11,fr21_x1).
head(r_fr21_12,fr16_z2).
body(r_fr21_12,fr2_a1).
body(r_fr21_12,fr15_v1).
head(r_fr21_13,fr16_z2).
body(r_fr21_13,fr21_a3).
body(r_fr21_13,fr2_a1).
body(r_fr21_13,fr3_a1).
head(r_fr21_14,fr16_z2).
body(r_fr21_14,fr3_a1).
head(r_fr21_15,fr16_z2).
body(r_fr21_15,fr2_e3).
body(r_fr21_15,fr21_a2).
body(r_fr21_15,fr20_p1).
body(r_fr21_15,fr20_v3).
body(r_fr21_15,fr25_u2).
head(r_fr21_16,fr16_z2).
body(r_fr21_16,fr2_a3).
body(r_fr21_16,fr20_v3).
head(r_fr21_17,fr16_z2).
body(r_fr21_17,fr2_f4).
body(r_fr21_17,fr2_a3).
body(r_fr21_17,fr21_f2).
head(r_fr21_18,fr16_z2).
body(r_fr21_18,fr2_e3).
body(r_fr21_18,fr2_f4).
body(r_fr21_18,fr2_f4).
body(r_fr21_18,fr21_w2).
body(r_fr21_18,fr7_y6).
head(r_fr21_19,fr21_r1).
body(r_fr21_19,fr3_a1).
head(r_fr21_20,fr21_r1).
body(r_fr21_20,fr2_a1).
body(r_fr21_20,fr21_x1).
body(r_fr21_20,fr25_u2).
head(r_fr21_21,fr21_r1).
body(r_fr21_21,fr2_f4).
body(r_fr21_21,fr2_a3).
body(r_fr21_21,fr21_s1).
head(r_fr21_22,fr21_r1).
body(r_fr21_22,fr2_e3).
body(r_fr21_22,fr2_a1).
head(r_fr21_23,fr21_r1).
body(r_fr21_23,fr15_v3).
body(r_fr21_23,fr20_q3).
body(r_fr21_23,fr19_x7).
head(r_fr21_24,fr21_r1).
body(r_fr21_24,fr21_a2).
body(r_fr21_24,fr21_a3).
body(r_fr21_24,fr2_a3).
body(r_fr21_24,fr20_v3).
head(r_fr21_25,fr21_r1).
body(r_fr21_25,fr21_a2).
body(r_fr21_25,fr21_a3).
body(r_fr21_25,fr3_a1).
body(r_fr21_25,fr11_c2).
body(r_fr21_25,fr15_v3).
head(r_fr21_26,fr21_r1).
body(r_fr21_26,fr21_b1).
body(r_fr21_26,fr2_a1).
body(r_fr21_26,fr21_p2).
body(r_fr21_26,fr19_x7).
head(r_fr21_27,fr21_r1).
body(r_fr21_27,fr21_a2).
body(r_fr21_27,fr21_a3).
body(r_fr21_27,fr21_b1).
body(r_fr21_27,fr2_a3).
body(r_fr21_27,fr21_f2).
body(r_fr21_27,fr20_v3).
head(r_fr21_28,fr21_r1).
body(r_fr21_28,fr21_a2).
body(r_fr21_28,fr2_f4).
body(r_fr21_28,fr11_c2).
head(r_fr21_29,fr21_r1).
head(r_fr21_30,fr21_z2).
body(r_fr21_30,fr21_e1).
body(r_fr21_30,fr21_w1).
head(r_fr21_31,fr21_z2).
head(r_fr21_32,fr21_z2).
body(r_fr21_32,fr20_v3).
body(r_fr21_32,fr21_y2).
head(r_fr21_33,fr21_z2).
body(r_fr21_33,fr21_p2).
body(r_fr21_33,fr21_r3).
body(r_fr21_33,fr15_v1).
body(r_fr21_33,fr25_u2).
head(r_fr21_34,fr21_z2).
body(r_fr21_34,fr2_f4).
body(r_fr21_34,fr21_p1).
body(r_fr21_34,fr21_y2).
head(r_fr21_35,fr21_z2).
body(r_fr21_35,fr21_a3).
body(r_fr21_35,fr2_f4).
body(r_fr21_35,fr8_a1).
head(r_fr21_36,fr21_z2).
body(r_fr21_36,fr2_e3).
body(r_fr21_36,fr2_a3).
body(r_fr21_36,fr21_x1).
head(r_fr21_37,fr21_z2).
body(r_fr21_37,fr3_a1).
body(r_fr21_37,fr11_c2).
body(r_fr21_37,fr21_p2).
body(r_fr21_37,fr15_v1).
body(r_fr21_37,fr21_x1).
body(r_fr21_37,fr25_u2).
head(r_fr21_38,fr21_z2).
body(r_fr21_38,fr2_a3).
body(r_fr21_38,fr21_f2).
body(r_fr21_38,fr20_p1).
body(r_fr21_38,fr7_y2).
body(r_fr21_38,fr21_r1).
body(r_fr21_38,fr20_q3).
head(r_fr21_39,fr20_q3).
body(r_fr21_39,fr21_a2).
body(r_fr21_39,fr2_f4).
body(r_fr21_39,fr11_c2).
body(r_fr21_39,fr3_a1).
body(r_fr21_39,fr21_f2).
body(r_fr21_39,fr21_u1).
head(r_fr21_40,fr20_q3).
body(r_fr21_40,fr2_e3).
body(r_fr21_40,fr21_a2).
body(r_fr21_40,fr21_a3).
body(r_fr21_40,fr2_f4).
body(r_fr21_40,fr2_f4).
body(r_fr21_40,fr2_a1).
head(r_fr21_41,fr20_q3).
body(r_fr21_41,fr21_a3).
body(r_fr21_41,fr2_f4).
body(r_fr21_41,fr2_a1).
body(r_fr21_41,fr3_a1).
body(r_fr21_41,fr16_z2).
head(r_fr21_42,fr20_q3).
body(r_fr21_42,fr2_a3).
body(r_fr21_42,fr2_f4).
body(r_fr21_42,fr2_a1).
body(r_fr21_42,fr3_a1).
body(r_fr21_42,fr20_v3).
head(r_fr21_43,fr20_q3).
body(r_fr21_43,fr3_a1).
body(r_fr21_43,fr7_y2).
body(r_fr21_43,fr21_w1).
head(r_fr21_44,fr20_q3).
body(r_fr21_44,fr21_a2).
body(r_fr21_44,fr11_c2).
body(r_fr21_44,fr21_y2).
head(r_fr21_45,fr20_q3).
body(r_fr21_45,fr8_a1).
body(r_fr21_45,fr21_e1).
body(r_fr21_45,fr11_c2).
body(r_fr21_45,fr21_f2).
head(r_fr21_46,fr20_q3).
body(r_fr21_46,fr2_e3).
body(r_fr21_46,fr20_v3).
body(r_fr21_46,fr21_u1).
head(r_fr21_47,fr20_q3).
body(r_fr21_47,fr3_a1).
body(r_fr21_47,fr21_p2).
body(r_fr21_47,fr20_p1).
body(r_fr21_47,fr21_s1).
body(r_fr21_47,fr21_w1).
body(r_fr21_47,fr21_w2).
head(r_fr21_48,fr21_u1).
body(r_fr21_48,fr7_y2).
body(r_fr21_48,fr15_v1).
head(r_fr21_49,fr21_u1).
body(r_fr21_49,fr15_v3).
body(r_fr21_49,fr21_r1).
body(r_fr21_49,fr25_u2).
body(r_fr21_49,fr7_y6).
body(r_fr21_49,fr21_z2).
head(r_fr21_50,fr21_u1).
body(r_fr21_50,fr15_v3).
body(r_fr21_50,fr20_v3).
body(r_fr21_50,fr21_v2).
body(r_fr21_50,fr21_x1).
body(r_fr21_50,fr7_y6).
head(r_fr21_51,fr21_u1).
body(r_fr21_51,fr21_b1).
body(r_fr21_51,fr16_z2).
head(r_fr21_52,fr21_u1).
body(r_fr21_52,fr20_p1).
body(r_fr21_52,fr21_z2).
head(r_fr21_53,fr21_u1).
body(r_fr21_53,fr16_z2).
head(r_fr21_54,fr21_u1).
body(r_fr21_54,fr2_a3).
body(r_fr21_54,fr21_p2).
body(r_fr21_54,fr15_v1).
body(r_fr21_54,fr25_u2).
head(r_fr21_55,fr21_u1).
body(r_fr21_55,fr8_a1).
body(r_fr21_55,fr2_a3).
body(r_fr21_55,fr3_a1).
body(r_fr21_55,fr7_y6).
head(r_fr21_56,fr21_u1).
body(r_fr21_56,fr21_a3).
head(r_fr21_57,fr21_u1).
head(r_fr21_58,fr21_u1).
body(r_fr21_58,fr21_b1).
body(r_fr21_58,fr2_f4).
body(r_fr21_58,fr2_a3).
body(r_fr21_58,fr3_a1).
body(r_fr21_58,fr15_v3).
body(r_fr21_58,fr20_v3).
head(r_fr21_59,fr20_v3).
body(r_fr21_59,fr2_a1).
body(r_fr21_59,fr21_f2).
body(r_fr21_59,fr20_v3).
head(r_fr21_60,fr20_v3).
body(r_fr21_60,fr21_e1).
body(r_fr21_60,fr21_r1).
head(r_fr21_61,fr20_v3).
body(r_fr21_61,fr2_a3).
body(r_fr21_61,fr8_a1).
body(r_fr21_61,fr3_a1).
body(r_fr21_61,fr21_p2).
body(r_fr21_61,fr20_v3).
body(r_fr21_61,fr16_z2).
head(r_fr21_62,fr20_v3).
body(r_fr21_62,fr21_a2).
head(r_fr21_63,fr20_v3).
head(r_fr21_64,fr20_v3).
body(r_fr21_64,fr2_e3).
body(r_fr21_64,fr2_f4).
body(r_fr21_64,fr2_a1).
body(r_fr21_64,fr2_a3).
body(r_fr21_64,fr3_a1).
body(r_fr21_64,fr21_f2).
head(r_fr21_65,fr20_v3).
body(r_fr21_65,fr2_f4).
body(r_fr21_65,fr3_a1).
body(r_fr21_65,fr16_z2).
body(r_fr21_65,fr21_u1).
body(r_fr21_65,fr16_z2).
head(r_fr21_66,fr20_v3).
body(r_fr21_66,fr16_z2).
body(r_fr21_66,fr21_u1).
head(r_fr21_67,fr20_v3).
body(r_fr21_67,fr21_b1).
body(r_fr21_67,fr2_a3).
body(r_fr21_67,fr21_w1).
head(r_fr21_68,fr20_v3).
body(r_fr21_68,fr21_a2).
body(r_fr21_68,fr21_a3).
body(r_fr21_68,fr21_f2).
body(r_fr21_68,fr20_p1).
head(r_fr21_69,fr21_w1).
body(r_fr21_69,fr2_e3).
body(r_fr21_69,fr8_a1).
body(r_fr21_69,fr21_p1).
body(r_fr21_69,fr20_v3).
body(r_fr21_69,fr20_v3).
head(r_fr21_70,fr21_w1).
body(r_fr21_70,fr21_a3).
body(r_fr21_70,fr16_z2).
body(r_fr21_70,fr21_r1).
head(r_fr21_71,fr21_w1).
body(r_fr21_71,fr2_f4).
body(r_fr21_71,fr3_a1).
body(r_fr21_71,fr21_s1).
body(r_fr21_71,fr21_w2).
head(r_fr21_72,fr21_w1).
body(r_fr21_72,fr2_e3).
body(r_fr21_72,fr3_a1).
body(r_fr21_72,fr21_z1).
head(r_fr21_73,fr21_w1).
body(r_fr21_73,fr3_a1).
head(r_fr21_74,fr21_w1).
body(r_fr21_74,fr2_f4).
body(r_fr21_74,fr2_a3).
body(r_fr21_74,fr8_a1).
body(r_fr21_74,fr3_a1).
body(r_fr21_74,fr21_e1).
head(r_fr21_75,fr21_w1).
body(r_fr21_75,fr21_a3).
body(r_fr21_75,fr21_b1).
body(r_fr21_75,fr3_a1).
head(r_fr21_76,fr21_w1).
body(r_fr21_76,fr3_a1).
body(r_fr21_76,fr19_x7).
body(r_fr21_76,fr20_v3).
body(r_fr21_76,fr21_x1).
body(r_fr21_76,fr21_y2).
body(r_fr21_76,fr21_z1).
head(r_fr21_77,fr21_w1).
body(r_fr21_77,fr20_q3).
head(r_fr21_78,fr20_p1).
body(r_fr21_78,fr21_a3).
body(r_fr21_78,fr2_f4).
body(r_fr21_78,fr21_p1).
body(r_fr21_78,fr21_y2).
head(r_fr21_79,fr20_p1).
body(r_fr21_79,fr8_a1).
body(r_fr21_79,fr21_e1).
body(r_fr21_79,fr3_a1).
head(r_fr21_80,fr20_p1).
body(r_fr21_80,fr21_u1).
body(r_fr21_80,fr15_v1).
head(r_fr21_81,fr20_p1).
body(r_fr21_81,fr3_a1).
head(r_fr21_82,fr20_p1).
body(r_fr21_82,fr21_a2).
body(r_fr21_82,fr21_b1).
head(r_fr21_83,fr20_p1).
body(r_fr21_83,fr21_a3).
head(r_fr21_84,fr20_p1).
body(r_fr21_84,fr8_a1).
head(r_fr21_85,fr20_p1).
head(r_fr21_86,fr20_p1).
body(r_fr21_86,fr21_p2).
body(r_fr21_86,fr25_u2).
body(r_fr21_86,fr21_y2).
head(r_fr21_87,fr20_p1).
body(r_fr21_87,fr2_a3).
body(r_fr21_87,fr21_x1).
head(r_fr21_88,fr20_p1).
body(r_fr21_88,fr2_f4).
body(r_fr21_88,fr2_a3).
body(r_fr21_88,fr11_c2).
body(r_fr21_88,fr20_v3).
head(r_fr21_89,fr7_y2).
body(r_fr21_89,fr8_a1).
body(r_fr21_89,fr2_f4).
body(r_fr21_89,fr3_a1).
body(r_fr21_89,fr21_z2).
head(r_fr21_90,fr7_y2).
body(r_fr21_90,fr21_b1).
head(r_fr21_91,fr7_y2).
body(r_fr21_91,fr21_a3).
body(r_fr21_91,fr21_e1).
body(r_fr21_91,fr3_a1).
body(r_fr21_91,fr21_x1).
head(r_fr21_92,fr7_y2).
body(r_fr21_92,fr21_r1).
body(r_fr21_92,fr21_z1).
head(r_fr21_93,fr7_y2).
body(r_fr21_93,fr21_a2).
body(r_fr21_93,fr21_a3).
body(r_fr21_93,fr2_f4).
body(r_fr21_93,fr11_c2).
body(r_fr21_93,fr20_p1).
body(r_fr21_93,fr21_s1).
head(r_fr21_94,fr7_y2).
body(r_fr21_94,fr21_r3).
body(r_fr21_94,fr20_v3).
head(r_fr21_95,fr7_y2).
body(r_fr21_95,fr21_a3).
body(r_fr21_95,fr15_v3).
body(r_fr21_95,fr21_s1).
body(r_fr21_95,fr7_y6).
body(r_fr21_95,fr21_z2).
head(r_fr21_96,fr7_y2).
body(r_fr21_96,fr21_a3).
body(r_fr21_96,fr11_c2).
head(r_fr21_97,fr7_y2).
body(r_fr21_97,fr21_a2).
body(r_fr21_97,fr21_w2).
body(r_fr21_97,fr21_y2).
body(r_fr21_97,fr21_z1).
head(r_fr21_98,fr7_y2).
body(r_fr21_98,fr21_b1).
body(r_fr21_98,fr2_f4).
body(r_fr21_98,fr2_a3).
body(r_fr21_98,fr3_a1).
head(r_fr21_99,fr15_v3).
body(r_fr21_99,fr20_p1).
body(r_fr21_99,fr20_v3).
body(r_fr21_99,fr21_x1).
head(r_fr21_100,fr15_v3).
body(r_fr21_100,fr21_a3).
body(r_fr21_100,fr11_c2).
body(r_fr21_100,fr21_f2).
head(r_fr21_101,fr15_v3).
body(r_fr21_101,fr2_e3).
body(r_fr21_101,fr21_a2).
body(r_fr21_101,fr21_a3).
body(r_fr21_101,fr2_a3).
body(r_fr21_101,fr3_a1).
head(r_fr21_102,fr15_v3).
body(r_fr21_102,fr21_b1).
body(r_fr21_102,fr2_f4).
body(r_fr21_102,fr21_v2).
body(r_fr21_102,fr21_w1).
body(r_fr21_102,fr25_u2).
body(r_fr21_102,fr21_y2).
head(r_fr21_103,fr15_v3).
body(r_fr21_103,fr2_f4).
head(r_fr21_104,fr15_v3).
body(r_fr21_104,fr21_a3).
body(r_fr21_104,fr8_a1).
body(r_fr21_104,fr11_c2).
body(r_fr21_104,fr3_a1).
body(r_fr21_104,fr21_z2).
head(r_fr21_105,fr15_v3).
body(r_fr21_105,fr21_a3).
body(r_fr21_105,fr2_f4).
body(r_fr21_105,fr3_a1).
body(r_fr21_105,fr19_x7).
head(r_fr21_106,fr15_v3).
body(r_fr21_106,fr3_a1).
body(r_fr21_106,fr21_p1).
body(r_fr21_106,fr7_y2).
body(r_fr21_106,fr21_u1).
body(r_fr21_106,fr16_z2).
body(r_fr21_106,fr21_x1).
head(r_fr21_107,fr15_v3).
body(r_fr21_107,fr21_b1).
body(r_fr21_107,fr21_p1).
body(r_fr21_107,fr21_s1).
body(r_fr21_107,fr19_x7).
body(r_fr21_107,fr21_v2).
body(r_fr21_107,fr21_x1).
head(r_fr21_108,fr15_v3).
head(r_fr21_109,fr21_s1).
body(r_fr21_109,fr21_a2).
body(r_fr21_109,fr20_v3).
body(r_fr21_109,fr21_u1).
body(r_fr21_109,fr16_z2).
body(r_fr21_109,fr21_v2).
body(r_fr21_109,fr21_z2).
head(r_fr21_110,fr21_s1).
head(r_fr21_111,fr21_s1).
body(r_fr21_111,fr20_p1).
body(r_fr21_111,fr16_z2).
body(r_fr21_111,fr7_y2).
body(r_fr21_111,fr20_q3).
body(r_fr21_111,fr21_v2).
body(r_fr21_111,fr25_u2).
head(r_fr21_112,fr21_s1).
body(r_fr21_112,fr8_a1).
body(r_fr21_112,fr3_a1).
body(r_fr21_112,fr3_a1).
body(r_fr21_112,fr21_p1).
body(r_fr21_112,fr21_z2).
head(r_fr21_113,fr21_s1).
body(r_fr21_113,fr21_a2).
body(r_fr21_113,fr21_e1).
head(r_fr21_114,fr21_s1).
body(r_fr21_114,fr21_e1).
head(r_fr21_115,fr21_s1).
body(r_fr21_115,fr21_x1).
head(r_fr21_116,fr21_s1).
body(r_fr21_116,fr2_e3).
body(r_fr21_116,fr2_f4).
body(r_fr21_116,fr21_e1).
body(r_fr21_116,fr3_a1).
head(r_fr21_117,fr21_s1).
body(r_fr21_117,fr21_u1).
body(r_fr21_117,fr15_v1).
body(r_fr21_117,fr16_z2).
body(r_fr21_117,fr21_z1).
head(r_fr21_118,fr21_s1).
body(r_fr21_118,fr21_x1).
body(r_fr21_118,fr7_y6).
head(r_fr21_119,fr21_s1).
body(r_fr21_119,fr19_x7).
head(r_fr21_120,fr21_r3).
body(r_fr21_120,fr7_y2).
body(r_fr21_120,fr19_x7).
body(r_fr21_120,fr16_z2).
body(r_fr21_120,fr21_w2).
body(r_fr21_120,fr21_x1).
body(r_fr21_120,fr21_z2).
head(r_fr21_121,fr21_r3).
body(r_fr21_121,fr21_p1).
body(r_fr21_121,fr21_p2).
body(r_fr21_121,fr21_r1).
body(r_fr21_121,fr20_q3).
body(r_fr21_121,fr21_v2).
body(r_fr21_121,fr7_y6).
head(r_fr21_122,fr21_r3).
body(r_fr21_122,fr16_z2).
body(r_fr21_122,fr7_y2).
body(r_fr21_122,fr19_x7).
body(r_fr21_122,fr20_v3).
body(r_fr21_122,fr16_z2).
body(r_fr21_122,fr21_z2).
head(r_fr21_123,fr21_r3).
body(r_fr21_123,fr15_v1).
body(r_fr21_123,fr21_w2).
head(r_fr21_124,fr21_r3).
head(r_fr21_125,fr21_r3).
body(r_fr21_125,fr21_a3).
body(r_fr21_125,fr21_w2).
head(r_fr21_126,fr21_r3).
body(r_fr21_126,fr2_e3).
body(r_fr21_126,fr21_b1).
body(r_fr21_126,fr2_f4).
body(r_fr21_126,fr21_f2).
body(r_fr21_126,fr21_v2).
head(r_fr21_127,fr21_r3).
body(r_fr21_127,fr21_p2).
body(r_fr21_127,fr21_u1).
body(r_fr21_127,fr21_x1).
body(r_fr21_127,fr25_u2).
head(r_fr21_128,fr21_r3).
body(r_fr21_128,fr2_f4).
head(r_fr21_129,fr21_r3).
body(r_fr21_129,fr7_y6).
head(r_fr21_130,fr21_v2).
body(r_fr21_130,fr21_a3).
body(r_fr21_130,fr2_f4).
body(r_fr21_130,fr8_a1).
body(r_fr21_130,fr21_p2).
body(r_fr21_130,fr21_s1).
body(r_fr21_130,fr7_y6).
head(r_fr21_131,fr21_v2).
body(r_fr21_131,fr3_a1).
body(r_fr21_131,fr3_a1).
head(r_fr21_132,fr21_v2).
body(r_fr21_132,fr3_a1).
head(r_fr21_133,fr21_v2).
body(r_fr21_133,fr21_p1).
head(r_fr21_134,fr21_v2).
body(r_fr21_134,fr15_v3).
body(r_fr21_134,fr20_p1).
head(r_fr21_135,fr21_v2).
body(r_fr21_135,fr21_b1).
body(r_fr21_135,fr8_a1).
body(r_fr21_135,fr2_a3).
body(r_fr21_135,fr21_u1).
body(r_fr21_135,fr21_w1).
body(r_fr21_135,fr21_z1).
head(r_fr21_136,fr21_v2).
body(r_fr21_136,fr15_v3).
body(r_fr21_136,fr16_z2).
body(r_fr21_136,fr21_y2).
body(r_fr21_136,fr21_z1).
head(r_fr21_137,fr21_v2).
body(r_fr21_137,fr21_a3).
body(r_fr21_137,fr8_a1).
body(r_fr21_137,fr15_v3).
body(r_fr21_137,fr16_z2).
body(r_fr21_137,fr21_w2).
head(r_fr21_138,fr21_v2).
body(r_fr21_138,fr21_f2).
body(r_fr21_138,fr7_y2).
body(r_fr21_138,fr21_r3).
body(r_fr21_138,fr21_s1).
body(r_fr21_138,fr21_w2).
body(r_fr21_138,fr25_u2).
head(r_fr21_139,fr21_v2).
head(r_fr21_140,fr21_v2).
body(r_fr21_140,fr11_c2).
head(r_fr21_141,fr21_x1).
body(r_fr21_141,fr2_f4).
body(r_fr21_141,fr21_y2).
head(r_fr21_142,fr21_x1).
body(r_fr21_142,fr8_a1).
head(r_fr21_143,fr21_x1).
body(r_fr21_143,fr21_b1).
body(r_fr21_143,fr2_a3).
body(r_fr21_143,fr19_x7).
body(r_fr21_143,fr16_z2).
body(r_fr21_143,fr25_u2).
body(r_fr21_143,fr21_z2).
head(r_fr21_144,fr21_x1).
body(r_fr21_144,fr3_a1).
body(r_fr21_144,fr16_z2).
body(r_fr21_144,fr20_v3).
body(r_fr21_144,fr15_v1).
head(r_fr21_145,fr21_x1).
body(r_fr21_145,fr19_x7).
head(r_fr21_146,fr21_x1).
body(r_fr21_146,fr2_f4).
body(r_fr21_146,fr2_a3).
body(r_fr21_146,fr3_a1).
body(r_fr21_146,fr15_v1).
body(r_fr21_146,fr21_z1).
head(r_fr21_147,fr21_x1).
body(r_fr21_147,fr11_c2).
body(r_fr21_147,fr21_f2).
body(r_fr21_147,fr16_z2).
body(r_fr21_147,fr21_z1).
head(r_fr21_148,fr21_x1).
body(r_fr21_148,fr21_a2).
body(r_fr21_148,fr8_a1).
body(r_fr21_148,fr21_f2).
head(r_fr21_149,fr21_x1).
head(r_fr21_150,fr21_x1).
body(r_fr21_150,fr21_r3).
body(r_fr21_150,fr15_v1).
body(r_fr21_150,fr21_y2).
head(r_fr21_151,fr21_p2).
body(r_fr21_151,fr8_a1).
body(r_fr21_151,fr11_c2).
head(r_fr21_152,fr21_p2).
body(r_fr21_152,fr21_s1).
body(r_fr21_152,fr15_v1).
head(r_fr21_153,fr21_p2).
body(r_fr21_153,fr2_f4).
body(r_fr21_153,fr3_a1).
body(r_fr21_153,fr21_r1).
body(r_fr21_153,fr20_v3).
body(r_fr21_153,fr16_z2).
head(r_fr21_154,fr21_p2).
body(r_fr21_154,fr2_e3).
body(r_fr21_154,fr21_p1).
body(r_fr21_154,fr21_s1).
body(r_fr21_154,fr21_u1).
body(r_fr21_154,fr16_z2).
body(r_fr21_154,fr25_u2).
head(r_fr21_155,fr21_p2).
body(r_fr21_155,fr20_p1).
body(r_fr21_155,fr21_r3).
body(r_fr21_155,fr19_x7).
body(r_fr21_155,fr15_v1).
body(r_fr21_155,fr21_x1).
head(r_fr21_156,fr21_p2).
body(r_fr21_156,fr16_z2).
body(r_fr21_156,fr7_y2).
body(r_fr21_156,fr15_v1).
body(r_fr21_156,fr7_y6).
head(r_fr21_157,fr21_p2).
body(r_fr21_157,fr21_b1).
body(r_fr21_157,fr11_c2).
body(r_fr21_157,fr20_v3).
body(r_fr21_157,fr21_x1).
body(r_fr21_157,fr7_y6).
head(r_fr21_158,fr21_p2).
body(r_fr21_158,fr2_f4).
head(r_fr21_159,fr21_p2).
head(r_fr21_160,fr21_y2).
body(r_fr21_160,fr21_a2).
body(r_fr21_160,fr2_f4).
body(r_fr21_160,fr2_a1).
body(r_fr21_160,fr2_a3).
body(r_fr21_160,fr21_s1).
body(r_fr21_160,fr19_x7).
head(r_fr21_161,fr21_y2).
body(r_fr21_161,fr2_a3).
body(r_fr21_161,fr2_a3).
body(r_fr21_161,fr3_a1).
head(r_fr21_162,fr21_y2).
body(r_fr21_162,fr2_a3).
body(r_fr21_162,fr3_a1).
body(r_fr21_162,fr2_a3).
body(r_fr21_162,fr11_c2).
body(r_fr21_162,fr21_f2).
head(r_fr21_163,fr21_y2).
body(r_fr21_163,fr21_b1).
body(r_fr21_163,fr2_a3).
body(r_fr21_163,fr8_a1).
body(r_fr21_163,fr2_a3).
body(r_fr21_163,fr21_r1).
head(r_fr21_164,fr21_y2).
body(r_fr21_164,fr21_p2).
body(r_fr21_164,fr15_v3).
body(r_fr21_164,fr21_r1).
body(r_fr21_164,fr15_v1).
body(r_fr21_164,fr21_x1).
body(r_fr21_164,fr21_z1).
head(r_fr21_165,fr21_y2).
body(r_fr21_165,fr21_p1).
body(r_fr21_165,fr16_z2).
body(r_fr21_165,fr21_u1).
body(r_fr21_165,fr21_w2).
body(r_fr21_165,fr21_x1).
head(r_fr21_166,fr21_y2).
body(r_fr21_166,fr2_e3).
body(r_fr21_166,fr21_a3).
body(r_fr21_166,fr2_f4).
body(r_fr21_166,fr2_a1).
head(r_fr21_167,fr21_y2).
head(r_fr21_168,fr7_y6).
body(r_fr21_168,fr21_f2).
body(r_fr21_168,fr20_p1).
body(r_fr21_168,fr16_z2).
body(r_fr21_168,fr21_v2).
body(r_fr21_168,fr21_z1).
head(r_fr21_169,fr7_y6).
body(r_fr21_169,fr21_b1).
body(r_fr21_169,fr3_a1).
body(r_fr21_169,fr20_p1).
body(r_fr21_169,fr20_q3).
body(r_fr21_169,fr21_w1).
body(r_fr21_169,fr21_w2).
head(r_fr21_170,fr7_y6).
body(r_fr21_170,fr21_a3).
body(r_fr21_170,fr2_a1).
head(r_fr21_171,fr7_y6).
body(r_fr21_171,fr21_a2).
head(r_fr21_172,fr7_y6).
body(r_fr21_172,fr21_a2).
body(r_fr21_172,fr21_b1).
head(r_fr21_173,fr7_y6).
body(r_fr21_173,fr2_e3).
body(r_fr21_173,fr2_a3).
body(r_fr21_173,fr21_f2).
body(r_fr21_173,fr21_r1).
body(r_fr21_173,fr21_y2).
head(r_fr21_174,fr7_y6).
body(r_fr21_174,fr2_f4).
body(r_fr21_174,fr2_a3).
body(r_fr21_174,fr21_e1).
body(r_fr21_174,fr11_c2).
body(r_fr21_174,fr20_p1).
head(r_fr21_175,fr7_y6).
body(r_fr21_175,fr11_c2).
body(r_fr21_175,fr19_x7).
head(r_fr21_176,fr7_y6).
head(r_fr21_177,fr21_z1).
body(r_fr21_177,fr25_u2).
body(r_fr21_177,fr21_y2).
head(r_fr21_178,fr21_z1).
body(r_fr21_178,fr2_f4).
body(r_fr21_178,fr8_a1).
body(r_fr21_178,fr3_a1).
body(r_fr21_178,fr21_f2).
head(r_fr21_179,fr21_z1).
body(r_fr21_179,fr21_b1).
body(r_fr21_179,fr8_a1).
head(r_fr21_180,fr21_z1).
body(r_fr21_180,fr16_z2).
body(r_fr21_180,fr21_w2).
head(r_fr21_181,fr21_z1).
body(r_fr21_181,fr21_p1).
body(r_fr21_181,fr7_y2).
body(r_fr21_181,fr21_r3).
body(r_fr21_181,fr21_s1).
body(r_fr21_181,fr15_v1).
head(r_fr21_182,fr21_z1).
body(r_fr21_182,fr2_e3).
body(r_fr21_182,fr21_a3).
body(r_fr21_182,fr8_a1).
body(r_fr21_182,fr11_c2).
body(r_fr21_182,fr21_f2).
head(r_fr21_183,fr21_z1).
body(r_fr21_183,fr2_a3).
body(r_fr21_183,fr8_a1).
body(r_fr21_183,fr15_v3).
body(r_fr21_183,fr21_s1).
body(r_fr21_183,fr15_v1).
head(r_fr21_184,fr21_z1).
body(r_fr21_184,fr21_f2).
head(r_fr21_185,fr21_z1).
body(r_fr21_185,fr2_a3).
body(r_fr21_185,fr8_a1).
body(r_fr21_185,fr2_a1).
body(r_fr21_185,fr2_a3).
body(r_fr21_185,fr21_e1).
head(r_fr21_186,fr21_z1).
head(r_fr21_187,fr21_z1).
body(r_fr21_187,fr8_a1).
body(r_fr21_187,fr16_z2).
body(r_fr21_187,fr7_y2).
body(r_fr21_187,fr20_v3).
body(r_fr21_187,fr21_u1).
head(r_fr21_188,fr25_u2).
body(r_fr21_188,fr15_v3).
body(r_fr21_188,fr21_s1).
body(r_fr21_188,fr15_v1).
body(r_fr21_188,fr21_v2).
head(r_fr21_189,fr25_u2).
body(r_fr21_189,fr21_s1).
head(r_fr21_190,fr25_u2).
body(r_fr21_190,fr21_a3).
body(r_fr21_190,fr20_v3).
body(r_fr21_190,fr21_x1).
head(r_fr21_191,fr25_u2).
body(r_fr21_191,fr8_a1).
body(r_fr21_191,fr21_e1).
head(r_fr21_192,fr25_u2).
body(r_fr21_192,fr2_a1).
body(r_fr21_192,fr20_q3).
body(r_fr21_192,fr15_v1).
body(r_fr21_192,fr16_z2).
body(r_fr21_192,fr7_y6).
head(r_fr21_193,fr25_u2).
body(r_fr21_193,fr21_b1).
body(r_fr21_193,fr2_a3).
body(r_fr21_193,fr20_v3).
body(r_fr21_193,fr21_z2).
head(r_fr21_194,fr25_u2).
body(r_fr21_194,fr21_b1).
body(r_fr21_194,fr8_a1).
body(r_fr21_194,fr2_f4).
body(r_fr21_194,fr2_a3).
body(r_fr21_194,fr21_w1).
head(r_fr21_195,fr25_u2).
body(r_fr21_195,fr2_e3).
body(r_fr21_195,fr21_a2).
body(r_fr21_195,fr2_a1).
body(r_fr21_195,fr21_x1).
head(r_fr21_196,fr25_u2).
head(r_fr21_197,fr25_u2).
body(r_fr21_197,fr21_v2).
body(r_fr21_197,fr21_x1).
head(r_fr21_198,fr25_u2).
body(r_fr21_198,fr2_e3).
body(r_fr21_198,fr2_f4).
body(r_fr21_198,fr21_f2).
body(r_fr21_198,fr21_u1).

assumption(fr2_a3).
assumption(fr22_a3).
assumption(fr1_b2).
assumption(fr22_d1).
assumption(fr2_a1).
assumption(fr18_b1).
assumption(fr3_a1).
assumption(fr2_a3).
assumption(fr3_a1).
assumption(fr8_a1).
assumption(fr22_e2).
assumption(fr8_a1).
assumption(fr22_a3).
assumption(fr16_a3).
assumption(fr2_a3).
contrary(fr2_a3,fr22_a3).
contrary(fr3_a1,fr2_a3).
contrary(fr22_a3,fr20_v3).
contrary(fr22_a3,fr2_a3).
contrary(fr2_a3,fr2_a1).
contrary(fr16_a3,fr2_a3).
contrary(fr1_b2,fr8_a1).
contrary(fr3_a1,fr20_v3).
contrary(fr2_a3,fr3_a1).
contrary(fr22_d1,fr8_a1).
contrary(fr8_a1,fr2_a3).
contrary(fr2_a1,fr22_a3).
contrary(fr22_e2,fr8_a1).
contrary(fr18_b1,fr3_a1).
contrary(fr8_a1,fr1_b2).
head(r_fr22_0,fr20_v3).
body(r_fr22_0,fr2_a3).
body(r_fr22_0,fr1_b2).
body(r_fr22_0,fr3_a1).
body(r_fr22_0,fr2_a1).
body(r_fr22_0,fr8_a1).
body(r_fr22_0,fr17_w1).
head(r_fr22_1,fr20_v3).
body(r_fr22_1,fr16_a3).
body(r_fr22_1,fr2_a3).
body(r_fr22_1,fr8_a1).
head(r_fr22_2,fr20_v3).
head(r_fr22_3,fr20_v3).
body(r_fr22_3,fr3_a1).
body(r_fr22_3,fr22_a3).
body(r_fr22_3,fr22_d1).
body(r_fr22_3,fr2_a1).
body(r_fr22_3,fr22_e2).
body(r_fr22_3,fr16_z2).
head(r_fr22_4,fr22_t1).
body(r_fr22_4,fr3_a1).
body(r_fr22_4,fr22_a3).
body(r_fr22_4,fr2_a3).
body(r_fr22_4,fr18_b1).
body(r_fr22_4,fr8_a1).
head(r_fr22_5,fr22_t1).
head(r_fr22_6,fr23_r2).
head(r_fr22_7,fr23_r2).
body(r_fr22_7,fr22_a3).
body(r_fr22_7,fr2_a3).
body(r_fr22_7,fr22_d1).
head(r_fr22_8,fr23_r2).
body(r_fr22_8,fr22_t1).
head(r_fr22_9,fr23_r2).
body(r_fr22_9,fr22_a3).
body(r_fr22_9,fr2_a3).
body(r_fr22_9,fr8_a1).
head(r_fr22_10,fr17_w1).
body(r_fr22_10,fr2_a3).
body(r_fr22_10,fr16_z2).
body(r_fr22_10,fr23_r2).
head(r_fr22_11,fr17_w1).
body(r_fr22_11,fr16_z2).
body(r_fr22_11,fr20_v3).
body(r_fr22_11,fr23_r2).
body(r_fr22_11,fr22_t1).
head(r_fr22_12,fr16_z2).
body(r_fr22_12,fr16_a3).
body(r_fr22_12,fr22_d1).
body(r_fr22_12,fr22_t1).
head(r_fr22_13,fr16_z2).
body(r_fr22_13,fr22_t1).
head(r_fr22_14,fr16_z2).
body(r_fr22_14,fr2_a3).

assumption(fr23_a1).
assumption(fr23_b1).
assumption(fr23_c1).
assumption(fr2_a1).
assumption(fr2_f4).
assumption(fr11_c2).
assumption(fr2_a3).
assumption(fr23_b2).
assumption(fr23_c2).
assumption(fr23_d2).
assumption(fr3_a1).
assumption(fr2_f4).
assumption(fr23_a3).
assumption(fr2_a1).
assumption(fr3_a1).
contrary(fr23_a1,fr2_a1).
contrary(fr2_a3,fr23_c1).
contrary(fr23_a3,fr23_r2).
contrary(fr23_b1,fr2_a3).
contrary(fr23_b2,fr23_c1).
contrary(fr2_a1,fr23_r2).
contrary(fr23_c1,fr20_v3).
contrary(fr23_c2,fr23_y3).
contrary(fr3_a1,fr23_a3).
contrary(fr2_a1,fr7_y2).
contrary(fr23_d2,fr17_w1).
contrary(fr2_f4,fr23_s2).
contrary(fr3_a1,fr23_b1).
contrary(fr11_c2,fr23_a3).
contrary(fr2_f4,fr23_d2).
head(r_fr23_0,fr5_t3).
body(r_fr23_0,fr23_a1).
body(r_fr23_0,fr2_a1).
body(r_fr23_0,fr11_c2).
body(r_fr23_0,fr23_p1).
body(r_fr23_0,fr20_v3).
body(r_fr23_0,fr23_q1).
body(r_fr23_0,fr7_y2).
head(r_fr23_1,fr5_t3).
body(r_fr23_1,fr23_b2).
body(r_fr23_1,fr9_x1).
body(r_fr23_1,fr23_r3).
body(r_fr23_1,fr23_s2).
body(r_fr23_1,fr23_v1).
body(r_fr23_1,fr15_t1).
body(r_fr23_1,fr8_t1).
head(r_fr23_2,fr5_t3).
body(r_fr23_2,fr23_a3).
body(r_fr23_2,fr23_b1).
body(r_fr23_2,fr23_b2).
body(r_fr23_2,fr23_c1).
body(r_fr23_2,fr15_t1).
body(r_fr23_2,fr7_w4).
head(r_fr23_3,fr5_t3).
body(r_fr23_3,fr23_a1).
body(r_fr23_3,fr23_a3).
body(r_fr23_3,fr23_b1).
body(r_fr23_3,fr3_a1).
body(r_fr23_3,fr3_a1).
body(r_fr23_3,fr11_c2).
head(r_fr23_4,fr11_r4).
body(r_fr23_4,fr2_a3).
body(r_fr23_4,fr23_b1).
body(r_fr23_4,fr23_d2).
body(r_fr23_4,fr23_r1).
body(r_fr23_4,fr17_w1).
body(r_fr23_4,fr20_p1).
body(r_fr23_4,fr23_y3).
body(r_fr23_4,fr23_z1).
head(r_fr23_5,fr11_r4).
body(r_fr23_5,fr2_a3).
body(r_fr23_5,fr23_a3).
body(r_fr23_5,fr23_b2).
body(r_fr23_5,fr11_c2).
body(r_fr23_5,fr2_f4).
body(r_fr23_5,fr17_w1).
body(r_fr23_5,fr20_p1).
head(r_fr23_6,fr11_r4).
body(r_fr23_6,fr2_a1).
body(r_fr23_6,fr2_a1).
body(r_fr23_6,fr23_q1).
body(r_fr23_6,fr23_q3).
body(r_fr23_6,fr23_r3).
body(r_fr23_6,fr20_v3).
body(r_fr23_6,fr23_y3).
head(r_fr23_7,fr11_r4).
body(r_fr23_7,fr23_a1).
body(r_fr23_7,fr23_a3).
body(r_fr23_7,fr23_b1).
body(r_fr23_7,fr23_c2).
body(r_fr23_7,fr3_a1).
body(r_fr23_7,fr11_c2).
body(r_fr23_7,fr23_r3).
body(r_fr23_7,fr5_x2).
head(r_fr23_8,fr9_x1).
body(r_fr23_8,fr2_a1).
body(r_fr23_8,fr23_p1).
body(r_fr23_8,fr23_p2).
body(r_fr23_8,fr23_r2).
body(r_fr23_8,fr23_t3).
body(r_fr23_8,fr1_z1).
body(r_fr23_8,fr7_y2).
body(r_fr23_8,fr11_t5).
head(r_fr23_9,fr9_x1).
body(r_fr23_9,fr2_a3).
body(r_fr23_9,fr23_b1).
body(r_fr23_9,fr2_a1).
body(r_fr23_9,fr23_c1).
body(r_fr23_9,fr11_c2).
body(r_fr23_9,fr2_f4).
body(r_fr23_9,fr15_t1).
head(r_fr23_10,fr9_x1).
body(r_fr23_10,fr23_b1).
body(r_fr23_10,fr23_b2).
body(r_fr23_10,fr2_a1).
body(r_fr23_10,fr23_d2).
body(r_fr23_10,fr3_a1).
body(r_fr23_10,fr11_c2).
head(r_fr23_11,fr9_x1).
body(r_fr23_11,fr23_a1).
body(r_fr23_11,fr23_a3).
body(r_fr23_11,fr23_c2).
body(r_fr23_11,fr2_a1).
body(r_fr23_11,fr23_d2).
body(r_fr23_11,fr11_c2).
head(r_fr23_12,fr9_x1).
body(r_fr23_12,fr2_a3).
body(r_fr23_12,fr23_b1).
body(r_fr23_12,fr2_a1).
body(r_fr23_12,fr23_c1).
body(r_fr23_12,fr2_a1).
body(r_fr23_12,fr11_c2).
head(r_fr23_13,fr7_y2).
body(r_fr23_13,fr23_a3).
body(r_fr23_13,fr23_p1).
body(r_fr23_13,fr23_q1).
body(r_fr23_13,fr23_r1).
body(r_fr23_13,fr23_s1).
body(r_fr23_13,fr23_u1).
body(r_fr23_13,fr23_y3).
head(r_fr23_14,fr7_y2).
body(r_fr23_14,fr3_a1).
body(r_fr23_14,fr20_v3).
body(r_fr23_14,fr23_q1).
body(r_fr23_14,fr23_u1).
body(r_fr23_14,fr23_v1).
body(r_fr23_14,fr8_t1).
body(r_fr23_14,fr5_x2).
body(r_fr23_14,fr20_p1).
body(r_fr23_14,fr23_y3).
head(r_fr23_15,fr7_y2).
body(r_fr23_15,fr23_a1).
body(r_fr23_15,fr3_a1).
body(r_fr23_15,fr23_d2).
body(r_fr23_15,fr11_c2).
body(r_fr23_15,fr8_t1).
body(r_fr23_15,fr7_w4).
head(r_fr23_16,fr15_t1).
body(r_fr23_16,fr20_v3).
body(r_fr23_16,fr23_q1).
body(r_fr23_16,fr23_r2).
body(r_fr23_16,fr23_u1).
body(r_fr23_16,fr1_z1).
body(r_fr23_16,fr8_t1).
body(r_fr23_16,fr5_x2).
body(r_fr23_16,fr11_t5).
body(r_fr23_16,fr23_y3).
head(r_fr23_17,fr15_t1).
body(r_fr23_17,fr23_a1).
body(r_fr23_17,fr2_a1).
body(r_fr23_17,fr23_c1).
body(r_fr23_17,fr2_a1).
body(r_fr23_17,fr2_f4).
body(r_fr23_17,fr2_f4).
head(r_fr23_18,fr15_t1).
body(r_fr23_18,fr23_a1).
body(r_fr23_18,fr2_a3).
body(r_fr23_18,fr23_a3).
body(r_fr23_18,fr23_c2).
body(r_fr23_18,fr2_a1).
body(r_fr23_18,fr2_f4).
body(r_fr23_18,fr23_p2).
body(r_fr23_18,fr17_w1).
body(r_fr23_18,fr23_v1).
head(r_fr23_19,fr15_t1).
body(r_fr23_19,fr2_a1).
body(r_fr23_19,fr23_c1).
body(r_fr23_19,fr11_c2).
body(r_fr23_19,fr2_f4).
body(r_fr23_19,fr23_p1).
body(r_fr23_19,fr23_w1).
body(r_fr23_19,fr11_t5).
body(r_fr23_19,fr23_y1).
body(r_fr23_19,fr23_y3).
head(r_fr23_20,fr23_r3).
body(r_fr23_20,fr23_b2).
body(r_fr23_20,fr2_a1).
body(r_fr23_20,fr23_d2).
body(r_fr23_20,fr3_a1).
body(r_fr23_20,fr11_c2).
body(r_fr23_20,fr21_s1).
body(r_fr23_20,fr23_r1).
body(r_fr23_20,fr23_w1).
head(r_fr23_21,fr23_r3).
body(r_fr23_21,fr23_p2).
body(r_fr23_21,fr21_s1).
body(r_fr23_21,fr23_q3).
body(r_fr23_21,fr17_w1).
body(r_fr23_21,fr23_t3).
body(r_fr23_21,fr11_t5).
body(r_fr23_21,fr23_z3).
head(r_fr23_22,fr17_w1).
body(r_fr23_22,fr23_b1).
body(r_fr23_22,fr2_a1).
body(r_fr23_22,fr3_a1).
body(r_fr23_22,fr11_c2).
body(r_fr23_22,fr2_f4).
body(r_fr23_22,fr23_q1).
body(r_fr23_22,fr23_u1).
body(r_fr23_22,fr20_p1).
body(r_fr23_22,fr23_y3).
head(r_fr23_23,fr17_w1).
body(r_fr23_23,fr2_a3).
body(r_fr23_23,fr23_b1).
body(r_fr23_23,fr3_a1).
body(r_fr23_23,fr2_a1).
body(r_fr23_23,fr3_a1).
body(r_fr23_23,fr11_c2).
body(r_fr23_23,fr20_v3).
body(r_fr23_23,fr23_r2).
body(r_fr23_23,fr23_s1).
head(r_fr23_24,fr17_w1).
body(r_fr23_24,fr21_s1).
body(r_fr23_24,fr23_q1).
body(r_fr23_24,fr23_r1).
body(r_fr23_24,fr23_r2).
body(r_fr23_24,fr23_v1).
body(r_fr23_24,fr23_w1).
body(r_fr23_24,fr8_t1).
body(r_fr23_24,fr5_x2).
body(r_fr23_24,fr23_y3).
head(r_fr23_25,fr17_w1).
body(r_fr23_25,fr23_a1).
body(r_fr23_25,fr3_a1).
body(r_fr23_25,fr11_c2).
body(r_fr23_25,fr2_f4).
body(r_fr23_25,fr23_s1).
body(r_fr23_25,fr8_t1).
body(r_fr23_25,fr23_z3).
head(r_fr23_26,fr23_q3).
body(r_fr23_26,fr21_s1).
body(r_fr23_26,fr23_r2).
body(r_fr23_26,fr17_w1).
body(r_fr23_26,fr23_t3).
body(r_fr23_26,fr23_u1).
body(r_fr23_26,fr23_v1).
body(r_fr23_26,fr7_w4).
head(r_fr23_27,fr23_q3).
body(r_fr23_27,fr2_a3).
body(r_fr23_27,fr2_f4).
body(r_fr23_27,fr23_p1).
body(r_fr23_27,fr23_r2).
body(r_fr23_27,fr23_s1).
body(r_fr23_27,fr20_p1).
head(r_fr23_28,fr23_q3).
body(r_fr23_28,fr23_a1).
body(r_fr23_28,fr23_a3).
body(r_fr23_28,fr23_b1).
body(r_fr23_28,fr23_b2).
body(r_fr23_28,fr2_a1).
body(r_fr23_28,fr3_a1).
body(r_fr23_28,fr2_f4).
head(r_fr23_29,fr23_y3).
body(r_fr23_29,fr23_a1).
body(r_fr23_29,fr3_a1).
body(r_fr23_29,fr8_t1).
body(r_fr23_29,fr20_p1).
body(r_fr23_29,fr23_y1).
body(r_fr23_29,fr20_v3).
head(r_fr23_30,fr23_y3).
body(r_fr23_30,fr23_a1).
body(r_fr23_30,fr23_b2).
body(r_fr23_30,fr2_a1).
body(r_fr23_30,fr23_c1).
body(r_fr23_30,fr23_r2).
body(r_fr23_30,fr1_z1).
body(r_fr23_30,fr7_w4).
body(r_fr23_30,fr23_y1).
head(r_fr23_31,fr23_y3).
body(r_fr23_31,fr2_a3).
body(r_fr23_31,fr23_b2).
body(r_fr23_31,fr23_c1).
body(r_fr23_31,fr23_c2).
body(r_fr23_31,fr11_c2).
body(r_fr23_31,fr2_f4).
body(r_fr23_31,fr23_p2).
body(r_fr23_31,fr20_p1).
head(r_fr23_32,fr23_y3).
body(r_fr23_32,fr23_b2).
body(r_fr23_32,fr3_a1).
body(r_fr23_32,fr23_p1).
body(r_fr23_32,fr23_r1).
body(r_fr23_32,fr1_z1).
body(r_fr23_32,fr7_w4).
body(r_fr23_32,fr11_t5).
head(r_fr23_33,fr23_y3).
body(r_fr23_33,fr23_a1).
body(r_fr23_33,fr23_b1).
body(r_fr23_33,fr23_b2).
body(r_fr23_33,fr2_a1).
body(r_fr23_33,fr23_q1).
body(r_fr23_33,fr23_s1).
body(r_fr23_33,fr23_s2).
body(r_fr23_33,fr23_v1).
body(r_fr23_33,fr5_x2).
head(r_fr23_34,fr23_w1).
body(r_fr23_34,fr23_b2).
body(r_fr23_34,fr2_f4).
body(r_fr23_34,fr23_p2).
body(r_fr23_34,fr21_s1).
body(r_fr23_34,fr23_s1).
body(r_fr23_34,fr7_w4).
head(r_fr23_35,fr23_w1).
body(r_fr23_35,fr2_a1).
body(r_fr23_35,fr2_a1).
body(r_fr23_35,fr2_f4).
body(r_fr23_35,fr23_r2).
body(r_fr23_35,fr23_v1).
body(r_fr23_35,fr8_t1).
head(r_fr23_36,fr23_w1).
body(r_fr23_36,fr2_f4).
body(r_fr23_36,fr21_s1).
body(r_fr23_36,fr23_q1).
body(r_fr23_36,fr23_q3).
body(r_fr23_36,fr23_t3).
body(r_fr23_36,fr1_z1).
body(r_fr23_36,fr23_v1).
body(r_fr23_36,fr7_w4).
head(r_fr23_37,fr23_w1).
body(r_fr23_37,fr23_p2).
body(r_fr23_37,fr21_s1).
body(r_fr23_37,fr23_q3).
body(r_fr23_37,fr23_r2).
body(r_fr23_37,fr23_s1).
body(r_fr23_37,fr23_v1).
body(r_fr23_37,fr8_t1).
body(r_fr23_37,fr23_z1).
body(r_fr23_37,fr23_z3).
head(r_fr23_38,fr11_t5).
body(r_fr23_38,fr2_f4).
body(r_fr23_38,fr23_r2).
body(r_fr23_38,fr23_s2).
body(r_fr23_38,fr23_y1).
body(r_fr23_38,fr20_v3).
body(r_fr23_38,fr23_z3).
head(r_fr23_39,fr11_t5).
body(r_fr23_39,fr23_p1).
body(r_fr23_39,fr23_p2).
body(r_fr23_39,fr20_v3).
body(r_fr23_39,fr23_s2).
body(r_fr23_39,fr23_u1).
body(r_fr23_39,fr23_v1).
body(r_fr23_39,fr5_x2).
body(r_fr23_39,fr23_y1).
head(r_fr23_40,fr11_t5).
body(r_fr23_40,fr23_p1).
body(r_fr23_40,fr23_q1).
body(r_fr23_40,fr23_r1).
body(r_fr23_40,fr23_s2).
body(r_fr23_40,fr5_x2).
body(r_fr23_40,fr7_w4).
body(r_fr23_40,fr20_v3).
head(r_fr23_41,fr11_t5).
body(r_fr23_41,fr23_a1).
body(r_fr23_41,fr23_a3).
body(r_fr23_41,fr23_c1).
body(r_fr23_41,fr2_f4).
body(r_fr23_41,fr11_c2).
body(r_fr23_41,fr23_s2).
body(r_fr23_41,fr23_y1).
head(r_fr23_42,fr11_t5).
body(r_fr23_42,fr20_v3).
body(r_fr23_42,fr21_s1).
body(r_fr23_42,fr23_r2).
body(r_fr23_42,fr23_s1).
body(r_fr23_42,fr8_t1).
body(r_fr23_42,fr7_w4).
body(r_fr23_42,fr23_y1).
body(r_fr23_42,fr23_z1).
head(r_fr23_43,fr21_s1).
body(r_fr23_43,fr2_a1).
body(r_fr23_43,fr23_c1).
body(r_fr23_43,fr2_f4).
body(r_fr23_43,fr23_q3).
body(r_fr23_43,fr23_r1).
body(r_fr23_43,fr23_s1).
body(r_fr23_43,fr5_x2).
head(r_fr23_44,fr21_s1).
body(r_fr23_44,fr23_a3).
body(r_fr23_44,fr23_b2).
body(r_fr23_44,fr2_a1).
body(r_fr23_44,fr23_c1).
body(r_fr23_44,fr3_a1).
body(r_fr23_44,fr23_r1).
body(r_fr23_44,fr8_t1).
body(r_fr23_44,fr20_p1).
body(r_fr23_44,fr23_y1).
head(r_fr23_45,fr21_s1).
body(r_fr23_45,fr23_b2).
body(r_fr23_45,fr2_a1).
body(r_fr23_45,fr23_c2).
body(r_fr23_45,fr3_a1).
body(r_fr23_45,fr2_f4).
body(r_fr23_45,fr23_u1).
body(r_fr23_45,fr23_v1).
body(r_fr23_45,fr23_z1).
head(r_fr23_46,fr21_s1).
body(r_fr23_46,fr23_a1).
body(r_fr23_46,fr23_r2).
body(r_fr23_46,fr23_s1).
body(r_fr23_46,fr23_u1).
body(r_fr23_46,fr5_x2).
body(r_fr23_46,fr23_y1).
head(r_fr23_47,fr23_z1).
body(r_fr23_47,fr23_b2).
body(r_fr23_47,fr2_a1).
body(r_fr23_47,fr20_v3).
body(r_fr23_47,fr23_q1).
body(r_fr23_47,fr23_r2).
body(r_fr23_47,fr23_s2).
body(r_fr23_47,fr17_w1).
head(r_fr23_48,fr23_z1).
body(r_fr23_48,fr23_c1).
body(r_fr23_48,fr11_c2).
body(r_fr23_48,fr23_p2).
body(r_fr23_48,fr20_v3).
body(r_fr23_48,fr23_r2).
body(r_fr23_48,fr23_u1).
body(r_fr23_48,fr23_v1).
body(r_fr23_48,fr7_w4).
head(r_fr23_49,fr23_q3).
body(r_fr23_49,fr23_b2).
body(r_fr23_49,fr23_p1).
body(r_fr23_49,fr23_q1).
body(r_fr23_49,fr23_s1).
body(r_fr23_49,fr23_s2).
body(r_fr23_49,fr23_u1).
body(r_fr23_49,fr1_z1).
body(r_fr23_49,fr23_y1).
body(r_fr23_49,fr23_z3).
head(r_fr23_50,fr23_q3).
body(r_fr23_50,fr23_a1).
body(r_fr23_50,fr2_a1).
body(r_fr23_50,fr3_a1).
body(r_fr23_50,fr23_p2).
body(r_fr23_50,fr20_v3).
body(r_fr23_50,fr1_z1).
head(r_fr23_51,fr23_r2).
body(r_fr23_51,fr3_a1).
body(r_fr23_51,fr2_a1).
body(r_fr23_51,fr23_d2).
body(r_fr23_51,fr2_f4).
body(r_fr23_51,fr23_p1).
body(r_fr23_51,fr23_r2).
body(r_fr23_51,fr23_s1).
body(r_fr23_51,fr17_w1).
body(r_fr23_51,fr1_z1).
head(r_fr23_52,fr23_r2).
body(r_fr23_52,fr23_a3).
body(r_fr23_52,fr23_b2).
body(r_fr23_52,fr2_a1).
body(r_fr23_52,fr3_a1).
body(r_fr23_52,fr3_a1).
body(r_fr23_52,fr11_c2).
body(r_fr23_52,fr23_t3).
body(r_fr23_52,fr20_v3).
head(r_fr23_53,fr23_r2).
body(r_fr23_53,fr23_a1).
body(r_fr23_53,fr2_a3).
body(r_fr23_53,fr23_b2).
body(r_fr23_53,fr2_a1).
body(r_fr23_53,fr23_c2).
body(r_fr23_53,fr23_t3).
body(r_fr23_53,fr20_v3).
head(r_fr23_54,fr20_p1).
body(r_fr23_54,fr23_p1).
body(r_fr23_54,fr20_v3).
body(r_fr23_54,fr23_q1).
body(r_fr23_54,fr23_r2).
body(r_fr23_54,fr23_r1).
body(r_fr23_54,fr23_s2).
body(r_fr23_54,fr17_w1).
body(r_fr23_54,fr1_z1).
head(r_fr23_55,fr20_p1).
body(r_fr23_55,fr23_c2).
body(r_fr23_55,fr2_a1).
body(r_fr23_55,fr23_d2).
body(r_fr23_55,fr3_a1).
body(r_fr23_55,fr20_v3).
body(r_fr23_55,fr8_t1).
head(r_fr23_56,fr23_u1).
body(r_fr23_56,fr23_a1).
body(r_fr23_56,fr23_b2).
body(r_fr23_56,fr20_v3).
body(r_fr23_56,fr23_r1).
body(r_fr23_56,fr17_w1).
body(r_fr23_56,fr1_z1).
head(r_fr23_57,fr23_u1).
body(r_fr23_57,fr2_a3).
body(r_fr23_57,fr23_p1).
body(r_fr23_57,fr23_r1).
body(r_fr23_57,fr23_t3).
body(r_fr23_57,fr1_z1).
body(r_fr23_57,fr8_t1).
body(r_fr23_57,fr20_v3).
head(r_fr23_58,fr23_u1).
body(r_fr23_58,fr20_v3).
body(r_fr23_58,fr23_q1).
body(r_fr23_58,fr23_t3).
body(r_fr23_58,fr1_z1).
body(r_fr23_58,fr8_t1).
body(r_fr23_58,fr5_x2).
body(r_fr23_58,fr7_w4).
body(r_fr23_58,fr23_y1).
body(r_fr23_58,fr23_z3).
head(r_fr23_59,fr23_u1).
body(r_fr23_59,fr23_a3).
body(r_fr23_59,fr23_b1).
body(r_fr23_59,fr2_a1).
body(r_fr23_59,fr23_d2).
body(r_fr23_59,fr2_f4).
body(r_fr23_59,fr2_f4).
body(r_fr23_59,fr23_r2).
head(r_fr23_60,fr20_v3).
body(r_fr23_60,fr23_p2).
body(r_fr23_60,fr23_q1).
body(r_fr23_60,fr23_s1).
body(r_fr23_60,fr23_v1).
body(r_fr23_60,fr8_t1).
body(r_fr23_60,fr23_y1).
body(r_fr23_60,fr20_v3).
body(r_fr23_60,fr23_z3).
head(r_fr23_61,fr20_v3).
body(r_fr23_61,fr23_b1).
body(r_fr23_61,fr23_c2).
body(r_fr23_61,fr3_a1).
body(r_fr23_61,fr2_a1).
body(r_fr23_61,fr23_q1).
body(r_fr23_61,fr23_s1).
body(r_fr23_61,fr8_t1).
head(r_fr23_62,fr20_v3).
body(r_fr23_62,fr23_a3).
body(r_fr23_62,fr2_a1).
body(r_fr23_62,fr3_a1).
body(r_fr23_62,fr2_f4).
body(r_fr23_62,fr23_q1).
body(r_fr23_62,fr23_s2).
body(r_fr23_62,fr23_t3).
body(r_fr23_62,fr23_v1).
body(r_fr23_62,fr23_y1).
head(r_fr23_63,fr20_v3).
body(r_fr23_63,fr23_a1).
body(r_fr23_63,fr23_p1).
body(r_fr23_63,fr23_p2).
body(r_fr23_63,fr23_r1).
body(r_fr23_63,fr23_s2).
body(r_fr23_63,fr23_t3).
body(r_fr23_63,fr23_y1).
body(r_fr23_63,fr20_v3).
head(r_fr23_64,fr20_v3).
body(r_fr23_64,fr23_a1).
body(r_fr23_64,fr23_a3).
body(r_fr23_64,fr23_c1).
body(r_fr23_64,fr2_a1).
body(r_fr23_64,fr3_a1).
body(r_fr23_64,fr23_r2).
body(r_fr23_64,fr1_z1).
body(r_fr23_64,fr8_t1).
head(r_fr23_65,fr23_p2).
body(r_fr23_65,fr2_f4).
body(r_fr23_65,fr23_t3).
body(r_fr23_65,fr23_v1).
body(r_fr23_65,fr8_t1).
body(r_fr23_65,fr5_x2).
body(r_fr23_65,fr7_w4).
body(r_fr23_65,fr20_v3).
head(r_fr23_66,fr23_p2).
body(r_fr23_66,fr23_a3).
body(r_fr23_66,fr2_a1).
body(r_fr23_66,fr2_a1).
body(r_fr23_66,fr23_d2).
body(r_fr23_66,fr11_c2).
body(r_fr23_66,fr2_f4).
body(r_fr23_66,fr23_r1).
body(r_fr23_66,fr1_z1).
head(r_fr23_67,fr23_p2).
body(r_fr23_67,fr23_q1).
body(r_fr23_67,fr23_s1).
body(r_fr23_67,fr23_s2).
body(r_fr23_67,fr23_v1).
body(r_fr23_67,fr5_x2).
body(r_fr23_67,fr23_y1).
body(r_fr23_67,fr23_z3).
head(r_fr23_68,fr23_z3).
body(r_fr23_68,fr23_p1).
body(r_fr23_68,fr23_r2).
body(r_fr23_68,fr23_s1).
body(r_fr23_68,fr23_s2).
body(r_fr23_68,fr17_w1).
body(r_fr23_68,fr23_t3).
body(r_fr23_68,fr8_t1).
body(r_fr23_68,fr5_x2).
body(r_fr23_68,fr20_v3).
head(r_fr23_69,fr23_z3).
body(r_fr23_69,fr11_c2).
body(r_fr23_69,fr2_f4).
body(r_fr23_69,fr23_p1).
body(r_fr23_69,fr23_r1).
body(r_fr23_69,fr23_s2).
body(r_fr23_69,fr8_t1).
body(r_fr23_69,fr20_v3).
head(r_fr23_70,fr23_z3).
body(r_fr23_70,fr2_a3).
body(r_fr23_70,fr23_b2).
body(r_fr23_70,fr2_a1).
body(r_fr23_70,fr23_c1).
body(r_fr23_70,fr23_c2).
body(r_fr23_70,fr23_d2).
body(r_fr23_70,fr2_f4).
head(r_fr23_71,fr23_z3).
body(r_fr23_71,fr23_q1).
body(r_fr23_71,fr23_r2).
body(r_fr23_71,fr23_r1).
body(r_fr23_71,fr23_s2).
body(r_fr23_71,fr1_z1).
body(r_fr23_71,fr5_x2).
body(r_fr23_71,fr23_y1).
body(r_fr23_71,fr20_v3).

assumption(fr2_a3).
assumption(fr2_f4).
assumption(fr2_a3).
assumption(fr12_b1).
assumption(fr3_a1).
assumption(fr3_a1).
contrary(fr2_a3,fr15_u4).
contrary(fr2_f4,fr20_p1).
contrary(fr2_a3,fr3_a1).
contrary(fr12_b1,fr3_a1).
contrary(fr3_a1,fr2_f4).
contrary(fr3_a1,fr20_p1).
head(r_fr24_0,fr20_p1).
head(r_fr24_1,fr20_p1).
body(r_fr24_1,fr24_s1).
head(r_fr24_2,fr20_p1).
body(r_fr24_2,fr2_f4).
head(r_fr24_3,fr20_p1).
head(r_fr24_4,fr23_r2).
body(r_fr24_4,fr2_f4).
body(r_fr24_4,fr2_a3).
head(r_fr24_5,fr23_r2).
head(r_fr24_6,fr15_u3).
body(r_fr24_6,fr3_a1).
head(r_fr24_7,fr15_u3).
body(r_fr24_7,fr23_r2).
head(r_fr24_8,fr15_u4).
body(r_fr24_8,fr2_f4).
body(r_fr24_8,fr3_u2).
head(r_fr24_9,fr15_u4).
body(r_fr24_9,fr3_a1).
body(r_fr24_9,fr20_p1).
head(r_fr24_10,fr24_s1).
body(r_fr24_10,fr3_u2).
body(r_fr24_10,fr5_r2).
head(r_fr24_11,fr24_s1).
body(r_fr24_11,fr2_a3).
body(r_fr24_11,fr3_a1).
head(r_fr24_12,fr5_r2).
head(r_fr24_13,fr5_r2).
body(r_fr24_13,fr3_a1).
body(r_fr24_13,fr20_p1).
head(r_fr24_14,fr3_u2).
body(r_fr24_14,fr15_u4).
body(r_fr24_14,fr23_r2).
head(r_fr24_15,fr3_u2).
body(r_fr24_15,fr20_p1).
body(r_fr24_15,fr24_s1).

assumption(fr25_a1).
assumption(fr25_b1).
assumption(fr25_c1).
assumption(fr25_d1).
assumption(fr12_b1).
assumption(fr25_f1).
assumption(fr15_a2).
assumption(fr2_a3).
assumption(fr8_a1).
assumption(fr25_d2).
assumption(fr25_e2).
assumption(fr25_f2).
assumption(fr2_a1).
assumption(fr11_c2).
assumption(fr3_a1).
contrary(fr25_a1,fr2_a3).
contrary(fr15_a2,fr25_v2).
contrary(fr2_a1,fr25_r7).
contrary(fr25_b1,fr25_t1).
contrary(fr2_a3,fr20_p1).
contrary(fr11_c2,fr23_r2).
contrary(fr25_c1,fr25_p3).
contrary(fr8_a1,fr20_q3).
contrary(fr3_a1,fr17_u1).
contrary(fr25_d1,fr8_p2).
contrary(fr25_d2,fr25_s3).
contrary(fr12_b1,fr9_s2).
contrary(fr25_e2,fr25_u3).
contrary(fr25_f1,fr25_q3).
contrary(fr25_f2,fr8_a1).
head(r_fr25_0,fr25_x3).
body(r_fr25_0,fr2_a3).
body(r_fr25_0,fr11_c2).
body(r_fr25_0,fr25_e2).
body(r_fr25_0,fr15_u4).
head(r_fr25_1,fr25_x3).
body(r_fr25_1,fr2_a3).
body(r_fr25_1,fr25_r6).
body(r_fr25_1,fr21_y2).
head(r_fr25_2,fr25_x3).
body(r_fr25_2,fr11_p5).
body(r_fr25_2,fr20_q3).
body(r_fr25_2,fr25_q1).
body(r_fr25_2,fr7_y2).
head(r_fr25_3,fr25_x3).
body(r_fr25_3,fr15_a2).
body(r_fr25_3,fr2_a3).
head(r_fr25_4,fr25_x3).
body(r_fr25_4,fr25_f2).
head(r_fr25_5,fr20_p1).
body(r_fr25_5,fr23_r2).
head(r_fr25_6,fr20_p1).
body(r_fr25_6,fr2_a3).
body(r_fr25_6,fr25_f1).
head(r_fr25_7,fr20_p1).
body(r_fr25_7,fr2_a1).
body(r_fr25_7,fr2_a3).
body(r_fr25_7,fr3_a1).
body(r_fr25_7,fr25_d2).
body(r_fr25_7,fr25_e2).
head(r_fr25_8,fr20_p1).
body(r_fr25_8,fr25_d2).
body(r_fr25_8,fr20_q3).
body(r_fr25_8,fr25_q5).
body(r_fr25_8,fr25_r6).
body(r_fr25_8,fr15_t2).
body(r_fr25_8,fr25_t3).
head(r_fr25_9,fr20_p1).
body(r_fr25_9,fr25_c1).
head(r_fr25_10,fr25_u3).
body(r_fr25_10,fr25_b1).
body(r_fr25_10,fr25_u2).
body(r_fr25_10,fr9_s2).
body(r_fr25_10,fr25_w7).
body(r_fr25_10,fr11_s5).
head(r_fr25_11,fr25_u3).
body(r_fr25_11,fr20_q3).
body(r_fr25_11,fr25_q1).
body(r_fr25_11,fr15_v3).
body(r_fr25_11,fr20_v3).
body(r_fr25_11,fr25_v7).
body(r_fr25_11,fr25_w2).
head(r_fr25_12,fr25_u3).
body(r_fr25_12,fr20_v3).
head(r_fr25_13,fr25_u3).
body(r_fr25_13,fr2_a1).
body(r_fr25_13,fr11_c2).
body(r_fr25_13,fr25_d1).
head(r_fr25_14,fr2_x3).
body(r_fr25_14,fr25_r5).
head(r_fr25_15,fr2_x3).
body(r_fr25_15,fr25_a1).
body(r_fr25_15,fr2_a1).
body(r_fr25_15,fr2_a3).
body(r_fr25_15,fr25_c1).
body(r_fr25_15,fr12_b1).
body(r_fr25_15,fr7_y2).
head(r_fr25_16,fr2_x3).
body(r_fr25_16,fr25_c1).
body(r_fr25_16,fr25_d1).
body(r_fr25_16,fr25_f2).
body(r_fr25_16,fr25_q3).
body(r_fr25_16,fr25_u7).
body(r_fr25_16,fr25_v4).
head(r_fr25_17,fr25_r1).
body(r_fr25_17,fr25_p3).
body(r_fr25_17,fr20_q3).
body(r_fr25_17,fr25_t1).
body(r_fr25_17,fr20_v3).
head(r_fr25_18,fr25_r1).
head(r_fr25_19,fr25_r1).
body(r_fr25_19,fr4_y3).
head(r_fr25_20,fr25_r1).
body(r_fr25_20,fr25_c1).
body(r_fr25_20,fr25_e2).
body(r_fr25_20,fr25_f2).
head(r_fr25_21,fr25_r1).
body(r_fr25_21,fr11_c2).
body(r_fr25_21,fr8_a1).
body(r_fr25_21,fr12_b1).
body(r_fr25_21,fr25_v4).
body(r_fr25_21,fr25_x6).
head(r_fr25_22,fr25_p3).
body(r_fr25_22,fr11_v2).
head(r_fr25_23,fr25_p3).
body(r_fr25_23,fr25_b1).
body(r_fr25_23,fr2_a3).
body(r_fr25_23,fr25_c1).
body(r_fr25_23,fr8_a1).
body(r_fr25_23,fr25_e2).
body(r_fr25_23,fr25_f2).
head(r_fr25_24,fr25_p3).
body(r_fr25_24,fr25_t1).
body(r_fr25_24,fr20_v3).
body(r_fr25_24,fr25_u1).
body(r_fr25_24,fr25_u2).
body(r_fr25_24,fr25_z2).
head(r_fr25_25,fr25_p3).
head(r_fr25_26,fr9_s2).
body(r_fr25_26,fr2_a3).
body(r_fr25_26,fr12_b1).
body(r_fr25_26,fr25_q3).
body(r_fr25_26,fr25_s3).
head(r_fr25_27,fr9_s2).
body(r_fr25_27,fr2_a3).
body(r_fr25_27,fr11_c2).
body(r_fr25_27,fr12_b1).
head(r_fr25_28,fr9_s2).
body(r_fr25_28,fr2_a3).
head(r_fr25_29,fr9_s2).
body(r_fr25_29,fr25_q7).
body(r_fr25_29,fr25_s3).
body(r_fr25_29,fr25_t6).
body(r_fr25_29,fr25_u2).
body(r_fr25_29,fr25_z5).
head(r_fr25_30,fr9_s2).
body(r_fr25_30,fr2_a3).
body(r_fr25_30,fr11_c2).
body(r_fr25_30,fr25_d1).
head(r_fr25_31,fr25_z6).
body(r_fr25_31,fr25_s1).
body(r_fr25_31,fr16_z2).
body(r_fr25_31,fr25_w1).
body(r_fr25_31,fr25_w7).
body(r_fr25_31,fr25_z2).
head(r_fr25_32,fr25_z6).
body(r_fr25_32,fr12_b1).
body(r_fr25_32,fr20_q3).
body(r_fr25_32,fr25_q3).
body(r_fr25_32,fr25_q5).
body(r_fr25_32,fr15_t2).
body(r_fr25_32,fr25_x4).
head(r_fr25_33,fr25_z6).
body(r_fr25_33,fr9_x1).
head(r_fr25_34,fr25_z6).
body(r_fr25_34,fr25_b1).
head(r_fr25_35,fr25_z6).
head(r_fr25_36,fr25_v4).
body(r_fr25_36,fr10_z2).
head(r_fr25_37,fr25_v4).
body(r_fr25_37,fr25_a1).
body(r_fr25_37,fr11_c2).
head(r_fr25_38,fr25_v4).
body(r_fr25_38,fr23_q3).
body(r_fr25_38,fr25_u7).
body(r_fr25_38,fr4_y3).
body(r_fr25_38,fr8_p2).
head(r_fr25_39,fr25_v4).
head(r_fr25_40,fr25_v4).
body(r_fr25_40,fr11_p5).
body(r_fr25_40,fr25_q3).
body(r_fr25_40,fr25_t3).
body(r_fr25_40,fr25_u1).
head(r_fr25_41,fr10_z2).
body(r_fr25_41,fr25_u1).
body(r_fr25_41,fr25_w4).
body(r_fr25_41,fr25_x6).
head(r_fr25_42,fr10_z2).
body(r_fr25_42,fr2_a3).
body(r_fr25_42,fr25_d2).
body(r_fr25_42,fr25_e2).
body(r_fr25_42,fr20_p1).
head(r_fr25_43,fr10_z2).
head(r_fr25_44,fr10_z2).
body(r_fr25_44,fr2_a3).
body(r_fr25_44,fr3_a1).
body(r_fr25_44,fr25_r3).
body(r_fr25_44,fr15_t2).
body(r_fr25_44,fr25_u7).
head(r_fr25_45,fr16_z2).
body(r_fr25_45,fr15_a2).
body(r_fr25_45,fr25_f2).
head(r_fr25_46,fr16_z2).
body(r_fr25_46,fr25_p1).
body(r_fr25_46,fr25_t3).
body(r_fr25_46,fr20_p1).
head(r_fr25_47,fr16_z2).
body(r_fr25_47,fr25_f1).
body(r_fr25_47,fr15_t1).
head(r_fr25_48,fr16_z2).
body(r_fr25_48,fr11_c2).
head(r_fr25_49,fr16_z2).
body(r_fr25_49,fr2_a1).
body(r_fr25_49,fr8_a1).
body(r_fr25_49,fr3_a1).
body(r_fr25_49,fr25_d1).
head(r_fr25_50,fr15_t2).
body(r_fr25_50,fr25_a1).
body(r_fr25_50,fr25_u7).
head(r_fr25_51,fr15_t2).
body(r_fr25_51,fr2_a1).
body(r_fr25_51,fr2_a3).
body(r_fr25_51,fr11_c2).
body(r_fr25_51,fr25_d2).
body(r_fr25_51,fr25_e2).
head(r_fr25_52,fr15_t2).
body(r_fr25_52,fr25_c1).
body(r_fr25_52,fr25_e2).
body(r_fr25_52,fr25_f1).
body(r_fr25_52,fr25_r3).
body(r_fr25_52,fr25_u1).
head(r_fr25_53,fr15_t2).
body(r_fr25_53,fr25_d1).
body(r_fr25_53,fr25_f2).
head(r_fr25_54,fr25_w4).
body(r_fr25_54,fr2_a1).
body(r_fr25_54,fr2_a3).
body(r_fr25_54,fr25_d1).
body(r_fr25_54,fr12_b1).
body(r_fr25_54,fr25_f1).
head(r_fr25_55,fr25_w4).
body(r_fr25_55,fr25_c1).
body(r_fr25_55,fr25_z3).
head(r_fr25_56,fr25_w4).
head(r_fr25_57,fr25_w4).
body(r_fr25_57,fr25_a1).
body(r_fr25_57,fr8_a1).
body(r_fr25_57,fr20_p1).
body(r_fr25_57,fr20_v3).
body(r_fr25_57,fr25_z2).
head(r_fr25_58,fr25_w4).
body(r_fr25_58,fr15_a2).
body(r_fr25_58,fr2_a1).
body(r_fr25_58,fr2_a3).
body(r_fr25_58,fr25_x4).
head(r_fr25_59,fr20_v3).
body(r_fr25_59,fr15_a2).
body(r_fr25_59,fr8_a1).
body(r_fr25_59,fr3_a1).
body(r_fr25_59,fr25_d1).
body(r_fr25_59,fr25_f1).
head(r_fr25_60,fr20_v3).
body(r_fr25_60,fr25_d2).
body(r_fr25_60,fr25_f1).
body(r_fr25_60,fr25_f2).
body(r_fr25_60,fr25_q1).
head(r_fr25_61,fr20_v3).
body(r_fr25_61,fr2_a3).
body(r_fr25_61,fr3_a1).
body(r_fr25_61,fr12_b1).
head(r_fr25_62,fr15_v3).
body(r_fr25_62,fr3_a1).
head(r_fr25_63,fr15_v3).
head(r_fr25_64,fr15_v3).
body(r_fr25_64,fr25_b1).
body(r_fr25_64,fr25_d2).
body(r_fr25_64,fr25_f1).
head(r_fr25_65,fr15_v3).
body(r_fr25_65,fr11_c2).
body(r_fr25_65,fr25_c1).
body(r_fr25_65,fr3_a1).
body(r_fr25_65,fr12_b1).
body(r_fr25_65,fr25_v7).
body(r_fr25_65,fr25_w7).
head(r_fr25_66,fr25_s3).
body(r_fr25_66,fr20_p1).
body(r_fr25_66,fr11_s5).
body(r_fr25_66,fr25_x6).
head(r_fr25_67,fr25_s3).
body(r_fr25_67,fr25_c1).
body(r_fr25_67,fr3_a1).
body(r_fr25_67,fr25_d1).
body(r_fr25_67,fr25_d2).
body(r_fr25_67,fr25_f1).
body(r_fr25_67,fr25_r7).
head(r_fr25_68,fr25_s3).
body(r_fr25_68,fr25_u1).
body(r_fr25_68,fr20_p1).
head(r_fr25_69,fr25_s3).
body(r_fr25_69,fr15_a2).
body(r_fr25_69,fr25_b1).
body(r_fr25_69,fr25_d2).
body(r_fr25_69,fr12_b1).
body(r_fr25_69,fr25_f1).
head(r_fr25_70,fr25_z3).
body(r_fr25_70,fr25_c1).
body(r_fr25_70,fr25_f2).
body(r_fr25_70,fr25_y6).
head(r_fr25_71,fr25_z3).
body(r_fr25_71,fr25_b1).
body(r_fr25_71,fr3_a1).
body(r_fr25_71,fr25_d1).
body(r_fr25_71,fr25_d2).
body(r_fr25_71,fr12_b1).
body(r_fr25_71,fr25_r3).
head(r_fr25_72,fr25_z3).
body(r_fr25_72,fr25_d2).
body(r_fr25_72,fr21_y2).
head(r_fr25_73,fr25_z3).
body(r_fr25_73,fr25_b1).
body(r_fr25_73,fr23_q3).
body(r_fr25_73,fr15_u4).
body(r_fr25_73,fr25_w2).
body(r_fr25_73,fr15_t1).
body(r_fr25_73,fr9_x1).
head(r_fr25_74,fr25_z3).
head(r_fr25_75,fr7_y2).
body(r_fr25_75,fr25_a1).
body(r_fr25_75,fr25_d1).
body(r_fr25_75,fr25_t1).
body(r_fr25_75,fr23_p2).
head(r_fr25_76,fr7_y2).
body(r_fr25_76,fr2_a1).
body(r_fr25_76,fr2_a3).
head(r_fr25_77,fr7_y2).
body(r_fr25_77,fr25_f1).
head(r_fr25_78,fr23_r2).
body(r_fr25_78,fr17_u1).
head(r_fr25_79,fr23_r2).
body(r_fr25_79,fr12_b1).
body(r_fr25_79,fr25_w2).
head(r_fr25_80,fr23_r2).
body(r_fr25_80,fr15_a2).
body(r_fr25_80,fr2_a3).
body(r_fr25_80,fr25_e2).
body(r_fr25_80,fr25_q6).
head(r_fr25_81,fr23_p2).
body(r_fr25_81,fr25_q6).
body(r_fr25_81,fr25_s1).
body(r_fr25_81,fr25_t3).
body(r_fr25_81,fr20_p1).
body(r_fr25_81,fr25_x4).
body(r_fr25_81,fr15_t1).
head(r_fr25_82,fr23_p2).
body(r_fr25_82,fr11_p5).
body(r_fr25_82,fr25_s1).
head(r_fr25_83,fr23_p2).
body(r_fr25_83,fr2_a3).
body(r_fr25_83,fr11_s5).

