assumption(fr3_b3).
assumption(fr1_b1).
assumption(fr10_c1).
assumption(fr3_q7).
assumption(fr1_b1).
assumption(fr10_c1).
assumption(fr2_b1).
assumption(fr8_w3).
assumption(fr1_c2).
assumption(fr1_d2).
assumption(fr3_b3).
assumption(fr2_b1).
assumption(fr1_a3).
assumption(fr9_p1).
assumption(fr5_a1).
contrary(fr3_b3,fr3_d2).
contrary(fr2_b1,fr1_s1).
contrary(fr1_a3,fr1_s3).
contrary(fr1_b1,fr3_b3).
contrary(fr8_w3,fr10_b3).
contrary(fr9_p1,fr10_c1).
contrary(fr10_c1,fr1_x2).
contrary(fr1_c2,fr1_x3).
contrary(fr5_a1,fr8_w3).
contrary(fr3_q7,fr4_z2).
contrary(fr1_d2,fr1_z1).
contrary(fr1_b1,fr9_y2).
contrary(fr3_b3,fr1_q3).
contrary(fr10_c1,fr1_w2).
contrary(fr2_b1,fr1_p1).
head(r_fr1_0,fr1_v3).
body(r_fr1_0,fr10_b3).
body(r_fr1_0,fr1_x2).
head(r_fr1_1,fr1_v3).
body(r_fr1_1,fr10_c1).
head(r_fr1_2,fr1_v3).
body(r_fr1_2,fr9_p1).
body(r_fr1_2,fr1_p1).
body(r_fr1_2,fr9_y2).
head(r_fr1_3,fr1_v3).
body(r_fr1_3,fr1_p3).
body(r_fr1_3,fr1_p4).
body(r_fr1_3,fr1_r1).
body(r_fr1_3,fr1_u1).
body(r_fr1_3,fr3_q7).
body(r_fr1_3,fr1_x2).
head(r_fr1_4,fr1_r1).
body(r_fr1_4,fr3_b3).
body(r_fr1_4,fr5_a1).
body(r_fr1_4,fr1_p3).
body(r_fr1_4,fr10_b3).
body(r_fr1_4,fr4_z2).
head(r_fr1_5,fr1_r1).
body(r_fr1_5,fr9_p1).
body(r_fr1_5,fr1_c2).
body(r_fr1_5,fr5_a1).
body(r_fr1_5,fr3_q7).
body(r_fr1_5,fr10_c1).
body(r_fr1_5,fr1_p4).
head(r_fr1_6,fr1_r1).
body(r_fr1_6,fr1_a3).
body(r_fr1_6,fr3_b3).
body(r_fr1_6,fr10_c1).
head(r_fr1_7,fr1_r1).
body(r_fr1_7,fr9_y2).
body(r_fr1_7,fr1_y3).
head(r_fr1_8,fr1_r1).
head(r_fr1_9,fr9_y2).
body(r_fr1_9,fr1_b1).
body(r_fr1_9,fr9_p1).
body(r_fr1_9,fr3_b3).
body(r_fr1_9,fr10_c1).
body(r_fr1_9,fr1_u1).
head(r_fr1_10,fr9_y2).
head(r_fr1_11,fr9_y2).
body(r_fr1_11,fr1_a3).
body(r_fr1_11,fr1_p3).
body(r_fr1_11,fr1_r2).
body(r_fr1_11,fr3_r3).
body(r_fr1_11,fr1_t3).
body(r_fr1_11,fr1_w3).
head(r_fr1_12,fr1_z1).
body(r_fr1_12,fr3_b3).
body(r_fr1_12,fr1_x2).
head(r_fr1_13,fr1_z1).
body(r_fr1_13,fr2_b1).
body(r_fr1_13,fr1_q3).
body(r_fr1_13,fr1_t2).
body(r_fr1_13,fr4_z2).
head(r_fr1_14,fr1_z1).
head(r_fr1_15,fr1_z1).
body(r_fr1_15,fr9_p1).
body(r_fr1_15,fr10_b3).
body(r_fr1_15,fr1_s3).
head(r_fr1_16,fr1_z1).
body(r_fr1_16,fr10_c1).
body(r_fr1_16,fr5_a1).
body(r_fr1_16,fr3_q7).
body(r_fr1_16,fr1_b1).
body(r_fr1_16,fr10_c1).
head(r_fr1_17,fr1_p2).
body(r_fr1_17,fr3_r3).
body(r_fr1_17,fr1_q3).
head(r_fr1_18,fr1_p2).
body(r_fr1_18,fr8_w3).
head(r_fr1_19,fr1_p2).
body(r_fr1_19,fr3_q7).
body(r_fr1_19,fr1_y2).
body(r_fr1_19,fr1_s3).
head(r_fr1_20,fr1_p2).
body(r_fr1_20,fr3_b3).
body(r_fr1_20,fr2_b1).
body(r_fr1_20,fr9_p1).
body(r_fr1_20,fr10_c1).
body(r_fr1_20,fr5_a1).
body(r_fr1_20,fr2_b1).
head(r_fr1_21,fr1_u1).
body(r_fr1_21,fr1_q3).
body(r_fr1_21,fr5_s2).
head(r_fr1_22,fr1_u1).
body(r_fr1_22,fr2_b1).
body(r_fr1_22,fr10_c1).
body(r_fr1_22,fr5_a1).
head(r_fr1_23,fr1_t2).
body(r_fr1_23,fr1_b1).
body(r_fr1_23,fr1_p2).
body(r_fr1_23,fr1_y2).
body(r_fr1_23,fr1_s3).
head(r_fr1_24,fr1_t2).
body(r_fr1_24,fr1_p1).
head(r_fr1_25,fr1_t2).
head(r_fr1_26,fr1_t2).
body(r_fr1_26,fr9_p1).
body(r_fr1_26,fr10_b3).
body(r_fr1_26,fr1_s3).
head(r_fr1_27,fr1_t2).
body(r_fr1_27,fr1_p1).
body(r_fr1_27,fr10_b3).
body(r_fr1_27,fr1_q3).
head(r_fr1_28,fr1_q3).
head(r_fr1_29,fr1_q3).
body(r_fr1_29,fr1_a3).
body(r_fr1_29,fr2_b1).
body(r_fr1_29,fr1_p4).
body(r_fr1_29,fr1_s3).
head(r_fr1_30,fr1_q3).
body(r_fr1_30,fr5_a1).
body(r_fr1_30,fr1_d2).
head(r_fr1_31,fr1_s3).
body(r_fr1_31,fr9_p1).
body(r_fr1_31,fr5_a1).
body(r_fr1_31,fr4_z2).
body(r_fr1_31,fr5_s2).
head(r_fr1_32,fr1_s3).
body(r_fr1_32,fr1_c2).
body(r_fr1_32,fr1_p2).
body(r_fr1_32,fr3_r3).
body(r_fr1_32,fr1_t3).
body(r_fr1_32,fr1_x2).
head(r_fr1_33,fr1_s3).
body(r_fr1_33,fr1_d2).
body(r_fr1_33,fr1_s3).
body(r_fr1_33,fr1_x2).
head(r_fr1_34,fr3_r3).
body(r_fr1_34,fr2_b1).
head(r_fr1_35,fr3_r3).
body(r_fr1_35,fr1_p3).
body(r_fr1_35,fr9_y2).
body(r_fr1_35,fr1_s3).
body(r_fr1_35,fr1_y3).
head(r_fr1_36,fr3_r3).
body(r_fr1_36,fr10_c1).
body(r_fr1_36,fr2_b1).
body(r_fr1_36,fr10_b3).
head(r_fr1_37,fr3_r3).
body(r_fr1_37,fr3_b3).
body(r_fr1_37,fr1_b1).
head(r_fr1_38,fr3_r3).
body(r_fr1_38,fr10_c1).
body(r_fr1_38,fr1_d2).
body(r_fr1_38,fr9_y2).
body(r_fr1_38,fr1_s3).
head(r_fr1_39,fr1_p4).
body(r_fr1_39,fr1_d2).
body(r_fr1_39,fr1_p2).
head(r_fr1_40,fr1_p4).
body(r_fr1_40,fr2_b1).
body(r_fr1_40,fr3_b3).
body(r_fr1_40,fr10_c1).
head(r_fr1_41,fr1_p4).
body(r_fr1_41,fr1_a3).
body(r_fr1_41,fr5_s2).
body(r_fr1_41,fr1_x3).
body(r_fr1_41,fr3_d2).
body(r_fr1_41,fr1_y3).
head(r_fr1_42,fr1_p4).
body(r_fr1_42,fr5_a1).
body(r_fr1_42,fr1_t3).
head(r_fr1_43,fr1_p4).
body(r_fr1_43,fr1_a3).
body(r_fr1_43,fr10_c1).
body(r_fr1_43,fr1_d2).
body(r_fr1_43,fr1_b1).
body(r_fr1_43,fr3_b3).
body(r_fr1_43,fr10_c1).
head(r_fr1_44,fr1_w2).
body(r_fr1_44,fr10_c1).
body(r_fr1_44,fr2_b1).
head(r_fr1_45,fr1_w2).
body(r_fr1_45,fr3_b3).
body(r_fr1_45,fr1_b1).
body(r_fr1_45,fr3_q7).
body(r_fr1_45,fr5_s2).
head(r_fr1_46,fr1_w2).
head(r_fr1_47,fr1_s1).
body(r_fr1_47,fr1_a3).
body(r_fr1_47,fr1_s3).
body(r_fr1_47,fr1_t3).
body(r_fr1_47,fr3_d2).
body(r_fr1_47,fr1_y2).
head(r_fr1_48,fr1_s1).
body(r_fr1_48,fr8_w3).
body(r_fr1_48,fr5_a1).
body(r_fr1_48,fr1_d2).
body(r_fr1_48,fr3_b3).
body(r_fr1_48,fr10_c1).
body(r_fr1_48,fr2_b1).
head(r_fr1_49,fr1_s3).
body(r_fr1_49,fr5_a1).
body(r_fr1_49,fr1_p1).
body(r_fr1_49,fr1_q1).
body(r_fr1_49,fr1_w3).
head(r_fr1_50,fr1_s3).
body(r_fr1_50,fr8_w3).
body(r_fr1_50,fr10_c1).
body(r_fr1_50,fr1_q3).
head(r_fr1_51,fr1_p1).
body(r_fr1_51,fr9_p1).
body(r_fr1_51,fr10_c1).
body(r_fr1_51,fr3_q7).
body(r_fr1_51,fr1_b1).
body(r_fr1_51,fr10_c1).
head(r_fr1_52,fr1_p1).
body(r_fr1_52,fr1_a3).
body(r_fr1_52,fr1_d2).
body(r_fr1_52,fr1_b1).
body(r_fr1_52,fr2_b1).
head(r_fr1_53,fr10_b3).
body(r_fr1_53,fr2_b1).
body(r_fr1_53,fr5_a1).
body(r_fr1_53,fr1_d2).
head(r_fr1_54,fr10_b3).
body(r_fr1_54,fr9_y2).
body(r_fr1_54,fr1_q4).
head(r_fr1_55,fr10_b3).
body(r_fr1_55,fr1_t3).
head(r_fr1_56,fr1_q1).
head(r_fr1_57,fr1_q1).
body(r_fr1_57,fr3_b3).
body(r_fr1_57,fr1_b1).
body(r_fr1_57,fr5_a1).
body(r_fr1_57,fr1_d2).
body(r_fr1_57,fr1_x2).
head(r_fr1_58,fr1_w3).
head(r_fr1_59,fr1_w3).
body(r_fr1_59,fr1_a3).
body(r_fr1_59,fr1_b1).
body(r_fr1_59,fr10_c1).
body(r_fr1_59,fr2_b1).
body(r_fr1_59,fr1_q3).
head(r_fr1_60,fr1_w3).
body(r_fr1_60,fr2_b1).
body(r_fr1_60,fr1_b1).
head(r_fr1_61,fr1_y2).
body(r_fr1_61,fr3_q7).
body(r_fr1_61,fr1_p3).
body(r_fr1_61,fr4_z2).
body(r_fr1_61,fr3_r3).
body(r_fr1_61,fr1_y3).
head(r_fr1_62,fr1_y2).
body(r_fr1_62,fr1_p2).
body(r_fr1_62,fr3_q7).
head(r_fr1_63,fr1_y2).
body(r_fr1_63,fr1_b1).
body(r_fr1_63,fr3_b3).
head(r_fr1_64,fr1_y2).
body(r_fr1_64,fr2_b1).
body(r_fr1_64,fr1_d2).
body(r_fr1_64,fr1_b1).
head(r_fr1_65,fr1_r2).
body(r_fr1_65,fr9_p1).
body(r_fr1_65,fr1_s3).
head(r_fr1_66,fr1_r2).
body(r_fr1_66,fr1_b1).
body(r_fr1_66,fr1_c2).

assumption(fr4_z2).
assumption(fr2_b1).
assumption(fr5_z2).
assumption(fr10_c1).
assumption(fr2_e1).
assumption(fr2_f1).
assumption(fr10_c2).
assumption(fr4_f1).
assumption(fr7_a1).
assumption(fr1_p2).
assumption(fr1_s3).
assumption(fr5_x1).
assumption(fr2_a3).
assumption(fr2_b1).
assumption(fr1_b1).
contrary(fr4_z2,fr4_f1).
contrary(fr10_c2,fr2_b1).
contrary(fr2_a3,fr4_f1).
contrary(fr2_b1,fr2_s2).
contrary(fr4_f1,fr2_e1).
contrary(fr2_b1,fr3_t5).
contrary(fr5_z2,fr2_e1).
contrary(fr7_a1,fr1_s3).
contrary(fr1_b1,fr1_s3).
contrary(fr10_c1,fr6_t2).
contrary(fr1_p2,fr2_s2).
contrary(fr2_e1,fr2_b1).
contrary(fr1_s3,fr3_s5).
contrary(fr2_f1,fr4_v2).
contrary(fr5_x1,fr2_e1).
head(r_fr2_0,fr4_v2).
body(r_fr2_0,fr3_d2).
head(r_fr2_1,fr4_v2).
body(r_fr2_1,fr2_a3).
body(r_fr2_1,fr2_b1).
body(r_fr2_1,fr4_f1).
body(r_fr2_1,fr7_a1).
head(r_fr2_2,fr4_v2).
body(r_fr2_2,fr2_a3).
body(r_fr2_2,fr2_b1).
body(r_fr2_2,fr5_z2).
body(r_fr2_2,fr10_c1).
body(r_fr2_2,fr2_f1).
body(r_fr2_2,fr5_x1).
head(r_fr2_3,fr6_d2).
body(r_fr2_3,fr5_x1).
body(r_fr2_3,fr5_r3).
body(r_fr2_3,fr5_x1).
head(r_fr2_4,fr6_d2).
head(r_fr2_5,fr6_d2).
body(r_fr2_5,fr6_t2).
body(r_fr2_5,fr5_s2).
body(r_fr2_5,fr10_c2).
body(r_fr2_5,fr2_s2).
body(r_fr2_5,fr3_q7).
head(r_fr2_6,fr6_d2).
body(r_fr2_6,fr3_s5).
body(r_fr2_6,fr3_t5).
head(r_fr2_7,fr3_s5).
body(r_fr2_7,fr10_c2).
body(r_fr2_7,fr5_s2).
body(r_fr2_7,fr3_q7).
head(r_fr2_8,fr3_s5).
body(r_fr2_8,fr2_a3).
body(r_fr2_8,fr4_f1).
body(r_fr2_8,fr10_c1).
body(r_fr2_8,fr2_f1).
head(r_fr2_9,fr3_s5).
head(r_fr2_10,fr2_v1).
body(r_fr2_10,fr4_z2).
body(r_fr2_10,fr4_f1).
body(r_fr2_10,fr2_b1).
body(r_fr2_10,fr5_z2).
body(r_fr2_10,fr1_s3).
body(r_fr2_10,fr1_s3).
head(r_fr2_11,fr2_v1).
body(r_fr2_11,fr2_b1).
body(r_fr2_11,fr5_z2).
body(r_fr2_11,fr7_a1).
body(r_fr2_11,fr5_x1).
body(r_fr2_11,fr3_t5).
head(r_fr2_12,fr2_v1).
body(r_fr2_12,fr7_a1).
body(r_fr2_12,fr5_x1).
body(r_fr2_12,fr3_q7).
head(r_fr2_13,fr3_r1).
body(r_fr2_13,fr2_z2).
head(r_fr2_14,fr3_r1).
body(r_fr2_14,fr5_x1).
body(r_fr2_14,fr2_v2).
head(r_fr2_15,fr3_r1).
head(r_fr2_16,fr3_r1).
body(r_fr2_16,fr2_a3).
body(r_fr2_16,fr1_b1).
body(r_fr2_16,fr10_c1).
body(r_fr2_16,fr5_x1).
body(r_fr2_16,fr3_d2).
head(r_fr2_17,fr5_s2).
body(r_fr2_17,fr2_a3).
body(r_fr2_17,fr3_q7).
body(r_fr2_17,fr3_t5).
body(r_fr2_17,fr2_w1).
body(r_fr2_17,fr3_q7).
head(r_fr2_18,fr5_s2).
body(r_fr2_18,fr4_z2).
body(r_fr2_18,fr2_b1).
body(r_fr2_18,fr7_a1).
body(r_fr2_18,fr1_s3).
body(r_fr2_18,fr10_c2).
body(r_fr2_18,fr2_w1).
head(r_fr2_19,fr3_t5).
head(r_fr2_20,fr3_t5).
body(r_fr2_20,fr10_c2).
body(r_fr2_20,fr1_s3).
body(r_fr2_20,fr10_c2).
body(r_fr2_20,fr3_q7).
body(r_fr2_20,fr3_d2).
head(r_fr2_21,fr1_s3).
body(r_fr2_21,fr2_s2).
body(r_fr2_21,fr2_v2).
body(r_fr2_21,fr7_a1).
head(r_fr2_22,fr1_s3).
head(r_fr2_23,fr1_s3).
body(r_fr2_23,fr10_c1).
body(r_fr2_23,fr6_t2).
body(r_fr2_23,fr5_x1).
body(r_fr2_23,fr5_x1).
body(r_fr2_23,fr2_z2).
head(r_fr2_24,fr1_s3).
body(r_fr2_24,fr2_b1).
body(r_fr2_24,fr10_c1).
body(r_fr2_24,fr6_t2).
body(r_fr2_24,fr10_c2).
body(r_fr2_24,fr2_b1).
body(r_fr2_24,fr3_q7).
head(r_fr2_25,fr3_q7).
body(r_fr2_25,fr10_c2).
body(r_fr2_25,fr2_b1).
body(r_fr2_25,fr2_b1).
head(r_fr2_26,fr3_q7).
body(r_fr2_26,fr2_a3).
head(r_fr2_27,fr3_q7).
head(r_fr2_28,fr3_q7).
body(r_fr2_28,fr1_s3).
head(r_fr2_29,fr3_q7).
body(r_fr2_29,fr5_r3).
body(r_fr2_29,fr5_x1).
body(r_fr2_29,fr5_x1).
body(r_fr2_29,fr2_v2).
body(r_fr2_29,fr2_z2).
head(r_fr2_30,fr2_z2).
body(r_fr2_30,fr10_c2).
body(r_fr2_30,fr4_f1).
body(r_fr2_30,fr10_c2).
body(r_fr2_30,fr2_s2).
body(r_fr2_30,fr2_v2).
body(r_fr2_30,fr7_a1).
head(r_fr2_31,fr2_z2).
body(r_fr2_31,fr2_a3).
body(r_fr2_31,fr2_f1).
head(r_fr2_32,fr2_z2).
body(r_fr2_32,fr2_a3).
head(r_fr2_33,fr3_q7).
body(r_fr2_33,fr2_b1).
body(r_fr2_33,fr2_b1).
body(r_fr2_33,fr1_b1).
body(r_fr2_33,fr1_p2).
body(r_fr2_33,fr2_f1).
head(r_fr2_34,fr3_q7).
body(r_fr2_34,fr7_a1).
head(r_fr2_35,fr3_q7).
body(r_fr2_35,fr2_b1).
body(r_fr2_35,fr10_c2).
head(r_fr2_36,fr3_q7).
body(r_fr2_36,fr10_c2).
body(r_fr2_36,fr7_a1).
head(r_fr2_37,fr3_q7).
body(r_fr2_37,fr4_z2).
body(r_fr2_37,fr5_z2).
body(r_fr2_37,fr1_s3).
body(r_fr2_37,fr6_t2).
body(r_fr2_37,fr2_b1).
head(r_fr2_38,fr3_q7).
body(r_fr2_38,fr10_c2).
body(r_fr2_38,fr2_b1).
body(r_fr2_38,fr5_z2).
body(r_fr2_38,fr10_c1).
body(r_fr2_38,fr1_p2).
head(r_fr2_39,fr2_v2).
body(r_fr2_39,fr7_a1).
body(r_fr2_39,fr10_c1).
body(r_fr2_39,fr5_s2).
body(r_fr2_39,fr5_r3).
body(r_fr2_39,fr5_x1).
head(r_fr2_40,fr2_v2).
body(r_fr2_40,fr10_c2).
body(r_fr2_40,fr1_p2).
body(r_fr2_40,fr5_x1).
body(r_fr2_40,fr2_b1).
body(r_fr2_40,fr2_w1).
head(r_fr2_41,fr2_v2).
body(r_fr2_41,fr6_t2).
body(r_fr2_41,fr5_s2).
body(r_fr2_41,fr10_c2).
body(r_fr2_41,fr10_c2).
body(r_fr2_41,fr2_b1).
head(r_fr2_42,fr2_v2).
body(r_fr2_42,fr2_b1).
head(r_fr2_43,fr6_t2).
body(r_fr2_43,fr2_a3).
body(r_fr2_43,fr1_b1).
body(r_fr2_43,fr2_e1).
body(r_fr2_43,fr10_c2).
body(r_fr2_43,fr5_x1).
body(r_fr2_43,fr7_a1).
head(r_fr2_44,fr6_t2).
body(r_fr2_44,fr1_b1).
body(r_fr2_44,fr1_p2).
body(r_fr2_44,fr2_b1).
head(r_fr2_45,fr5_x1).
head(r_fr2_46,fr5_x1).
body(r_fr2_46,fr4_f1).
body(r_fr2_46,fr5_z2).
body(r_fr2_46,fr10_c1).
body(r_fr2_46,fr1_p2).
body(r_fr2_46,fr10_c2).
body(r_fr2_46,fr2_b1).
head(r_fr2_47,fr5_x1).
body(r_fr2_47,fr5_s2).
body(r_fr2_47,fr5_r3).
body(r_fr2_47,fr10_c2).
body(r_fr2_47,fr5_x1).
body(r_fr2_47,fr2_b1).
body(r_fr2_47,fr7_a1).
head(r_fr2_48,fr5_x1).
body(r_fr2_48,fr10_c2).
body(r_fr2_48,fr5_z2).
body(r_fr2_48,fr10_c2).
head(r_fr2_49,fr2_s2).
body(r_fr2_49,fr10_c2).
body(r_fr2_49,fr7_a1).
body(r_fr2_49,fr1_p2).
body(r_fr2_49,fr1_s3).
head(r_fr2_50,fr2_s2).
body(r_fr2_50,fr1_p2).
body(r_fr2_50,fr5_r3).
body(r_fr2_50,fr2_w1).
head(r_fr2_51,fr2_s2).
body(r_fr2_51,fr10_c2).
body(r_fr2_51,fr5_x1).
body(r_fr2_51,fr10_c2).
body(r_fr2_51,fr7_a1).
head(r_fr2_52,fr2_s2).
body(r_fr2_52,fr4_z2).
body(r_fr2_52,fr10_c2).
body(r_fr2_52,fr2_a3).
body(r_fr2_52,fr2_b1).
body(r_fr2_52,fr5_z2).
body(r_fr2_52,fr7_a1).
head(r_fr2_53,fr10_c2).
body(r_fr2_53,fr2_e1).
body(r_fr2_53,fr5_s2).
head(r_fr2_54,fr10_c2).
body(r_fr2_54,fr2_b1).
body(r_fr2_54,fr2_f1).
body(r_fr2_54,fr5_s2).
body(r_fr2_54,fr5_x1).
body(r_fr2_54,fr10_c2).
head(r_fr2_55,fr10_c2).
body(r_fr2_55,fr7_a1).
body(r_fr2_55,fr10_c2).
body(r_fr2_55,fr2_w1).
head(r_fr2_56,fr10_c2).
body(r_fr2_56,fr5_s2).
body(r_fr2_56,fr5_x1).
body(r_fr2_56,fr2_w1).
body(r_fr2_56,fr7_a1).
head(r_fr2_57,fr5_x1).
body(r_fr2_57,fr4_f1).
head(r_fr2_58,fr5_x1).
body(r_fr2_58,fr4_f1).
body(r_fr2_58,fr1_b1).
head(r_fr2_59,fr5_x1).
body(r_fr2_59,fr10_c2).
body(r_fr2_59,fr5_z2).
body(r_fr2_59,fr1_b1).
body(r_fr2_59,fr1_p2).
body(r_fr2_59,fr5_x1).
body(r_fr2_59,fr7_a1).
head(r_fr2_60,fr5_x1).
body(r_fr2_60,fr5_s2).
head(r_fr2_61,fr5_x1).
body(r_fr2_61,fr2_w1).
body(r_fr2_61,fr3_d2).
head(r_fr2_62,fr10_c2).
body(r_fr2_62,fr2_a3).
body(r_fr2_62,fr5_r3).
body(r_fr2_62,fr2_w1).
body(r_fr2_62,fr7_a1).
body(r_fr2_62,fr3_d2).
head(r_fr2_63,fr10_c2).
body(r_fr2_63,fr2_b1).
body(r_fr2_63,fr7_a1).
body(r_fr2_63,fr3_d2).
head(r_fr2_64,fr7_a1).
body(r_fr2_64,fr4_z2).
body(r_fr2_64,fr2_b1).
body(r_fr2_64,fr5_z2).
body(r_fr2_64,fr2_f1).
head(r_fr2_65,fr7_a1).
body(r_fr2_65,fr10_c2).
body(r_fr2_65,fr2_b1).
body(r_fr2_65,fr7_a1).
body(r_fr2_65,fr1_p2).
body(r_fr2_65,fr2_w1).
body(r_fr2_65,fr3_d2).
head(r_fr2_66,fr7_a1).
body(r_fr2_66,fr4_z2).
body(r_fr2_66,fr3_d2).
head(r_fr2_67,fr7_a1).

assumption(fr3_a1).
assumption(fr9_y2).
assumption(fr3_c1).
assumption(fr2_v2).
assumption(fr3_e1).
assumption(fr3_f1).
assumption(fr3_a2).
assumption(fr3_f2).
assumption(fr3_c2).
assumption(fr10_c1).
assumption(fr3_e2).
assumption(fr3_f2).
assumption(fr1_p2).
assumption(fr3_b3).
assumption(fr10_c1).
contrary(fr3_a1,fr3_p7).
contrary(fr3_a2,fr3_u5).
contrary(fr1_p2,fr10_c1).
contrary(fr9_y2,fr3_s4).
contrary(fr3_f2,fr3_u2).
contrary(fr3_b3,fr3_t3).
contrary(fr3_c1,fr4_f1).
contrary(fr3_c2,fr3_x3).
contrary(fr10_c1,fr3_w6).
contrary(fr2_v2,fr3_f1).
contrary(fr10_c1,fr3_x3).
contrary(fr3_e1,fr3_w4).
contrary(fr3_e2,fr3_f1).
contrary(fr3_f1,fr3_w1).
contrary(fr3_f2,fr3_p7).
head(r_fr3_0,fr3_w4).
body(r_fr3_0,fr3_p7).
body(r_fr3_0,fr3_q6).
body(r_fr3_0,fr3_u5).
body(r_fr3_0,fr3_v7).
body(r_fr3_0,fr3_w5).
head(r_fr3_1,fr3_w4).
body(r_fr3_1,fr3_t3).
head(r_fr3_2,fr3_v6).
body(r_fr3_2,fr1_p2).
body(r_fr3_2,fr3_c1).
body(r_fr3_2,fr3_v5).
body(r_fr3_2,fr3_y4).
head(r_fr3_3,fr3_v6).
body(r_fr3_3,fr10_c1).
body(r_fr3_3,fr3_q2).
body(r_fr3_3,fr3_q3).
body(r_fr3_3,fr3_q5).
body(r_fr3_3,fr1_p2).
body(r_fr3_3,fr3_s5).
head(r_fr3_4,fr3_v6).
body(r_fr3_4,fr3_p4).
body(r_fr3_4,fr3_q3).
body(r_fr3_4,fr3_t7).
body(r_fr3_4,fr3_v4).
body(r_fr3_4,fr6_t2).
head(r_fr3_5,fr4_f1).
body(r_fr3_5,fr3_a2).
body(r_fr3_5,fr3_f2).
body(r_fr3_5,fr3_e1).
body(r_fr3_5,fr3_v4).
body(r_fr3_5,fr3_v5).
body(r_fr3_5,fr3_y1).
head(r_fr3_6,fr4_f1).
body(r_fr3_6,fr10_c1).
body(r_fr3_6,fr3_y3).
head(r_fr3_7,fr4_f1).
head(r_fr3_8,fr4_f1).
body(r_fr3_8,fr3_y1).
head(r_fr3_9,fr6_a2).
body(r_fr3_9,fr3_f2).
body(r_fr3_9,fr3_c1).
body(r_fr3_9,fr3_c2).
body(r_fr3_9,fr2_v2).
body(r_fr3_9,fr10_c1).
body(r_fr3_9,fr3_e1).
head(r_fr3_10,fr6_a2).
head(r_fr3_11,fr6_a2).
body(r_fr3_11,fr10_c1).
body(r_fr3_11,fr5_s2).
body(r_fr3_11,fr3_w7).
head(r_fr3_12,fr6_a2).
body(r_fr3_12,fr3_a1).
body(r_fr3_12,fr3_b3).
body(r_fr3_12,fr3_c1).
body(r_fr3_12,fr3_c2).
head(r_fr3_13,fr6_a2).
body(r_fr3_13,fr3_y5).
head(r_fr3_14,fr3_s7).
body(r_fr3_14,fr3_f2).
body(r_fr3_14,fr3_e1).
body(r_fr3_14,fr3_v3).
head(r_fr3_15,fr3_s7).
body(r_fr3_15,fr3_f2).
body(r_fr3_15,fr3_s5).
body(r_fr3_15,fr9_y2).
body(r_fr3_15,fr5_s2).
body(r_fr3_15,fr3_s5).
head(r_fr3_16,fr3_s7).
body(r_fr3_16,fr3_q7).
body(r_fr3_16,fr3_r1).
body(r_fr3_16,fr3_w7).
head(r_fr3_17,fr3_s7).
body(r_fr3_17,fr3_a1).
body(r_fr3_17,fr9_y2).
body(r_fr3_17,fr2_v2).
body(r_fr3_17,fr3_s5).
head(r_fr3_18,fr3_r3).
body(r_fr3_18,fr3_s4).
body(r_fr3_18,fr6_y2).
body(r_fr3_18,fr3_x5).
head(r_fr3_19,fr3_r3).
body(r_fr3_19,fr3_q1).
body(r_fr3_19,fr3_q2).
body(r_fr3_19,fr3_q4).
body(r_fr3_19,fr3_u4).
body(r_fr3_19,fr3_x4).
body(r_fr3_19,fr3_z1).
head(r_fr3_20,fr3_r3).
body(r_fr3_20,fr1_p2).
body(r_fr3_20,fr3_p2).
body(r_fr3_20,fr3_q1).
body(r_fr3_20,fr3_u2).
body(r_fr3_20,fr6_t2).
body(r_fr3_20,fr3_w5).
head(r_fr3_21,fr3_r3).
body(r_fr3_21,fr3_a1).
body(r_fr3_21,fr1_p2).
body(r_fr3_21,fr3_c2).
body(r_fr3_21,fr2_v2).
body(r_fr3_21,fr3_y5).
head(r_fr3_22,fr3_w7).
body(r_fr3_22,fr3_a2).
body(r_fr3_22,fr1_p2).
body(r_fr3_22,fr3_c2).
body(r_fr3_22,fr2_v2).
body(r_fr3_22,fr3_e1).
body(r_fr3_22,fr3_f1).
head(r_fr3_23,fr3_w7).
body(r_fr3_23,fr1_p2).
body(r_fr3_23,fr9_y2).
body(r_fr3_23,fr2_v2).
head(r_fr3_24,fr3_w7).
body(r_fr3_24,fr3_b3).
body(r_fr3_24,fr3_f2).
head(r_fr3_25,fr3_w7).
body(r_fr3_25,fr3_a1).
body(r_fr3_25,fr10_c1).
body(r_fr3_25,fr10_c1).
body(r_fr3_25,fr3_e1).
body(r_fr3_25,fr3_f1).
body(r_fr3_25,fr1_p2).
head(r_fr3_26,fr3_w7).
body(r_fr3_26,fr3_w4).
head(r_fr3_27,fr3_x4).
body(r_fr3_27,fr3_q1).
body(r_fr3_27,fr3_s4).
body(r_fr3_27,fr3_s5).
body(r_fr3_27,fr3_y2).
body(r_fr3_27,fr9_y2).
head(r_fr3_28,fr3_x4).
body(r_fr3_28,fr3_a1).
head(r_fr3_29,fr3_x4).
body(r_fr3_29,fr3_a1).
body(r_fr3_29,fr3_c2).
body(r_fr3_29,fr2_v2).
head(r_fr3_30,fr3_w1).
body(r_fr3_30,fr3_c2).
body(r_fr3_30,fr3_e2).
body(r_fr3_30,fr3_u5).
body(r_fr3_30,fr3_v6).
body(r_fr3_30,fr3_x5).
body(r_fr3_30,fr3_z5).
head(r_fr3_31,fr3_w1).
head(r_fr3_32,fr3_y1).
body(r_fr3_32,fr3_p3).
head(r_fr3_33,fr3_y1).
body(r_fr3_33,fr1_p2).
body(r_fr3_33,fr6_d2).
body(r_fr3_33,fr3_u5).
head(r_fr3_34,fr3_y1).
body(r_fr3_34,fr3_a2).
body(r_fr3_34,fr1_p2).
body(r_fr3_34,fr3_b3).
body(r_fr3_34,fr2_v2).
body(r_fr3_34,fr10_c1).
body(r_fr3_34,fr3_f2).
head(r_fr3_35,fr3_y1).
body(r_fr3_35,fr9_y2).
body(r_fr3_35,fr2_v2).
body(r_fr3_35,fr3_e1).
body(r_fr3_35,fr3_f1).
body(r_fr3_35,fr3_s5).
head(r_fr3_36,fr3_v2).
head(r_fr3_37,fr3_v2).
body(r_fr3_37,fr9_y2).
body(r_fr3_37,fr2_v2).
head(r_fr3_38,fr6_t2).
body(r_fr3_38,fr3_c1).
body(r_fr3_38,fr2_v2).
body(r_fr3_38,fr3_e2).
body(r_fr3_38,fr3_t3).
body(r_fr3_38,fr3_x4).
head(r_fr3_39,fr6_t2).
body(r_fr3_39,fr3_e1).
body(r_fr3_39,fr3_f1).
body(r_fr3_39,fr3_p7).
body(r_fr3_39,fr3_x3).
body(r_fr3_39,fr3_x4).
head(r_fr3_40,fr6_t2).
body(r_fr3_40,fr9_a1).
body(r_fr3_40,fr4_f1).
head(r_fr3_41,fr6_t2).
body(r_fr3_41,fr9_y2).
body(r_fr3_41,fr3_b3).
body(r_fr3_41,fr3_c2).
body(r_fr3_41,fr10_c1).
body(r_fr3_41,fr3_f1).
body(r_fr3_41,fr3_t5).
head(r_fr3_42,fr6_t2).
body(r_fr3_42,fr3_c2).
body(r_fr3_42,fr3_q7).
body(r_fr3_42,fr3_r3).
body(r_fr3_42,fr3_s7).
body(r_fr3_42,fr3_s5).
head(r_fr3_43,fr3_p1).
body(r_fr3_43,fr2_v2).
head(r_fr3_44,fr3_p1).
body(r_fr3_44,fr3_t7).
head(r_fr3_45,fr3_p1).
body(r_fr3_45,fr9_y2).
body(r_fr3_45,fr5_s2).
body(r_fr3_45,fr3_w6).
head(r_fr3_46,fr3_p1).
head(r_fr3_47,fr3_p1).
body(r_fr3_47,fr3_q2).
body(r_fr3_47,fr6_t2).
body(r_fr3_47,fr3_v4).
body(r_fr3_47,fr5_s2).
head(r_fr3_48,fr3_p3).
body(r_fr3_48,fr3_b3).
head(r_fr3_49,fr3_p3).
body(r_fr3_49,fr3_b3).
body(r_fr3_49,fr3_p2).
body(r_fr3_49,fr3_p7).
body(r_fr3_49,fr3_y3).
body(r_fr3_49,fr3_y4).
head(r_fr3_50,fr3_p3).
body(r_fr3_50,fr3_e2).
body(r_fr3_50,fr4_f1).
head(r_fr3_51,fr3_p3).
body(r_fr3_51,fr3_v2).
body(r_fr3_51,fr9_y2).
head(r_fr3_52,fr3_q3).
body(r_fr3_52,fr3_v6).
head(r_fr3_53,fr3_q3).
body(r_fr3_53,fr3_q2).
body(r_fr3_53,fr3_t5).
body(r_fr3_53,fr9_a1).
body(r_fr3_53,fr3_s5).
body(r_fr3_53,fr3_x4).
head(r_fr3_54,fr3_s2).
body(r_fr3_54,fr9_y2).
body(r_fr3_54,fr3_e2).
body(r_fr3_54,fr3_f2).
head(r_fr3_55,fr3_s2).
head(r_fr3_56,fr3_s2).
body(r_fr3_56,fr9_y2).
body(r_fr3_56,fr3_c2).
body(r_fr3_56,fr3_w6).
head(r_fr3_57,fr3_u2).
head(r_fr3_58,fr3_u2).
body(r_fr3_58,fr3_q6).
body(r_fr3_58,fr3_v5).
body(r_fr3_58,fr3_x4).
head(r_fr3_59,fr3_u2).
body(r_fr3_59,fr3_f1).
body(r_fr3_59,fr3_s4).
body(r_fr3_59,fr3_t3).
body(r_fr3_59,fr3_y4).
body(r_fr3_59,fr3_z2).
head(r_fr3_60,fr3_u2).
body(r_fr3_60,fr9_y2).
body(r_fr3_60,fr2_v2).
body(r_fr3_60,fr3_e1).
body(r_fr3_60,fr3_e2).
body(r_fr3_60,fr3_y1).
body(r_fr3_60,fr3_y4).
head(r_fr3_61,fr3_y3).
body(r_fr3_61,fr9_y2).
body(r_fr3_61,fr3_b3).
body(r_fr3_61,fr2_v2).
body(r_fr3_61,fr3_e2).
body(r_fr3_61,fr3_f1).
head(r_fr3_62,fr3_y3).
head(r_fr3_63,fr3_y3).
body(r_fr3_63,fr3_p5).
body(r_fr3_63,fr3_v2).
body(r_fr3_63,fr3_v7).
body(r_fr3_63,fr3_w4).
body(r_fr3_63,fr3_x5).
body(r_fr3_63,fr3_r3).
head(r_fr3_64,fr3_y3).
body(r_fr3_64,fr3_p2).
body(r_fr3_64,fr6_y2).
body(r_fr3_64,fr3_v3).
body(r_fr3_64,fr3_w6).
body(r_fr3_64,fr3_y4).
body(r_fr3_64,fr3_y6).
head(r_fr3_65,fr3_q6).
head(r_fr3_66,fr3_q6).
body(r_fr3_66,fr3_s5).
body(r_fr3_66,fr3_y1).
body(r_fr3_66,fr3_z2).
head(r_fr3_67,fr4_f1).
body(r_fr3_67,fr10_c1).
body(r_fr3_67,fr3_v3).
head(r_fr3_68,fr4_f1).
head(r_fr3_69,fr4_f1).
body(r_fr3_69,fr3_t3).
head(r_fr3_70,fr4_f1).
body(r_fr3_70,fr3_s7).
body(r_fr3_70,fr3_v3).
body(r_fr3_70,fr3_x4).
body(r_fr3_70,fr3_y5).
body(r_fr3_70,fr3_y6).
body(r_fr3_70,fr3_z5).
head(r_fr3_71,fr4_f1).
body(r_fr3_71,fr3_c2).
body(r_fr3_71,fr3_e1).
body(r_fr3_71,fr3_f2).
body(r_fr3_71,fr3_q2).

assumption(fr2_b1).
assumption(fr9_a1).
assumption(fr10_c1).
assumption(fr2_b1).
assumption(fr2_b1).
assumption(fr4_f1).
assumption(fr5_z2).
assumption(fr2_b1).
assumption(fr10_c1).
assumption(fr1_s3).
assumption(fr4_e2).
assumption(fr3_e2).
assumption(fr5_c1).
assumption(fr2_b1).
assumption(fr2_a3).
contrary(fr2_b1,fr4_r3).
contrary(fr5_z2,fr4_v2).
contrary(fr5_c1,fr2_b1).
contrary(fr9_a1,fr3_e2).
contrary(fr2_b1,fr2_b1).
contrary(fr2_b1,fr1_y2).
contrary(fr10_c1,fr1_s3).
contrary(fr10_c1,fr3_r1).
contrary(fr2_a3,fr4_f1).
contrary(fr2_b1,fr3_r1).
contrary(fr1_s3,fr5_c1).
contrary(fr2_b1,fr4_x1).
contrary(fr4_e2,fr4_p3).
contrary(fr4_f1,fr4_z2).
contrary(fr3_e2,fr4_p3).
head(r_fr4_0,fr1_t3).
body(r_fr4_0,fr5_c1).
body(r_fr4_0,fr2_b1).
body(r_fr4_0,fr10_c1).
body(r_fr4_0,fr2_b1).
body(r_fr4_0,fr4_e2).
body(r_fr4_0,fr3_e2).
body(r_fr4_0,fr2_v2).
body(r_fr4_0,fr4_q4).
body(r_fr4_0,fr3_y6).
body(r_fr4_0,fr1_s3).
body(r_fr4_0,fr3_p5).
body(r_fr4_0,fr4_z1).
head(r_fr4_1,fr1_t3).
body(r_fr4_1,fr5_c1).
body(r_fr4_1,fr9_a1).
body(r_fr4_1,fr2_b1).
body(r_fr4_1,fr10_c1).
body(r_fr4_1,fr2_b1).
body(r_fr4_1,fr1_s3).
body(r_fr4_1,fr4_q2).
body(r_fr4_1,fr1_s3).
body(r_fr4_1,fr4_r3).
body(r_fr4_1,fr4_s3).
body(r_fr4_1,fr5_x1).
body(r_fr4_1,fr8_d1).
head(r_fr4_2,fr1_t3).
body(r_fr4_2,fr2_b1).
body(r_fr4_2,fr2_b1).
body(r_fr4_2,fr2_b1).
body(r_fr4_2,fr4_p1).
body(r_fr4_2,fr1_s3).
body(r_fr4_2,fr3_y6).
body(r_fr4_2,fr4_s3).
body(r_fr4_2,fr1_x3).
body(r_fr4_2,fr4_v3).
body(r_fr4_2,fr1_r2).
body(r_fr4_2,fr1_y2).
body(r_fr4_2,fr1_s3).
body(r_fr4_2,fr4_z2).
head(r_fr4_3,fr1_t3).
body(r_fr4_3,fr5_z2).
body(r_fr4_3,fr5_c1).
body(r_fr4_3,fr4_f1).
body(r_fr4_3,fr4_p1).
body(r_fr4_3,fr3_q7).
body(r_fr4_3,fr2_v2).
body(r_fr4_3,fr4_q2).
body(r_fr4_3,fr4_r3).
body(r_fr4_3,fr3_y6).
body(r_fr4_3,fr4_s3).
body(r_fr4_3,fr1_s3).
body(r_fr4_3,fr1_q3).
body(r_fr4_3,fr4_z2).
head(r_fr4_4,fr1_t3).
body(r_fr4_4,fr2_b1).
body(r_fr4_4,fr2_b1).
body(r_fr4_4,fr2_a3).
body(r_fr4_4,fr2_b1).
body(r_fr4_4,fr3_e2).
body(r_fr4_4,fr2_v2).
body(r_fr4_4,fr4_q2).
body(r_fr4_4,fr4_f1).
body(r_fr4_4,fr1_p2).
body(r_fr4_4,fr4_v3).
body(r_fr4_4,fr1_s3).
body(r_fr4_4,fr4_y2).
head(r_fr4_5,fr4_r3).
body(r_fr4_5,fr4_p3).
body(r_fr4_5,fr2_v2).
body(r_fr4_5,fr4_q2).
body(r_fr4_5,fr1_s3).
body(r_fr4_5,fr4_q4).
body(r_fr4_5,fr4_r1).
body(r_fr4_5,fr3_y6).
body(r_fr4_5,fr1_x3).
body(r_fr4_5,fr4_v2).
body(r_fr4_5,fr1_r2).
body(r_fr4_5,fr1_y2).
body(r_fr4_5,fr3_p5).
body(r_fr4_5,fr4_y2).
body(r_fr4_5,fr3_r3).
body(r_fr4_5,fr8_d1).
head(r_fr4_6,fr4_r3).
body(r_fr4_6,fr2_v2).
body(r_fr4_6,fr1_s3).
body(r_fr4_6,fr4_q4).
body(r_fr4_6,fr4_f1).
body(r_fr4_6,fr1_q3).
body(r_fr4_6,fr4_v2).
body(r_fr4_6,fr4_v3).
body(r_fr4_6,fr1_r2).
body(r_fr4_6,fr1_s3).
body(r_fr4_6,fr3_p5).
body(r_fr4_6,fr4_y2).
body(r_fr4_6,fr4_z2).
body(r_fr4_6,fr8_d1).
head(r_fr4_7,fr4_r3).
body(r_fr4_7,fr2_b1).
body(r_fr4_7,fr2_b1).
body(r_fr4_7,fr4_e2).
body(r_fr4_7,fr4_f1).
body(r_fr4_7,fr4_p3).
body(r_fr4_7,fr1_s3).
body(r_fr4_7,fr3_q7).
body(r_fr4_7,fr4_f1).
body(r_fr4_7,fr1_x3).
body(r_fr4_7,fr1_r2).
body(r_fr4_7,fr3_p5).
body(r_fr4_7,fr4_y2).
body(r_fr4_7,fr4_z1).
head(r_fr4_8,fr4_r3).
body(r_fr4_8,fr2_b1).
body(r_fr4_8,fr10_c1).
body(r_fr4_8,fr2_a3).
body(r_fr4_8,fr2_b1).
body(r_fr4_8,fr3_e2).
body(r_fr4_8,fr4_p3).
body(r_fr4_8,fr2_v2).
body(r_fr4_8,fr4_r1).
body(r_fr4_8,fr1_s3).
body(r_fr4_8,fr3_r1).
body(r_fr4_8,fr1_p2).
body(r_fr4_8,fr1_s3).
body(r_fr4_8,fr3_p5).
body(r_fr4_8,fr4_z1).
body(r_fr4_8,fr8_d1).
head(r_fr4_9,fr4_r3).
body(r_fr4_9,fr5_c1).
body(r_fr4_9,fr2_b1).
body(r_fr4_9,fr2_b1).
body(r_fr4_9,fr3_e2).
body(r_fr4_9,fr4_p1).
body(r_fr4_9,fr4_q2).
body(r_fr4_9,fr4_f1).
body(r_fr4_9,fr4_u1).
body(r_fr4_9,fr4_v2).
body(r_fr4_9,fr1_r2).
body(r_fr4_9,fr1_t3).
body(r_fr4_9,fr4_y2).
head(r_fr4_10,fr1_s3).
body(r_fr4_10,fr5_z2).
body(r_fr4_10,fr2_b1).
body(r_fr4_10,fr10_c1).
body(r_fr4_10,fr2_b1).
body(r_fr4_10,fr4_p1).
body(r_fr4_10,fr4_p3).
body(r_fr4_10,fr2_v2).
body(r_fr4_10,fr4_q4).
body(r_fr4_10,fr4_v2).
body(r_fr4_10,fr1_r2).
body(r_fr4_10,fr1_t3).
body(r_fr4_10,fr1_y2).
body(r_fr4_10,fr4_x1).
body(r_fr4_10,fr3_p5).
body(r_fr4_10,fr4_z2).
head(r_fr4_11,fr1_s3).
body(r_fr4_11,fr2_b1).
body(r_fr4_11,fr10_c1).
body(r_fr4_11,fr2_a3).
body(r_fr4_11,fr2_b1).
body(r_fr4_11,fr3_e2).
body(r_fr4_11,fr3_q7).
body(r_fr4_11,fr2_v2).
body(r_fr4_11,fr4_q4).
body(r_fr4_11,fr4_f1).
body(r_fr4_11,fr3_r1).
body(r_fr4_11,fr4_u1).
body(r_fr4_11,fr3_p5).
body(r_fr4_11,fr3_r3).
body(r_fr4_11,fr4_z1).
head(r_fr4_12,fr1_s3).
body(r_fr4_12,fr2_b1).
body(r_fr4_12,fr9_a1).
body(r_fr4_12,fr2_b1).
body(r_fr4_12,fr2_b1).
body(r_fr4_12,fr4_f1).
body(r_fr4_12,fr3_e2).
body(r_fr4_12,fr4_p3).
body(r_fr4_12,fr1_s3).
body(r_fr4_12,fr4_u1).
body(r_fr4_12,fr1_p2).
body(r_fr4_12,fr1_x3).
body(r_fr4_12,fr1_t3).
body(r_fr4_12,fr4_y2).
body(r_fr4_12,fr3_r3).
head(r_fr4_13,fr1_s3).
body(r_fr4_13,fr10_c1).
body(r_fr4_13,fr10_c1).
body(r_fr4_13,fr4_p3).
body(r_fr4_13,fr2_v2).
body(r_fr4_13,fr4_r3).
body(r_fr4_13,fr3_y6).
body(r_fr4_13,fr1_p2).
body(r_fr4_13,fr5_x1).
body(r_fr4_13,fr1_x3).
body(r_fr4_13,fr1_t3).
body(r_fr4_13,fr1_s3).
body(r_fr4_13,fr4_z2).
head(r_fr4_14,fr1_s3).
body(r_fr4_14,fr4_p1).
body(r_fr4_14,fr2_v2).
body(r_fr4_14,fr1_s3).
body(r_fr4_14,fr3_q7).
body(r_fr4_14,fr3_y6).
body(r_fr4_14,fr1_q3).
body(r_fr4_14,fr4_u1).
body(r_fr4_14,fr5_x1).
body(r_fr4_14,fr1_x3).
body(r_fr4_14,fr4_v2).
body(r_fr4_14,fr1_y2).
body(r_fr4_14,fr4_x1).
body(r_fr4_14,fr4_z1).
head(r_fr4_15,fr4_s3).
body(r_fr4_15,fr4_p1).
body(r_fr4_15,fr2_v2).
body(r_fr4_15,fr1_s3).
body(r_fr4_15,fr4_r1).
body(r_fr4_15,fr3_q7).
body(r_fr4_15,fr3_y6).
body(r_fr4_15,fr4_u1).
body(r_fr4_15,fr1_x3).
body(r_fr4_15,fr4_v2).
body(r_fr4_15,fr1_r2).
body(r_fr4_15,fr1_t3).
body(r_fr4_15,fr1_s3).
body(r_fr4_15,fr1_s3).
body(r_fr4_15,fr4_z1).
body(r_fr4_15,fr8_d1).
head(r_fr4_16,fr4_s3).
body(r_fr4_16,fr5_c1).
body(r_fr4_16,fr1_s3).
body(r_fr4_16,fr3_q7).
body(r_fr4_16,fr4_p3).
body(r_fr4_16,fr2_v2).
body(r_fr4_16,fr4_r1).
body(r_fr4_16,fr4_r3).
body(r_fr4_16,fr4_f1).
body(r_fr4_16,fr1_s3).
body(r_fr4_16,fr4_u1).
body(r_fr4_16,fr5_x1).
body(r_fr4_16,fr4_z1).
head(r_fr4_17,fr4_s3).
body(r_fr4_17,fr3_q7).
body(r_fr4_17,fr2_v2).
body(r_fr4_17,fr4_q2).
body(r_fr4_17,fr4_q4).
body(r_fr4_17,fr4_f1).
body(r_fr4_17,fr1_p2).
body(r_fr4_17,fr1_x3).
body(r_fr4_17,fr4_v2).
body(r_fr4_17,fr4_v3).
body(r_fr4_17,fr1_t3).
body(r_fr4_17,fr1_s3).
body(r_fr4_17,fr3_r3).
body(r_fr4_17,fr4_z1).
body(r_fr4_17,fr4_z2).
head(r_fr4_18,fr4_s3).
body(r_fr4_18,fr2_b1).
body(r_fr4_18,fr5_z2).
body(r_fr4_18,fr5_c1).
body(r_fr4_18,fr9_a1).
body(r_fr4_18,fr2_b1).
body(r_fr4_18,fr2_b1).
body(r_fr4_18,fr4_p1).
body(r_fr4_18,fr2_v2).
body(r_fr4_18,fr2_v2).
body(r_fr4_18,fr3_y6).
body(r_fr4_18,fr4_v2).
body(r_fr4_18,fr4_x1).
body(r_fr4_18,fr1_s3).
body(r_fr4_18,fr3_r3).
body(r_fr4_18,fr8_d1).
head(r_fr4_19,fr4_s3).
body(r_fr4_19,fr2_b1).
body(r_fr4_19,fr9_a1).
body(r_fr4_19,fr2_b1).
body(r_fr4_19,fr2_b1).
body(r_fr4_19,fr4_e2).
body(r_fr4_19,fr3_e2).
body(r_fr4_19,fr4_p1).
body(r_fr4_19,fr4_r1).
body(r_fr4_19,fr3_q7).
body(r_fr4_19,fr4_r3).
body(r_fr4_19,fr3_y6).
body(r_fr4_19,fr4_u1).
body(r_fr4_19,fr1_s3).
body(r_fr4_19,fr3_p5).
head(r_fr4_20,fr4_v3).
body(r_fr4_20,fr5_z2).
body(r_fr4_20,fr9_a1).
body(r_fr4_20,fr3_q7).
body(r_fr4_20,fr4_r1).
body(r_fr4_20,fr3_r1).
body(r_fr4_20,fr4_v2).
body(r_fr4_20,fr1_r2).
body(r_fr4_20,fr1_y2).
body(r_fr4_20,fr4_x1).
body(r_fr4_20,fr1_s3).
body(r_fr4_20,fr1_s3).
body(r_fr4_20,fr4_y2).
body(r_fr4_20,fr3_r3).
body(r_fr4_20,fr4_z2).
body(r_fr4_20,fr8_d1).
head(r_fr4_21,fr4_v3).
body(r_fr4_21,fr5_c1).
body(r_fr4_21,fr2_b1).
body(r_fr4_21,fr3_e2).
body(r_fr4_21,fr4_p1).
body(r_fr4_21,fr3_q7).
body(r_fr4_21,fr4_q2).
body(r_fr4_21,fr1_s3).
body(r_fr4_21,fr3_q7).
body(r_fr4_21,fr3_r1).
body(r_fr4_21,fr1_y2).
body(r_fr4_21,fr1_s3).
body(r_fr4_21,fr3_p5).
body(r_fr4_21,fr4_z2).
head(r_fr4_22,fr4_v3).
body(r_fr4_22,fr10_c1).
body(r_fr4_22,fr4_p1).
body(r_fr4_22,fr3_q7).
body(r_fr4_22,fr4_p3).
body(r_fr4_22,fr2_v2).
body(r_fr4_22,fr3_q7).
body(r_fr4_22,fr1_s3).
body(r_fr4_22,fr1_x3).
body(r_fr4_22,fr1_t3).
body(r_fr4_22,fr1_s3).
body(r_fr4_22,fr4_y2).
body(r_fr4_22,fr4_z1).
body(r_fr4_22,fr4_z2).
body(r_fr4_22,fr8_d1).
head(r_fr4_23,fr4_v3).
body(r_fr4_23,fr2_b1).
body(r_fr4_23,fr9_a1).
body(r_fr4_23,fr4_q4).
body(r_fr4_23,fr4_r1).
body(r_fr4_23,fr3_q7).
body(r_fr4_23,fr4_r3).
body(r_fr4_23,fr4_s3).
body(r_fr4_23,fr1_s3).
body(r_fr4_23,fr4_u1).
body(r_fr4_23,fr1_y2).
body(r_fr4_23,fr1_s3).
body(r_fr4_23,fr4_y2).
body(r_fr4_23,fr4_z1).
body(r_fr4_23,fr8_d1).
head(r_fr4_24,fr4_v3).
body(r_fr4_24,fr5_c1).
body(r_fr4_24,fr10_c1).
body(r_fr4_24,fr2_b1).
body(r_fr4_24,fr4_f1).
body(r_fr4_24,fr2_v2).
body(r_fr4_24,fr4_q2).
body(r_fr4_24,fr1_s3).
body(r_fr4_24,fr4_q4).
body(r_fr4_24,fr3_q7).
body(r_fr4_24,fr4_r3).
body(r_fr4_24,fr3_y6).
body(r_fr4_24,fr4_f1).
body(r_fr4_24,fr1_q3).
body(r_fr4_24,fr1_t3).
body(r_fr4_24,fr4_y2).
head(r_fr4_25,fr2_v2).
body(r_fr4_25,fr2_b1).
body(r_fr4_25,fr4_p1).
body(r_fr4_25,fr4_q4).
body(r_fr4_25,fr4_r1).
body(r_fr4_25,fr3_y6).
body(r_fr4_25,fr4_u1).
body(r_fr4_25,fr1_p2).
body(r_fr4_25,fr1_x3).
body(r_fr4_25,fr4_v2).
body(r_fr4_25,fr4_v3).
body(r_fr4_25,fr3_p5).
body(r_fr4_25,fr3_r3).
body(r_fr4_25,fr4_z1).
head(r_fr4_26,fr2_v2).
body(r_fr4_26,fr2_b1).
body(r_fr4_26,fr2_b1).
body(r_fr4_26,fr10_c1).
body(r_fr4_26,fr2_b1).
body(r_fr4_26,fr4_e2).
body(r_fr4_26,fr4_f1).
body(r_fr4_26,fr4_p1).
body(r_fr4_26,fr3_y6).
body(r_fr4_26,fr3_r1).
body(r_fr4_26,fr1_p2).
body(r_fr4_26,fr4_x1).
body(r_fr4_26,fr1_s3).
body(r_fr4_26,fr1_s3).
body(r_fr4_26,fr4_z1).
head(r_fr4_27,fr4_f1).
body(r_fr4_27,fr2_b1).
body(r_fr4_27,fr3_q7).
body(r_fr4_27,fr4_p3).
body(r_fr4_27,fr2_v2).
body(r_fr4_27,fr4_q2).
body(r_fr4_27,fr4_q4).
body(r_fr4_27,fr3_q7).
body(r_fr4_27,fr3_y6).
body(r_fr4_27,fr1_s3).
body(r_fr4_27,fr4_u1).
body(r_fr4_27,fr4_v3).
body(r_fr4_27,fr1_s3).
body(r_fr4_27,fr3_r3).
body(r_fr4_27,fr4_z1).
body(r_fr4_27,fr4_z2).
head(r_fr4_28,fr4_f1).
body(r_fr4_28,fr9_a1).
body(r_fr4_28,fr2_b1).
body(r_fr4_28,fr2_a3).
body(r_fr4_28,fr2_b1).
body(r_fr4_28,fr4_f1).
body(r_fr4_28,fr3_e2).
body(r_fr4_28,fr3_q7).
body(r_fr4_28,fr1_s3).
body(r_fr4_28,fr1_p2).
body(r_fr4_28,fr5_x1).
body(r_fr4_28,fr4_v2).
body(r_fr4_28,fr1_s3).
body(r_fr4_28,fr1_s3).
body(r_fr4_28,fr3_p5).
body(r_fr4_28,fr4_z2).
head(r_fr4_29,fr4_f1).
body(r_fr4_29,fr4_q2).
body(r_fr4_29,fr4_r1).
body(r_fr4_29,fr1_s3).
body(r_fr4_29,fr4_u1).
body(r_fr4_29,fr1_p2).
body(r_fr4_29,fr5_x1).
body(r_fr4_29,fr1_x3).
body(r_fr4_29,fr4_v2).
body(r_fr4_29,fr1_r2).
body(r_fr4_29,fr1_t3).
body(r_fr4_29,fr3_r3).
body(r_fr4_29,fr4_z1).
head(r_fr4_30,fr4_x1).
body(r_fr4_30,fr2_b1).
body(r_fr4_30,fr10_c1).
body(r_fr4_30,fr2_b1).
body(r_fr4_30,fr4_f1).
body(r_fr4_30,fr3_e2).
body(r_fr4_30,fr3_q7).
body(r_fr4_30,fr4_p3).
body(r_fr4_30,fr4_q4).
body(r_fr4_30,fr3_r1).
body(r_fr4_30,fr4_v2).
body(r_fr4_30,fr1_s3).
body(r_fr4_30,fr4_y2).
head(r_fr4_31,fr4_x1).
body(r_fr4_31,fr2_b1).
body(r_fr4_31,fr2_v2).
body(r_fr4_31,fr1_s3).
body(r_fr4_31,fr4_r1).
body(r_fr4_31,fr3_q7).
body(r_fr4_31,fr4_r3).
body(r_fr4_31,fr3_y6).
body(r_fr4_31,fr4_f1).
body(r_fr4_31,fr4_s3).
body(r_fr4_31,fr3_r1).
body(r_fr4_31,fr1_p2).
body(r_fr4_31,fr1_s3).
body(r_fr4_31,fr3_p5).
body(r_fr4_31,fr4_z1).
head(r_fr4_32,fr4_x1).
body(r_fr4_32,fr9_a1).
body(r_fr4_32,fr10_c1).
body(r_fr4_32,fr1_s3).
body(r_fr4_32,fr4_p1).
body(r_fr4_32,fr3_q7).
body(r_fr4_32,fr2_v2).
body(r_fr4_32,fr1_s3).
body(r_fr4_32,fr4_q4).
body(r_fr4_32,fr4_r3).
body(r_fr4_32,fr1_s3).
body(r_fr4_32,fr4_u1).
body(r_fr4_32,fr1_p2).
body(r_fr4_32,fr1_s3).
head(r_fr4_33,fr4_x1).
body(r_fr4_33,fr1_s3).
body(r_fr4_33,fr4_e2).
body(r_fr4_33,fr3_e2).
body(r_fr4_33,fr4_p3).
body(r_fr4_33,fr2_v2).
body(r_fr4_33,fr2_v2).
body(r_fr4_33,fr4_q4).
body(r_fr4_33,fr3_y6).
body(r_fr4_33,fr4_s3).
body(r_fr4_33,fr1_q3).
body(r_fr4_33,fr4_v2).
body(r_fr4_33,fr3_p5).
body(r_fr4_33,fr4_z1).
head(r_fr4_34,fr4_p1).
body(r_fr4_34,fr5_c1).
body(r_fr4_34,fr2_b1).
body(r_fr4_34,fr2_b1).
body(r_fr4_34,fr2_b1).
body(r_fr4_34,fr1_s3).
body(r_fr4_34,fr2_b1).
body(r_fr4_34,fr4_p3).
body(r_fr4_34,fr3_q7).
body(r_fr4_34,fr4_r3).
body(r_fr4_34,fr4_s3).
body(r_fr4_34,fr4_v3).
body(r_fr4_34,fr4_x1).
body(r_fr4_34,fr4_y2).
head(r_fr4_35,fr4_p1).
body(r_fr4_35,fr2_b1).
body(r_fr4_35,fr5_z2).
body(r_fr4_35,fr2_b1).
body(r_fr4_35,fr2_b1).
body(r_fr4_35,fr2_b1).
body(r_fr4_35,fr1_s3).
body(r_fr4_35,fr3_q7).
body(r_fr4_35,fr2_v2).
body(r_fr4_35,fr1_s3).
body(r_fr4_35,fr4_s3).
body(r_fr4_35,fr5_x1).
body(r_fr4_35,fr4_x1).
body(r_fr4_35,fr3_r3).
head(r_fr4_36,fr4_z2).
body(r_fr4_36,fr2_b1).
body(r_fr4_36,fr10_c1).
body(r_fr4_36,fr10_c1).
body(r_fr4_36,fr2_b1).
body(r_fr4_36,fr4_f1).
body(r_fr4_36,fr3_q7).
body(r_fr4_36,fr2_v2).
body(r_fr4_36,fr1_s3).
body(r_fr4_36,fr3_q7).
body(r_fr4_36,fr4_f1).
body(r_fr4_36,fr4_v2).
body(r_fr4_36,fr4_v3).
body(r_fr4_36,fr4_x1).
body(r_fr4_36,fr1_s3).
head(r_fr4_37,fr4_z2).
body(r_fr4_37,fr9_a1).
body(r_fr4_37,fr2_v2).
body(r_fr4_37,fr4_r1).
body(r_fr4_37,fr3_y6).
body(r_fr4_37,fr4_f1).
body(r_fr4_37,fr1_q3).
body(r_fr4_37,fr1_p2).
body(r_fr4_37,fr5_x1).
body(r_fr4_37,fr1_x3).
body(r_fr4_37,fr4_v3).
body(r_fr4_37,fr1_r2).
body(r_fr4_37,fr4_x1).
body(r_fr4_37,fr1_s3).
body(r_fr4_37,fr3_r3).
head(r_fr4_38,fr4_z2).
body(r_fr4_38,fr1_s3).
body(r_fr4_38,fr4_f1).
body(r_fr4_38,fr4_p1).
body(r_fr4_38,fr3_q7).
body(r_fr4_38,fr4_r3).
body(r_fr4_38,fr3_y6).
body(r_fr4_38,fr3_r1).
body(r_fr4_38,fr4_v2).
body(r_fr4_38,fr4_x1).
body(r_fr4_38,fr1_s3).
body(r_fr4_38,fr3_p5).
body(r_fr4_38,fr4_y2).
body(r_fr4_38,fr8_d1).
head(r_fr4_39,fr4_z2).
body(r_fr4_39,fr2_b1).
body(r_fr4_39,fr9_a1).
body(r_fr4_39,fr2_b1).
body(r_fr4_39,fr1_s3).
body(r_fr4_39,fr3_q7).
body(r_fr4_39,fr3_q7).
body(r_fr4_39,fr1_q3).
body(r_fr4_39,fr1_t3).
body(r_fr4_39,fr4_x1).
body(r_fr4_39,fr1_s3).
body(r_fr4_39,fr3_p5).
body(r_fr4_39,fr4_z1).
head(r_fr4_40,fr1_y2).
body(r_fr4_40,fr2_b1).
body(r_fr4_40,fr4_e2).
body(r_fr4_40,fr3_e2).
body(r_fr4_40,fr4_p1).
body(r_fr4_40,fr3_q7).
body(r_fr4_40,fr1_s3).
body(r_fr4_40,fr4_q4).
body(r_fr4_40,fr3_y6).
body(r_fr4_40,fr1_s3).
body(r_fr4_40,fr3_p5).
body(r_fr4_40,fr4_y2).
body(r_fr4_40,fr4_z2).
head(r_fr4_41,fr1_y2).
body(r_fr4_41,fr5_c1).
body(r_fr4_41,fr2_b1).
body(r_fr4_41,fr2_b1).
body(r_fr4_41,fr4_e2).
body(r_fr4_41,fr3_e2).
body(r_fr4_41,fr3_q7).
body(r_fr4_41,fr4_q4).
body(r_fr4_41,fr4_r3).
body(r_fr4_41,fr4_f1).
body(r_fr4_41,fr4_s3).
body(r_fr4_41,fr1_q3).
body(r_fr4_41,fr1_x3).
body(r_fr4_41,fr4_z1).
head(r_fr4_42,fr1_y2).
body(r_fr4_42,fr4_p1).
body(r_fr4_42,fr3_q7).
body(r_fr4_42,fr4_r1).
body(r_fr4_42,fr1_s3).
body(r_fr4_42,fr4_v2).
body(r_fr4_42,fr4_v3).
body(r_fr4_42,fr1_t3).
body(r_fr4_42,fr4_x1).
body(r_fr4_42,fr1_s3).
body(r_fr4_42,fr1_s3).
body(r_fr4_42,fr3_p5).
body(r_fr4_42,fr3_r3).
body(r_fr4_42,fr4_z1).
head(r_fr4_43,fr1_y2).
body(r_fr4_43,fr2_b1).
body(r_fr4_43,fr2_a3).
body(r_fr4_43,fr1_s3).
body(r_fr4_43,fr4_e2).
body(r_fr4_43,fr3_q7).
body(r_fr4_43,fr4_p3).
body(r_fr4_43,fr1_s3).
body(r_fr4_43,fr4_q4).
body(r_fr4_43,fr4_r1).
body(r_fr4_43,fr1_q3).
body(r_fr4_43,fr5_x1).
body(r_fr4_43,fr1_t3).
body(r_fr4_43,fr3_r3).
body(r_fr4_43,fr4_z1).
head(r_fr4_44,fr1_y2).
body(r_fr4_44,fr5_z2).
body(r_fr4_44,fr9_a1).
body(r_fr4_44,fr2_b1).
body(r_fr4_44,fr10_c1).
body(r_fr4_44,fr10_c1).
body(r_fr4_44,fr2_v2).
body(r_fr4_44,fr4_s3).
body(r_fr4_44,fr1_p2).
body(r_fr4_44,fr5_x1).
body(r_fr4_44,fr1_x3).
body(r_fr4_44,fr4_v3).
body(r_fr4_44,fr1_t3).
head(r_fr4_45,fr1_s3).
body(r_fr4_45,fr2_b1).
body(r_fr4_45,fr5_z2).
body(r_fr4_45,fr5_c1).
body(r_fr4_45,fr10_c1).
body(r_fr4_45,fr2_v2).
body(r_fr4_45,fr4_q2).
body(r_fr4_45,fr3_y6).
body(r_fr4_45,fr4_f1).
body(r_fr4_45,fr4_s3).
body(r_fr4_45,fr3_r1).
body(r_fr4_45,fr1_x3).
body(r_fr4_45,fr1_s3).
body(r_fr4_45,fr3_p5).
body(r_fr4_45,fr3_r3).
head(r_fr4_46,fr1_s3).
body(r_fr4_46,fr9_a1).
body(r_fr4_46,fr2_b1).
body(r_fr4_46,fr4_p1).
body(r_fr4_46,fr4_p3).
body(r_fr4_46,fr2_v2).
body(r_fr4_46,fr2_v2).
body(r_fr4_46,fr3_q7).
body(r_fr4_46,fr1_p2).
body(r_fr4_46,fr4_v3).
body(r_fr4_46,fr1_r2).
body(r_fr4_46,fr1_s3).
body(r_fr4_46,fr4_y2).
body(r_fr4_46,fr3_r3).
head(r_fr4_47,fr4_q2).
body(r_fr4_47,fr4_p1).
body(r_fr4_47,fr4_p3).
body(r_fr4_47,fr4_r1).
body(r_fr4_47,fr3_y6).
body(r_fr4_47,fr1_s3).
body(r_fr4_47,fr5_x1).
body(r_fr4_47,fr4_v3).
body(r_fr4_47,fr1_r2).
body(r_fr4_47,fr4_x1).
body(r_fr4_47,fr1_s3).
body(r_fr4_47,fr3_r3).
body(r_fr4_47,fr4_z1).
body(r_fr4_47,fr8_d1).
head(r_fr4_48,fr4_q2).
body(r_fr4_48,fr1_s3).
body(r_fr4_48,fr4_q4).
body(r_fr4_48,fr4_r1).
body(r_fr4_48,fr3_q7).
body(r_fr4_48,fr3_r1).
body(r_fr4_48,fr4_u1).
body(r_fr4_48,fr5_x1).
body(r_fr4_48,fr1_x3).
body(r_fr4_48,fr1_r2).
body(r_fr4_48,fr1_y2).
body(r_fr4_48,fr1_s3).
body(r_fr4_48,fr4_y2).
body(r_fr4_48,fr4_z2).
body(r_fr4_48,fr8_d1).
head(r_fr4_49,fr4_q2).
body(r_fr4_49,fr2_b1).
body(r_fr4_49,fr5_z2).
body(r_fr4_49,fr5_c1).
body(r_fr4_49,fr2_a3).
body(r_fr4_49,fr2_b1).
body(r_fr4_49,fr4_e2).
body(r_fr4_49,fr4_p1).
body(r_fr4_49,fr4_r3).
body(r_fr4_49,fr1_q3).
body(r_fr4_49,fr1_x3).
body(r_fr4_49,fr1_y2).
body(r_fr4_49,fr8_d1).
head(r_fr4_50,fr4_q2).
body(r_fr4_50,fr5_z2).
body(r_fr4_50,fr2_b1).
body(r_fr4_50,fr10_c1).
body(r_fr4_50,fr2_b1).
body(r_fr4_50,fr4_f1).
body(r_fr4_50,fr3_e2).
body(r_fr4_50,fr1_s3).
body(r_fr4_50,fr4_q4).
body(r_fr4_50,fr4_r1).
body(r_fr4_50,fr4_r3).
body(r_fr4_50,fr1_s3).
body(r_fr4_50,fr4_u1).
body(r_fr4_50,fr4_v2).
body(r_fr4_50,fr4_z2).
head(r_fr4_51,fr4_q2).
body(r_fr4_51,fr2_b1).
body(r_fr4_51,fr10_c1).
body(r_fr4_51,fr1_s3).
body(r_fr4_51,fr2_b1).
body(r_fr4_51,fr4_p1).
body(r_fr4_51,fr2_v2).
body(r_fr4_51,fr4_q4).
body(r_fr4_51,fr4_r3).
body(r_fr4_51,fr4_s3).
body(r_fr4_51,fr1_s3).
body(r_fr4_51,fr1_p2).
body(r_fr4_51,fr4_v3).
body(r_fr4_51,fr3_p5).
head(r_fr4_52,fr3_y6).
body(r_fr4_52,fr5_z2).
body(r_fr4_52,fr5_c1).
body(r_fr4_52,fr9_a1).
body(r_fr4_52,fr2_b1).
body(r_fr4_52,fr1_s3).
body(r_fr4_52,fr2_b1).
body(r_fr4_52,fr3_q7).
body(r_fr4_52,fr4_q2).
body(r_fr4_52,fr3_q7).
body(r_fr4_52,fr4_s3).
body(r_fr4_52,fr3_r1).
body(r_fr4_52,fr4_v3).
body(r_fr4_52,fr1_s3).
body(r_fr4_52,fr1_s3).
body(r_fr4_52,fr4_z1).
head(r_fr4_53,fr3_y6).
body(r_fr4_53,fr5_c1).
body(r_fr4_53,fr10_c1).
body(r_fr4_53,fr10_c1).
body(r_fr4_53,fr1_s3).
body(r_fr4_53,fr2_b1).
body(r_fr4_53,fr4_e2).
body(r_fr4_53,fr4_q4).
body(r_fr4_53,fr4_s3).
body(r_fr4_53,fr1_s3).
body(r_fr4_53,fr4_v2).
body(r_fr4_53,fr1_t3).
body(r_fr4_53,fr4_z1).
head(r_fr4_54,fr3_y6).
body(r_fr4_54,fr2_b1).
body(r_fr4_54,fr3_q7).
body(r_fr4_54,fr2_v2).
body(r_fr4_54,fr4_q2).
body(r_fr4_54,fr4_r1).
body(r_fr4_54,fr4_r3).
body(r_fr4_54,fr4_f1).
body(r_fr4_54,fr4_u1).
body(r_fr4_54,fr4_v2).
body(r_fr4_54,fr1_t3).
body(r_fr4_54,fr1_y2).
body(r_fr4_54,fr4_x1).
body(r_fr4_54,fr1_s3).
body(r_fr4_54,fr3_r3).
body(r_fr4_54,fr4_z2).
head(r_fr4_55,fr3_y6).
body(r_fr4_55,fr2_b1).
body(r_fr4_55,fr4_q2).
body(r_fr4_55,fr1_s3).
body(r_fr4_55,fr4_q4).
body(r_fr4_55,fr4_r1).
body(r_fr4_55,fr4_s3).
body(r_fr4_55,fr1_s3).
body(r_fr4_55,fr3_r1).
body(r_fr4_55,fr4_u1).
body(r_fr4_55,fr5_x1).
body(r_fr4_55,fr4_v2).
body(r_fr4_55,fr1_y2).
body(r_fr4_55,fr3_r3).
body(r_fr4_55,fr8_d1).
head(r_fr4_56,fr3_y6).
body(r_fr4_56,fr3_e2).
body(r_fr4_56,fr3_q7).
body(r_fr4_56,fr2_v2).
body(r_fr4_56,fr1_s3).
body(r_fr4_56,fr4_u1).
body(r_fr4_56,fr1_p2).
body(r_fr4_56,fr5_x1).
body(r_fr4_56,fr1_x3).
body(r_fr4_56,fr1_s3).
body(r_fr4_56,fr3_p5).
body(r_fr4_56,fr3_r3).
body(r_fr4_56,fr4_z2).
body(r_fr4_56,fr8_d1).
head(r_fr4_57,fr4_p3).
body(r_fr4_57,fr5_z2).
body(r_fr4_57,fr5_c1).
body(r_fr4_57,fr10_c1).
body(r_fr4_57,fr2_b1).
body(r_fr4_57,fr4_e2).
body(r_fr4_57,fr4_p1).
body(r_fr4_57,fr3_q7).
body(r_fr4_57,fr2_v2).
body(r_fr4_57,fr3_y6).
body(r_fr4_57,fr4_u1).
body(r_fr4_57,fr5_x1).
body(r_fr4_57,fr1_x3).
body(r_fr4_57,fr4_v2).
body(r_fr4_57,fr4_v3).
body(r_fr4_57,fr4_z1).
head(r_fr4_58,fr4_p3).
body(r_fr4_58,fr10_c1).
body(r_fr4_58,fr3_e2).
body(r_fr4_58,fr4_p1).
body(r_fr4_58,fr3_q7).
body(r_fr4_58,fr1_s3).
body(r_fr4_58,fr4_q4).
body(r_fr4_58,fr3_q7).
body(r_fr4_58,fr4_s3).
body(r_fr4_58,fr3_r1).
body(r_fr4_58,fr4_u1).
body(r_fr4_58,fr1_x3).
body(r_fr4_58,fr4_v3).
body(r_fr4_58,fr1_r2).
body(r_fr4_58,fr4_z1).
body(r_fr4_58,fr8_d1).
head(r_fr4_59,fr4_p3).
body(r_fr4_59,fr2_b1).
body(r_fr4_59,fr5_z2).
body(r_fr4_59,fr5_c1).
body(r_fr4_59,fr9_a1).
body(r_fr4_59,fr2_b1).
body(r_fr4_59,fr2_b1).
body(r_fr4_59,fr4_p1).
body(r_fr4_59,fr2_v2).
body(r_fr4_59,fr1_s3).
body(r_fr4_59,fr3_r1).
body(r_fr4_59,fr1_p2).
body(r_fr4_59,fr1_x3).
body(r_fr4_59,fr1_s3).
body(r_fr4_59,fr4_y2).
head(r_fr4_60,fr4_p3).
body(r_fr4_60,fr9_a1).
body(r_fr4_60,fr2_b1).
body(r_fr4_60,fr4_e2).
body(r_fr4_60,fr3_e2).
body(r_fr4_60,fr4_q2).
body(r_fr4_60,fr4_r3).
body(r_fr4_60,fr1_q3).
body(r_fr4_60,fr1_p2).
body(r_fr4_60,fr5_x1).
body(r_fr4_60,fr1_r2).
body(r_fr4_60,fr1_s3).
body(r_fr4_60,fr4_z1).
body(r_fr4_60,fr4_z2).
head(r_fr4_61,fr4_u1).
body(r_fr4_61,fr3_q7).
body(r_fr4_61,fr4_p3).
body(r_fr4_61,fr2_v2).
body(r_fr4_61,fr2_v2).
body(r_fr4_61,fr4_q4).
body(r_fr4_61,fr1_s3).
body(r_fr4_61,fr5_x1).
body(r_fr4_61,fr4_v2).
body(r_fr4_61,fr1_r2).
body(r_fr4_61,fr1_t3).
body(r_fr4_61,fr3_p5).
body(r_fr4_61,fr4_y2).
body(r_fr4_61,fr8_d1).
head(r_fr4_62,fr4_u1).
body(r_fr4_62,fr5_z2).
body(r_fr4_62,fr2_b1).
body(r_fr4_62,fr10_c1).
body(r_fr4_62,fr2_a3).
body(r_fr4_62,fr4_e2).
body(r_fr4_62,fr3_e2).
body(r_fr4_62,fr4_p1).
body(r_fr4_62,fr4_r1).
body(r_fr4_62,fr4_v3).
body(r_fr4_62,fr1_t3).
body(r_fr4_62,fr1_s3).
body(r_fr4_62,fr3_r3).
head(r_fr4_63,fr4_u1).
body(r_fr4_63,fr2_b1).
body(r_fr4_63,fr2_b1).
body(r_fr4_63,fr4_e2).
body(r_fr4_63,fr4_p1).
body(r_fr4_63,fr3_q7).
body(r_fr4_63,fr4_q2).
body(r_fr4_63,fr3_q7).
body(r_fr4_63,fr4_f1).
body(r_fr4_63,fr4_s3).
body(r_fr4_63,fr1_s3).
body(r_fr4_63,fr1_t3).
body(r_fr4_63,fr4_x1).
body(r_fr4_63,fr4_y2).
body(r_fr4_63,fr3_r3).
body(r_fr4_63,fr4_z1).
head(r_fr4_64,fr4_u1).
body(r_fr4_64,fr5_z2).
body(r_fr4_64,fr4_p1).
body(r_fr4_64,fr2_v2).
body(r_fr4_64,fr4_r3).
body(r_fr4_64,fr4_f1).
body(r_fr4_64,fr4_s3).
body(r_fr4_64,fr4_v3).
body(r_fr4_64,fr1_r2).
body(r_fr4_64,fr4_x1).
body(r_fr4_64,fr3_p5).
body(r_fr4_64,fr4_y2).
body(r_fr4_64,fr4_z1).
body(r_fr4_64,fr4_z2).
head(r_fr4_65,fr4_u1).
body(r_fr4_65,fr5_c1).
body(r_fr4_65,fr9_a1).
body(r_fr4_65,fr4_e2).
body(r_fr4_65,fr4_f1).
body(r_fr4_65,fr3_q7).
body(r_fr4_65,fr1_s3).
body(r_fr4_65,fr4_q4).
body(r_fr4_65,fr3_y6).
body(r_fr4_65,fr1_s3).
body(r_fr4_65,fr1_x3).
body(r_fr4_65,fr1_r2).
body(r_fr4_65,fr1_t3).
body(r_fr4_65,fr4_y2).
body(r_fr4_65,fr4_z1).
body(r_fr4_65,fr4_z2).
head(r_fr4_66,fr5_x1).
body(r_fr4_66,fr4_q4).
body(r_fr4_66,fr4_r3).
body(r_fr4_66,fr3_y6).
body(r_fr4_66,fr4_f1).
body(r_fr4_66,fr4_v3).
body(r_fr4_66,fr1_r2).
body(r_fr4_66,fr1_t3).
body(r_fr4_66,fr1_y2).
body(r_fr4_66,fr1_s3).
body(r_fr4_66,fr1_s3).
body(r_fr4_66,fr3_p5).
body(r_fr4_66,fr3_r3).
body(r_fr4_66,fr4_z1).
head(r_fr4_67,fr5_x1).
body(r_fr4_67,fr4_p3).
body(r_fr4_67,fr2_v2).
body(r_fr4_67,fr4_q2).
body(r_fr4_67,fr4_q4).
body(r_fr4_67,fr3_q7).
body(r_fr4_67,fr1_p2).
body(r_fr4_67,fr1_r2).
body(r_fr4_67,fr1_t3).
body(r_fr4_67,fr1_s3).
body(r_fr4_67,fr3_p5).
body(r_fr4_67,fr4_y2).
body(r_fr4_67,fr4_z1).
body(r_fr4_67,fr8_d1).
head(r_fr4_68,fr5_x1).
body(r_fr4_68,fr5_z2).
body(r_fr4_68,fr5_c1).
body(r_fr4_68,fr2_b1).
body(r_fr4_68,fr4_f1).
body(r_fr4_68,fr3_e2).
body(r_fr4_68,fr4_q2).
body(r_fr4_68,fr1_s3).
body(r_fr4_68,fr4_q4).
body(r_fr4_68,fr4_r1).
body(r_fr4_68,fr3_q7).
body(r_fr4_68,fr4_f1).
body(r_fr4_68,fr1_p2).
body(r_fr4_68,fr1_r2).
body(r_fr4_68,fr4_y2).
body(r_fr4_68,fr8_d1).
head(r_fr4_69,fr1_p2).
body(r_fr4_69,fr2_b1).
body(r_fr4_69,fr2_b1).
body(r_fr4_69,fr4_e2).
body(r_fr4_69,fr3_q7).
body(r_fr4_69,fr2_v2).
body(r_fr4_69,fr4_q2).
body(r_fr4_69,fr3_q7).
body(r_fr4_69,fr3_y6).
body(r_fr4_69,fr4_u1).
body(r_fr4_69,fr1_t3).
body(r_fr4_69,fr4_x1).
body(r_fr4_69,fr4_y2).
body(r_fr4_69,fr4_z1).
body(r_fr4_69,fr4_z2).
head(r_fr4_70,fr1_p2).
body(r_fr4_70,fr2_b1).
body(r_fr4_70,fr4_f1).
body(r_fr4_70,fr4_p3).
body(r_fr4_70,fr2_v2).
body(r_fr4_70,fr4_q2).
body(r_fr4_70,fr4_r3).
body(r_fr4_70,fr4_f1).
body(r_fr4_70,fr4_s3).
body(r_fr4_70,fr3_r1).
body(r_fr4_70,fr1_q3).
body(r_fr4_70,fr4_v3).
body(r_fr4_70,fr1_t3).
body(r_fr4_70,fr1_s3).
body(r_fr4_70,fr4_z2).
head(r_fr4_71,fr1_p2).
body(r_fr4_71,fr2_b1).
body(r_fr4_71,fr3_e2).
body(r_fr4_71,fr4_p1).
body(r_fr4_71,fr3_q7).
body(r_fr4_71,fr1_q3).
body(r_fr4_71,fr4_u1).
body(r_fr4_71,fr4_v3).
body(r_fr4_71,fr1_t3).
body(r_fr4_71,fr1_y2).
body(r_fr4_71,fr4_x1).
body(r_fr4_71,fr1_s3).
body(r_fr4_71,fr3_p5).
body(r_fr4_71,fr4_z1).
head(r_fr4_72,fr1_r2).
body(r_fr4_72,fr2_a3).
body(r_fr4_72,fr4_p1).
body(r_fr4_72,fr2_v2).
body(r_fr4_72,fr4_q2).
body(r_fr4_72,fr3_q7).
body(r_fr4_72,fr4_u1).
body(r_fr4_72,fr1_p2).
body(r_fr4_72,fr1_x3).
body(r_fr4_72,fr1_t3).
body(r_fr4_72,fr1_s3).
body(r_fr4_72,fr1_s3).
body(r_fr4_72,fr4_y2).
body(r_fr4_72,fr3_r3).
body(r_fr4_72,fr4_z2).
head(r_fr4_73,fr1_r2).
body(r_fr4_73,fr2_a3).
body(r_fr4_73,fr4_p1).
body(r_fr4_73,fr3_q7).
body(r_fr4_73,fr4_p3).
body(r_fr4_73,fr1_s3).
body(r_fr4_73,fr4_r1).
body(r_fr4_73,fr1_s3).
body(r_fr4_73,fr1_q3).
body(r_fr4_73,fr1_p2).
body(r_fr4_73,fr5_x1).
body(r_fr4_73,fr1_x3).
body(r_fr4_73,fr1_s3).
body(r_fr4_73,fr1_s3).
body(r_fr4_73,fr3_p5).
body(r_fr4_73,fr4_z1).
head(r_fr4_74,fr1_q3).
body(r_fr4_74,fr2_b1).
body(r_fr4_74,fr10_c1).
body(r_fr4_74,fr4_e2).
body(r_fr4_74,fr4_p1).
body(r_fr4_74,fr1_s3).
body(r_fr4_74,fr3_q7).
body(r_fr4_74,fr4_r3).
body(r_fr4_74,fr4_s3).
body(r_fr4_74,fr3_r1).
body(r_fr4_74,fr4_u1).
body(r_fr4_74,fr1_s3).
body(r_fr4_74,fr1_s3).
body(r_fr4_74,fr3_r3).
head(r_fr4_75,fr1_q3).
body(r_fr4_75,fr5_c1).
body(r_fr4_75,fr9_a1).
body(r_fr4_75,fr2_b1).
body(r_fr4_75,fr4_e2).
body(r_fr4_75,fr3_e2).
body(r_fr4_75,fr2_v2).
body(r_fr4_75,fr4_q2).
body(r_fr4_75,fr4_q4).
body(r_fr4_75,fr3_r1).
body(r_fr4_75,fr4_v2).
body(r_fr4_75,fr4_v3).
body(r_fr4_75,fr1_s3).
body(r_fr4_75,fr1_s3).
head(r_fr4_76,fr1_q3).
body(r_fr4_76,fr2_b1).
body(r_fr4_76,fr2_v2).
body(r_fr4_76,fr4_q2).
body(r_fr4_76,fr4_r3).
body(r_fr4_76,fr3_y6).
body(r_fr4_76,fr4_f1).
body(r_fr4_76,fr4_s3).
body(r_fr4_76,fr4_u1).
body(r_fr4_76,fr5_x1).
body(r_fr4_76,fr1_x3).
body(r_fr4_76,fr1_r2).
body(r_fr4_76,fr1_s3).
body(r_fr4_76,fr3_p5).
head(r_fr4_77,fr1_q3).
body(r_fr4_77,fr2_v2).
body(r_fr4_77,fr1_s3).
body(r_fr4_77,fr4_q4).
body(r_fr4_77,fr3_q7).
body(r_fr4_77,fr4_r3).
body(r_fr4_77,fr4_f1).
body(r_fr4_77,fr4_s3).
body(r_fr4_77,fr3_r1).
body(r_fr4_77,fr4_u1).
body(r_fr4_77,fr4_v2).
body(r_fr4_77,fr1_y2).
body(r_fr4_77,fr4_z2).
head(r_fr4_78,fr1_q3).
body(r_fr4_78,fr2_v2).
body(r_fr4_78,fr2_v2).
body(r_fr4_78,fr4_r1).
body(r_fr4_78,fr3_q7).
body(r_fr4_78,fr4_f1).
body(r_fr4_78,fr4_u1).
body(r_fr4_78,fr1_p2).
body(r_fr4_78,fr5_x1).
body(r_fr4_78,fr1_x3).
body(r_fr4_78,fr4_v3).
body(r_fr4_78,fr1_r2).
body(r_fr4_78,fr1_t3).
body(r_fr4_78,fr1_y2).
body(r_fr4_78,fr1_s3).
body(r_fr4_78,fr4_z2).

assumption(fr3_s5).
assumption(fr3_b3).
assumption(fr10_c2).
assumption(fr1_s3).
assumption(fr1_s3).
assumption(fr3_r3).
assumption(fr2_b1).
assumption(fr2_b1).
assumption(fr3_v6).
assumption(fr5_d2).
assumption(fr5_e2).
assumption(fr2_b1).
assumption(fr5_a3).
assumption(fr6_r1).
assumption(fr3_v3).
contrary(fr3_s5,fr4_f1).
contrary(fr2_b1,fr1_s3).
contrary(fr5_a3,fr6_r1).
contrary(fr3_b3,fr5_r3).
contrary(fr2_b1,fr5_a3).
contrary(fr6_r1,fr5_s2).
contrary(fr10_c2,fr1_b1).
contrary(fr3_v6,fr1_s3).
contrary(fr3_v3,fr5_s2).
contrary(fr1_s3,fr3_q7).
contrary(fr5_d2,fr3_s5).
contrary(fr1_s3,fr5_s2).
contrary(fr5_e2,fr5_z2).
contrary(fr3_r3,fr5_s2).
contrary(fr2_b1,fr5_q1).
head(r_fr5_0,fr5_r1).
body(r_fr5_0,fr3_v6).
head(r_fr5_1,fr5_r1).
body(r_fr5_1,fr6_r1).
body(r_fr5_1,fr3_v6).
body(r_fr5_1,fr5_s2).
head(r_fr5_2,fr5_r1).
body(r_fr5_2,fr5_q1).
head(r_fr5_3,fr5_r1).
body(r_fr5_3,fr2_b1).
body(r_fr5_3,fr3_v3).
body(r_fr5_3,fr5_d2).
head(r_fr5_4,fr5_r1).
body(r_fr5_4,fr3_b3).
body(r_fr5_4,fr10_c2).
body(r_fr5_4,fr3_q7).
body(r_fr5_4,fr6_t2).
body(r_fr5_4,fr4_f1).
body(r_fr5_4,fr5_x2).
head(r_fr5_5,fr5_r3).
body(r_fr5_5,fr3_v3).
body(r_fr5_5,fr3_x4).
body(r_fr5_5,fr10_b3).
body(r_fr5_5,fr3_y5).
body(r_fr5_5,fr1_b1).
body(r_fr5_5,fr5_x1).
head(r_fr5_6,fr5_r3).
body(r_fr5_6,fr2_b1).
body(r_fr5_6,fr3_v3).
body(r_fr5_6,fr1_s3).
body(r_fr5_6,fr1_s3).
body(r_fr5_6,fr5_x1).
head(r_fr5_7,fr5_r3).
body(r_fr5_7,fr5_p3).
body(r_fr5_7,fr3_p5).
body(r_fr5_7,fr1_s3).
body(r_fr5_7,fr5_x1).
body(r_fr5_7,fr5_x2).
body(r_fr5_7,fr5_x1).
head(r_fr5_8,fr5_r3).
head(r_fr5_9,fr5_s2).
body(r_fr5_9,fr2_b1).
body(r_fr5_9,fr3_r3).
body(r_fr5_9,fr3_q7).
head(r_fr5_10,fr5_s2).
head(r_fr5_11,fr5_s2).
body(r_fr5_11,fr6_r1).
body(r_fr5_11,fr10_c2).
body(r_fr5_11,fr3_v6).
body(r_fr5_11,fr3_r3).
head(r_fr5_12,fr5_s2).
body(r_fr5_12,fr5_d2).
body(r_fr5_12,fr5_s2).
body(r_fr5_12,fr4_f1).
body(r_fr5_12,fr1_s3).
body(r_fr5_12,fr5_z2).
body(r_fr5_12,fr5_z2).
head(r_fr5_13,fr1_s3).
body(r_fr5_13,fr5_d2).
head(r_fr5_14,fr1_s3).
body(r_fr5_14,fr3_s5).
body(r_fr5_14,fr3_b3).
body(r_fr5_14,fr2_b1).
body(r_fr5_14,fr10_c2).
body(r_fr5_14,fr3_y5).
head(r_fr5_15,fr1_s3).
body(r_fr5_15,fr1_b1).
head(r_fr5_16,fr1_s3).
body(r_fr5_16,fr6_r1).
body(r_fr5_16,fr10_c2).
body(r_fr5_16,fr1_s3).
head(r_fr5_17,fr3_x4).
body(r_fr5_17,fr6_r1).
body(r_fr5_17,fr1_s3).
body(r_fr5_17,fr5_p3).
body(r_fr5_17,fr5_s2).
body(r_fr5_17,fr3_q7).
body(r_fr5_17,fr5_x1).
head(r_fr5_18,fr3_x4).
body(r_fr5_18,fr2_b1).
body(r_fr5_18,fr2_b1).
body(r_fr5_18,fr3_v3).
body(r_fr5_18,fr1_s3).
body(r_fr5_18,fr2_b1).
head(r_fr5_19,fr3_x4).
body(r_fr5_19,fr2_b1).
body(r_fr5_19,fr3_v3).
body(r_fr5_19,fr1_s3).
head(r_fr5_20,fr3_x4).
body(r_fr5_20,fr10_c2).
body(r_fr5_20,fr3_q7).
body(r_fr5_20,fr6_t2).
body(r_fr5_20,fr3_q7).
body(r_fr5_20,fr5_z2).
head(r_fr5_21,fr3_x4).
body(r_fr5_21,fr5_q1).
body(r_fr5_21,fr10_b3).
body(r_fr5_21,fr5_z2).
head(r_fr5_22,fr1_b1).
body(r_fr5_22,fr3_q7).
head(r_fr5_23,fr1_b1).
body(r_fr5_23,fr3_b3).
body(r_fr5_23,fr3_v6).
body(r_fr5_23,fr5_e2).
body(r_fr5_23,fr5_s2).
head(r_fr5_24,fr1_b1).
body(r_fr5_24,fr10_c2).
body(r_fr5_24,fr2_b1).
head(r_fr5_25,fr1_b1).
body(r_fr5_25,fr5_a3).
body(r_fr5_25,fr3_b3).
body(r_fr5_25,fr2_b1).
head(r_fr5_26,fr1_b1).
head(r_fr5_27,fr5_x1).
body(r_fr5_27,fr3_s5).
body(r_fr5_27,fr3_v6).
body(r_fr5_27,fr4_f1).
head(r_fr5_28,fr5_x1).
body(r_fr5_28,fr2_b1).
body(r_fr5_28,fr5_a3).
body(r_fr5_28,fr5_d2).
body(r_fr5_28,fr3_r3).
body(r_fr5_28,fr5_s2).
head(r_fr5_29,fr5_x1).
body(r_fr5_29,fr10_a2).
head(r_fr5_30,fr4_f1).
body(r_fr5_30,fr1_s3).
body(r_fr5_30,fr10_b3).
body(r_fr5_30,fr3_q7).
head(r_fr5_31,fr4_f1).
body(r_fr5_31,fr5_s2).
head(r_fr5_32,fr5_s2).
body(r_fr5_32,fr5_s2).
body(r_fr5_32,fr5_z2).
head(r_fr5_33,fr5_s2).
body(r_fr5_33,fr5_a3).
body(r_fr5_33,fr3_r3).
head(r_fr5_34,fr5_s2).
body(r_fr5_34,fr1_s3).
body(r_fr5_34,fr2_b1).
body(r_fr5_34,fr5_q1).
body(r_fr5_34,fr5_z2).
head(r_fr5_35,fr5_s2).
body(r_fr5_35,fr3_b3).
body(r_fr5_35,fr3_v6).
body(r_fr5_35,fr3_v3).
body(r_fr5_35,fr1_s3).
body(r_fr5_35,fr5_d2).
head(r_fr5_36,fr5_x1).
body(r_fr5_36,fr10_b3).
body(r_fr5_36,fr3_p5).
body(r_fr5_36,fr4_f1).
body(r_fr5_36,fr10_a2).
head(r_fr5_37,fr5_x1).
body(r_fr5_37,fr3_v6).
body(r_fr5_37,fr5_d2).
head(r_fr5_38,fr5_x1).
head(r_fr5_39,fr5_x1).
body(r_fr5_39,fr10_b3).
head(r_fr5_40,fr5_x1).
body(r_fr5_40,fr2_b1).
body(r_fr5_40,fr3_r3).
body(r_fr5_40,fr5_q1).
body(r_fr5_40,fr5_x2).
head(r_fr5_41,fr10_a2).
body(r_fr5_41,fr3_s5).
body(r_fr5_41,fr5_a3).
body(r_fr5_41,fr1_s3).
body(r_fr5_41,fr3_r3).
head(r_fr5_42,fr10_a2).
body(r_fr5_42,fr5_e2).
head(r_fr5_43,fr10_a2).
body(r_fr5_43,fr3_b3).
body(r_fr5_43,fr10_c2).
body(r_fr5_43,fr3_v3).
body(r_fr5_43,fr1_s3).
body(r_fr5_43,fr5_z2).
head(r_fr5_44,fr10_a2).
body(r_fr5_44,fr5_a3).
body(r_fr5_44,fr5_s2).
body(r_fr5_44,fr5_q1).
body(r_fr5_44,fr1_s3).
head(r_fr5_45,fr10_a2).
body(r_fr5_45,fr5_a3).
body(r_fr5_45,fr1_s3).
head(r_fr5_46,fr5_x2).
body(r_fr5_46,fr3_v3).
body(r_fr5_46,fr5_p3).
body(r_fr5_46,fr1_s3).
head(r_fr5_47,fr5_x2).
body(r_fr5_47,fr5_e2).
head(r_fr5_48,fr5_x2).
head(r_fr5_49,fr5_x2).
body(r_fr5_49,fr3_r3).
body(r_fr5_49,fr2_b1).
body(r_fr5_49,fr5_p3).
head(r_fr5_50,fr5_s2).
body(r_fr5_50,fr3_r3).
body(r_fr5_50,fr5_p3).
body(r_fr5_50,fr10_b3).
body(r_fr5_50,fr3_q7).
body(r_fr5_50,fr4_f1).
head(r_fr5_51,fr5_s2).
body(r_fr5_51,fr5_a3).
body(r_fr5_51,fr6_t2).
body(r_fr5_51,fr5_z2).
head(r_fr5_52,fr5_s2).
body(r_fr5_52,fr5_a3).
body(r_fr5_52,fr6_r1).
body(r_fr5_52,fr1_s3).
body(r_fr5_52,fr3_r3).
head(r_fr5_53,fr5_s2).
body(r_fr5_53,fr3_s5).
body(r_fr5_53,fr1_s3).
body(r_fr5_53,fr3_q7).
head(r_fr5_54,fr5_s2).
body(r_fr5_54,fr5_q1).
head(r_fr5_55,fr3_q7).
head(r_fr5_56,fr3_q7).
body(r_fr5_56,fr3_y5).
body(r_fr5_56,fr6_t2).
body(r_fr5_56,fr1_s3).
body(r_fr5_56,fr5_z2).
body(r_fr5_56,fr5_z2).
head(r_fr5_57,fr5_p3).
body(r_fr5_57,fr10_c2).
body(r_fr5_57,fr3_v3).
body(r_fr5_57,fr1_s3).
head(r_fr5_58,fr5_p3).
body(r_fr5_58,fr3_s5).
body(r_fr5_58,fr3_b3).
body(r_fr5_58,fr5_d2).
body(r_fr5_58,fr5_e2).
body(r_fr5_58,fr6_t2).
head(r_fr5_59,fr5_p3).
body(r_fr5_59,fr5_q1).
head(r_fr5_60,fr5_p3).
body(r_fr5_60,fr3_p5).
head(r_fr5_61,fr3_q7).
body(r_fr5_61,fr3_v3).
body(r_fr5_61,fr1_s3).
body(r_fr5_61,fr3_y5).
body(r_fr5_61,fr1_s3).
body(r_fr5_61,fr5_z2).
body(r_fr5_61,fr5_z2).
head(r_fr5_62,fr3_q7).
body(r_fr5_62,fr3_b3).
body(r_fr5_62,fr10_b3).
head(r_fr5_63,fr3_q7).
body(r_fr5_63,fr10_c2).
body(r_fr5_63,fr5_q1).
body(r_fr5_63,fr10_b3).
body(r_fr5_63,fr4_f1).
body(r_fr5_63,fr1_s3).
head(r_fr5_64,fr4_f1).
body(r_fr5_64,fr3_v6).
body(r_fr5_64,fr1_s3).
body(r_fr5_64,fr1_s3).
head(r_fr5_65,fr4_f1).
body(r_fr5_65,fr10_c2).
head(r_fr5_66,fr4_f1).
body(r_fr5_66,fr3_s5).
body(r_fr5_66,fr5_d2).
body(r_fr5_66,fr3_r3).
body(r_fr5_66,fr10_b3).
body(r_fr5_66,fr3_p5).
body(r_fr5_66,fr5_z2).
head(r_fr5_67,fr4_f1).
body(r_fr5_67,fr1_s3).
head(r_fr5_68,fr4_f1).
body(r_fr5_68,fr3_s5).
body(r_fr5_68,fr2_b1).
body(r_fr5_68,fr5_a3).
body(r_fr5_68,fr6_r1).
body(r_fr5_68,fr5_e2).
body(r_fr5_68,fr3_p5).
head(r_fr5_69,fr5_z2).
body(r_fr5_69,fr2_b1).
body(r_fr5_69,fr6_r1).
body(r_fr5_69,fr5_d2).
head(r_fr5_70,fr5_z2).
body(r_fr5_70,fr6_r1).
body(r_fr5_70,fr3_v3).
body(r_fr5_70,fr1_s3).
body(r_fr5_70,fr5_d2).
body(r_fr5_70,fr3_y5).
head(r_fr5_71,fr5_z2).
body(r_fr5_71,fr2_b1).
body(r_fr5_71,fr6_r1).
body(r_fr5_71,fr3_v3).
body(r_fr5_71,fr1_s3).
body(r_fr5_71,fr3_y5).
head(r_fr5_72,fr5_z2).
body(r_fr5_72,fr3_v6).
body(r_fr5_72,fr3_r3).
body(r_fr5_72,fr5_q1).
body(r_fr5_72,fr3_y5).
head(r_fr5_73,fr5_z2).
body(r_fr5_73,fr3_p5).
head(r_fr5_74,fr3_y5).
head(r_fr5_75,fr3_y5).
body(r_fr5_75,fr3_s5).
body(r_fr5_75,fr6_r1).
body(r_fr5_75,fr3_v6).
body(r_fr5_75,fr3_r3).
head(r_fr5_76,fr3_y5).
body(r_fr5_76,fr10_c2).
body(r_fr5_76,fr3_v6).
body(r_fr5_76,fr1_s3).
body(r_fr5_76,fr3_r3).
body(r_fr5_76,fr10_b3).
head(r_fr5_77,fr3_y5).
body(r_fr5_77,fr2_b1).
body(r_fr5_77,fr5_d2).
body(r_fr5_77,fr1_s3).
body(r_fr5_77,fr1_s3).
head(r_fr5_78,fr3_y5).
body(r_fr5_78,fr3_r3).
body(r_fr5_78,fr10_b3).
body(r_fr5_78,fr6_t2).
body(r_fr5_78,fr3_p5).
body(r_fr5_78,fr1_s3).
body(r_fr5_78,fr5_z2).
head(r_fr5_79,fr6_t2).
body(r_fr5_79,fr5_a3).
body(r_fr5_79,fr3_b3).
body(r_fr5_79,fr5_d2).
head(r_fr5_80,fr6_t2).
body(r_fr5_80,fr2_b1).
body(r_fr5_80,fr3_r3).
body(r_fr5_80,fr5_q1).
body(r_fr5_80,fr1_s3).
head(r_fr5_81,fr6_t2).
body(r_fr5_81,fr3_b3).
body(r_fr5_81,fr2_b1).
body(r_fr5_81,fr5_d2).
body(r_fr5_81,fr5_z2).

assumption(fr1_b1).
assumption(fr1_s3).
assumption(fr4_f1).
assumption(fr5_f1).
assumption(fr5_s2).
assumption(fr4_v2).
assumption(fr2_b1).
assumption(fr2_c2).
assumption(fr5_q1).
assumption(fr6_d2).
assumption(fr1_t3).
assumption(fr1_p4).
assumption(fr1_s3).
assumption(fr6_c3).
assumption(fr6_c3).
contrary(fr1_b1,fr6_q3).
contrary(fr2_b1,fr6_c3).
contrary(fr1_s3,fr6_v1).
contrary(fr1_s3,fr6_u3).
contrary(fr2_c2,fr1_t3).
contrary(fr6_c3,fr1_s3).
contrary(fr4_f1,fr4_b2).
contrary(fr5_q1,fr6_u1).
contrary(fr6_c3,fr6_v1).
contrary(fr5_f1,fr6_x2).
contrary(fr6_d2,fr6_c3).
contrary(fr5_s2,fr6_x1).
contrary(fr1_t3,fr3_r3).
contrary(fr4_v2,fr6_r3).
contrary(fr1_p4,fr6_w2).
head(r_fr6_0,fr6_p3).
body(r_fr6_0,fr5_s2).
head(r_fr6_1,fr6_p3).
head(r_fr6_2,fr6_p3).
body(r_fr6_2,fr6_r2).
body(r_fr6_2,fr6_s1).
body(r_fr6_2,fr6_t2).
body(r_fr6_2,fr6_v3).
body(r_fr6_2,fr6_w2).
body(r_fr6_2,fr6_x3).
head(r_fr6_3,fr6_p3).
body(r_fr6_3,fr1_b1).
body(r_fr6_3,fr1_s3).
body(r_fr6_3,fr2_c2).
body(r_fr6_3,fr1_t3).
head(r_fr6_4,fr3_r3).
body(r_fr6_4,fr5_f1).
body(r_fr6_4,fr1_t3).
head(r_fr6_5,fr3_r3).
body(r_fr6_5,fr1_s3).
body(r_fr6_5,fr5_q1).
body(r_fr6_5,fr1_t3).
head(r_fr6_6,fr3_r3).
body(r_fr6_6,fr6_r3).
body(r_fr6_6,fr6_v3).
head(r_fr6_7,fr6_y3).
body(r_fr6_7,fr2_b1).
body(r_fr6_7,fr5_q1).
body(r_fr6_7,fr6_c3).
body(r_fr6_7,fr1_t3).
body(r_fr6_7,fr1_p4).
body(r_fr6_7,fr6_x3).
head(r_fr6_8,fr6_y3).
head(r_fr6_9,fr6_y3).
body(r_fr6_9,fr1_p4).
body(r_fr6_9,fr6_q3).
body(r_fr6_9,fr6_t1).
body(r_fr6_9,fr6_y1).
head(r_fr6_10,fr6_v1).
body(r_fr6_10,fr5_f1).
body(r_fr6_10,fr3_q7).
body(r_fr6_10,fr2_v2).
body(r_fr6_10,fr9_y2).
body(r_fr6_10,fr6_x2).
body(r_fr6_10,fr6_z1).
head(r_fr6_11,fr6_v1).
body(r_fr6_11,fr2_c2).
body(r_fr6_11,fr1_p4).
body(r_fr6_11,fr6_t1).
body(r_fr6_11,fr6_z3).
head(r_fr6_12,fr6_v1).
body(r_fr6_12,fr6_c3).
body(r_fr6_12,fr6_t2).
body(r_fr6_12,fr6_z3).
head(r_fr6_13,fr6_r1).
body(r_fr6_13,fr6_p3).
body(r_fr6_13,fr1_s3).
body(r_fr6_13,fr6_w2).
body(r_fr6_13,fr3_r3).
body(r_fr6_13,fr6_x3).
head(r_fr6_14,fr6_r1).
body(r_fr6_14,fr2_c2).
body(r_fr6_14,fr6_c3).
body(r_fr6_14,fr4_v2).
body(r_fr6_14,fr6_s2).
body(r_fr6_14,fr3_s5).
body(r_fr6_14,fr6_z2).
head(r_fr6_15,fr6_r1).
body(r_fr6_15,fr6_c3).
body(r_fr6_15,fr5_f1).
body(r_fr6_15,fr5_s2).
body(r_fr6_15,fr6_s1).
body(r_fr6_15,fr6_u3).
head(r_fr6_16,fr6_r1).
body(r_fr6_16,fr1_b1).
body(r_fr6_16,fr5_s2).
body(r_fr6_16,fr4_v2).
body(r_fr6_16,fr6_r3).
body(r_fr6_16,fr6_v1).
body(r_fr6_16,fr6_x3).
head(r_fr6_17,fr6_r3).
body(r_fr6_17,fr2_v2).
body(r_fr6_17,fr6_r2).
body(r_fr6_17,fr6_t2).
body(r_fr6_17,fr6_t2).
head(r_fr6_18,fr6_r3).
head(r_fr6_19,fr6_r3).
body(r_fr6_19,fr6_r1).
body(r_fr6_19,fr6_u1).
head(r_fr6_20,fr6_r3).
body(r_fr6_20,fr5_q1).
body(r_fr6_20,fr6_c3).
body(r_fr6_20,fr1_t3).
body(r_fr6_20,fr1_p4).
head(r_fr6_21,fr6_y2).
body(r_fr6_21,fr1_s3).
body(r_fr6_21,fr5_f1).
head(r_fr6_22,fr6_y2).
body(r_fr6_22,fr6_s1).
head(r_fr6_23,fr6_y2).
body(r_fr6_23,fr6_c3).
body(r_fr6_23,fr6_c3).
body(r_fr6_23,fr1_t3).
head(r_fr6_24,fr6_q3).
body(r_fr6_24,fr1_b1).
body(r_fr6_24,fr2_b1).
body(r_fr6_24,fr4_v2).
body(r_fr6_24,fr3_s5).
head(r_fr6_25,fr6_q3).
body(r_fr6_25,fr6_d2).
body(r_fr6_25,fr5_s2).
body(r_fr6_25,fr1_t3).
body(r_fr6_25,fr4_v2).
head(r_fr6_26,fr6_t2).
head(r_fr6_27,fr6_t2).
body(r_fr6_27,fr1_p4).
head(r_fr6_28,fr6_t2).
body(r_fr6_28,fr5_s2).
body(r_fr6_28,fr6_r1).
body(r_fr6_28,fr6_r3).
body(r_fr6_28,fr6_u3).
head(r_fr6_29,fr6_t2).
body(r_fr6_29,fr6_s1).
body(r_fr6_29,fr6_t2).
body(r_fr6_29,fr6_w2).
body(r_fr6_29,fr6_x2).
head(r_fr6_30,fr6_t2).
body(r_fr6_30,fr6_r3).
body(r_fr6_30,fr6_s1).
head(r_fr6_31,fr3_q7).
body(r_fr6_31,fr6_q3).
body(r_fr6_31,fr6_r1).
body(r_fr6_31,fr6_t2).
body(r_fr6_31,fr3_s5).
body(r_fr6_31,fr6_w2).
body(r_fr6_31,fr6_y1).
head(r_fr6_32,fr3_q7).
body(r_fr6_32,fr6_r2).
body(r_fr6_32,fr6_t1).
body(r_fr6_32,fr6_y2).
head(r_fr6_33,fr3_q7).
body(r_fr6_33,fr1_s3).
body(r_fr6_33,fr1_s3).
body(r_fr6_33,fr6_s2).
body(r_fr6_33,fr6_t1).
head(r_fr6_34,fr6_s2).
body(r_fr6_34,fr2_c2).
body(r_fr6_34,fr4_f1).
body(r_fr6_34,fr5_f1).
body(r_fr6_34,fr5_s2).
body(r_fr6_34,fr4_v2).
body(r_fr6_34,fr1_p4).
head(r_fr6_35,fr6_s2).
body(r_fr6_35,fr1_b1).
body(r_fr6_35,fr3_s5).
head(r_fr6_36,fr6_s2).
body(r_fr6_36,fr6_v3).
head(r_fr6_37,fr6_s2).
body(r_fr6_37,fr6_s1).
head(r_fr6_38,fr6_s3).
body(r_fr6_38,fr1_p4).
body(r_fr6_38,fr3_r3).
body(r_fr6_38,fr6_x2).
head(r_fr6_39,fr6_s3).
body(r_fr6_39,fr4_f1).
body(r_fr6_39,fr6_c3).
head(r_fr6_40,fr6_s3).
head(r_fr6_41,fr6_x2).
body(r_fr6_41,fr2_b1).
body(r_fr6_41,fr1_s3).
body(r_fr6_41,fr6_c3).
body(r_fr6_41,fr1_t3).
body(r_fr6_41,fr6_t2).
body(r_fr6_41,fr6_s1).
head(r_fr6_42,fr6_x2).
body(r_fr6_42,fr6_z1).
head(r_fr6_43,fr6_x2).
body(r_fr6_43,fr6_c3).
body(r_fr6_43,fr5_f1).
body(r_fr6_43,fr4_v2).
body(r_fr6_43,fr1_p4).
body(r_fr6_43,fr6_r3).
head(r_fr6_44,fr6_w2).
body(r_fr6_44,fr1_p4).
body(r_fr6_44,fr6_r1).
body(r_fr6_44,fr6_x1).
body(r_fr6_44,fr6_x3).
body(r_fr6_44,fr6_z2).
head(r_fr6_45,fr6_w2).
body(r_fr6_45,fr1_p4).
body(r_fr6_45,fr3_r3).
head(r_fr6_46,fr6_w2).
body(r_fr6_46,fr4_b2).
body(r_fr6_46,fr6_q3).
body(r_fr6_46,fr6_t2).
body(r_fr6_46,fr6_z2).
head(r_fr6_47,fr6_w2).
body(r_fr6_47,fr4_v2).
body(r_fr6_47,fr3_q7).
body(r_fr6_47,fr6_x3).
head(r_fr6_48,fr6_w2).
body(r_fr6_48,fr2_c2).
body(r_fr6_48,fr4_f1).
body(r_fr6_48,fr3_q7).
body(r_fr6_48,fr6_q3).
body(r_fr6_48,fr6_s2).
head(r_fr6_49,fr6_x3).
body(r_fr6_49,fr1_s3).
body(r_fr6_49,fr2_c2).
body(r_fr6_49,fr5_f1).
head(r_fr6_50,fr6_x3).
body(r_fr6_50,fr5_q1).
body(r_fr6_50,fr6_d2).
body(r_fr6_50,fr5_s2).
body(r_fr6_50,fr6_r3).
body(r_fr6_50,fr6_u3).
body(r_fr6_50,fr3_x4).
head(r_fr6_51,fr6_x3).
body(r_fr6_51,fr6_q3).
body(r_fr6_51,fr3_s5).
body(r_fr6_51,fr6_z2).
head(r_fr6_52,fr6_t1).
body(r_fr6_52,fr1_s3).
body(r_fr6_52,fr5_q1).
body(r_fr6_52,fr5_f1).
body(r_fr6_52,fr1_p4).
body(r_fr6_52,fr6_s1).
head(r_fr6_53,fr6_t1).
body(r_fr6_53,fr1_s3).
body(r_fr6_53,fr2_c2).
head(r_fr6_54,fr6_t1).
body(r_fr6_54,fr1_b1).
body(r_fr6_54,fr1_t3).
body(r_fr6_54,fr6_s1).
head(r_fr6_55,fr6_t1).
body(r_fr6_55,fr5_s2).
head(r_fr6_56,fr6_y1).
body(r_fr6_56,fr1_b1).
body(r_fr6_56,fr2_b1).
body(r_fr6_56,fr5_q1).
body(r_fr6_56,fr4_v2).
body(r_fr6_56,fr6_r2).
body(r_fr6_56,fr6_x3).
head(r_fr6_57,fr6_y1).
body(r_fr6_57,fr1_b1).
body(r_fr6_57,fr5_q1).
body(r_fr6_57,fr5_s2).
body(r_fr6_57,fr4_v2).
head(r_fr6_58,fr6_y1).
head(r_fr6_59,fr4_b2).
body(r_fr6_59,fr1_b1).
body(r_fr6_59,fr1_s3).
body(r_fr6_59,fr1_s3).
body(r_fr6_59,fr5_q1).
body(r_fr6_59,fr5_s2).
head(r_fr6_60,fr4_b2).
head(r_fr6_61,fr4_b2).
body(r_fr6_61,fr6_p3).
body(r_fr6_61,fr6_q3).
body(r_fr6_61,fr9_y2).
body(r_fr6_61,fr6_r2).
body(r_fr6_61,fr6_v1).
body(r_fr6_61,fr6_y1).
head(r_fr6_62,fr4_b2).
body(r_fr6_62,fr6_c3).
body(r_fr6_62,fr6_r3).
head(r_fr6_63,fr4_b2).
body(r_fr6_63,fr1_b1).
body(r_fr6_63,fr2_c2).
body(r_fr6_63,fr4_v2).
head(r_fr6_64,fr6_z1).
head(r_fr6_65,fr6_z1).
body(r_fr6_65,fr2_v2).
body(r_fr6_65,fr6_r1).
body(r_fr6_65,fr6_u1).
body(r_fr6_65,fr3_x4).
body(r_fr6_65,fr6_v3).
body(r_fr6_65,fr3_r3).
head(r_fr6_66,fr6_z1).
body(r_fr6_66,fr6_p3).
body(r_fr6_66,fr2_v2).
body(r_fr6_66,fr6_y2).
head(r_fr6_67,fr6_t2).
body(r_fr6_67,fr4_f1).
body(r_fr6_67,fr6_r2).
body(r_fr6_67,fr6_s1).
body(r_fr6_67,fr6_s3).
body(r_fr6_67,fr3_r3).
body(r_fr6_67,fr6_x1).
head(r_fr6_68,fr6_t2).
body(r_fr6_68,fr1_t3).
body(r_fr6_68,fr6_r1).
body(r_fr6_68,fr6_t1).
body(r_fr6_68,fr3_r3).
body(r_fr6_68,fr6_z3).
head(r_fr6_69,fr6_t2).
body(r_fr6_69,fr6_w2).

assumption(fr7_a1).
assumption(fr7_b1).
assumption(fr7_a1).
assumption(fr1_s3).
assumption(fr2_b1).
assumption(fr7_f1).
assumption(fr2_b1).
assumption(fr2_b1).
assumption(fr1_a3).
assumption(fr4_f1).
assumption(fr3_d2).
assumption(fr10_c1).
assumption(fr2_b1).
assumption(fr7_b3).
assumption(fr7_c3).
contrary(fr7_a1,fr7_x1).
contrary(fr2_b1,fr7_q2).
contrary(fr2_b1,fr3_q7).
contrary(fr7_b1,fr7_v5).
contrary(fr2_b1,fr6_z3).
contrary(fr7_b3,fr7_q2).
contrary(fr7_a1,fr2_b1).
contrary(fr1_a3,fr7_u5).
contrary(fr7_c3,fr10_c1).
contrary(fr1_s3,fr3_r3).
contrary(fr4_f1,fr1_s3).
contrary(fr2_b1,fr3_r3).
contrary(fr3_d2,fr7_y5).
contrary(fr7_f1,fr7_r2).
contrary(fr10_c1,fr4_z2).
head(r_fr7_0,fr7_v3).
body(r_fr7_0,fr1_a3).
body(r_fr7_0,fr7_s3).
body(r_fr7_0,fr7_x4).
head(r_fr7_1,fr7_v3).
body(r_fr7_1,fr1_s3).
head(r_fr7_2,fr7_v3).
body(r_fr7_2,fr5_a3).
body(r_fr7_2,fr7_u5).
body(r_fr7_2,fr7_v1).
body(r_fr7_2,fr7_y4).
body(r_fr7_2,fr7_y5).
head(r_fr7_3,fr7_v3).
head(r_fr7_4,fr5_x1).
body(r_fr7_4,fr7_b1).
body(r_fr7_4,fr10_c1).
body(r_fr7_4,fr1_s3).
body(r_fr7_4,fr7_v5).
head(r_fr7_5,fr5_x1).
body(r_fr7_5,fr7_a1).
body(r_fr7_5,fr1_s3).
body(r_fr7_5,fr5_a3).
body(r_fr7_5,fr7_u5).
head(r_fr7_6,fr5_x1).
body(r_fr7_6,fr7_b1).
body(r_fr7_6,fr7_p5).
body(r_fr7_6,fr7_u4).
body(r_fr7_6,fr7_y5).
body(r_fr7_6,fr7_z2).
body(r_fr7_6,fr7_z4).
head(r_fr7_7,fr5_x1).
body(r_fr7_7,fr7_x1).
body(r_fr7_7,fr7_y1).
head(r_fr7_8,fr7_u5).
body(r_fr7_8,fr7_b3).
body(r_fr7_8,fr3_u4).
body(r_fr7_8,fr1_p2).
body(r_fr7_8,fr6_r1).
body(r_fr7_8,fr6_z3).
body(r_fr7_8,fr7_z2).
head(r_fr7_9,fr7_u5).
body(r_fr7_9,fr1_s3).
body(r_fr7_9,fr7_u2).
body(r_fr7_9,fr6_r1).
head(r_fr7_10,fr7_u5).
body(r_fr7_10,fr2_b1).
body(r_fr7_10,fr2_b1).
body(r_fr7_10,fr1_a3).
body(r_fr7_10,fr3_y1).
body(r_fr7_10,fr7_x4).
body(r_fr7_10,fr6_r1).
head(r_fr7_11,fr7_y1).
body(r_fr7_11,fr4_f1).
body(r_fr7_11,fr7_z5).
head(r_fr7_12,fr7_y1).
body(r_fr7_12,fr2_b1).
body(r_fr7_12,fr7_q4).
head(r_fr7_13,fr7_y1).
body(r_fr7_13,fr1_a3).
body(r_fr7_13,fr1_s3).
body(r_fr7_13,fr7_r2).
head(r_fr7_14,fr7_y1).
body(r_fr7_14,fr7_b3).
body(r_fr7_14,fr7_f1).
head(r_fr7_15,fr1_s3).
body(r_fr7_15,fr7_f1).
body(r_fr7_15,fr3_r3).
body(r_fr7_15,fr5_a3).
head(r_fr7_16,fr1_s3).
body(r_fr7_16,fr7_b1).
body(r_fr7_16,fr7_f1).
body(r_fr7_16,fr3_x4).
body(r_fr7_16,fr7_r2).
body(r_fr7_16,fr3_q7).
body(r_fr7_16,fr7_x2).
head(r_fr7_17,fr1_s3).
body(r_fr7_17,fr2_b1).
body(r_fr7_17,fr7_a1).
body(r_fr7_17,fr1_a3).
body(r_fr7_17,fr10_c1).
body(r_fr7_17,fr10_r3).
head(r_fr7_18,fr1_s3).
body(r_fr7_18,fr2_b1).
body(r_fr7_18,fr1_a3).
head(r_fr7_19,fr1_s3).
body(r_fr7_19,fr1_s3).
body(r_fr7_19,fr7_f1).
body(r_fr7_19,fr7_r4).
body(r_fr7_19,fr7_t4).
body(r_fr7_19,fr7_v1).
body(r_fr7_19,fr7_w3).
head(r_fr7_20,fr7_r5).
body(r_fr7_20,fr1_a3).
head(r_fr7_21,fr7_r5).
body(r_fr7_21,fr7_a1).
body(r_fr7_21,fr7_b1).
body(r_fr7_21,fr7_b3).
body(r_fr7_21,fr1_a3).
body(r_fr7_21,fr7_c3).
body(r_fr7_21,fr4_f1).
head(r_fr7_22,fr5_a3).
body(r_fr7_22,fr4_f1).
body(r_fr7_22,fr3_q7).
body(r_fr7_22,fr6_z3).
head(r_fr7_23,fr5_a3).
body(r_fr7_23,fr7_b3).
body(r_fr7_23,fr3_d2).
head(r_fr7_24,fr5_a3).
body(r_fr7_24,fr2_b1).
body(r_fr7_24,fr7_b1).
body(r_fr7_24,fr7_b3).
body(r_fr7_24,fr7_c3).
body(r_fr7_24,fr4_f1).
body(r_fr7_24,fr7_f1).
head(r_fr7_25,fr5_a3).
body(r_fr7_25,fr1_a3).
body(r_fr7_25,fr7_t4).
head(r_fr7_26,fr3_x4).
body(r_fr7_26,fr1_a3).
head(r_fr7_27,fr3_x4).
body(r_fr7_27,fr7_b1).
body(r_fr7_27,fr7_b3).
body(r_fr7_27,fr1_a3).
body(r_fr7_27,fr7_f1).
head(r_fr7_28,fr7_q2).
body(r_fr7_28,fr7_p5).
body(r_fr7_28,fr3_q7).
body(r_fr7_28,fr7_x2).
body(r_fr7_28,fr6_z3).
head(r_fr7_29,fr7_q2).
body(r_fr7_29,fr7_b1).
body(r_fr7_29,fr7_a1).
body(r_fr7_29,fr1_a3).
head(r_fr7_30,fr5_s2).
head(r_fr7_31,fr5_s2).
body(r_fr7_31,fr7_w2).
head(r_fr7_32,fr5_s2).
body(r_fr7_32,fr2_b1).
head(r_fr7_33,fr6_z3).
body(r_fr7_33,fr2_b1).
body(r_fr7_33,fr2_b1).
body(r_fr7_33,fr1_s3).
body(r_fr7_33,fr7_x1).
head(r_fr7_34,fr6_z3).
body(r_fr7_34,fr7_a1).
body(r_fr7_34,fr2_b1).
body(r_fr7_34,fr7_p5).
body(r_fr7_34,fr3_q7).
head(r_fr7_35,fr6_z3).
body(r_fr7_35,fr3_y1).
body(r_fr7_35,fr7_v5).
head(r_fr7_36,fr6_z3).
body(r_fr7_36,fr3_y1).
body(r_fr7_36,fr3_u4).
head(r_fr7_37,fr6_z3).
body(r_fr7_37,fr7_a1).
body(r_fr7_37,fr7_b1).
body(r_fr7_37,fr2_b1).
head(r_fr7_38,fr7_p4).
body(r_fr7_38,fr2_b1).
body(r_fr7_38,fr3_d2).
body(r_fr7_38,fr7_f1).
body(r_fr7_38,fr10_c1).
head(r_fr7_39,fr7_p4).
body(r_fr7_39,fr4_f1).
body(r_fr7_39,fr7_f1).
head(r_fr7_40,fr7_p4).
body(r_fr7_40,fr1_a3).
body(r_fr7_40,fr3_r3).
head(r_fr7_41,fr7_p4).
body(r_fr7_41,fr7_u4).
head(r_fr7_42,fr7_v1).
body(r_fr7_42,fr7_a1).
body(r_fr7_42,fr7_b1).
body(r_fr7_42,fr2_b1).
body(r_fr7_42,fr1_a3).
body(r_fr7_42,fr4_f1).
head(r_fr7_43,fr7_v1).
body(r_fr7_43,fr3_r3).
head(r_fr7_44,fr7_v1).
body(r_fr7_44,fr7_b3).
body(r_fr7_44,fr4_f1).
body(r_fr7_44,fr7_f1).
body(r_fr7_44,fr10_c1).
body(r_fr7_44,fr7_s3).
head(r_fr7_45,fr7_v1).
body(r_fr7_45,fr7_p5).
body(r_fr7_45,fr3_v4).
body(r_fr7_45,fr3_q7).
head(r_fr7_46,fr7_v1).
body(r_fr7_46,fr7_f1).
body(r_fr7_46,fr7_x1).
head(r_fr7_47,fr7_u4).
body(r_fr7_47,fr10_c1).
body(r_fr7_47,fr7_q4).
body(r_fr7_47,fr3_r3).
body(r_fr7_47,fr7_t5).
body(r_fr7_47,fr7_w2).
body(r_fr7_47,fr5_q1).
head(r_fr7_48,fr7_u4).
body(r_fr7_48,fr7_a1).
body(r_fr7_48,fr1_a3).
body(r_fr7_48,fr10_c1).
body(r_fr7_48,fr7_r1).
head(r_fr7_49,fr7_u4).
head(r_fr7_50,fr7_p5).
body(r_fr7_50,fr10_c1).
body(r_fr7_50,fr1_p2).
head(r_fr7_51,fr7_p5).
body(r_fr7_51,fr2_b1).
head(r_fr7_52,fr7_y5).
body(r_fr7_52,fr3_r3).
body(r_fr7_52,fr7_r1).
body(r_fr7_52,fr7_v5).
body(r_fr7_52,fr1_p2).
head(r_fr7_53,fr7_y5).
body(r_fr7_53,fr4_f1).
body(r_fr7_53,fr2_b1).
body(r_fr7_53,fr7_s3).
body(r_fr7_53,fr7_x1).
body(r_fr7_53,fr7_z5).
head(r_fr7_54,fr7_y5).
body(r_fr7_54,fr7_a1).
body(r_fr7_54,fr4_z2).
head(r_fr7_55,fr7_y5).
body(r_fr7_55,fr4_f1).
body(r_fr7_55,fr2_b1).
head(r_fr7_56,fr7_y5).
body(r_fr7_56,fr2_b1).
body(r_fr7_56,fr1_a3).
body(r_fr7_56,fr1_p2).
body(r_fr7_56,fr7_u2).
body(r_fr7_56,fr7_x4).
body(r_fr7_56,fr7_z2).
head(r_fr7_57,fr7_y4).
body(r_fr7_57,fr4_f1).
body(r_fr7_57,fr3_d2).
body(r_fr7_57,fr10_c1).
body(r_fr7_57,fr7_r2).
body(r_fr7_57,fr3_u4).
head(r_fr7_58,fr7_y4).
body(r_fr7_58,fr7_b1).
body(r_fr7_58,fr7_b3).
body(r_fr7_58,fr1_a3).
body(r_fr7_58,fr10_c1).
head(r_fr7_59,fr7_y4).
body(r_fr7_59,fr7_a1).
body(r_fr7_59,fr4_f1).
body(r_fr7_59,fr7_x1).
body(r_fr7_59,fr4_z2).
body(r_fr7_59,fr10_r3).
body(r_fr7_59,fr7_z4).
head(r_fr7_60,fr7_y4).
body(r_fr7_60,fr2_b1).
body(r_fr7_60,fr1_a3).
body(r_fr7_60,fr7_f1).
body(r_fr7_60,fr10_c1).
head(r_fr7_61,fr3_y1).
body(r_fr7_61,fr2_b1).
body(r_fr7_61,fr10_c1).
body(r_fr7_61,fr3_r3).
body(r_fr7_61,fr7_s3).
head(r_fr7_62,fr3_y1).
body(r_fr7_62,fr7_a1).
body(r_fr7_62,fr7_b3).
body(r_fr7_62,fr1_s3).
body(r_fr7_62,fr7_z4).
head(r_fr7_63,fr6_u3).
head(r_fr7_64,fr6_u3).
body(r_fr7_64,fr10_c1).
body(r_fr7_64,fr7_s3).
body(r_fr7_64,fr3_r3).
body(r_fr7_64,fr7_t5).
body(r_fr7_64,fr3_q7).
body(r_fr7_64,fr7_x2).
head(r_fr7_65,fr6_u3).
body(r_fr7_65,fr7_a1).
body(r_fr7_65,fr10_c1).
body(r_fr7_65,fr7_r1).
body(r_fr7_65,fr7_v4).
body(r_fr7_65,fr7_w2).
head(r_fr7_66,fr6_u3).
body(r_fr7_66,fr7_a1).
body(r_fr7_66,fr2_b1).
body(r_fr7_66,fr1_a3).
body(r_fr7_66,fr1_s3).
body(r_fr7_66,fr7_f1).
body(r_fr7_66,fr10_c1).
head(r_fr7_67,fr7_w3).
body(r_fr7_67,fr7_b1).
body(r_fr7_67,fr1_s3).
body(r_fr7_67,fr4_f1).
body(r_fr7_67,fr4_z2).
head(r_fr7_68,fr7_w3).
body(r_fr7_68,fr10_c1).
body(r_fr7_68,fr1_p2).
body(r_fr7_68,fr6_r2).
body(r_fr7_68,fr3_v4).
body(r_fr7_68,fr7_v2).
head(r_fr7_69,fr7_w3).
body(r_fr7_69,fr2_b1).
body(r_fr7_69,fr7_c3).
body(r_fr7_69,fr2_b1).
head(r_fr7_70,fr7_w3).
body(r_fr7_70,fr2_b1).
body(r_fr7_70,fr3_d2).
body(r_fr7_70,fr7_r4).
body(r_fr7_70,fr7_t4).
head(r_fr7_71,fr7_w3).
body(r_fr7_71,fr7_a1).
body(r_fr7_71,fr3_u4).

assumption(fr4_d2).
assumption(fr6_f1).
assumption(fr3_q7).
assumption(fr8_d1).
assumption(fr1_s3).
assumption(fr1_s3).
assumption(fr8_a2).
assumption(fr3_c2).
assumption(fr3_b3).
assumption(fr8_d2).
assumption(fr5_c2).
assumption(fr3_b3).
assumption(fr8_a3).
assumption(fr4_d2).
assumption(fr3_b3).
contrary(fr4_d2,fr1_p2).
contrary(fr8_a2,fr1_s3).
contrary(fr8_a3,fr8_s1).
contrary(fr6_f1,fr5_c2).
contrary(fr3_c2,fr3_q7).
contrary(fr4_d2,fr8_y1).
contrary(fr3_q7,fr6_f1).
contrary(fr3_b3,fr4_f1).
contrary(fr3_b3,fr6_t2).
contrary(fr8_d1,fr8_y2).
contrary(fr8_d2,fr3_c2).
contrary(fr1_s3,fr8_a2).
contrary(fr5_c2,fr8_p2).
contrary(fr1_s3,fr4_z2).
contrary(fr3_b3,fr8_r1).
head(r_fr8_0,fr8_x2).
body(r_fr8_0,fr4_d2).
body(r_fr8_0,fr3_b3).
body(r_fr8_0,fr8_d1).
head(r_fr8_1,fr8_x2).
head(r_fr8_2,fr8_x2).
body(r_fr8_2,fr4_d2).
body(r_fr8_2,fr8_d1).
body(r_fr8_2,fr8_t2).
head(r_fr8_3,fr3_q7).
body(r_fr8_3,fr5_c2).
body(r_fr8_3,fr8_u3).
head(r_fr8_4,fr3_q7).
body(r_fr8_4,fr5_q1).
head(r_fr8_5,fr3_q7).
body(r_fr8_5,fr8_a2).
body(r_fr8_5,fr3_c2).
body(r_fr8_5,fr1_s3).
head(r_fr8_6,fr3_q7).
body(r_fr8_6,fr1_s3).
body(r_fr8_6,fr6_u3).
body(r_fr8_6,fr4_f1).
head(r_fr8_7,fr3_q7).
body(r_fr8_7,fr8_v2).
head(r_fr8_8,fr8_s1).
body(r_fr8_8,fr4_d2).
body(r_fr8_8,fr6_f1).
head(r_fr8_9,fr8_s1).
body(r_fr8_9,fr8_d2).
head(r_fr8_10,fr8_s1).
body(r_fr8_10,fr5_c2).
body(r_fr8_10,fr3_b3).
head(r_fr8_11,fr8_s1).
body(r_fr8_11,fr5_c2).
body(r_fr8_11,fr4_z2).
head(r_fr8_12,fr8_s1).
body(r_fr8_12,fr8_d1).
body(r_fr8_12,fr1_s3).
body(r_fr8_12,fr3_b3).
head(r_fr8_13,fr8_w3).
body(r_fr8_13,fr8_d2).
head(r_fr8_14,fr8_w3).
body(r_fr8_14,fr4_d2).
body(r_fr8_14,fr4_f1).
head(r_fr8_15,fr8_w3).
head(r_fr8_16,fr3_p5).
body(r_fr8_16,fr8_a2).
body(r_fr8_16,fr6_f1).
head(r_fr8_17,fr3_p5).
body(r_fr8_17,fr8_p2).
body(r_fr8_17,fr8_u3).
body(r_fr8_17,fr3_r3).
head(r_fr8_18,fr3_p5).
head(r_fr8_19,fr3_p5).
body(r_fr8_19,fr8_s3).
head(r_fr8_20,fr3_p5).
body(r_fr8_20,fr8_p2).
head(r_fr8_21,fr8_q3).
body(r_fr8_21,fr8_a2).
body(r_fr8_21,fr4_v2).
body(r_fr8_21,fr6_d1).
head(r_fr8_22,fr8_q3).
body(r_fr8_22,fr6_f1).
body(r_fr8_22,fr6_d1).
body(r_fr8_22,fr3_r3).
head(r_fr8_23,fr8_r3).
body(r_fr8_23,fr8_v2).
head(r_fr8_24,fr8_r3).
body(r_fr8_24,fr3_r3).
head(r_fr8_25,fr8_r3).
body(r_fr8_25,fr1_s3).
body(r_fr8_25,fr8_r1).
body(r_fr8_25,fr4_f1).
head(r_fr8_26,fr8_r3).
body(r_fr8_26,fr3_r3).
body(r_fr8_26,fr8_v2).
head(r_fr8_27,fr8_t2).
body(r_fr8_27,fr8_a2).
body(r_fr8_27,fr6_f1).
body(r_fr8_27,fr4_d2).
head(r_fr8_28,fr8_t2).
body(r_fr8_28,fr8_d2).
body(r_fr8_28,fr8_p1).
head(r_fr8_29,fr8_t2).
head(r_fr8_30,fr8_r1).
body(r_fr8_30,fr6_d1).
head(r_fr8_31,fr8_r1).
head(r_fr8_32,fr8_p2).
body(r_fr8_32,fr3_q7).
head(r_fr8_33,fr8_p2).
body(r_fr8_33,fr3_q7).
body(r_fr8_33,fr8_w1).
body(r_fr8_33,fr8_x1).
head(r_fr8_34,fr8_p2).
head(r_fr8_35,fr8_p2).
body(r_fr8_35,fr4_d2).
head(r_fr8_36,fr4_f1).
body(r_fr8_36,fr8_d1).
head(r_fr8_37,fr4_f1).
body(r_fr8_37,fr6_t2).
body(r_fr8_37,fr6_d1).
head(r_fr8_38,fr4_f1).
body(r_fr8_38,fr8_t1).
head(r_fr8_39,fr4_f1).
body(r_fr8_39,fr3_q7).
body(r_fr8_39,fr8_u3).
head(r_fr8_40,fr6_t2).
body(r_fr8_40,fr4_v2).
head(r_fr8_41,fr6_t2).
body(r_fr8_41,fr8_w1).
body(r_fr8_41,fr8_x1).
body(r_fr8_41,fr8_y2).
head(r_fr8_42,fr6_t2).
body(r_fr8_42,fr3_b3).
head(r_fr8_43,fr6_t2).
head(r_fr8_44,fr4_v2).
head(r_fr8_45,fr4_v2).
body(r_fr8_45,fr1_p2).
head(r_fr8_46,fr4_z2).
body(r_fr8_46,fr4_d2).
body(r_fr8_46,fr4_d2).
body(r_fr8_46,fr6_u3).
head(r_fr8_47,fr4_z2).
body(r_fr8_47,fr3_b3).
head(r_fr8_48,fr4_z2).
head(r_fr8_49,fr4_z2).
body(r_fr8_49,fr8_p1).
body(r_fr8_49,fr6_u3).
body(r_fr8_49,fr8_w1).
head(r_fr8_50,fr3_r3).
body(r_fr8_50,fr5_q1).
body(r_fr8_50,fr4_f1).
body(r_fr8_50,fr8_x1).
head(r_fr8_51,fr3_r3).
body(r_fr8_51,fr8_s3).
body(r_fr8_51,fr6_d1).
body(r_fr8_51,fr4_z2).
head(r_fr8_52,fr3_r3).
body(r_fr8_52,fr3_b3).
body(r_fr8_52,fr3_b3).
body(r_fr8_52,fr3_b3).
head(r_fr8_53,fr3_r3).
body(r_fr8_53,fr6_f1).
body(r_fr8_53,fr8_d1).
body(r_fr8_53,fr8_d2).
head(r_fr8_54,fr3_r3).
body(r_fr8_54,fr8_d1).
body(r_fr8_54,fr8_r2).
head(r_fr8_55,fr8_v2).
body(r_fr8_55,fr3_q7).
body(r_fr8_55,fr8_d1).
body(r_fr8_55,fr8_d2).
head(r_fr8_56,fr8_v2).
head(r_fr8_57,fr3_c1).
body(r_fr8_57,fr8_t1).
head(r_fr8_58,fr3_c1).
body(r_fr8_58,fr1_s3).
head(r_fr8_59,fr3_c1).
head(r_fr8_60,fr8_p3).
head(r_fr8_61,fr8_p3).
body(r_fr8_61,fr8_s3).
body(r_fr8_61,fr8_x1).
head(r_fr8_62,fr8_p3).
body(r_fr8_62,fr3_q7).
body(r_fr8_62,fr8_d1).
head(r_fr8_63,fr8_p3).
body(r_fr8_63,fr8_y2).
body(r_fr8_63,fr5_x1).
head(r_fr8_64,fr6_u3).
body(r_fr8_64,fr6_f1).
body(r_fr8_64,fr8_r2).
body(r_fr8_64,fr8_y2).
head(r_fr8_65,fr6_u3).
body(r_fr8_65,fr4_d2).
body(r_fr8_65,fr8_w1).
head(r_fr8_66,fr6_u3).
body(r_fr8_66,fr4_d2).
head(r_fr8_67,fr6_u3).
body(r_fr8_67,fr8_a3).
body(r_fr8_67,fr8_u3).
head(r_fr8_68,fr6_u3).
head(r_fr8_69,fr8_x1).
body(r_fr8_69,fr1_s3).
body(r_fr8_69,fr3_q7).
head(r_fr8_70,fr8_x1).
body(r_fr8_70,fr4_d2).
body(r_fr8_70,fr3_b3).
body(r_fr8_70,fr8_w1).

assumption(fr2_b1).
assumption(fr10_c1).
assumption(fr7_a1).
assumption(fr10_c2).
assumption(fr10_c2).
assumption(fr2_b1).
assumption(fr9_a2).
assumption(fr8_a1).
assumption(fr2_a3).
assumption(fr9_d2).
assumption(fr6_f1).
assumption(fr8_d2).
assumption(fr6_c3).
assumption(fr6_t2).
assumption(fr5_e1).
contrary(fr2_b1,fr1_s3).
contrary(fr9_a2,fr3_q7).
contrary(fr6_c3,fr9_p1).
contrary(fr10_c1,fr9_y2).
contrary(fr8_a1,fr8_d2).
contrary(fr6_t2,fr4_z2).
contrary(fr7_a1,fr9_y3).
contrary(fr2_a3,fr6_f1).
contrary(fr5_e1,fr9_y3).
contrary(fr10_c2,fr9_y3).
contrary(fr9_d2,fr1_s3).
contrary(fr10_c2,fr7_p4).
contrary(fr6_f1,fr9_p1).
contrary(fr2_b1,fr2_v1).
contrary(fr8_d2,fr3_u5).
head(r_fr9_0,fr3_p5).
body(r_fr9_0,fr9_a2).
head(r_fr9_1,fr3_p5).
body(r_fr9_1,fr9_d2).
body(r_fr9_1,fr5_s2).
body(r_fr9_1,fr9_w1).
head(r_fr9_2,fr3_p5).
head(r_fr9_3,fr5_z2).
body(r_fr9_3,fr7_a1).
body(r_fr9_3,fr9_y1).
head(r_fr9_4,fr5_z2).
body(r_fr9_4,fr4_b2).
body(r_fr9_4,fr9_y1).
head(r_fr9_5,fr3_r3).
head(r_fr9_6,fr3_r3).
body(r_fr9_6,fr6_c3).
body(r_fr9_6,fr2_a3).
body(r_fr9_6,fr9_d2).
head(r_fr9_7,fr3_r3).
body(r_fr9_7,fr10_c2).
head(r_fr9_8,fr9_y1).
head(r_fr9_9,fr9_y1).
body(r_fr9_9,fr10_c2).
body(r_fr9_9,fr8_d2).
body(r_fr9_9,fr3_u5).
head(r_fr9_10,fr9_y1).
body(r_fr9_10,fr2_a3).
body(r_fr9_10,fr9_p1).
body(r_fr9_10,fr3_s5).
head(r_fr9_11,fr9_y1).
body(r_fr9_11,fr9_a2).
body(r_fr9_11,fr8_a1).
body(r_fr9_11,fr8_d2).
head(r_fr9_12,fr6_r2).
head(r_fr9_13,fr6_r2).
body(r_fr9_13,fr8_d2).
body(r_fr9_13,fr1_s3).
head(r_fr9_14,fr6_r2).
body(r_fr9_14,fr9_d2).
body(r_fr9_14,fr10_r3).
head(r_fr9_15,fr8_x2).
body(r_fr9_15,fr6_c3).
body(r_fr9_15,fr2_a3).
body(r_fr9_15,fr5_e1).
head(r_fr9_16,fr8_x2).
body(r_fr9_16,fr9_a2).
body(r_fr9_16,fr6_c3).
body(r_fr9_16,fr6_f1).
head(r_fr9_17,fr8_x2).
body(r_fr9_17,fr6_t2).
body(r_fr9_17,fr5_e1).
body(r_fr9_17,fr9_d2).
head(r_fr9_18,fr8_x2).
body(r_fr9_18,fr1_s3).
body(r_fr9_18,fr9_v3).
body(r_fr9_18,fr3_q7).
head(r_fr9_19,fr9_w3).
body(r_fr9_19,fr9_p1).
body(r_fr9_19,fr9_r2).
body(r_fr9_19,fr9_y3).
head(r_fr9_20,fr9_w3).
head(r_fr9_21,fr9_w3).
body(r_fr9_21,fr9_w2).
body(r_fr9_21,fr3_u5).
head(r_fr9_22,fr9_w3).
body(r_fr9_22,fr4_z2).
body(r_fr9_22,fr3_u5).
head(r_fr9_23,fr9_w3).
body(r_fr9_23,fr9_p1).
body(r_fr9_23,fr1_s3).
body(r_fr9_23,fr5_s2).
head(r_fr9_24,fr9_w1).
body(r_fr9_24,fr8_a1).
body(r_fr9_24,fr6_t2).
body(r_fr9_24,fr5_e1).
head(r_fr9_25,fr9_w1).
body(r_fr9_25,fr1_s3).
body(r_fr9_25,fr9_x1).
head(r_fr9_26,fr9_w1).
head(r_fr9_27,fr9_w1).
body(r_fr9_27,fr10_c2).
head(r_fr9_28,fr9_w1).
body(r_fr9_28,fr9_p1).
body(r_fr9_28,fr4_b2).
body(r_fr9_28,fr9_y2).
head(r_fr9_29,fr9_w2).
body(r_fr9_29,fr2_b1).
body(r_fr9_29,fr9_a2).
body(r_fr9_29,fr10_c1).
head(r_fr9_30,fr9_w2).
body(r_fr9_30,fr10_c1).
head(r_fr9_31,fr9_w2).
body(r_fr9_31,fr2_v1).
head(r_fr9_32,fr9_w2).
body(r_fr9_32,fr5_e1).
body(r_fr9_32,fr4_z2).
body(r_fr9_32,fr9_v3).
head(r_fr9_33,fr9_w2).
body(r_fr9_33,fr1_s3).
head(r_fr9_34,fr9_y2).
body(r_fr9_34,fr2_b1).
body(r_fr9_34,fr5_e1).
body(r_fr9_34,fr10_c2).
head(r_fr9_35,fr9_y2).
body(r_fr9_35,fr8_a1).
body(r_fr9_35,fr5_e1).
body(r_fr9_35,fr10_c2).
head(r_fr9_36,fr9_x1).
body(r_fr9_36,fr10_c2).
body(r_fr9_36,fr9_p1).
head(r_fr9_37,fr9_x1).
body(r_fr9_37,fr6_c3).
body(r_fr9_37,fr10_c1).
body(r_fr9_37,fr7_a1).
head(r_fr9_38,fr4_b2).
body(r_fr9_38,fr9_p1).
body(r_fr9_38,fr2_v1).
head(r_fr9_39,fr4_b2).
body(r_fr9_39,fr10_c2).
body(r_fr9_39,fr9_p1).
body(r_fr9_39,fr9_r2).
head(r_fr9_40,fr9_v2).
body(r_fr9_40,fr10_c2).
head(r_fr9_41,fr9_v2).
head(r_fr9_42,fr9_v2).
body(r_fr9_42,fr6_t2).
body(r_fr9_42,fr3_s5).
head(r_fr9_43,fr1_b1).
body(r_fr9_43,fr9_d2).
head(r_fr9_44,fr1_b1).
body(r_fr9_44,fr7_r5).
head(r_fr9_45,fr7_p4).
body(r_fr9_45,fr8_a1).
body(r_fr9_45,fr9_r2).
body(r_fr9_45,fr3_q7).
head(r_fr9_46,fr7_p4).
head(r_fr9_47,fr7_p4).
body(r_fr9_47,fr9_d2).
body(r_fr9_47,fr7_r5).
body(r_fr9_47,fr3_u5).
head(r_fr9_48,fr7_p4).
body(r_fr9_48,fr8_d2).
body(r_fr9_48,fr10_c2).
head(r_fr9_49,fr3_q7).
body(r_fr9_49,fr9_q4).
head(r_fr9_50,fr3_q7).
body(r_fr9_50,fr9_a2).
head(r_fr9_51,fr3_q7).
body(r_fr9_51,fr8_a1).
body(r_fr9_51,fr5_s2).
body(r_fr9_51,fr9_y3).
head(r_fr9_52,fr3_q7).
body(r_fr9_52,fr9_a2).
body(r_fr9_52,fr9_d2).
body(r_fr9_52,fr10_c2).
head(r_fr9_53,fr10_r3).
body(r_fr9_53,fr6_c3).
body(r_fr9_53,fr9_d2).
body(r_fr9_53,fr4_z2).
head(r_fr9_54,fr10_r3).
body(r_fr9_54,fr9_a2).
body(r_fr9_54,fr10_c1).
head(r_fr9_55,fr10_r3).
head(r_fr9_56,fr7_r5).
body(r_fr9_56,fr9_d2).
head(r_fr9_57,fr7_r5).
head(r_fr9_58,fr7_r5).
body(r_fr9_58,fr8_d2).
body(r_fr9_58,fr6_r1).
head(r_fr9_59,fr9_q4).
head(r_fr9_60,fr9_q4).
body(r_fr9_60,fr8_a1).
body(r_fr9_60,fr9_p1).
body(r_fr9_60,fr4_z2).
head(r_fr9_61,fr9_q4).
body(r_fr9_61,fr9_p1).
body(r_fr9_61,fr1_s3).

assumption(fr10_a1).
assumption(fr2_b1).
assumption(fr3_v3).
assumption(fr10_d1).
assumption(fr10_c1).
assumption(fr2_b1).
assumption(fr3_b3).
assumption(fr2_a3).
assumption(fr3_c2).
assumption(fr2_b1).
assumption(fr3_b3).
assumption(fr2_b1).
assumption(fr5_q1).
assumption(fr3_b3).
assumption(fr3_b3).
contrary(fr10_a1,fr2_a3).
contrary(fr3_b3,fr1_s3).
contrary(fr5_q1,fr1_s3).
contrary(fr2_b1,fr10_r3).
contrary(fr2_a3,fr10_r3).
contrary(fr3_b3,fr3_b3).
contrary(fr3_v3,fr10_p3).
contrary(fr3_c2,fr5_s2).
contrary(fr3_b3,fr10_c1).
contrary(fr10_d1,fr2_c2).
contrary(fr2_b1,fr6_d2).
contrary(fr10_c1,fr10_x2).
contrary(fr3_b3,fr3_b3).
contrary(fr2_b1,fr2_b1).
contrary(fr2_b1,fr6_p3).
head(r_fr10_0,fr2_c2).
body(r_fr10_0,fr3_b3).
body(r_fr10_0,fr5_q1).
body(r_fr10_0,fr10_d1).
body(r_fr10_0,fr2_b1).
head(r_fr10_1,fr2_c2).
body(r_fr10_1,fr5_q1).
body(r_fr10_1,fr10_d1).
body(r_fr10_1,fr10_c1).
head(r_fr10_2,fr2_c2).
body(r_fr10_2,fr3_b3).
head(r_fr10_3,fr2_c2).
head(r_fr10_4,fr2_c2).
body(r_fr10_4,fr2_b1).
head(r_fr10_5,fr10_u1).
body(r_fr10_5,fr6_t2).
head(r_fr10_6,fr10_u1).
body(r_fr10_6,fr5_q1).
body(r_fr10_6,fr3_b3).
body(r_fr10_6,fr10_c1).
body(r_fr10_6,fr3_b3).
body(r_fr10_6,fr2_b1).
body(r_fr10_6,fr2_b1).
head(r_fr10_7,fr10_u1).
head(r_fr10_8,fr10_u1).
body(r_fr10_8,fr10_a1).
body(r_fr10_8,fr10_d1).
body(r_fr10_8,fr10_u2).
head(r_fr10_9,fr10_u1).
body(r_fr10_9,fr3_b3).
body(r_fr10_9,fr3_v3).
body(r_fr10_9,fr3_c2).
body(r_fr10_9,fr3_b3).
body(r_fr10_9,fr10_c1).
body(r_fr10_9,fr4_b3).
head(r_fr10_10,fr10_u1).
body(r_fr10_10,fr3_b3).
body(r_fr10_10,fr10_d1).
body(r_fr10_10,fr6_p3).
body(r_fr10_10,fr6_t2).
body(r_fr10_10,fr10_t2).
body(r_fr10_10,fr10_x2).
head(r_fr10_11,fr10_u1).
body(r_fr10_11,fr2_b1).
body(r_fr10_11,fr3_u5).
head(r_fr10_12,fr10_u1).
body(r_fr10_12,fr10_p2).
body(r_fr10_12,fr10_p3).
body(r_fr10_12,fr2_c2).
body(r_fr10_12,fr10_t2).
body(r_fr10_12,fr1_s3).
head(r_fr10_13,fr1_b1).
body(r_fr10_13,fr2_b1).
body(r_fr10_13,fr2_b1).
body(r_fr10_13,fr10_c1).
body(r_fr10_13,fr2_b1).
head(r_fr10_14,fr1_b1).
body(r_fr10_14,fr6_p3).
head(r_fr10_15,fr1_b1).
body(r_fr10_15,fr10_p3).
body(r_fr10_15,fr10_z1).
head(r_fr10_16,fr1_b1).
body(r_fr10_16,fr5_s2).
body(r_fr10_16,fr6_p3).
body(r_fr10_16,fr3_s5).
body(r_fr10_16,fr10_t2).
body(r_fr10_16,fr10_z1).
head(r_fr10_17,fr1_b1).
body(r_fr10_17,fr2_b1).
body(r_fr10_17,fr2_a3).
body(r_fr10_17,fr2_b1).
body(r_fr10_17,fr2_b1).
body(r_fr10_17,fr6_t2).
body(r_fr10_17,fr9_y2).
head(r_fr10_18,fr1_b1).
head(r_fr10_19,fr10_x2).
body(r_fr10_19,fr10_d1).
body(r_fr10_19,fr3_s5).
body(r_fr10_19,fr1_s3).
head(r_fr10_20,fr10_x2).
body(r_fr10_20,fr10_a1).
body(r_fr10_20,fr5_q1).
body(r_fr10_20,fr2_a3).
body(r_fr10_20,fr3_b3).
body(r_fr10_20,fr3_v3).
head(r_fr10_21,fr10_x2).
body(r_fr10_21,fr10_p3).
body(r_fr10_21,fr1_b1).
head(r_fr10_22,fr10_x2).
body(r_fr10_22,fr2_b1).
body(r_fr10_22,fr2_a3).
body(r_fr10_22,fr3_b3).
body(r_fr10_22,fr10_z2).
head(r_fr10_23,fr10_x2).
head(r_fr10_24,fr10_x2).
body(r_fr10_24,fr2_a3).
body(r_fr10_24,fr10_c1).
body(r_fr10_24,fr2_c2).
body(r_fr10_24,fr1_s3).
body(r_fr10_24,fr4_b3).
body(r_fr10_24,fr3_t5).
head(r_fr10_25,fr10_x2).
body(r_fr10_25,fr10_p2).
body(r_fr10_25,fr6_p3).
body(r_fr10_25,fr10_t2).
head(r_fr10_26,fr10_x2).
body(r_fr10_26,fr10_d1).
body(r_fr10_26,fr5_s2).
body(r_fr10_26,fr6_p3).
body(r_fr10_26,fr9_y2).
body(r_fr10_26,fr10_t2).
body(r_fr10_26,fr10_z2).
head(r_fr10_27,fr3_u5).
body(r_fr10_27,fr3_v3).
body(r_fr10_27,fr10_d1).
body(r_fr10_27,fr10_c1).
body(r_fr10_27,fr2_b1).
head(r_fr10_28,fr3_u5).
body(r_fr10_28,fr10_a1).
body(r_fr10_28,fr3_v3).
body(r_fr10_28,fr10_d1).
body(r_fr10_28,fr5_s2).
head(r_fr10_29,fr3_u5).
body(r_fr10_29,fr2_c2).
body(r_fr10_29,fr10_u1).
body(r_fr10_29,fr1_b1).
body(r_fr10_29,fr10_z1).
body(r_fr10_29,fr10_z2).
head(r_fr10_30,fr3_u5).
body(r_fr10_30,fr3_c2).
body(r_fr10_30,fr6_d2).
body(r_fr10_30,fr10_z2).
head(r_fr10_31,fr3_u5).
body(r_fr10_31,fr2_b1).
body(r_fr10_31,fr10_p3).
body(r_fr10_31,fr6_p3).
body(r_fr10_31,fr1_s3).
body(r_fr10_31,fr10_z1).
head(r_fr10_32,fr7_a1).
head(r_fr10_33,fr7_a1).
body(r_fr10_33,fr5_q1).
body(r_fr10_33,fr3_c2).
body(r_fr10_33,fr10_p3).
body(r_fr10_33,fr10_u2).
head(r_fr10_34,fr7_a1).
body(r_fr10_34,fr10_p2).
head(r_fr10_35,fr7_a1).
body(r_fr10_35,fr5_q1).
body(r_fr10_35,fr3_b3).
body(r_fr10_35,fr2_b1).
body(r_fr10_35,fr2_b1).
body(r_fr10_35,fr2_c2).
body(r_fr10_35,fr4_b3).
head(r_fr10_36,fr7_a1).
body(r_fr10_36,fr10_p2).
body(r_fr10_36,fr10_p3).
body(r_fr10_36,fr6_t2).
head(r_fr10_37,fr7_a1).
body(r_fr10_37,fr6_t2).
body(r_fr10_37,fr10_r3).
body(r_fr10_37,fr2_c2).
body(r_fr10_37,fr6_t2).
head(r_fr10_38,fr3_s5).
body(r_fr10_38,fr10_a1).
body(r_fr10_38,fr2_b1).
body(r_fr10_38,fr3_b3).
head(r_fr10_39,fr3_s5).
body(r_fr10_39,fr10_a1).
body(r_fr10_39,fr2_a3).
body(r_fr10_39,fr3_b3).
body(r_fr10_39,fr2_b1).
body(r_fr10_39,fr10_u1).
body(r_fr10_39,fr10_x2).
head(r_fr10_40,fr3_s5).
body(r_fr10_40,fr3_b3).
body(r_fr10_40,fr2_a3).
body(r_fr10_40,fr10_c1).
head(r_fr10_41,fr3_s5).
body(r_fr10_41,fr6_d2).
body(r_fr10_41,fr9_y2).
body(r_fr10_41,fr2_c2).
body(r_fr10_41,fr10_u1).
body(r_fr10_41,fr4_b3).
head(r_fr10_42,fr3_s5).
head(r_fr10_43,fr3_s5).
body(r_fr10_43,fr3_b3).
body(r_fr10_43,fr10_p3).
body(r_fr10_43,fr6_p3).
body(r_fr10_43,fr10_r3).
body(r_fr10_43,fr6_t2).
body(r_fr10_43,fr3_t5).
head(r_fr10_44,fr4_b3).
body(r_fr10_44,fr3_b3).
head(r_fr10_45,fr4_b3).
body(r_fr10_45,fr3_b3).
body(r_fr10_45,fr2_b1).
body(r_fr10_45,fr5_s2).
head(r_fr10_46,fr4_b3).
body(r_fr10_46,fr3_c2).
body(r_fr10_46,fr2_b1).
head(r_fr10_47,fr4_b3).
body(r_fr10_47,fr6_t2).
body(r_fr10_47,fr10_t2).
body(r_fr10_47,fr1_s3).
body(r_fr10_47,fr3_t5).
body(r_fr10_47,fr10_z1).
head(r_fr10_48,fr4_b3).
body(r_fr10_48,fr2_b1).
body(r_fr10_48,fr2_b1).
body(r_fr10_48,fr10_c1).
body(r_fr10_48,fr3_b3).
head(r_fr10_49,fr4_b3).
body(r_fr10_49,fr5_s2).
body(r_fr10_49,fr6_p3).
body(r_fr10_49,fr10_r3).
body(r_fr10_49,fr10_u2).
body(r_fr10_49,fr1_s3).
body(r_fr10_49,fr10_z1).
head(r_fr10_50,fr6_d2).
body(r_fr10_50,fr10_a1).
body(r_fr10_50,fr2_b1).
body(r_fr10_50,fr3_b3).
body(r_fr10_50,fr10_d1).
body(r_fr10_50,fr10_x2).
head(r_fr10_51,fr6_d2).
body(r_fr10_51,fr10_c1).
body(r_fr10_51,fr2_b1).
body(r_fr10_51,fr10_p3).
body(r_fr10_51,fr1_s3).
body(r_fr10_51,fr10_x2).
head(r_fr10_52,fr6_d2).
body(r_fr10_52,fr5_s2).
body(r_fr10_52,fr2_c2).
body(r_fr10_52,fr10_u2).
head(r_fr10_53,fr6_d2).
body(r_fr10_53,fr10_a1).
body(r_fr10_53,fr3_b3).
body(r_fr10_53,fr3_c2).
body(r_fr10_53,fr2_b1).
head(r_fr10_54,fr6_d2).
body(r_fr10_54,fr2_b1).
body(r_fr10_54,fr2_a3).
body(r_fr10_54,fr3_c2).
body(r_fr10_54,fr2_b1).
body(r_fr10_54,fr2_b1).
head(r_fr10_55,fr6_d2).
body(r_fr10_55,fr10_u2).
head(r_fr10_56,fr6_t2).
body(r_fr10_56,fr2_a3).
body(r_fr10_56,fr6_d2).
body(r_fr10_56,fr3_t5).
head(r_fr10_57,fr6_t2).
body(r_fr10_57,fr5_q1).
body(r_fr10_57,fr3_b3).
body(r_fr10_57,fr10_u1).
head(r_fr10_58,fr6_t2).
body(r_fr10_58,fr10_a1).
body(r_fr10_58,fr3_c2).
body(r_fr10_58,fr3_b3).
body(r_fr10_58,fr2_b1).
head(r_fr10_59,fr6_t2).
body(r_fr10_59,fr3_b3).
head(r_fr10_60,fr6_t2).
body(r_fr10_60,fr1_s3).
head(r_fr10_61,fr6_t2).
body(r_fr10_61,fr3_u5).
body(r_fr10_61,fr10_u1).
body(r_fr10_61,fr1_s3).
body(r_fr10_61,fr1_s3).
head(r_fr10_62,fr1_s3).
body(r_fr10_62,fr10_u1).
head(r_fr10_63,fr1_s3).
body(r_fr10_63,fr6_d2).
body(r_fr10_63,fr9_y2).
body(r_fr10_63,fr10_r3).
body(r_fr10_63,fr2_c2).
body(r_fr10_63,fr10_r3).
head(r_fr10_64,fr1_s3).
body(r_fr10_64,fr5_q1).
body(r_fr10_64,fr2_b1).
head(r_fr10_65,fr1_s3).
body(r_fr10_65,fr5_q1).
body(r_fr10_65,fr2_b1).
body(r_fr10_65,fr3_b3).
body(r_fr10_65,fr3_v3).
body(r_fr10_65,fr3_b3).
body(r_fr10_65,fr3_u5).
head(r_fr10_66,fr1_s3).
head(r_fr10_67,fr10_z2).
body(r_fr10_67,fr10_a1).
body(r_fr10_67,fr3_b3).
body(r_fr10_67,fr3_b3).
body(r_fr10_67,fr2_b1).
head(r_fr10_68,fr10_z2).
body(r_fr10_68,fr10_a1).
body(r_fr10_68,fr2_c2).
body(r_fr10_68,fr10_u2).
body(r_fr10_68,fr1_b1).
head(r_fr10_69,fr10_z2).
body(r_fr10_69,fr10_a1).
body(r_fr10_69,fr10_d1).
body(r_fr10_69,fr2_b1).
body(r_fr10_69,fr4_b3).
head(r_fr10_70,fr10_z2).
body(r_fr10_70,fr2_b1).
body(r_fr10_70,fr2_a3).
body(r_fr10_70,fr3_b3).
body(r_fr10_70,fr2_b1).
head(r_fr10_71,fr10_z2).
body(r_fr10_71,fr1_s3).
head(r_fr10_72,fr10_z2).
body(r_fr10_72,fr2_a3).
body(r_fr10_72,fr3_v3).
body(r_fr10_72,fr3_b3).
body(r_fr10_72,fr2_b1).
body(r_fr10_72,fr10_c1).
body(r_fr10_72,fr3_b3).
head(r_fr10_73,fr10_z1).
body(r_fr10_73,fr3_b3).
body(r_fr10_73,fr3_c2).
body(r_fr10_73,fr3_b3).
body(r_fr10_73,fr2_b1).
body(r_fr10_73,fr10_t2).
head(r_fr10_74,fr10_z1).
head(r_fr10_75,fr10_z1).
body(r_fr10_75,fr3_b3).
body(r_fr10_75,fr3_b3).
head(r_fr10_76,fr10_z1).
body(r_fr10_76,fr9_y2).
head(r_fr10_77,fr10_z1).
body(r_fr10_77,fr3_b3).
body(r_fr10_77,fr5_q1).
body(r_fr10_77,fr5_s2).
body(r_fr10_77,fr6_d2).
head(r_fr10_78,fr10_u2).
body(r_fr10_78,fr9_y2).
body(r_fr10_78,fr4_b3).
head(r_fr10_79,fr10_u2).
body(r_fr10_79,fr3_b3).
body(r_fr10_79,fr2_b1).
body(r_fr10_79,fr2_b1).
body(r_fr10_79,fr6_t2).
head(r_fr10_80,fr10_u2).
body(r_fr10_80,fr10_a1).
body(r_fr10_80,fr2_b1).
body(r_fr10_80,fr3_c2).
body(r_fr10_80,fr3_b3).
body(r_fr10_80,fr3_t5).
head(r_fr10_81,fr10_u2).
body(r_fr10_81,fr10_a1).
body(r_fr10_81,fr2_b1).
body(r_fr10_81,fr6_t2).
head(r_fr10_82,fr10_u2).
body(r_fr10_82,fr10_a1).
head(r_fr10_83,fr5_s2).
body(r_fr10_83,fr5_q1).
body(r_fr10_83,fr2_a3).
body(r_fr10_83,fr10_p2).
body(r_fr10_83,fr2_c2).
head(r_fr10_84,fr5_s2).
head(r_fr10_85,fr5_s2).
body(r_fr10_85,fr10_a1).
head(r_fr10_86,fr5_s2).
body(r_fr10_86,fr2_a3).
body(r_fr10_86,fr3_b3).
head(r_fr10_87,fr5_s2).
body(r_fr10_87,fr10_p2).
body(r_fr10_87,fr10_u2).
body(r_fr10_87,fr4_b3).
body(r_fr10_87,fr10_z1).
head(r_fr10_88,fr5_s2).
body(r_fr10_88,fr3_c2).
body(r_fr10_88,fr3_s5).
head(r_fr10_89,fr5_s2).
body(r_fr10_89,fr3_b3).
body(r_fr10_89,fr10_x2).
head(r_fr10_90,fr5_s2).
body(r_fr10_90,fr3_b3).
body(r_fr10_90,fr6_t2).
body(r_fr10_90,fr10_u2).
head(r_fr10_91,fr6_p3).
body(r_fr10_91,fr3_c2).
body(r_fr10_91,fr2_b1).
body(r_fr10_91,fr3_t5).
head(r_fr10_92,fr6_p3).
body(r_fr10_92,fr3_t5).
head(r_fr10_93,fr6_p3).
body(r_fr10_93,fr3_b3).
body(r_fr10_93,fr3_b3).
body(r_fr10_93,fr3_v3).
body(r_fr10_93,fr2_b1).
head(r_fr10_94,fr6_p3).
body(r_fr10_94,fr10_a1).
body(r_fr10_94,fr1_s3).
head(r_fr10_95,fr6_p3).
body(r_fr10_95,fr5_q1).
head(r_fr10_96,fr6_p3).
body(r_fr10_96,fr3_b3).
body(r_fr10_96,fr10_t2).
body(r_fr10_96,fr7_a1).
body(r_fr10_96,fr6_t2).
body(r_fr10_96,fr10_z1).
head(r_fr10_97,fr6_p3).
body(r_fr10_97,fr6_t2).
body(r_fr10_97,fr9_y2).
head(r_fr10_98,fr6_p3).
head(r_fr10_99,fr10_r3).
body(r_fr10_99,fr2_a3).
body(r_fr10_99,fr10_x2).
head(r_fr10_100,fr10_r3).
body(r_fr10_100,fr2_b1).
body(r_fr10_100,fr3_b3).
head(r_fr10_101,fr10_r3).
body(r_fr10_101,fr2_b1).
body(r_fr10_101,fr10_t2).
body(r_fr10_101,fr10_z2).
head(r_fr10_102,fr10_r3).
body(r_fr10_102,fr2_b1).
body(r_fr10_102,fr3_v3).
body(r_fr10_102,fr2_b1).
head(r_fr10_103,fr10_r3).
body(r_fr10_103,fr10_a1).
body(r_fr10_103,fr2_b1).
body(r_fr10_103,fr10_u2).
body(r_fr10_103,fr10_z1).
head(r_fr10_104,fr10_r3).
body(r_fr10_104,fr2_a3).
head(r_fr10_105,fr10_r3).
head(r_fr10_106,fr10_p2).
head(r_fr10_107,fr10_p2).
body(r_fr10_107,fr10_d1).
body(r_fr10_107,fr2_b1).
body(r_fr10_107,fr10_t2).
body(r_fr10_107,fr10_u2).
body(r_fr10_107,fr10_x2).
head(r_fr10_108,fr10_p2).
body(r_fr10_108,fr3_b3).
body(r_fr10_108,fr2_b1).
body(r_fr10_108,fr2_b1).
body(r_fr10_108,fr10_r3).
body(r_fr10_108,fr7_a1).
body(r_fr10_108,fr10_z2).
head(r_fr10_109,fr10_p2).
body(r_fr10_109,fr2_b1).
body(r_fr10_109,fr3_v3).
body(r_fr10_109,fr3_b3).
head(r_fr10_110,fr10_p2).
body(r_fr10_110,fr3_b3).
head(r_fr10_111,fr10_p3).
body(r_fr10_111,fr4_b3).
head(r_fr10_112,fr10_p3).
body(r_fr10_112,fr2_b1).
body(r_fr10_112,fr3_b3).
body(r_fr10_112,fr10_c1).
body(r_fr10_112,fr2_b1).
body(r_fr10_112,fr6_d2).
body(r_fr10_112,fr7_a1).
head(r_fr10_113,fr10_p3).
body(r_fr10_113,fr10_r3).
head(r_fr10_114,fr10_p3).
body(r_fr10_114,fr2_b1).
body(r_fr10_114,fr3_b3).
body(r_fr10_114,fr10_r3).
head(r_fr10_115,fr10_p3).
body(r_fr10_115,fr3_v3).
body(r_fr10_115,fr10_c1).
body(r_fr10_115,fr5_s2).
body(r_fr10_115,fr3_s5).
head(r_fr10_116,fr10_p3).
head(r_fr10_117,fr3_t5).
head(r_fr10_118,fr3_t5).
body(r_fr10_118,fr10_a1).
body(r_fr10_118,fr2_b1).
body(r_fr10_118,fr2_a3).
body(r_fr10_118,fr2_b1).
head(r_fr10_119,fr3_t5).
body(r_fr10_119,fr1_s3).
head(r_fr10_120,fr3_t5).
body(r_fr10_120,fr3_v3).
body(r_fr10_120,fr3_s5).
head(r_fr10_121,fr3_t5).
body(r_fr10_121,fr3_u5).
head(r_fr10_122,fr3_t5).
body(r_fr10_122,fr10_a1).
body(r_fr10_122,fr2_b1).
body(r_fr10_122,fr5_s2).
body(r_fr10_122,fr9_y2).
body(r_fr10_122,fr10_u2).
head(r_fr10_123,fr3_t5).
body(r_fr10_123,fr3_b3).
body(r_fr10_123,fr2_b1).
body(r_fr10_123,fr1_s3).

