assumption(fr1_a1).
assumption(fr1_b1).
assumption(fr7_e1).
assumption(fr1_d1).
assumption(fr1_e1).
assumption(fr1_f1).
assumption(fr1_a2).
assumption(fr1_b2).
assumption(fr1_c2).
assumption(fr1_d2).
assumption(fr1_e2).
assumption(fr1_f2).
assumption(fr1_a3).
assumption(fr1_b3).
assumption(fr1_c3).
contrary(fr1_a1,fr1_v3).
contrary(fr1_a2,fr1_y2).
contrary(fr1_a3,fr1_b2).
contrary(fr1_b1,fr1_c3).
contrary(fr1_b2,fr1_z1).
contrary(fr1_b3,fr1_u3).
contrary(fr7_e1,fr1_v1).
contrary(fr1_c2,fr1_y2).
contrary(fr1_c3,fr1_s3).
contrary(fr1_d1,fr1_a1).
contrary(fr1_d2,fr1_y2).
contrary(fr1_e1,fr1_p2).
contrary(fr1_e2,fr1_p4).
contrary(fr1_f1,fr1_s2).
contrary(fr1_f2,fr1_b2).
head(r_fr1_0,fr1_z2).
body(r_fr1_0,fr1_a2).
body(r_fr1_0,fr1_a3).
body(r_fr1_0,fr1_b2).
body(r_fr1_0,fr7_e1).
body(r_fr1_0,fr1_f1).
body(r_fr1_0,fr1_p2).
body(r_fr1_0,fr1_q2).
body(r_fr1_0,fr1_q4).
body(r_fr1_0,fr1_r1).
body(r_fr1_0,fr1_r2).
body(r_fr1_0,fr1_s1).
body(r_fr1_0,fr1_s3).
body(r_fr1_0,fr1_u2).
body(r_fr1_0,fr1_u3).
body(r_fr1_0,fr1_v1).
body(r_fr1_0,fr1_v2).
body(r_fr1_0,fr1_w1).
body(r_fr1_0,fr1_x1).
body(r_fr1_0,fr1_x3).
body(r_fr1_0,fr1_y2).
body(r_fr1_0,fr1_y3).
body(r_fr1_0,fr1_z3).
head(r_fr1_1,fr1_z2).
body(r_fr1_1,fr1_a3).
body(r_fr1_1,fr1_b2).
body(r_fr1_1,fr7_e1).
body(r_fr1_1,fr1_d2).
body(r_fr1_1,fr1_e2).
body(r_fr1_1,fr1_p2).
body(r_fr1_1,fr1_p4).
body(r_fr1_1,fr1_q3).
body(r_fr1_1,fr1_q4).
body(r_fr1_1,fr1_r1).
body(r_fr1_1,fr7_c2).
body(r_fr1_1,fr1_t3).
body(r_fr1_1,fr1_u1).
body(r_fr1_1,fr1_u2).
body(r_fr1_1,fr1_u3).
body(r_fr1_1,fr1_v1).
body(r_fr1_1,fr1_v2).
body(r_fr1_1,fr1_v3).
body(r_fr1_1,fr1_w1).
body(r_fr1_1,fr1_w2).
body(r_fr1_1,fr1_x1).
body(r_fr1_1,fr1_y1).
body(r_fr1_1,fr1_y2).
head(r_fr1_2,fr1_p4).
body(r_fr1_2,fr1_c2).
body(r_fr1_2,fr1_d2).
body(r_fr1_2,fr1_f1).
body(r_fr1_2,fr1_p1).
body(r_fr1_2,fr1_p2).
body(r_fr1_2,fr1_q1).
body(r_fr1_2,fr1_q2).
body(r_fr1_2,fr1_r1).
body(r_fr1_2,fr7_c2).
body(r_fr1_2,fr1_s3).
body(r_fr1_2,fr1_t1).
body(r_fr1_2,fr1_u2).
body(r_fr1_2,fr1_u3).
body(r_fr1_2,fr1_v1).
body(r_fr1_2,fr1_v2).
body(r_fr1_2,fr1_w1).
body(r_fr1_2,fr1_w2).
body(r_fr1_2,fr1_w3).
body(r_fr1_2,fr1_x1).
body(r_fr1_2,fr1_y2).
body(r_fr1_2,fr1_y3).
body(r_fr1_2,fr1_z1).
body(r_fr1_2,fr1_z3).
head(r_fr1_3,fr1_p4).
body(r_fr1_3,fr1_a2).
body(r_fr1_3,fr1_e1).
body(r_fr1_3,fr1_p3).
body(r_fr1_3,fr1_q1).
body(r_fr1_3,fr1_q2).
body(r_fr1_3,fr1_q4).
body(r_fr1_3,fr1_r1).
body(r_fr1_3,fr7_c2).
body(r_fr1_3,fr1_s1).
body(r_fr1_3,fr1_s3).
body(r_fr1_3,fr1_t1).
body(r_fr1_3,fr1_t2).
body(r_fr1_3,fr1_u2).
body(r_fr1_3,fr1_u3).
body(r_fr1_3,fr1_v1).
body(r_fr1_3,fr1_v3).
body(r_fr1_3,fr1_w1).
body(r_fr1_3,fr1_w3).
body(r_fr1_3,fr1_x2).
body(r_fr1_3,fr1_x3).
body(r_fr1_3,fr1_y1).
body(r_fr1_3,fr1_y2).
body(r_fr1_3,fr1_z2).
body(r_fr1_3,fr1_z3).
head(r_fr1_4,fr1_p4).
body(r_fr1_4,fr1_b3).
body(r_fr1_4,fr1_c2).
body(r_fr1_4,fr1_d1).
body(r_fr1_4,fr1_e1).
body(r_fr1_4,fr1_p2).
body(r_fr1_4,fr1_p3).
body(r_fr1_4,fr1_q1).
body(r_fr1_4,fr1_q3).
body(r_fr1_4,fr1_q4).
body(r_fr1_4,fr1_s1).
body(r_fr1_4,fr1_s2).
body(r_fr1_4,fr1_s3).
body(r_fr1_4,fr1_t2).
body(r_fr1_4,fr1_u2).
body(r_fr1_4,fr1_v3).
body(r_fr1_4,fr1_w1).
body(r_fr1_4,fr1_w2).
body(r_fr1_4,fr1_w3).
body(r_fr1_4,fr1_x1).
body(r_fr1_4,fr1_x2).
body(r_fr1_4,fr1_y1).
body(r_fr1_4,fr1_y2).
body(r_fr1_4,fr1_y3).
body(r_fr1_4,fr1_z3).
head(r_fr1_5,fr1_p4).
body(r_fr1_5,fr1_p1).
body(r_fr1_5,fr1_p2).
body(r_fr1_5,fr1_p3).
body(r_fr1_5,fr1_q1).
body(r_fr1_5,fr1_q2).
body(r_fr1_5,fr1_q3).
body(r_fr1_5,fr1_q4).
body(r_fr1_5,fr1_r1).
body(r_fr1_5,fr1_s1).
body(r_fr1_5,fr1_s3).
body(r_fr1_5,fr1_t1).
body(r_fr1_5,fr1_t2).
body(r_fr1_5,fr1_u1).
body(r_fr1_5,fr1_u2).
body(r_fr1_5,fr1_v3).
body(r_fr1_5,fr1_w1).
body(r_fr1_5,fr1_y1).
body(r_fr1_5,fr1_y2).
body(r_fr1_5,fr1_y3).
body(r_fr1_5,fr1_z1).
body(r_fr1_5,fr1_z2).
head(r_fr1_6,fr1_p4).
body(r_fr1_6,fr7_e1).
body(r_fr1_6,fr1_p1).
body(r_fr1_6,fr1_q1).
body(r_fr1_6,fr1_q2).
body(r_fr1_6,fr1_q3).
body(r_fr1_6,fr1_q4).
body(r_fr1_6,fr7_c2).
body(r_fr1_6,fr1_s1).
body(r_fr1_6,fr1_s2).
body(r_fr1_6,fr1_s3).
body(r_fr1_6,fr1_t1).
body(r_fr1_6,fr1_t2).
body(r_fr1_6,fr1_u3).
body(r_fr1_6,fr1_v1).
body(r_fr1_6,fr1_v2).
body(r_fr1_6,fr1_w1).
body(r_fr1_6,fr1_w2).
body(r_fr1_6,fr1_w3).
body(r_fr1_6,fr1_x1).
body(r_fr1_6,fr1_x2).
body(r_fr1_6,fr1_x3).
body(r_fr1_6,fr1_y1).
body(r_fr1_6,fr1_y2).
body(r_fr1_6,fr1_z2).
head(r_fr1_7,fr1_p3).
body(r_fr1_7,fr1_a1).
body(r_fr1_7,fr1_b1).
body(r_fr1_7,fr7_e1).
body(r_fr1_7,fr1_p4).
body(r_fr1_7,fr1_q1).
body(r_fr1_7,fr1_q2).
body(r_fr1_7,fr1_q4).
body(r_fr1_7,fr1_r2).
body(r_fr1_7,fr1_s3).
body(r_fr1_7,fr1_t3).
body(r_fr1_7,fr1_u1).
body(r_fr1_7,fr1_u2).
body(r_fr1_7,fr1_u3).
body(r_fr1_7,fr1_v2).
body(r_fr1_7,fr1_w1).
body(r_fr1_7,fr1_w2).
body(r_fr1_7,fr1_x1).
body(r_fr1_7,fr1_x3).
body(r_fr1_7,fr1_y1).
body(r_fr1_7,fr1_y2).
body(r_fr1_7,fr1_y3).
body(r_fr1_7,fr1_z1).
head(r_fr1_8,fr1_p3).
body(r_fr1_8,fr1_b2).
body(r_fr1_8,fr1_b3).
body(r_fr1_8,fr7_e1).
body(r_fr1_8,fr1_c2).
body(r_fr1_8,fr1_e1).
body(r_fr1_8,fr1_e2).
body(r_fr1_8,fr1_q1).
body(r_fr1_8,fr1_q2).
body(r_fr1_8,fr1_q4).
body(r_fr1_8,fr1_r2).
body(r_fr1_8,fr1_s2).
body(r_fr1_8,fr1_t1).
body(r_fr1_8,fr1_t2).
body(r_fr1_8,fr1_u1).
body(r_fr1_8,fr1_u2).
body(r_fr1_8,fr1_u3).
body(r_fr1_8,fr1_v1).
body(r_fr1_8,fr1_v3).
body(r_fr1_8,fr1_x1).
body(r_fr1_8,fr1_x3).
body(r_fr1_8,fr1_y2).
body(r_fr1_8,fr1_y3).
body(r_fr1_8,fr1_z1).
head(r_fr1_9,fr1_w3).
body(r_fr1_9,fr1_b1).
body(r_fr1_9,fr1_c3).
body(r_fr1_9,fr1_e2).
body(r_fr1_9,fr1_f1).
body(r_fr1_9,fr1_f2).
body(r_fr1_9,fr1_p1).
body(r_fr1_9,fr1_p3).
body(r_fr1_9,fr1_p4).
body(r_fr1_9,fr1_q1).
body(r_fr1_9,fr1_q3).
body(r_fr1_9,fr1_q4).
body(r_fr1_9,fr1_s3).
body(r_fr1_9,fr1_t1).
body(r_fr1_9,fr1_t2).
body(r_fr1_9,fr1_t3).
body(r_fr1_9,fr1_v3).
body(r_fr1_9,fr1_w1).
body(r_fr1_9,fr1_x1).
body(r_fr1_9,fr1_x2).
body(r_fr1_9,fr1_x3).
body(r_fr1_9,fr1_y2).
body(r_fr1_9,fr1_y3).
body(r_fr1_9,fr1_z1).
head(r_fr1_10,fr1_w3).
body(r_fr1_10,fr1_a1).
body(r_fr1_10,fr1_a3).
body(r_fr1_10,fr1_b2).
body(r_fr1_10,fr1_d2).
body(r_fr1_10,fr1_f1).
body(r_fr1_10,fr1_f2).
body(r_fr1_10,fr1_p2).
body(r_fr1_10,fr1_p3).
body(r_fr1_10,fr1_p4).
body(r_fr1_10,fr1_q3).
body(r_fr1_10,fr1_r2).
body(r_fr1_10,fr7_c2).
body(r_fr1_10,fr1_s2).
body(r_fr1_10,fr1_t2).
body(r_fr1_10,fr1_u1).
body(r_fr1_10,fr1_v1).
body(r_fr1_10,fr1_w2).
body(r_fr1_10,fr1_x1).
body(r_fr1_10,fr1_x2).
body(r_fr1_10,fr1_y1).
body(r_fr1_10,fr1_y2).
body(r_fr1_10,fr1_z1).
body(r_fr1_10,fr1_z3).
head(r_fr1_11,fr1_w3).
body(r_fr1_11,fr1_p2).
body(r_fr1_11,fr1_p4).
body(r_fr1_11,fr1_q2).
body(r_fr1_11,fr1_q3).
body(r_fr1_11,fr1_q4).
body(r_fr1_11,fr1_r2).
body(r_fr1_11,fr7_c2).
body(r_fr1_11,fr1_s1).
body(r_fr1_11,fr1_s2).
body(r_fr1_11,fr1_s3).
body(r_fr1_11,fr1_t1).
body(r_fr1_11,fr1_t3).
body(r_fr1_11,fr1_u1).
body(r_fr1_11,fr1_u2).
body(r_fr1_11,fr1_u3).
body(r_fr1_11,fr1_v3).
body(r_fr1_11,fr1_w2).
body(r_fr1_11,fr1_x1).
body(r_fr1_11,fr1_y2).
body(r_fr1_11,fr1_y3).
body(r_fr1_11,fr1_z1).
body(r_fr1_11,fr1_z3).
head(r_fr1_12,fr1_w3).
body(r_fr1_12,fr7_e1).
body(r_fr1_12,fr1_p1).
body(r_fr1_12,fr1_p2).
body(r_fr1_12,fr1_p4).
body(r_fr1_12,fr1_q1).
body(r_fr1_12,fr1_q3).
body(r_fr1_12,fr1_r2).
body(r_fr1_12,fr7_c2).
body(r_fr1_12,fr1_s1).
body(r_fr1_12,fr1_s2).
body(r_fr1_12,fr1_s3).
body(r_fr1_12,fr1_t2).
body(r_fr1_12,fr1_t3).
body(r_fr1_12,fr1_u1).
body(r_fr1_12,fr1_v1).
body(r_fr1_12,fr1_v2).
body(r_fr1_12,fr1_w1).
body(r_fr1_12,fr1_x3).
body(r_fr1_12,fr1_y1).
body(r_fr1_12,fr1_y2).
body(r_fr1_12,fr1_y3).
body(r_fr1_12,fr1_z1).
head(r_fr1_13,fr1_w3).
body(r_fr1_13,fr1_a1).
body(r_fr1_13,fr1_c3).
body(r_fr1_13,fr1_d1).
body(r_fr1_13,fr1_e1).
body(r_fr1_13,fr1_p2).
body(r_fr1_13,fr1_p4).
body(r_fr1_13,fr1_q1).
body(r_fr1_13,fr1_q3).
body(r_fr1_13,fr1_r1).
body(r_fr1_13,fr1_r2).
body(r_fr1_13,fr7_c2).
body(r_fr1_13,fr1_s3).
body(r_fr1_13,fr1_t1).
body(r_fr1_13,fr1_t2).
body(r_fr1_13,fr1_u2).
body(r_fr1_13,fr1_u3).
body(r_fr1_13,fr1_v2).
body(r_fr1_13,fr1_v3).
body(r_fr1_13,fr1_w1).
body(r_fr1_13,fr1_w2).
body(r_fr1_13,fr1_x3).
body(r_fr1_13,fr1_y3).
body(r_fr1_13,fr1_z1).
body(r_fr1_13,fr1_z2).
head(r_fr1_14,fr1_q3).
body(r_fr1_14,fr1_p1).
body(r_fr1_14,fr1_p2).
body(r_fr1_14,fr1_p3).
body(r_fr1_14,fr1_p4).
body(r_fr1_14,fr1_q1).
body(r_fr1_14,fr1_q2).
body(r_fr1_14,fr1_q4).
body(r_fr1_14,fr1_r2).
body(r_fr1_14,fr1_s1).
body(r_fr1_14,fr1_s3).
body(r_fr1_14,fr1_u1).
body(r_fr1_14,fr1_u2).
body(r_fr1_14,fr1_v3).
body(r_fr1_14,fr1_w1).
body(r_fr1_14,fr1_w2).
body(r_fr1_14,fr1_x1).
body(r_fr1_14,fr1_x3).
body(r_fr1_14,fr1_y3).
body(r_fr1_14,fr1_z1).
body(r_fr1_14,fr1_z2).
body(r_fr1_14,fr1_z3).
head(r_fr1_15,fr1_q3).
body(r_fr1_15,fr1_a3).
body(r_fr1_15,fr1_b3).
body(r_fr1_15,fr1_d1).
body(r_fr1_15,fr1_e2).
body(r_fr1_15,fr1_p1).
body(r_fr1_15,fr1_p3).
body(r_fr1_15,fr1_p4).
body(r_fr1_15,fr1_s1).
body(r_fr1_15,fr1_s2).
body(r_fr1_15,fr1_s3).
body(r_fr1_15,fr1_t3).
body(r_fr1_15,fr1_u1).
body(r_fr1_15,fr1_u3).
body(r_fr1_15,fr1_v2).
body(r_fr1_15,fr1_v3).
body(r_fr1_15,fr1_w3).
body(r_fr1_15,fr1_x1).
body(r_fr1_15,fr1_x2).
body(r_fr1_15,fr1_y1).
body(r_fr1_15,fr1_y3).
body(r_fr1_15,fr1_z2).
head(r_fr1_16,fr1_y1).
body(r_fr1_16,fr1_p2).
body(r_fr1_16,fr1_p4).
body(r_fr1_16,fr1_q3).
body(r_fr1_16,fr1_r2).
body(r_fr1_16,fr7_c2).
body(r_fr1_16,fr1_s1).
body(r_fr1_16,fr1_s2).
body(r_fr1_16,fr1_s3).
body(r_fr1_16,fr1_t2).
body(r_fr1_16,fr1_t3).
body(r_fr1_16,fr1_u3).
body(r_fr1_16,fr1_v1).
body(r_fr1_16,fr1_v2).
body(r_fr1_16,fr1_w1).
body(r_fr1_16,fr1_w2).
body(r_fr1_16,fr1_w3).
body(r_fr1_16,fr1_x1).
body(r_fr1_16,fr1_x3).
body(r_fr1_16,fr1_y3).
body(r_fr1_16,fr1_z1).
body(r_fr1_16,fr1_z2).
body(r_fr1_16,fr1_z3).
head(r_fr1_17,fr1_y1).
body(r_fr1_17,fr1_b2).
body(r_fr1_17,fr1_d1).
body(r_fr1_17,fr1_e2).
body(r_fr1_17,fr1_f1).
body(r_fr1_17,fr1_p3).
body(r_fr1_17,fr1_p4).
body(r_fr1_17,fr1_q2).
body(r_fr1_17,fr1_r2).
body(r_fr1_17,fr1_s1).
body(r_fr1_17,fr1_s3).
body(r_fr1_17,fr1_t1).
body(r_fr1_17,fr1_t2).
body(r_fr1_17,fr1_u3).
body(r_fr1_17,fr1_v3).
body(r_fr1_17,fr1_w1).
body(r_fr1_17,fr1_w2).
body(r_fr1_17,fr1_w3).
body(r_fr1_17,fr1_x2).
body(r_fr1_17,fr1_y2).
body(r_fr1_17,fr1_y3).
body(r_fr1_17,fr1_z1).
body(r_fr1_17,fr1_z2).
head(r_fr1_18,fr1_z1).
body(r_fr1_18,fr1_p1).
body(r_fr1_18,fr1_p2).
body(r_fr1_18,fr1_q1).
body(r_fr1_18,fr1_q3).
body(r_fr1_18,fr1_q4).
body(r_fr1_18,fr1_r1).
body(r_fr1_18,fr1_r2).
body(r_fr1_18,fr7_c2).
body(r_fr1_18,fr1_s2).
body(r_fr1_18,fr1_s3).
body(r_fr1_18,fr1_t1).
body(r_fr1_18,fr1_t2).
body(r_fr1_18,fr1_t3).
body(r_fr1_18,fr1_u1).
body(r_fr1_18,fr1_u3).
body(r_fr1_18,fr1_v1).
body(r_fr1_18,fr1_v2).
body(r_fr1_18,fr1_w1).
body(r_fr1_18,fr1_w2).
body(r_fr1_18,fr1_x1).
body(r_fr1_18,fr1_x3).
body(r_fr1_18,fr1_y1).
body(r_fr1_18,fr1_y2).
body(r_fr1_18,fr1_y3).
head(r_fr1_19,fr1_z1).
body(r_fr1_19,fr1_a2).
body(r_fr1_19,fr1_a3).
body(r_fr1_19,fr1_b1).
body(r_fr1_19,fr7_e1).
body(r_fr1_19,fr1_d1).
body(r_fr1_19,fr1_f2).
body(r_fr1_19,fr1_q1).
body(r_fr1_19,fr1_q2).
body(r_fr1_19,fr1_q4).
body(r_fr1_19,fr1_s1).
body(r_fr1_19,fr1_s3).
body(r_fr1_19,fr1_u1).
body(r_fr1_19,fr1_v1).
body(r_fr1_19,fr1_v2).
body(r_fr1_19,fr1_v3).
body(r_fr1_19,fr1_w1).
body(r_fr1_19,fr1_w2).
body(r_fr1_19,fr1_w3).
body(r_fr1_19,fr1_x3).
body(r_fr1_19,fr1_y1).
body(r_fr1_19,fr1_y2).
body(r_fr1_19,fr1_z2).
head(r_fr1_20,fr1_z1).
body(r_fr1_20,fr1_a1).
body(r_fr1_20,fr1_a3).
body(r_fr1_20,fr1_c3).
body(r_fr1_20,fr1_d1).
body(r_fr1_20,fr1_e1).
body(r_fr1_20,fr1_f2).
body(r_fr1_20,fr1_p2).
body(r_fr1_20,fr1_p4).
body(r_fr1_20,fr1_q2).
body(r_fr1_20,fr1_q3).
body(r_fr1_20,fr1_r2).
body(r_fr1_20,fr1_s2).
body(r_fr1_20,fr1_t1).
body(r_fr1_20,fr1_t2).
body(r_fr1_20,fr1_t3).
body(r_fr1_20,fr1_u2).
body(r_fr1_20,fr1_v2).
body(r_fr1_20,fr1_w2).
body(r_fr1_20,fr1_w3).
body(r_fr1_20,fr1_x2).
body(r_fr1_20,fr1_x3).
body(r_fr1_20,fr1_y3).
body(r_fr1_20,fr1_z3).
head(r_fr1_21,fr1_s3).
body(r_fr1_21,fr1_a2).
body(r_fr1_21,fr1_b2).
body(r_fr1_21,fr1_p3).
body(r_fr1_21,fr1_q4).
body(r_fr1_21,fr1_r1).
body(r_fr1_21,fr1_r2).
body(r_fr1_21,fr7_c2).
body(r_fr1_21,fr1_s2).
body(r_fr1_21,fr1_u2).
body(r_fr1_21,fr1_u3).
body(r_fr1_21,fr1_v1).
body(r_fr1_21,fr1_v3).
body(r_fr1_21,fr1_w3).
body(r_fr1_21,fr1_x1).
body(r_fr1_21,fr1_x2).
body(r_fr1_21,fr1_y1).
body(r_fr1_21,fr1_y2).
body(r_fr1_21,fr1_y3).
body(r_fr1_21,fr1_z1).
body(r_fr1_21,fr1_z2).
body(r_fr1_21,fr1_z3).
head(r_fr1_22,fr1_s3).
body(r_fr1_22,fr7_e1).
body(r_fr1_22,fr1_c2).
body(r_fr1_22,fr1_e1).
body(r_fr1_22,fr1_p3).
body(r_fr1_22,fr1_q2).
body(r_fr1_22,fr1_q3).
body(r_fr1_22,fr1_q4).
body(r_fr1_22,fr1_r1).
body(r_fr1_22,fr7_c2).
body(r_fr1_22,fr1_s1).
body(r_fr1_22,fr1_s2).
body(r_fr1_22,fr1_u1).
body(r_fr1_22,fr1_u3).
body(r_fr1_22,fr1_v2).
body(r_fr1_22,fr1_v3).
body(r_fr1_22,fr1_w1).
body(r_fr1_22,fr1_w2).
body(r_fr1_22,fr1_w3).
body(r_fr1_22,fr1_x1).
body(r_fr1_22,fr1_x2).
body(r_fr1_22,fr1_x3).
body(r_fr1_22,fr1_y3).
body(r_fr1_22,fr1_z1).
body(r_fr1_22,fr1_z2).
head(r_fr1_23,fr1_s3).
body(r_fr1_23,fr1_a2).
body(r_fr1_23,fr1_p2).
body(r_fr1_23,fr1_p3).
body(r_fr1_23,fr1_p4).
body(r_fr1_23,fr1_q2).
body(r_fr1_23,fr1_q4).
body(r_fr1_23,fr1_r2).
body(r_fr1_23,fr7_c2).
body(r_fr1_23,fr1_s2).
body(r_fr1_23,fr1_t2).
body(r_fr1_23,fr1_t3).
body(r_fr1_23,fr1_u3).
body(r_fr1_23,fr1_v1).
body(r_fr1_23,fr1_v2).
body(r_fr1_23,fr1_v3).
body(r_fr1_23,fr1_w1).
body(r_fr1_23,fr1_w2).
body(r_fr1_23,fr1_w3).
body(r_fr1_23,fr1_x1).
body(r_fr1_23,fr1_x2).
body(r_fr1_23,fr1_y1).
body(r_fr1_23,fr1_z2).
body(r_fr1_23,fr1_z3).
head(r_fr1_24,fr1_r2).
body(r_fr1_24,fr1_a3).
body(r_fr1_24,fr1_b3).
body(r_fr1_24,fr7_e1).
body(r_fr1_24,fr1_d1).
body(r_fr1_24,fr1_f1).
body(r_fr1_24,fr1_f2).
body(r_fr1_24,fr1_p1).
body(r_fr1_24,fr1_q1).
body(r_fr1_24,fr1_r1).
body(r_fr1_24,fr1_t1).
body(r_fr1_24,fr1_t2).
body(r_fr1_24,fr1_u2).
body(r_fr1_24,fr1_u3).
body(r_fr1_24,fr1_v1).
body(r_fr1_24,fr1_v3).
body(r_fr1_24,fr1_w1).
body(r_fr1_24,fr1_w2).
body(r_fr1_24,fr1_w3).
body(r_fr1_24,fr1_x1).
body(r_fr1_24,fr1_x2).
body(r_fr1_24,fr1_y2).
body(r_fr1_24,fr1_z1).
head(r_fr1_25,fr1_r2).
body(r_fr1_25,fr1_a1).
body(r_fr1_25,fr1_a3).
body(r_fr1_25,fr1_c3).
body(r_fr1_25,fr1_e1).
body(r_fr1_25,fr1_p1).
body(r_fr1_25,fr1_p2).
body(r_fr1_25,fr1_p3).
body(r_fr1_25,fr1_p4).
body(r_fr1_25,fr1_q2).
body(r_fr1_25,fr1_q3).
body(r_fr1_25,fr7_c2).
body(r_fr1_25,fr1_s1).
body(r_fr1_25,fr1_s3).
body(r_fr1_25,fr1_t1).
body(r_fr1_25,fr1_t2).
body(r_fr1_25,fr1_u1).
body(r_fr1_25,fr1_w2).
body(r_fr1_25,fr1_w3).
body(r_fr1_25,fr1_x1).
body(r_fr1_25,fr1_y2).
body(r_fr1_25,fr1_y3).
body(r_fr1_25,fr1_z1).
body(r_fr1_25,fr1_z2).
body(r_fr1_25,fr1_z3).
head(r_fr1_26,fr1_r2).
body(r_fr1_26,fr1_a1).
body(r_fr1_26,fr1_c3).
body(r_fr1_26,fr1_d1).
body(r_fr1_26,fr1_e2).
body(r_fr1_26,fr1_p1).
body(r_fr1_26,fr1_p2).
body(r_fr1_26,fr1_p3).
body(r_fr1_26,fr1_p4).
body(r_fr1_26,fr1_q3).
body(r_fr1_26,fr1_q4).
body(r_fr1_26,fr1_s1).
body(r_fr1_26,fr1_s2).
body(r_fr1_26,fr1_s3).
body(r_fr1_26,fr1_t1).
body(r_fr1_26,fr1_t3).
body(r_fr1_26,fr1_u1).
body(r_fr1_26,fr1_u2).
body(r_fr1_26,fr1_u3).
body(r_fr1_26,fr1_v1).
body(r_fr1_26,fr1_w2).
body(r_fr1_26,fr1_w3).
body(r_fr1_26,fr1_x3).
body(r_fr1_26,fr1_y2).
head(r_fr1_27,fr1_x1).
body(r_fr1_27,fr1_c2).
body(r_fr1_27,fr1_e1).
body(r_fr1_27,fr1_p1).
body(r_fr1_27,fr1_p3).
body(r_fr1_27,fr1_p4).
body(r_fr1_27,fr1_q1).
body(r_fr1_27,fr1_q3).
body(r_fr1_27,fr7_c2).
body(r_fr1_27,fr1_s1).
body(r_fr1_27,fr1_t1).
body(r_fr1_27,fr1_t2).
body(r_fr1_27,fr1_t3).
body(r_fr1_27,fr1_u1).
body(r_fr1_27,fr1_u3).
body(r_fr1_27,fr1_v1).
body(r_fr1_27,fr1_v3).
body(r_fr1_27,fr1_w1).
body(r_fr1_27,fr1_w2).
body(r_fr1_27,fr1_w3).
body(r_fr1_27,fr1_x2).
body(r_fr1_27,fr1_y2).
body(r_fr1_27,fr1_z2).
head(r_fr1_28,fr1_x1).
body(r_fr1_28,fr1_c2).
body(r_fr1_28,fr1_d1).
body(r_fr1_28,fr1_p4).
body(r_fr1_28,fr1_q2).
body(r_fr1_28,fr1_q3).
body(r_fr1_28,fr7_c2).
body(r_fr1_28,fr1_s2).
body(r_fr1_28,fr1_s3).
body(r_fr1_28,fr1_t3).
body(r_fr1_28,fr1_u1).
body(r_fr1_28,fr1_u3).
body(r_fr1_28,fr1_v3).
body(r_fr1_28,fr1_w1).
body(r_fr1_28,fr1_w2).
body(r_fr1_28,fr1_w3).
body(r_fr1_28,fr1_x2).
body(r_fr1_28,fr1_x3).
body(r_fr1_28,fr1_y1).
body(r_fr1_28,fr1_y3).
body(r_fr1_28,fr1_z1).
body(r_fr1_28,fr1_z3).
head(r_fr1_29,fr1_x1).
body(r_fr1_29,fr1_a1).
body(r_fr1_29,fr1_d1).
body(r_fr1_29,fr1_d2).
body(r_fr1_29,fr1_p1).
body(r_fr1_29,fr1_p3).
body(r_fr1_29,fr1_p4).
body(r_fr1_29,fr1_q3).
body(r_fr1_29,fr1_s1).
body(r_fr1_29,fr1_s3).
body(r_fr1_29,fr1_t3).
body(r_fr1_29,fr1_u1).
body(r_fr1_29,fr1_u2).
body(r_fr1_29,fr1_u3).
body(r_fr1_29,fr1_v3).
body(r_fr1_29,fr1_w1).
body(r_fr1_29,fr1_w2).
body(r_fr1_29,fr1_w3).
body(r_fr1_29,fr1_x2).
body(r_fr1_29,fr1_x3).
body(r_fr1_29,fr1_y1).
body(r_fr1_29,fr1_z2).
head(r_fr1_30,fr1_p1).
body(r_fr1_30,fr1_a1).
body(r_fr1_30,fr1_c2).
body(r_fr1_30,fr1_d1).
body(r_fr1_30,fr1_f1).
body(r_fr1_30,fr1_f2).
body(r_fr1_30,fr1_p2).
body(r_fr1_30,fr1_p3).
body(r_fr1_30,fr1_q1).
body(r_fr1_30,fr1_q2).
body(r_fr1_30,fr1_r1).
body(r_fr1_30,fr1_r2).
body(r_fr1_30,fr1_s3).
body(r_fr1_30,fr1_t1).
body(r_fr1_30,fr1_t3).
body(r_fr1_30,fr1_u2).
body(r_fr1_30,fr1_v1).
body(r_fr1_30,fr1_v3).
body(r_fr1_30,fr1_w1).
body(r_fr1_30,fr1_w2).
body(r_fr1_30,fr1_x1).
body(r_fr1_30,fr1_x3).
body(r_fr1_30,fr1_y2).
body(r_fr1_30,fr1_y3).
head(r_fr1_31,fr1_p1).
body(r_fr1_31,fr1_a2).
body(r_fr1_31,fr1_a3).
body(r_fr1_31,fr1_c3).
body(r_fr1_31,fr1_d1).
body(r_fr1_31,fr1_d2).
body(r_fr1_31,fr1_f1).
body(r_fr1_31,fr1_p3).
body(r_fr1_31,fr1_q1).
body(r_fr1_31,fr1_q2).
body(r_fr1_31,fr1_r1).
body(r_fr1_31,fr7_c2).
body(r_fr1_31,fr1_s1).
body(r_fr1_31,fr1_s3).
body(r_fr1_31,fr1_t1).
body(r_fr1_31,fr1_t2).
body(r_fr1_31,fr1_t3).
body(r_fr1_31,fr1_u2).
body(r_fr1_31,fr1_u3).
body(r_fr1_31,fr1_w3).
body(r_fr1_31,fr1_x1).
body(r_fr1_31,fr1_y3).
body(r_fr1_31,fr1_z1).
body(r_fr1_31,fr1_z2).
head(r_fr1_32,fr1_p1).
body(r_fr1_32,fr1_a1).
body(r_fr1_32,fr1_a2).
body(r_fr1_32,fr1_b2).
body(r_fr1_32,fr1_c3).
body(r_fr1_32,fr1_p4).
body(r_fr1_32,fr1_q2).
body(r_fr1_32,fr1_r1).
body(r_fr1_32,fr1_s1).
body(r_fr1_32,fr1_s2).
body(r_fr1_32,fr1_s3).
body(r_fr1_32,fr1_t2).
body(r_fr1_32,fr1_t3).
body(r_fr1_32,fr1_u1).
body(r_fr1_32,fr1_u2).
body(r_fr1_32,fr1_v1).
body(r_fr1_32,fr1_w1).
body(r_fr1_32,fr1_w2).
body(r_fr1_32,fr1_w3).
body(r_fr1_32,fr1_x2).
body(r_fr1_32,fr1_y1).
body(r_fr1_32,fr1_y3).
body(r_fr1_32,fr1_z1).
body(r_fr1_32,fr1_z3).
head(r_fr1_33,fr1_p1).
body(r_fr1_33,fr7_e1).
body(r_fr1_33,fr1_c2).
body(r_fr1_33,fr1_f1).
body(r_fr1_33,fr1_p3).
body(r_fr1_33,fr1_q1).
body(r_fr1_33,fr1_q2).
body(r_fr1_33,fr1_r2).
body(r_fr1_33,fr7_c2).
body(r_fr1_33,fr1_s1).
body(r_fr1_33,fr1_t1).
body(r_fr1_33,fr1_t2).
body(r_fr1_33,fr1_t3).
body(r_fr1_33,fr1_u1).
body(r_fr1_33,fr1_v1).
body(r_fr1_33,fr1_v2).
body(r_fr1_33,fr1_w2).
body(r_fr1_33,fr1_w3).
body(r_fr1_33,fr1_x1).
body(r_fr1_33,fr1_x2).
body(r_fr1_33,fr1_y1).
body(r_fr1_33,fr1_y3).
body(r_fr1_33,fr1_z1).
body(r_fr1_33,fr1_z2).
head(r_fr1_34,fr1_p1).
body(r_fr1_34,fr1_p2).
body(r_fr1_34,fr1_p3).
body(r_fr1_34,fr1_p4).
body(r_fr1_34,fr1_q3).
body(r_fr1_34,fr1_q4).
body(r_fr1_34,fr1_r1).
body(r_fr1_34,fr1_s1).
body(r_fr1_34,fr1_s2).
body(r_fr1_34,fr1_s3).
body(r_fr1_34,fr1_t1).
body(r_fr1_34,fr1_t3).
body(r_fr1_34,fr1_u1).
body(r_fr1_34,fr1_v2).
body(r_fr1_34,fr1_v3).
body(r_fr1_34,fr1_w1).
body(r_fr1_34,fr1_w2).
body(r_fr1_34,fr1_w3).
body(r_fr1_34,fr1_x2).
body(r_fr1_34,fr1_x3).
body(r_fr1_34,fr1_y1).
body(r_fr1_34,fr1_y2).
body(r_fr1_34,fr1_y3).
body(r_fr1_34,fr1_z1).
body(r_fr1_34,fr1_z3).
head(r_fr1_35,fr1_v1).
body(r_fr1_35,fr1_p3).
body(r_fr1_35,fr1_p4).
body(r_fr1_35,fr1_q1).
body(r_fr1_35,fr1_q2).
body(r_fr1_35,fr1_q3).
body(r_fr1_35,fr1_r1).
body(r_fr1_35,fr1_r2).
body(r_fr1_35,fr1_s1).
body(r_fr1_35,fr1_s3).
body(r_fr1_35,fr1_t1).
body(r_fr1_35,fr1_t2).
body(r_fr1_35,fr1_t3).
body(r_fr1_35,fr1_u2).
body(r_fr1_35,fr1_u3).
body(r_fr1_35,fr1_v3).
body(r_fr1_35,fr1_w3).
body(r_fr1_35,fr1_x1).
body(r_fr1_35,fr1_x2).
body(r_fr1_35,fr1_y1).
body(r_fr1_35,fr1_y2).
body(r_fr1_35,fr1_y3).
body(r_fr1_35,fr1_z1).
body(r_fr1_35,fr1_z3).
head(r_fr1_36,fr1_v1).
body(r_fr1_36,fr1_a2).
body(r_fr1_36,fr1_a3).
body(r_fr1_36,fr7_e1).
body(r_fr1_36,fr1_c3).
body(r_fr1_36,fr1_d2).
body(r_fr1_36,fr1_f2).
body(r_fr1_36,fr1_p2).
body(r_fr1_36,fr1_q1).
body(r_fr1_36,fr1_s1).
body(r_fr1_36,fr1_t1).
body(r_fr1_36,fr1_t2).
body(r_fr1_36,fr1_t3).
body(r_fr1_36,fr1_u1).
body(r_fr1_36,fr1_v2).
body(r_fr1_36,fr1_w2).
body(r_fr1_36,fr1_x1).
body(r_fr1_36,fr1_x3).
body(r_fr1_36,fr1_y2).
body(r_fr1_36,fr1_y3).
body(r_fr1_36,fr1_z1).
body(r_fr1_36,fr1_z2).
head(r_fr1_37,fr1_v1).
body(r_fr1_37,fr1_a1).
body(r_fr1_37,fr1_b1).
body(r_fr1_37,fr7_e1).
body(r_fr1_37,fr1_e2).
body(r_fr1_37,fr1_f2).
body(r_fr1_37,fr1_p2).
body(r_fr1_37,fr1_p4).
body(r_fr1_37,fr1_q1).
body(r_fr1_37,fr1_q3).
body(r_fr1_37,fr1_r1).
body(r_fr1_37,fr1_s2).
body(r_fr1_37,fr1_u1).
body(r_fr1_37,fr1_u3).
body(r_fr1_37,fr1_w1).
body(r_fr1_37,fr1_x1).
body(r_fr1_37,fr1_x2).
body(r_fr1_37,fr1_x3).
body(r_fr1_37,fr1_y1).
body(r_fr1_37,fr1_y3).
body(r_fr1_37,fr1_z1).
body(r_fr1_37,fr1_z2).
body(r_fr1_37,fr1_z3).
head(r_fr1_38,fr1_v1).
body(r_fr1_38,fr1_a1).
body(r_fr1_38,fr1_a3).
body(r_fr1_38,fr1_b1).
body(r_fr1_38,fr1_d1).
body(r_fr1_38,fr1_f2).
body(r_fr1_38,fr1_p1).
body(r_fr1_38,fr1_q2).
body(r_fr1_38,fr1_q3).
body(r_fr1_38,fr1_s1).
body(r_fr1_38,fr1_s3).
body(r_fr1_38,fr1_t1).
body(r_fr1_38,fr1_t2).
body(r_fr1_38,fr1_u3).
body(r_fr1_38,fr1_v2).
body(r_fr1_38,fr1_v3).
body(r_fr1_38,fr1_x1).
body(r_fr1_38,fr1_x2).
body(r_fr1_38,fr1_y1).
body(r_fr1_38,fr1_y2).
body(r_fr1_38,fr1_y3).
body(r_fr1_38,fr1_z1).
body(r_fr1_38,fr1_z2).
head(r_fr1_39,fr1_q1).
body(r_fr1_39,fr1_p1).
body(r_fr1_39,fr1_p2).
body(r_fr1_39,fr1_p3).
body(r_fr1_39,fr1_p4).
body(r_fr1_39,fr1_q2).
body(r_fr1_39,fr1_q4).
body(r_fr1_39,fr1_r1).
body(r_fr1_39,fr7_c2).
body(r_fr1_39,fr1_s2).
body(r_fr1_39,fr1_t1).
body(r_fr1_39,fr1_t2).
body(r_fr1_39,fr1_t3).
body(r_fr1_39,fr1_u1).
body(r_fr1_39,fr1_v1).
body(r_fr1_39,fr1_v3).
body(r_fr1_39,fr1_w3).
body(r_fr1_39,fr1_x1).
body(r_fr1_39,fr1_x3).
body(r_fr1_39,fr1_y1).
body(r_fr1_39,fr1_y2).
body(r_fr1_39,fr1_y3).
body(r_fr1_39,fr1_z2).
head(r_fr1_40,fr1_q1).
body(r_fr1_40,fr1_a2).
body(r_fr1_40,fr1_d1).
body(r_fr1_40,fr1_p1).
body(r_fr1_40,fr1_p2).
body(r_fr1_40,fr1_p3).
body(r_fr1_40,fr7_c2).
body(r_fr1_40,fr1_s1).
body(r_fr1_40,fr1_s2).
body(r_fr1_40,fr1_t1).
body(r_fr1_40,fr1_t2).
body(r_fr1_40,fr1_u1).
body(r_fr1_40,fr1_u2).
body(r_fr1_40,fr1_u3).
body(r_fr1_40,fr1_v1).
body(r_fr1_40,fr1_w1).
body(r_fr1_40,fr1_w2).
body(r_fr1_40,fr1_x1).
body(r_fr1_40,fr1_x2).
body(r_fr1_40,fr1_x3).
body(r_fr1_40,fr1_y1).
body(r_fr1_40,fr1_y2).
body(r_fr1_40,fr1_z1).
body(r_fr1_40,fr1_z2).
head(r_fr1_41,fr1_s1).
body(r_fr1_41,fr1_f1).
body(r_fr1_41,fr1_p2).
body(r_fr1_41,fr1_p3).
body(r_fr1_41,fr1_p4).
body(r_fr1_41,fr1_r1).
body(r_fr1_41,fr7_c2).
body(r_fr1_41,fr1_s2).
body(r_fr1_41,fr1_s3).
body(r_fr1_41,fr1_t3).
body(r_fr1_41,fr1_u2).
body(r_fr1_41,fr1_v1).
body(r_fr1_41,fr1_v2).
body(r_fr1_41,fr1_w1).
body(r_fr1_41,fr1_w2).
body(r_fr1_41,fr1_w3).
body(r_fr1_41,fr1_x1).
body(r_fr1_41,fr1_x2).
body(r_fr1_41,fr1_x3).
body(r_fr1_41,fr1_y2).
body(r_fr1_41,fr1_y3).
body(r_fr1_41,fr1_z3).
head(r_fr1_42,fr1_s1).
body(r_fr1_42,fr1_p1).
body(r_fr1_42,fr1_p3).
body(r_fr1_42,fr1_q1).
body(r_fr1_42,fr1_q2).
body(r_fr1_42,fr1_q4).
body(r_fr1_42,fr1_r1).
body(r_fr1_42,fr1_r2).
body(r_fr1_42,fr7_c2).
body(r_fr1_42,fr1_s2).
body(r_fr1_42,fr1_s3).
body(r_fr1_42,fr1_t2).
body(r_fr1_42,fr1_t3).
body(r_fr1_42,fr1_u1).
body(r_fr1_42,fr1_u2).
body(r_fr1_42,fr1_u3).
body(r_fr1_42,fr1_v1).
body(r_fr1_42,fr1_v3).
body(r_fr1_42,fr1_w2).
body(r_fr1_42,fr1_x3).
body(r_fr1_42,fr1_y2).
body(r_fr1_42,fr1_y3).
body(r_fr1_42,fr1_z1).
body(r_fr1_42,fr1_z3).
head(r_fr1_43,fr1_u2).
body(r_fr1_43,fr1_a2).
body(r_fr1_43,fr1_a3).
body(r_fr1_43,fr1_d1).
body(r_fr1_43,fr1_f2).
body(r_fr1_43,fr1_p1).
body(r_fr1_43,fr1_p2).
body(r_fr1_43,fr1_p3).
body(r_fr1_43,fr1_p4).
body(r_fr1_43,fr1_q3).
body(r_fr1_43,fr1_q4).
body(r_fr1_43,fr1_r1).
body(r_fr1_43,fr1_s1).
body(r_fr1_43,fr1_t1).
body(r_fr1_43,fr1_t3).
body(r_fr1_43,fr1_u1).
body(r_fr1_43,fr1_u3).
body(r_fr1_43,fr1_v3).
body(r_fr1_43,fr1_w2).
body(r_fr1_43,fr1_w3).
body(r_fr1_43,fr1_x1).
body(r_fr1_43,fr1_y1).
body(r_fr1_43,fr1_y2).
body(r_fr1_43,fr1_z2).
body(r_fr1_43,fr1_z3).
head(r_fr1_44,fr1_u2).
body(r_fr1_44,fr1_a1).
body(r_fr1_44,fr1_a2).
body(r_fr1_44,fr1_b3).
body(r_fr1_44,fr1_e1).
body(r_fr1_44,fr1_f2).
body(r_fr1_44,fr1_p2).
body(r_fr1_44,fr1_p3).
body(r_fr1_44,fr1_q2).
body(r_fr1_44,fr1_r1).
body(r_fr1_44,fr1_r2).
body(r_fr1_44,fr7_c2).
body(r_fr1_44,fr1_s1).
body(r_fr1_44,fr1_s3).
body(r_fr1_44,fr1_u3).
body(r_fr1_44,fr1_v2).
body(r_fr1_44,fr1_w2).
body(r_fr1_44,fr1_w3).
body(r_fr1_44,fr1_x3).
body(r_fr1_44,fr1_y2).
body(r_fr1_44,fr1_y3).
body(r_fr1_44,fr1_z1).
body(r_fr1_44,fr1_z3).
head(r_fr1_45,fr1_u2).
body(r_fr1_45,fr1_p1).
body(r_fr1_45,fr1_p2).
body(r_fr1_45,fr1_p3).
body(r_fr1_45,fr1_p4).
body(r_fr1_45,fr1_q2).
body(r_fr1_45,fr1_q3).
body(r_fr1_45,fr1_r1).
body(r_fr1_45,fr7_c2).
body(r_fr1_45,fr1_s1).
body(r_fr1_45,fr1_s2).
body(r_fr1_45,fr1_s3).
body(r_fr1_45,fr1_t1).
body(r_fr1_45,fr1_t2).
body(r_fr1_45,fr1_u1).
body(r_fr1_45,fr1_u3).
body(r_fr1_45,fr1_w2).
body(r_fr1_45,fr1_x2).
body(r_fr1_45,fr1_x3).
body(r_fr1_45,fr1_y1).
body(r_fr1_45,fr1_z2).
body(r_fr1_45,fr1_z3).
head(r_fr1_46,fr1_u2).
body(r_fr1_46,fr7_e1).
body(r_fr1_46,fr1_c3).
body(r_fr1_46,fr1_p2).
body(r_fr1_46,fr1_p3).
body(r_fr1_46,fr1_q1).
body(r_fr1_46,fr1_q3).
body(r_fr1_46,fr1_q4).
body(r_fr1_46,fr1_r1).
body(r_fr1_46,fr1_r2).
body(r_fr1_46,fr1_s1).
body(r_fr1_46,fr1_s3).
body(r_fr1_46,fr1_u1).
body(r_fr1_46,fr1_u3).
body(r_fr1_46,fr1_v1).
body(r_fr1_46,fr1_v3).
body(r_fr1_46,fr1_w1).
body(r_fr1_46,fr1_w3).
body(r_fr1_46,fr1_y1).
body(r_fr1_46,fr1_y2).
body(r_fr1_46,fr1_y3).
body(r_fr1_46,fr1_z1).
body(r_fr1_46,fr1_z2).
body(r_fr1_46,fr1_z3).
head(r_fr1_47,fr1_u2).
body(r_fr1_47,fr1_a2).
body(r_fr1_47,fr1_b1).
body(r_fr1_47,fr1_b2).
body(r_fr1_47,fr1_c3).
body(r_fr1_47,fr1_f1).
body(r_fr1_47,fr1_f2).
body(r_fr1_47,fr1_p1).
body(r_fr1_47,fr1_p2).
body(r_fr1_47,fr1_p3).
body(r_fr1_47,fr1_p4).
body(r_fr1_47,fr1_q2).
body(r_fr1_47,fr1_q4).
body(r_fr1_47,fr7_c2).
body(r_fr1_47,fr1_t1).
body(r_fr1_47,fr1_t2).
body(r_fr1_47,fr1_u1).
body(r_fr1_47,fr1_u3).
body(r_fr1_47,fr1_v3).
body(r_fr1_47,fr1_w2).
body(r_fr1_47,fr1_w3).
body(r_fr1_47,fr1_z1).
body(r_fr1_47,fr1_z2).
body(r_fr1_47,fr1_z3).
head(r_fr1_48,fr1_u3).
body(r_fr1_48,fr7_e1).
body(r_fr1_48,fr1_p1).
body(r_fr1_48,fr1_p3).
body(r_fr1_48,fr1_p4).
body(r_fr1_48,fr1_q2).
body(r_fr1_48,fr1_q3).
body(r_fr1_48,fr7_c2).
body(r_fr1_48,fr1_s3).
body(r_fr1_48,fr1_t1).
body(r_fr1_48,fr1_t2).
body(r_fr1_48,fr1_t3).
body(r_fr1_48,fr1_u1).
body(r_fr1_48,fr1_u2).
body(r_fr1_48,fr1_v2).
body(r_fr1_48,fr1_v3).
body(r_fr1_48,fr1_w1).
body(r_fr1_48,fr1_w2).
body(r_fr1_48,fr1_w3).
body(r_fr1_48,fr1_x2).
body(r_fr1_48,fr1_x3).
body(r_fr1_48,fr1_y3).
head(r_fr1_49,fr1_u3).
body(r_fr1_49,fr1_a1).
body(r_fr1_49,fr1_a3).
body(r_fr1_49,fr1_p1).
body(r_fr1_49,fr1_p2).
body(r_fr1_49,fr1_p3).
body(r_fr1_49,fr1_q1).
body(r_fr1_49,fr1_q2).
body(r_fr1_49,fr1_q3).
body(r_fr1_49,fr1_q4).
body(r_fr1_49,fr1_r2).
body(r_fr1_49,fr7_c2).
body(r_fr1_49,fr1_s1).
body(r_fr1_49,fr1_t2).
body(r_fr1_49,fr1_v1).
body(r_fr1_49,fr1_v2).
body(r_fr1_49,fr1_w3).
body(r_fr1_49,fr1_x1).
body(r_fr1_49,fr1_x2).
body(r_fr1_49,fr1_x3).
body(r_fr1_49,fr1_y3).
body(r_fr1_49,fr1_z1).
head(r_fr1_50,fr1_u3).
body(r_fr1_50,fr1_b3).
body(r_fr1_50,fr1_d2).
body(r_fr1_50,fr1_p1).
body(r_fr1_50,fr1_p3).
body(r_fr1_50,fr1_q1).
body(r_fr1_50,fr1_q2).
body(r_fr1_50,fr1_q4).
body(r_fr1_50,fr1_r1).
body(r_fr1_50,fr1_r2).
body(r_fr1_50,fr7_c2).
body(r_fr1_50,fr1_s1).
body(r_fr1_50,fr1_s2).
body(r_fr1_50,fr1_s3).
body(r_fr1_50,fr1_t2).
body(r_fr1_50,fr1_t3).
body(r_fr1_50,fr1_v2).
body(r_fr1_50,fr1_v3).
body(r_fr1_50,fr1_w2).
body(r_fr1_50,fr1_x1).
body(r_fr1_50,fr1_x3).
body(r_fr1_50,fr1_y1).
body(r_fr1_50,fr1_y3).
body(r_fr1_50,fr1_z1).
body(r_fr1_50,fr1_z3).
head(r_fr1_51,fr1_t1).
body(r_fr1_51,fr1_a2).
body(r_fr1_51,fr1_d2).
body(r_fr1_51,fr1_p2).
body(r_fr1_51,fr1_p4).
body(r_fr1_51,fr1_q1).
body(r_fr1_51,fr1_q2).
body(r_fr1_51,fr1_q3).
body(r_fr1_51,fr1_q4).
body(r_fr1_51,fr1_r2).
body(r_fr1_51,fr1_t3).
body(r_fr1_51,fr1_u1).
body(r_fr1_51,fr1_u2).
body(r_fr1_51,fr1_v1).
body(r_fr1_51,fr1_v2).
body(r_fr1_51,fr1_v3).
body(r_fr1_51,fr1_x1).
body(r_fr1_51,fr1_x2).
body(r_fr1_51,fr1_x3).
body(r_fr1_51,fr1_y1).
body(r_fr1_51,fr1_y2).
body(r_fr1_51,fr1_y3).
body(r_fr1_51,fr1_z1).
body(r_fr1_51,fr1_z2).
body(r_fr1_51,fr1_z3).
head(r_fr1_52,fr1_t1).
body(r_fr1_52,fr1_b1).
body(r_fr1_52,fr1_b3).
body(r_fr1_52,fr1_d2).
body(r_fr1_52,fr1_e1).
body(r_fr1_52,fr1_f1).
body(r_fr1_52,fr1_p1).
body(r_fr1_52,fr1_p2).
body(r_fr1_52,fr1_p3).
body(r_fr1_52,fr1_p4).
body(r_fr1_52,fr1_q1).
body(r_fr1_52,fr1_q2).
body(r_fr1_52,fr1_q3).
body(r_fr1_52,fr1_q4).
body(r_fr1_52,fr1_s3).
body(r_fr1_52,fr1_u1).
body(r_fr1_52,fr1_u2).
body(r_fr1_52,fr1_v3).
body(r_fr1_52,fr1_w2).
body(r_fr1_52,fr1_x3).
body(r_fr1_52,fr1_y2).
body(r_fr1_52,fr1_z1).
body(r_fr1_52,fr1_z2).
body(r_fr1_52,fr1_z3).
head(r_fr1_53,fr1_t1).
body(r_fr1_53,fr1_a2).
body(r_fr1_53,fr1_e1).
body(r_fr1_53,fr1_p2).
body(r_fr1_53,fr1_p3).
body(r_fr1_53,fr1_q1).
body(r_fr1_53,fr1_q2).
body(r_fr1_53,fr1_q3).
body(r_fr1_53,fr1_r1).
body(r_fr1_53,fr1_r2).
body(r_fr1_53,fr1_s2).
body(r_fr1_53,fr1_s3).
body(r_fr1_53,fr1_t2).
body(r_fr1_53,fr1_t3).
body(r_fr1_53,fr1_v1).
body(r_fr1_53,fr1_v3).
body(r_fr1_53,fr1_w1).
body(r_fr1_53,fr1_w2).
body(r_fr1_53,fr1_w3).
body(r_fr1_53,fr1_x2).
body(r_fr1_53,fr1_y2).
body(r_fr1_53,fr1_y3).
body(r_fr1_53,fr1_z1).
body(r_fr1_53,fr1_z3).
head(r_fr1_54,fr1_t1).
body(r_fr1_54,fr1_c3).
body(r_fr1_54,fr1_p1).
body(r_fr1_54,fr1_p2).
body(r_fr1_54,fr1_p4).
body(r_fr1_54,fr1_q1).
body(r_fr1_54,fr1_q2).
body(r_fr1_54,fr1_q3).
body(r_fr1_54,fr1_q4).
body(r_fr1_54,fr1_r1).
body(r_fr1_54,fr1_s1).
body(r_fr1_54,fr1_s2).
body(r_fr1_54,fr1_s3).
body(r_fr1_54,fr1_t2).
body(r_fr1_54,fr1_u1).
body(r_fr1_54,fr1_u2).
body(r_fr1_54,fr1_u3).
body(r_fr1_54,fr1_v1).
body(r_fr1_54,fr1_v2).
body(r_fr1_54,fr1_v3).
body(r_fr1_54,fr1_w2).
body(r_fr1_54,fr1_w3).
body(r_fr1_54,fr1_x2).
body(r_fr1_54,fr1_y2).
head(r_fr1_55,fr1_w2).
body(r_fr1_55,fr1_p1).
body(r_fr1_55,fr1_p3).
body(r_fr1_55,fr1_p4).
body(r_fr1_55,fr1_q1).
body(r_fr1_55,fr1_q2).
body(r_fr1_55,fr1_q3).
body(r_fr1_55,fr1_q4).
body(r_fr1_55,fr1_r1).
body(r_fr1_55,fr7_c2).
body(r_fr1_55,fr1_s2).
body(r_fr1_55,fr1_u2).
body(r_fr1_55,fr1_u3).
body(r_fr1_55,fr1_v1).
body(r_fr1_55,fr1_v3).
body(r_fr1_55,fr1_w1).
body(r_fr1_55,fr1_w3).
body(r_fr1_55,fr1_x1).
body(r_fr1_55,fr1_x2).
body(r_fr1_55,fr1_x3).
body(r_fr1_55,fr1_y1).
body(r_fr1_55,fr1_y2).
body(r_fr1_55,fr1_y3).
body(r_fr1_55,fr1_z1).
head(r_fr1_56,fr1_w2).
body(r_fr1_56,fr1_b2).
body(r_fr1_56,fr7_e1).
body(r_fr1_56,fr1_d2).
body(r_fr1_56,fr1_e2).
body(r_fr1_56,fr1_p1).
body(r_fr1_56,fr1_p3).
body(r_fr1_56,fr1_q1).
body(r_fr1_56,fr1_q3).
body(r_fr1_56,fr1_q4).
body(r_fr1_56,fr1_r1).
body(r_fr1_56,fr1_r2).
body(r_fr1_56,fr7_c2).
body(r_fr1_56,fr1_s1).
body(r_fr1_56,fr1_s2).
body(r_fr1_56,fr1_s3).
body(r_fr1_56,fr1_t2).
body(r_fr1_56,fr1_u3).
body(r_fr1_56,fr1_v1).
body(r_fr1_56,fr1_w3).
body(r_fr1_56,fr1_x2).
body(r_fr1_56,fr1_y2).
body(r_fr1_56,fr1_y3).
body(r_fr1_56,fr1_z1).
body(r_fr1_56,fr1_z3).
head(r_fr1_57,fr1_w2).
body(r_fr1_57,fr1_a1).
body(r_fr1_57,fr1_b1).
body(r_fr1_57,fr1_c3).
body(r_fr1_57,fr1_d2).
body(r_fr1_57,fr1_e2).
body(r_fr1_57,fr1_p1).
body(r_fr1_57,fr1_p2).
body(r_fr1_57,fr1_p3).
body(r_fr1_57,fr1_p4).
body(r_fr1_57,fr1_q1).
body(r_fr1_57,fr1_q2).
body(r_fr1_57,fr1_q3).
body(r_fr1_57,fr1_r1).
body(r_fr1_57,fr7_c2).
body(r_fr1_57,fr1_s1).
body(r_fr1_57,fr1_t1).
body(r_fr1_57,fr1_u2).
body(r_fr1_57,fr1_u3).
body(r_fr1_57,fr1_v1).
body(r_fr1_57,fr1_v3).
body(r_fr1_57,fr1_w1).
body(r_fr1_57,fr1_x2).
body(r_fr1_57,fr1_y1).
body(r_fr1_57,fr1_z1).
head(r_fr1_58,fr1_w2).
body(r_fr1_58,fr1_b1).
body(r_fr1_58,fr7_e1).
body(r_fr1_58,fr1_c3).
body(r_fr1_58,fr1_d1).
body(r_fr1_58,fr1_f2).
body(r_fr1_58,fr1_p2).
body(r_fr1_58,fr1_p3).
body(r_fr1_58,fr1_q1).
body(r_fr1_58,fr1_q4).
body(r_fr1_58,fr1_r1).
body(r_fr1_58,fr1_s1).
body(r_fr1_58,fr1_s2).
body(r_fr1_58,fr1_t1).
body(r_fr1_58,fr1_t2).
body(r_fr1_58,fr1_t3).
body(r_fr1_58,fr1_v1).
body(r_fr1_58,fr1_w3).
body(r_fr1_58,fr1_x3).
body(r_fr1_58,fr1_y1).
body(r_fr1_58,fr1_y2).
body(r_fr1_58,fr1_y3).
body(r_fr1_58,fr1_z1).
body(r_fr1_58,fr1_z2).
head(r_fr1_59,fr1_v3).
body(r_fr1_59,fr7_e1).
body(r_fr1_59,fr1_p3).
body(r_fr1_59,fr1_q2).
body(r_fr1_59,fr1_q3).
body(r_fr1_59,fr1_q4).
body(r_fr1_59,fr1_r1).
body(r_fr1_59,fr1_s1).
body(r_fr1_59,fr1_s2).
body(r_fr1_59,fr1_t1).
body(r_fr1_59,fr1_t2).
body(r_fr1_59,fr1_t3).
body(r_fr1_59,fr1_u1).
body(r_fr1_59,fr1_v2).
body(r_fr1_59,fr1_w3).
body(r_fr1_59,fr1_x1).
body(r_fr1_59,fr1_x2).
body(r_fr1_59,fr1_x3).
body(r_fr1_59,fr1_y1).
body(r_fr1_59,fr1_y3).
body(r_fr1_59,fr1_z1).
body(r_fr1_59,fr1_z3).
head(r_fr1_60,fr1_v3).
body(r_fr1_60,fr1_a1).
body(r_fr1_60,fr1_p2).
body(r_fr1_60,fr1_p4).
body(r_fr1_60,fr1_q1).
body(r_fr1_60,fr1_q2).
body(r_fr1_60,fr1_q3).
body(r_fr1_60,fr1_r2).
body(r_fr1_60,fr7_c2).
body(r_fr1_60,fr1_s1).
body(r_fr1_60,fr1_s2).
body(r_fr1_60,fr1_t2).
body(r_fr1_60,fr1_t3).
body(r_fr1_60,fr1_u2).
body(r_fr1_60,fr1_v1).
body(r_fr1_60,fr1_v2).
body(r_fr1_60,fr1_w3).
body(r_fr1_60,fr1_x1).
body(r_fr1_60,fr1_x2).
body(r_fr1_60,fr1_y2).
body(r_fr1_60,fr1_y3).
body(r_fr1_60,fr1_z1).
head(r_fr1_61,fr1_v3).
body(r_fr1_61,fr1_a3).
body(r_fr1_61,fr1_d1).
body(r_fr1_61,fr1_f1).
body(r_fr1_61,fr1_p2).
body(r_fr1_61,fr1_q2).
body(r_fr1_61,fr1_r1).
body(r_fr1_61,fr1_s1).
body(r_fr1_61,fr1_s2).
body(r_fr1_61,fr1_s3).
body(r_fr1_61,fr1_t3).
body(r_fr1_61,fr1_u2).
body(r_fr1_61,fr1_v2).
body(r_fr1_61,fr1_w1).
body(r_fr1_61,fr1_w2).
body(r_fr1_61,fr1_x1).
body(r_fr1_61,fr1_x2).
body(r_fr1_61,fr1_x3).
body(r_fr1_61,fr1_y1).
body(r_fr1_61,fr1_y3).
body(r_fr1_61,fr1_z1).
body(r_fr1_61,fr1_z3).
head(r_fr1_62,fr1_q4).
body(r_fr1_62,fr1_a2).
body(r_fr1_62,fr1_b2).
body(r_fr1_62,fr7_e1).
body(r_fr1_62,fr1_f2).
body(r_fr1_62,fr1_p1).
body(r_fr1_62,fr1_p2).
body(r_fr1_62,fr1_p3).
body(r_fr1_62,fr1_p4).
body(r_fr1_62,fr1_q3).
body(r_fr1_62,fr1_s1).
body(r_fr1_62,fr1_s2).
body(r_fr1_62,fr1_t1).
body(r_fr1_62,fr1_t2).
body(r_fr1_62,fr1_t3).
body(r_fr1_62,fr1_u2).
body(r_fr1_62,fr1_v2).
body(r_fr1_62,fr1_v3).
body(r_fr1_62,fr1_w2).
body(r_fr1_62,fr1_x2).
body(r_fr1_62,fr1_x3).
body(r_fr1_62,fr1_y1).
body(r_fr1_62,fr1_y2).
body(r_fr1_62,fr1_z2).
head(r_fr1_63,fr1_q4).
body(r_fr1_63,fr1_a1).
body(r_fr1_63,fr1_b1).
body(r_fr1_63,fr7_e1).
body(r_fr1_63,fr1_c2).
body(r_fr1_63,fr1_d1).
body(r_fr1_63,fr1_p2).
body(r_fr1_63,fr1_q1).
body(r_fr1_63,fr1_q3).
body(r_fr1_63,fr1_r1).
body(r_fr1_63,fr1_r2).
body(r_fr1_63,fr7_c2).
body(r_fr1_63,fr1_s1).
body(r_fr1_63,fr1_s3).
body(r_fr1_63,fr1_t1).
body(r_fr1_63,fr1_t3).
body(r_fr1_63,fr1_u1).
body(r_fr1_63,fr1_v1).
body(r_fr1_63,fr1_v2).
body(r_fr1_63,fr1_w1).
body(r_fr1_63,fr1_x1).
body(r_fr1_63,fr1_y1).
body(r_fr1_63,fr1_y3).
body(r_fr1_63,fr1_z2).
body(r_fr1_63,fr1_z3).

assumption(fr2_a1).
assumption(fr2_b1).
assumption(fr6_s2).
assumption(fr2_d1).
assumption(fr6_a2).
assumption(fr2_f1).
assumption(fr2_a2).
assumption(fr2_b2).
assumption(fr2_c2).
assumption(fr2_d2).
assumption(fr2_e2).
assumption(fr2_f2).
assumption(fr2_a3).
assumption(fr2_b3).
assumption(fr2_c3).
assumption(fr7_f3).
assumption(fr2_e3).
assumption(fr3_y2).
assumption(fr2_a4).
assumption(fr2_b4).
assumption(fr2_c4).
assumption(fr2_d4).
assumption(fr2_e4).
assumption(fr2_f4).
assumption(fr2_a5).
assumption(fr2_b5).
assumption(fr2_c5).
assumption(fr2_d5).
assumption(fr2_e5).
assumption(fr2_f5).
assumption(fr2_a6).
assumption(fr2_b6).
assumption(fr2_c6).
contrary(fr2_a1,fr2_q3).
contrary(fr2_a2,fr2_w3).
contrary(fr2_a3,fr2_s4).
contrary(fr2_a4,fr2_e3).
contrary(fr2_a5,fr2_y4).
contrary(fr2_a6,fr2_p2).
contrary(fr2_b1,fr6_a2).
contrary(fr2_b2,fr2_y5).
contrary(fr2_b3,fr2_c6).
contrary(fr2_b4,fr2_r5).
contrary(fr2_b5,fr2_x5).
contrary(fr2_b6,fr7_f3).
contrary(fr6_s2,fr2_z3).
contrary(fr2_c2,fr2_r5).
contrary(fr2_c3,fr2_f2).
contrary(fr2_c4,fr2_p5).
contrary(fr2_c5,fr2_d5).
contrary(fr2_c6,fr2_y1).
contrary(fr2_d1,fr2_t3).
contrary(fr2_d2,fr2_z5).
contrary(fr7_f3,fr2_x4).
contrary(fr2_d4,fr2_x4).
contrary(fr2_d5,fr2_w2).
contrary(fr6_a2,fr2_r4).
contrary(fr2_e2,fr2_u3).
contrary(fr2_e3,fr2_e2).
contrary(fr2_e4,fr2_b2).
contrary(fr2_e5,fr2_b4).
contrary(fr2_f1,fr2_e2).
contrary(fr2_f2,fr2_y4).
contrary(fr3_y2,fr2_s4).
contrary(fr2_f4,fr2_b4).
contrary(fr2_f5,fr6_s2).
head(r_fr2_0,fr7_v3).
body(r_fr2_0,fr2_p1).
body(r_fr2_0,fr2_p2).
body(r_fr2_0,fr2_r3).
body(r_fr2_0,fr2_t2).
body(r_fr2_0,fr2_v1).
body(r_fr2_0,fr2_z4).
head(r_fr2_1,fr7_v3).
body(r_fr2_1,fr2_a5).
body(r_fr2_1,fr2_c4).
body(r_fr2_1,fr2_d1).
body(r_fr2_1,fr2_p5).
body(r_fr2_1,fr2_q5).
body(r_fr2_1,fr2_s3).
body(r_fr2_1,fr2_w3).
body(r_fr2_1,fr2_w5).
body(r_fr2_1,fr2_x2).
body(r_fr2_1,fr2_x3).
body(r_fr2_1,fr2_y1).
body(r_fr2_1,fr2_y3).
body(r_fr2_1,fr2_z1).
head(r_fr2_2,fr7_v3).
body(r_fr2_2,fr2_b5).
body(r_fr2_2,fr2_b6).
body(r_fr2_2,fr2_c6).
body(r_fr2_2,fr2_e3).
body(r_fr2_2,fr2_f1).
body(r_fr2_2,fr2_r2).
body(r_fr2_2,fr2_s1).
body(r_fr2_2,fr2_w3).
body(r_fr2_2,fr2_x3).
body(r_fr2_2,fr2_y4).
head(r_fr2_3,fr7_v3).
body(r_fr2_3,fr2_a1).
body(r_fr2_3,fr2_a2).
body(r_fr2_3,fr2_a3).
body(r_fr2_3,fr2_d5).
body(r_fr2_3,fr2_p4).
body(r_fr2_3,fr2_v4).
body(r_fr2_3,fr2_x2).
body(r_fr2_3,fr2_x5).
body(r_fr2_3,fr2_y5).
head(r_fr2_4,fr7_v3).
body(r_fr2_4,fr2_x1).
body(r_fr2_4,fr2_x3).
head(r_fr2_5,fr7_v3).
body(r_fr2_5,fr2_a5).
body(r_fr2_5,fr2_c2).
body(r_fr2_5,fr2_c5).
body(r_fr2_5,fr2_c6).
body(r_fr2_5,fr7_f3).
body(r_fr2_5,fr6_a2).
body(r_fr2_5,fr2_e3).
body(r_fr2_5,fr2_e5).
body(r_fr2_5,fr2_f1).
body(r_fr2_5,fr2_f2).
body(r_fr2_5,fr2_f5).
body(r_fr2_5,fr2_y1).
head(r_fr2_6,fr2_r5).
body(r_fr2_6,fr2_a2).
body(r_fr2_6,fr2_a3).
body(r_fr2_6,fr2_b2).
body(r_fr2_6,fr2_b4).
body(r_fr2_6,fr2_e2).
body(r_fr2_6,fr2_e4).
body(r_fr2_6,fr2_e5).
body(r_fr2_6,fr2_p4).
body(r_fr2_6,fr2_r2).
body(r_fr2_6,fr2_u4).
body(r_fr2_6,fr2_y5).
head(r_fr2_7,fr2_r5).
body(r_fr2_7,fr2_a6).
body(r_fr2_7,fr2_b1).
body(r_fr2_7,fr6_s2).
body(r_fr2_7,fr2_c2).
body(r_fr2_7,fr2_p2).
body(r_fr2_7,fr2_q2).
body(r_fr2_7,fr2_r3).
body(r_fr2_7,fr2_u3).
body(r_fr2_7,fr2_v5).
body(r_fr2_7,fr2_z1).
head(r_fr2_8,fr2_r5).
head(r_fr2_9,fr2_r5).
body(r_fr2_9,fr2_a4).
body(r_fr2_9,fr2_b3).
body(r_fr2_9,fr2_b4).
body(r_fr2_9,fr2_c3).
body(r_fr2_9,fr2_d1).
body(r_fr2_9,fr2_e2).
body(r_fr2_9,fr2_p4).
body(r_fr2_9,fr2_t1).
body(r_fr2_9,fr2_u2).
body(r_fr2_9,fr2_v4).
body(r_fr2_9,fr2_w2).
body(r_fr2_9,fr2_w3).
head(r_fr2_10,fr2_r5).
body(r_fr2_10,fr2_a4).
body(r_fr2_10,fr2_b5).
body(r_fr2_10,fr2_c2).
body(r_fr2_10,fr2_c4).
body(r_fr2_10,fr2_d2).
body(r_fr2_10,fr2_d5).
body(r_fr2_10,fr2_e5).
body(r_fr2_10,fr2_p1).
body(r_fr2_10,fr2_q4).
body(r_fr2_10,fr2_v1).
body(r_fr2_10,fr2_x3).
body(r_fr2_10,fr2_z1).
head(r_fr2_11,fr2_w1).
body(r_fr2_11,fr2_b1).
body(r_fr2_11,fr2_e5).
body(r_fr2_11,fr2_u5).
body(r_fr2_11,fr2_v1).
body(r_fr2_11,fr2_v5).
body(r_fr2_11,fr2_w5).
body(r_fr2_11,fr2_y5).
body(r_fr2_11,fr2_z2).
head(r_fr2_12,fr2_w1).
body(r_fr2_12,fr2_q2).
body(r_fr2_12,fr2_r4).
body(r_fr2_12,fr2_u2).
body(r_fr2_12,fr2_u3).
body(r_fr2_12,fr2_v2).
head(r_fr2_13,fr2_w1).
body(r_fr2_13,fr2_q1).
body(r_fr2_13,fr2_u1).
body(r_fr2_13,fr2_u2).
body(r_fr2_13,fr2_u3).
body(r_fr2_13,fr2_u5).
body(r_fr2_13,fr2_x1).
body(r_fr2_13,fr2_x5).
body(r_fr2_13,fr2_y2).
body(r_fr2_13,fr2_y3).
body(r_fr2_13,fr2_z1).
head(r_fr2_14,fr2_w1).
body(r_fr2_14,fr2_a1).
body(r_fr2_14,fr2_a3).
body(r_fr2_14,fr2_a5).
body(r_fr2_14,fr2_b3).
body(r_fr2_14,fr2_b4).
body(r_fr2_14,fr2_c4).
body(r_fr2_14,fr2_c5).
body(r_fr2_14,fr2_d1).
body(r_fr2_14,fr2_e2).
body(r_fr2_14,fr2_f1).
body(r_fr2_14,fr2_f2).
body(r_fr2_14,fr2_f4).
head(r_fr2_15,fr2_w1).
body(r_fr2_15,fr2_a2).
body(r_fr2_15,fr2_a3).
body(r_fr2_15,fr2_b2).
body(r_fr2_15,fr2_d1).
body(r_fr2_15,fr7_f3).
body(r_fr2_15,fr6_a2).
body(r_fr2_15,fr2_e5).
body(r_fr2_15,fr2_q3).
body(r_fr2_15,fr2_t4).
body(r_fr2_15,fr2_w4).
body(r_fr2_15,fr2_z3).
head(r_fr2_16,fr2_p4).
body(r_fr2_16,fr2_a1).
body(r_fr2_16,fr2_b1).
body(r_fr2_16,fr2_b4).
body(r_fr2_16,fr6_s2).
body(r_fr2_16,fr2_c4).
body(r_fr2_16,fr2_c5).
body(r_fr2_16,fr2_d1).
body(r_fr2_16,fr2_d2).
body(r_fr2_16,fr6_a2).
body(r_fr2_16,fr2_f1).
body(r_fr2_16,fr2_f2).
body(r_fr2_16,fr2_f5).
head(r_fr2_17,fr2_p4).
body(r_fr2_17,fr2_a5).
body(r_fr2_17,fr2_b2).
body(r_fr2_17,fr2_b4).
body(r_fr2_17,fr6_s2).
body(r_fr2_17,fr2_c3).
body(r_fr2_17,fr7_f3).
body(r_fr2_17,fr2_r3).
body(r_fr2_17,fr2_t4).
body(r_fr2_17,fr2_v2).
body(r_fr2_17,fr2_v5).
head(r_fr2_18,fr2_p4).
body(r_fr2_18,fr2_a6).
body(r_fr2_18,fr2_b4).
body(r_fr2_18,fr2_b5).
body(r_fr2_18,fr2_c6).
body(r_fr2_18,fr2_e4).
body(r_fr2_18,fr2_f5).
head(r_fr2_19,fr2_s4).
body(r_fr2_19,fr2_a1).
body(r_fr2_19,fr2_a6).
body(r_fr2_19,fr2_s1).
body(r_fr2_19,fr2_t1).
body(r_fr2_19,fr2_u5).
body(r_fr2_19,fr2_x3).
body(r_fr2_19,fr2_x5).
head(r_fr2_20,fr2_s4).
body(r_fr2_20,fr2_a4).
body(r_fr2_20,fr2_b2).
body(r_fr2_20,fr2_b3).
body(r_fr2_20,fr2_r3).
body(r_fr2_20,fr2_w3).
head(r_fr2_21,fr2_s4).
body(r_fr2_21,fr2_a1).
body(r_fr2_21,fr2_b6).
body(r_fr2_21,fr2_d5).
body(r_fr2_21,fr2_p1).
body(r_fr2_21,fr2_p3).
body(r_fr2_21,fr2_p5).
body(r_fr2_21,fr2_r2).
body(r_fr2_21,fr2_r3).
body(r_fr2_21,fr2_u2).
body(r_fr2_21,fr2_u5).
body(r_fr2_21,fr2_x1).
body(r_fr2_21,fr2_x5).
body(r_fr2_21,fr2_z5).
head(r_fr2_22,fr2_s4).
body(r_fr2_22,fr2_a3).
body(r_fr2_22,fr2_a6).
body(r_fr2_22,fr2_b3).
body(r_fr2_22,fr2_b4).
body(r_fr2_22,fr2_c2).
body(r_fr2_22,fr2_d1).
body(r_fr2_22,fr6_a2).
body(r_fr2_22,fr2_e2).
body(r_fr2_22,fr2_f1).
body(r_fr2_22,fr3_y2).
head(r_fr2_23,fr2_s4).
body(r_fr2_23,fr2_p5).
body(r_fr2_23,fr2_u1).
body(r_fr2_23,fr2_v4).
body(r_fr2_23,fr2_v5).
body(r_fr2_23,fr2_y4).
body(r_fr2_23,fr2_z3).
body(r_fr2_23,fr2_z5).
head(r_fr2_24,fr2_s4).
body(r_fr2_24,fr2_a1).
body(r_fr2_24,fr2_a4).
body(r_fr2_24,fr2_b2).
body(r_fr2_24,fr6_s2).
body(r_fr2_24,fr2_c5).
body(r_fr2_24,fr2_d1).
body(r_fr2_24,fr2_d5).
body(r_fr2_24,fr2_e4).
body(r_fr2_24,fr2_f1).
body(r_fr2_24,fr2_p2).
body(r_fr2_24,fr2_y3).
head(r_fr2_25,fr2_s4).
body(r_fr2_25,fr2_a1).
body(r_fr2_25,fr2_c6).
head(r_fr2_26,fr2_s4).
body(r_fr2_26,fr2_a1).
body(r_fr2_26,fr2_a3).
body(r_fr2_26,fr2_a5).
body(r_fr2_26,fr2_b3).
body(r_fr2_26,fr2_b6).
body(r_fr2_26,fr2_c3).
body(r_fr2_26,fr2_e2).
body(r_fr2_26,fr2_f2).
body(r_fr2_26,fr2_f4).
body(r_fr2_26,fr2_f5).
body(r_fr2_26,fr2_z2).
body(r_fr2_26,fr2_z3).
body(r_fr2_26,fr2_z5).
head(r_fr2_27,fr2_v1).
body(r_fr2_27,fr2_b3).
body(r_fr2_27,fr6_s2).
body(r_fr2_27,fr2_c4).
body(r_fr2_27,fr2_c6).
body(r_fr2_27,fr2_d2).
body(r_fr2_27,fr2_f1).
body(r_fr2_27,fr2_f2).
head(r_fr2_28,fr2_v1).
body(r_fr2_28,fr2_a2).
body(r_fr2_28,fr2_a3).
body(r_fr2_28,fr2_a6).
body(r_fr2_28,fr2_b6).
body(r_fr2_28,fr6_a2).
body(r_fr2_28,fr2_r2).
head(r_fr2_29,fr2_v1).
body(r_fr2_29,fr2_a4).
body(r_fr2_29,fr2_b1).
body(r_fr2_29,fr2_b6).
body(r_fr2_29,fr2_u4).
body(r_fr2_29,fr2_w5).
head(r_fr2_30,fr2_v1).
body(r_fr2_30,fr2_f2).
body(r_fr2_30,fr2_v5).
head(r_fr2_31,fr2_z4).
body(r_fr2_31,fr2_a2).
body(r_fr2_31,fr2_b5).
body(r_fr2_31,fr2_d5).
body(r_fr2_31,fr2_p5).
body(r_fr2_31,fr2_x2).
head(r_fr2_32,fr2_z4).
body(r_fr2_32,fr2_a4).
body(r_fr2_32,fr2_b2).
body(r_fr2_32,fr2_c4).
body(r_fr2_32,fr2_d1).
body(r_fr2_32,fr2_q2).
body(r_fr2_32,fr2_t1).
head(r_fr2_33,fr2_z4).
body(r_fr2_33,fr2_b1).
body(r_fr2_33,fr2_c2).
body(r_fr2_33,fr2_e4).
body(r_fr2_33,fr2_p2).
body(r_fr2_33,fr2_r1).
body(r_fr2_33,fr2_t1).
body(r_fr2_33,fr2_u1).
body(r_fr2_33,fr2_v4).
body(r_fr2_33,fr2_y2).
body(r_fr2_33,fr2_z2).
body(r_fr2_33,fr2_z5).
head(r_fr2_34,fr2_z4).
body(r_fr2_34,fr2_v4).
head(r_fr2_35,fr2_z4).
body(r_fr2_35,fr2_e2).
body(r_fr2_35,fr2_f4).
body(r_fr2_35,fr2_r2).
body(r_fr2_35,fr2_z3).
head(r_fr2_36,fr2_z4).
body(r_fr2_36,fr2_a4).
body(r_fr2_36,fr2_b5).
body(r_fr2_36,fr2_b6).
body(r_fr2_36,fr2_c2).
body(r_fr2_36,fr2_c4).
body(r_fr2_36,fr2_e2).
body(r_fr2_36,fr2_e3).
body(r_fr2_36,fr2_f4).
body(r_fr2_36,fr2_q5).
body(r_fr2_36,fr2_r2).
head(r_fr2_37,fr2_z4).
body(r_fr2_37,fr2_b2).
body(r_fr2_37,fr2_p2).
body(r_fr2_37,fr2_p3).
body(r_fr2_37,fr2_s3).
body(r_fr2_37,fr2_w4).
body(r_fr2_37,fr2_x1).
head(r_fr2_38,fr2_z4).
body(r_fr2_38,fr2_p1).
body(r_fr2_38,fr2_x4).
body(r_fr2_38,fr2_z2).
head(r_fr2_39,fr2_z4).
body(r_fr2_39,fr2_r3).
body(r_fr2_39,fr2_u1).
body(r_fr2_39,fr2_u4).
body(r_fr2_39,fr2_u5).
body(r_fr2_39,fr2_z1).
head(r_fr2_40,fr2_z1).
body(r_fr2_40,fr2_c3).
body(r_fr2_40,fr2_c4).
body(r_fr2_40,fr2_f2).
body(r_fr2_40,fr3_y2).
body(r_fr2_40,fr2_t5).
head(r_fr2_41,fr2_z1).
body(r_fr2_41,fr2_c2).
body(r_fr2_41,fr2_d1).
body(r_fr2_41,fr2_q5).
body(r_fr2_41,fr2_s2).
body(r_fr2_41,fr2_u4).
head(r_fr2_42,fr2_z1).
body(r_fr2_42,fr2_q4).
body(r_fr2_42,fr2_s2).
head(r_fr2_43,fr2_z1).
body(r_fr2_43,fr2_b1).
body(r_fr2_43,fr2_b5).
body(r_fr2_43,fr2_e3).
body(r_fr2_43,fr2_v2).
head(r_fr2_44,fr2_z1).
body(r_fr2_44,fr2_a1).
body(r_fr2_44,fr2_a3).
body(r_fr2_44,fr2_b5).
body(r_fr2_44,fr2_b6).
body(r_fr2_44,fr2_c6).
body(r_fr2_44,fr6_a2).
body(r_fr2_44,fr2_s5).
body(r_fr2_44,fr2_v4).
body(r_fr2_44,fr2_v5).
body(r_fr2_44,fr2_y1).
body(r_fr2_44,fr2_y5).
head(r_fr2_45,fr2_z1).
head(r_fr2_46,fr2_w4).
body(r_fr2_46,fr2_a1).
body(r_fr2_46,fr2_a5).
body(r_fr2_46,fr2_c5).
body(r_fr2_46,fr2_r3).
body(r_fr2_46,fr2_t3).
body(r_fr2_46,fr2_v2).
head(r_fr2_47,fr2_w4).
body(r_fr2_47,fr2_d1).
body(r_fr2_47,fr2_f2).
body(r_fr2_47,fr2_r4).
body(r_fr2_47,fr2_s1).
body(r_fr2_47,fr2_s3).
body(r_fr2_47,fr2_t4).
body(r_fr2_47,fr2_v5).
body(r_fr2_47,fr2_w5).
body(r_fr2_47,fr2_x2).
body(r_fr2_47,fr2_y1).
head(r_fr2_48,fr2_w4).
body(r_fr2_48,fr2_q1).
body(r_fr2_48,fr2_q4).
body(r_fr2_48,fr2_q5).
body(r_fr2_48,fr2_t3).
body(r_fr2_48,fr2_w5).
body(r_fr2_48,fr2_y3).
body(r_fr2_48,fr2_y5).
head(r_fr2_49,fr2_w4).
body(r_fr2_49,fr2_c3).
body(r_fr2_49,fr2_c6).
body(r_fr2_49,fr2_f4).
body(r_fr2_49,fr2_t5).
head(r_fr2_50,fr2_w4).
body(r_fr2_50,fr2_q2).
body(r_fr2_50,fr2_s5).
body(r_fr2_50,fr2_u2).
body(r_fr2_50,fr2_u3).
body(r_fr2_50,fr2_x2).
body(r_fr2_50,fr2_x4).
body(r_fr2_50,fr2_y2).
head(r_fr2_51,fr2_w4).
body(r_fr2_51,fr2_q1).
body(r_fr2_51,fr2_q3).
body(r_fr2_51,fr2_q5).
body(r_fr2_51,fr2_s2).
body(r_fr2_51,fr2_t2).
body(r_fr2_51,fr2_t3).
body(r_fr2_51,fr2_u2).
body(r_fr2_51,fr2_x1).
body(r_fr2_51,fr2_x3).
body(r_fr2_51,fr2_x5).
body(r_fr2_51,fr2_y4).
body(r_fr2_51,fr2_z2).
head(r_fr2_52,fr2_w4).
body(r_fr2_52,fr2_a1).
body(r_fr2_52,fr2_a5).
body(r_fr2_52,fr2_b3).
body(r_fr2_52,fr2_b4).
body(r_fr2_52,fr2_c3).
body(r_fr2_52,fr2_d2).
body(r_fr2_52,fr2_d4).
body(r_fr2_52,fr2_d5).
body(r_fr2_52,fr6_a2).
body(r_fr2_52,fr2_f2).
body(r_fr2_52,fr2_u1).
body(r_fr2_52,fr2_v2).
head(r_fr2_53,fr2_w4).
body(r_fr2_53,fr2_a6).
body(r_fr2_53,fr2_e4).
body(r_fr2_53,fr2_s3).
body(r_fr2_53,fr2_t5).
head(r_fr2_54,fr2_w4).
body(r_fr2_54,fr2_d1).
body(r_fr2_54,fr2_d5).
body(r_fr2_54,fr2_f2).
body(r_fr2_54,fr2_q1).
body(r_fr2_54,fr2_w3).
head(r_fr2_55,fr2_w4).
head(r_fr2_56,fr2_w2).
body(r_fr2_56,fr2_a3).
body(r_fr2_56,fr2_d2).
body(r_fr2_56,fr2_e5).
body(r_fr2_56,fr2_f4).
body(r_fr2_56,fr2_q3).
body(r_fr2_56,fr2_q4).
body(r_fr2_56,fr2_s3).
body(r_fr2_56,fr2_u3).
body(r_fr2_56,fr2_v4).
head(r_fr2_57,fr2_w2).
body(r_fr2_57,fr2_d5).
head(r_fr2_58,fr2_w2).
body(r_fr2_58,fr2_e2).
body(r_fr2_58,fr3_y2).
body(r_fr2_58,fr2_u5).
body(r_fr2_58,fr2_x3).
head(r_fr2_59,fr2_w2).
body(r_fr2_59,fr2_c5).
body(r_fr2_59,fr2_d1).
body(r_fr2_59,fr2_d2).
body(r_fr2_59,fr2_e3).
body(r_fr2_59,fr2_e4).
body(r_fr2_59,fr2_r3).
body(r_fr2_59,fr2_r4).
body(r_fr2_59,fr2_s2).
body(r_fr2_59,fr2_u3).
body(r_fr2_59,fr2_v4).
body(r_fr2_59,fr2_x3).
body(r_fr2_59,fr2_z2).
head(r_fr2_60,fr2_w2).
body(r_fr2_60,fr2_a3).
body(r_fr2_60,fr7_f3).
body(r_fr2_60,fr2_d5).
body(r_fr2_60,fr2_q1).
body(r_fr2_60,fr2_y1).
head(r_fr2_61,fr2_p3).
head(r_fr2_62,fr2_p3).
body(r_fr2_62,fr2_a5).
body(r_fr2_62,fr2_b1).
body(r_fr2_62,fr2_e2).
head(r_fr2_63,fr2_q5).
body(r_fr2_63,fr2_b4).
body(r_fr2_63,fr2_p5).
body(r_fr2_63,fr2_q4).
body(r_fr2_63,fr2_s2).
body(r_fr2_63,fr2_u3).
body(r_fr2_63,fr2_v4).
body(r_fr2_63,fr2_x1).
body(r_fr2_63,fr2_x2).
body(r_fr2_63,fr2_y1).
body(r_fr2_63,fr2_y4).
body(r_fr2_63,fr2_y5).
head(r_fr2_64,fr2_q5).
body(r_fr2_64,fr2_a6).
body(r_fr2_64,fr2_c3).
body(r_fr2_64,fr7_f3).
body(r_fr2_64,fr2_d5).
body(r_fr2_64,fr2_f5).
body(r_fr2_64,fr2_q2).
body(r_fr2_64,fr2_z5).
head(r_fr2_65,fr2_q5).
body(r_fr2_65,fr2_a5).
body(r_fr2_65,fr2_b5).
body(r_fr2_65,fr3_y2).
body(r_fr2_65,fr2_p5).
head(r_fr2_66,fr2_q5).
body(r_fr2_66,fr2_a2).
body(r_fr2_66,fr2_b3).
body(r_fr2_66,fr2_c3).
body(r_fr2_66,fr2_c6).
body(r_fr2_66,fr7_f3).
body(r_fr2_66,fr2_d4).
body(r_fr2_66,fr2_f1).
body(r_fr2_66,fr2_f2).
body(r_fr2_66,fr2_f5).
head(r_fr2_67,fr2_q5).
body(r_fr2_67,fr6_s2).
body(r_fr2_67,fr2_c3).
body(r_fr2_67,fr2_d5).
body(r_fr2_67,fr2_p5).
body(r_fr2_67,fr2_r1).
head(r_fr2_68,fr2_q5).
body(r_fr2_68,fr2_p2).
body(r_fr2_68,fr2_p5).
body(r_fr2_68,fr2_q3).
body(r_fr2_68,fr2_r1).
body(r_fr2_68,fr2_r3).
body(r_fr2_68,fr2_s2).
body(r_fr2_68,fr2_s5).
body(r_fr2_68,fr2_u4).
body(r_fr2_68,fr2_w5).
body(r_fr2_68,fr2_x2).
body(r_fr2_68,fr2_y1).
body(r_fr2_68,fr2_z2).
body(r_fr2_68,fr2_z3).
head(r_fr2_69,fr2_q5).
head(r_fr2_70,fr2_s3).
body(r_fr2_70,fr2_a2).
body(r_fr2_70,fr2_b3).
body(r_fr2_70,fr2_e5).
body(r_fr2_70,fr2_p2).
body(r_fr2_70,fr2_q1).
body(r_fr2_70,fr2_q3).
body(r_fr2_70,fr2_t3).
body(r_fr2_70,fr2_t4).
body(r_fr2_70,fr2_x1).
body(r_fr2_70,fr2_y5).
body(r_fr2_70,fr2_z3).
head(r_fr2_71,fr2_s3).
body(r_fr2_71,fr2_b5).
head(r_fr2_72,fr2_s3).
body(r_fr2_72,fr2_f5).
body(r_fr2_72,fr2_q4).
body(r_fr2_72,fr2_r4).
body(r_fr2_72,fr2_s1).
body(r_fr2_72,fr2_t2).
body(r_fr2_72,fr2_u5).
body(r_fr2_72,fr2_x3).
body(r_fr2_72,fr2_x4).
body(r_fr2_72,fr2_y1).
body(r_fr2_72,fr2_z3).
body(r_fr2_72,fr2_z5).
head(r_fr2_73,fr2_s3).
body(r_fr2_73,fr2_a3).
body(r_fr2_73,fr2_a6).
body(r_fr2_73,fr2_b2).
body(r_fr2_73,fr2_b3).
body(r_fr2_73,fr2_e3).
body(r_fr2_73,fr2_f2).
body(r_fr2_73,fr3_y2).
body(r_fr2_73,fr2_t3).
body(r_fr2_73,fr2_w5).
body(r_fr2_73,fr2_y1).
head(r_fr2_74,fr2_s3).
body(r_fr2_74,fr2_a5).
body(r_fr2_74,fr2_b3).
body(r_fr2_74,fr2_f1).
body(r_fr2_74,fr2_q1).
body(r_fr2_74,fr2_r1).
body(r_fr2_74,fr2_u4).
body(r_fr2_74,fr2_w3).
body(r_fr2_74,fr2_y5).
body(r_fr2_74,fr2_z2).
head(r_fr2_75,fr2_s3).
body(r_fr2_75,fr2_q2).
body(r_fr2_75,fr2_u2).
body(r_fr2_75,fr2_v2).
body(r_fr2_75,fr2_x3).
body(r_fr2_75,fr2_z2).
head(r_fr2_76,fr2_s3).
head(r_fr2_77,fr2_s3).
body(r_fr2_77,fr2_r1).
body(r_fr2_77,fr2_t4).
body(r_fr2_77,fr2_y2).
head(r_fr2_78,fr2_u4).
body(r_fr2_78,fr2_b2).
body(r_fr2_78,fr2_e5).
body(r_fr2_78,fr2_q4).
body(r_fr2_78,fr2_u2).
body(r_fr2_78,fr2_v2).
body(r_fr2_78,fr2_v5).
body(r_fr2_78,fr2_w3).
body(r_fr2_78,fr2_x4).
body(r_fr2_78,fr2_y5).
head(r_fr2_79,fr2_u4).
body(r_fr2_79,fr2_c5).
head(r_fr2_80,fr2_u4).
body(r_fr2_80,fr2_a3).
body(r_fr2_80,fr2_b4).
body(r_fr2_80,fr2_c2).
body(r_fr2_80,fr2_c3).
body(r_fr2_80,fr2_e5).
body(r_fr2_80,fr2_f4).
body(r_fr2_80,fr2_f5).
body(r_fr2_80,fr2_r1).
body(r_fr2_80,fr2_x4).
body(r_fr2_80,fr2_z5).
head(r_fr2_81,fr2_u4).
body(r_fr2_81,fr2_r1).
body(r_fr2_81,fr2_r2).
body(r_fr2_81,fr2_x3).
body(r_fr2_81,fr2_z2).
head(r_fr2_82,fr2_u4).
body(r_fr2_82,fr2_b6).
body(r_fr2_82,fr2_d2).
head(r_fr2_83,fr2_u4).
head(r_fr2_84,fr2_u4).
body(r_fr2_84,fr2_a1).
body(r_fr2_84,fr2_a2).
body(r_fr2_84,fr2_b5).
body(r_fr2_84,fr2_b6).
body(r_fr2_84,fr2_c2).
body(r_fr2_84,fr2_c5).
body(r_fr2_84,fr2_d4).
body(r_fr2_84,fr2_e5).
body(r_fr2_84,fr2_t1).
body(r_fr2_84,fr2_x5).
head(r_fr2_85,fr2_u4).
body(r_fr2_85,fr2_b1).
body(r_fr2_85,fr2_b3).
body(r_fr2_85,fr2_b4).
body(r_fr2_85,fr2_b6).
body(r_fr2_85,fr6_s2).
body(r_fr2_85,fr2_c2).
body(r_fr2_85,fr2_c3).
body(r_fr2_85,fr2_c4).
body(r_fr2_85,fr2_f1).
body(r_fr2_85,fr3_y2).
body(r_fr2_85,fr2_p1).
body(r_fr2_85,fr2_w3).
body(r_fr2_85,fr2_y4).
head(r_fr2_86,fr2_y4).
body(r_fr2_86,fr6_s2).
body(r_fr2_86,fr2_f2).
body(r_fr2_86,fr2_s1).
head(r_fr2_87,fr2_y4).
body(r_fr2_87,fr2_a4).
body(r_fr2_87,fr2_a5).
body(r_fr2_87,fr2_b5).
body(r_fr2_87,fr6_s2).
body(r_fr2_87,fr2_c4).
body(r_fr2_87,fr2_d2).
body(r_fr2_87,fr6_a2).
body(r_fr2_87,fr2_e2).
body(r_fr2_87,fr2_e4).
body(r_fr2_87,fr2_f1).
head(r_fr2_88,fr2_y4).
body(r_fr2_88,fr2_t4).
body(r_fr2_88,fr2_v4).
body(r_fr2_88,fr2_y5).
head(r_fr2_89,fr2_y4).
body(r_fr2_89,fr2_a5).
body(r_fr2_89,fr2_a6).
body(r_fr2_89,fr6_s2).
body(r_fr2_89,fr2_c5).
body(r_fr2_89,fr2_q1).
body(r_fr2_89,fr2_q2).
body(r_fr2_89,fr2_r1).
body(r_fr2_89,fr2_z5).
head(r_fr2_90,fr2_y4).
body(r_fr2_90,fr2_f5).
body(r_fr2_90,fr2_t2).
head(r_fr2_91,fr2_y4).
body(r_fr2_91,fr6_s2).
body(r_fr2_91,fr2_f5).
body(r_fr2_91,fr2_r2).
body(r_fr2_91,fr2_t1).
body(r_fr2_91,fr2_v5).
head(r_fr2_92,fr2_y4).
head(r_fr2_93,fr2_y4).
body(r_fr2_93,fr2_a5).
body(r_fr2_93,fr2_e4).
body(r_fr2_93,fr2_p2).
body(r_fr2_93,fr2_q1).
body(r_fr2_93,fr2_q3).
body(r_fr2_93,fr2_u1).
body(r_fr2_93,fr2_x1).
body(r_fr2_93,fr2_z2).
head(r_fr2_94,fr2_y4).
body(r_fr2_94,fr2_t2).
head(r_fr2_95,fr2_y4).
body(r_fr2_95,fr2_v5).
body(r_fr2_95,fr2_y5).
head(r_fr2_96,fr2_t3).
body(r_fr2_96,fr2_a5).
body(r_fr2_96,fr2_b3).
body(r_fr2_96,fr2_p2).
body(r_fr2_96,fr2_q4).
body(r_fr2_96,fr2_r3).
head(r_fr2_97,fr2_t3).
body(r_fr2_97,fr2_d1).
body(r_fr2_97,fr6_a2).
body(r_fr2_97,fr2_e2).
body(r_fr2_97,fr2_u2).
body(r_fr2_97,fr2_v2).
body(r_fr2_97,fr2_v5).
body(r_fr2_97,fr2_x3).
body(r_fr2_97,fr2_x4).
body(r_fr2_97,fr2_z5).
head(r_fr2_98,fr2_t3).
body(r_fr2_98,fr2_a2).
body(r_fr2_98,fr2_b5).
body(r_fr2_98,fr2_e3).
body(r_fr2_98,fr2_f4).
head(r_fr2_99,fr2_t3).
body(r_fr2_99,fr2_b1).
body(r_fr2_99,fr2_b3).
body(r_fr2_99,fr2_d4).
body(r_fr2_99,fr2_e3).
body(r_fr2_99,fr2_f4).
body(r_fr2_99,fr2_f5).
head(r_fr2_100,fr2_t3).
head(r_fr2_101,fr2_t3).
body(r_fr2_101,fr2_a1).
body(r_fr2_101,fr2_a2).
body(r_fr2_101,fr2_a3).
body(r_fr2_101,fr2_b1).
body(r_fr2_101,fr2_b6).
body(r_fr2_101,fr6_s2).
body(r_fr2_101,fr2_c4).
body(r_fr2_101,fr2_f1).
body(r_fr2_101,fr2_f2).
body(r_fr2_101,fr2_p2).
body(r_fr2_101,fr2_u1).
body(r_fr2_101,fr2_z5).
head(r_fr2_102,fr2_t3).
body(r_fr2_102,fr2_b1).
body(r_fr2_102,fr2_c4).
body(r_fr2_102,fr2_p1).
head(r_fr2_103,fr2_t3).
body(r_fr2_103,fr2_a3).
body(r_fr2_103,fr2_d1).
body(r_fr2_103,fr2_x2).
head(r_fr2_104,fr2_t3).
body(r_fr2_104,fr2_w3).
body(r_fr2_104,fr2_z5).
head(r_fr2_105,fr2_t3).
body(r_fr2_105,fr2_b1).
body(r_fr2_105,fr2_c4).
body(r_fr2_105,fr2_c6).
body(r_fr2_105,fr2_d2).
body(r_fr2_105,fr2_e2).
body(r_fr2_105,fr2_e3).
body(r_fr2_105,fr2_e5).
body(r_fr2_105,fr2_x4).
head(r_fr2_106,fr2_t3).
body(r_fr2_106,fr2_d4).
body(r_fr2_106,fr2_y1).
head(r_fr2_107,fr2_s5).
body(r_fr2_107,fr2_a2).
body(r_fr2_107,fr2_a3).
body(r_fr2_107,fr2_b2).
body(r_fr2_107,fr2_b4).
body(r_fr2_107,fr2_b5).
body(r_fr2_107,fr2_b6).
body(r_fr2_107,fr2_c2).
body(r_fr2_107,fr2_c3).
body(r_fr2_107,fr2_c5).
body(r_fr2_107,fr2_d1).
body(r_fr2_107,fr2_f1).
body(r_fr2_107,fr2_q4).
body(r_fr2_107,fr2_t4).
head(r_fr2_108,fr2_s5).
head(r_fr2_109,fr2_q3).
body(r_fr2_109,fr2_d2).
body(r_fr2_109,fr6_a2).
body(r_fr2_109,fr2_r1).
body(r_fr2_109,fr2_s2).
body(r_fr2_109,fr2_t2).
body(r_fr2_109,fr2_u5).
head(r_fr2_110,fr2_q3).
head(r_fr2_111,fr2_q3).
body(r_fr2_111,fr2_c2).
body(r_fr2_111,fr2_d1).
body(r_fr2_111,fr2_f1).
head(r_fr2_112,fr2_q3).
body(r_fr2_112,fr2_b1).
body(r_fr2_112,fr2_b6).
body(r_fr2_112,fr2_c2).
body(r_fr2_112,fr2_c3).
body(r_fr2_112,fr2_d2).
body(r_fr2_112,fr7_f3).
body(r_fr2_112,fr2_e3).
body(r_fr2_112,fr2_e4).
body(r_fr2_112,fr2_f4).
body(r_fr2_112,fr2_r4).
head(r_fr2_113,fr2_r4).
body(r_fr2_113,fr2_p1).
body(r_fr2_113,fr2_t4).
body(r_fr2_113,fr2_u1).
body(r_fr2_113,fr2_u3).
head(r_fr2_114,fr2_r4).
body(r_fr2_114,fr2_s1).
body(r_fr2_114,fr2_s2).
body(r_fr2_114,fr2_t4).
body(r_fr2_114,fr2_u1).
body(r_fr2_114,fr2_u2).
body(r_fr2_114,fr2_x2).
body(r_fr2_114,fr2_y5).
head(r_fr2_115,fr2_r4).
body(r_fr2_115,fr2_c4).
body(r_fr2_115,fr2_t4).
body(r_fr2_115,fr2_y5).
head(r_fr2_116,fr2_r4).
body(r_fr2_116,fr2_a5).
body(r_fr2_116,fr2_a6).
body(r_fr2_116,fr2_b6).
body(r_fr2_116,fr2_c2).
body(r_fr2_116,fr2_c4).
body(r_fr2_116,fr2_e5).
body(r_fr2_116,fr2_f1).
body(r_fr2_116,fr2_f2).
body(r_fr2_116,fr2_f5).
body(r_fr2_116,fr2_p5).
body(r_fr2_116,fr2_t4).
body(r_fr2_116,fr2_u5).
body(r_fr2_116,fr2_y5).
head(r_fr2_117,fr2_r4).
body(r_fr2_117,fr2_b4).
body(r_fr2_117,fr2_b5).
body(r_fr2_117,fr2_p2).
body(r_fr2_117,fr2_q1).
body(r_fr2_117,fr2_q2).
body(r_fr2_117,fr2_s1).
body(r_fr2_117,fr2_t2).
body(r_fr2_117,fr2_u3).
body(r_fr2_117,fr2_u5).
body(r_fr2_117,fr2_v4).
body(r_fr2_117,fr2_x2).
body(r_fr2_117,fr2_y1).
body(r_fr2_117,fr2_z5).
head(r_fr2_118,fr2_r4).
body(r_fr2_118,fr2_b6).
body(r_fr2_118,fr6_s2).
body(r_fr2_118,fr2_c2).
body(r_fr2_118,fr2_c4).
body(r_fr2_118,fr2_e5).
body(r_fr2_118,fr2_f4).
body(r_fr2_118,fr2_p5).
body(r_fr2_118,fr2_s2).
body(r_fr2_118,fr2_y5).
head(r_fr2_119,fr2_r4).
body(r_fr2_119,fr2_b2).
body(r_fr2_119,fr2_c6).
head(r_fr2_120,fr2_r4).
body(r_fr2_120,fr2_a2).
body(r_fr2_120,fr2_c4).
body(r_fr2_120,fr2_e3).
body(r_fr2_120,fr2_p5).
body(r_fr2_120,fr2_s1).
body(r_fr2_120,fr2_u1).
body(r_fr2_120,fr2_w3).
body(r_fr2_120,fr2_x2).
body(r_fr2_120,fr2_y2).
body(r_fr2_120,fr2_y5).
head(r_fr2_121,fr2_r4).
body(r_fr2_121,fr2_q2).
body(r_fr2_121,fr2_s2).
head(r_fr2_122,fr2_p2).
body(r_fr2_122,fr2_d2).
body(r_fr2_122,fr2_e3).
body(r_fr2_122,fr2_r3).
body(r_fr2_122,fr2_u3).
head(r_fr2_123,fr2_p2).
head(r_fr2_124,fr2_p2).
body(r_fr2_124,fr2_a2).
body(r_fr2_124,fr2_b2).
body(r_fr2_124,fr2_b3).
body(r_fr2_124,fr2_c3).
body(r_fr2_124,fr2_c5).
body(r_fr2_124,fr2_c6).
body(r_fr2_124,fr2_t1).
body(r_fr2_124,fr2_t4).
head(r_fr2_125,fr2_p2).
body(r_fr2_125,fr2_e3).
head(r_fr2_126,fr2_r2).
body(r_fr2_126,fr2_r1).
body(r_fr2_126,fr2_v4).
head(r_fr2_127,fr2_r2).
body(r_fr2_127,fr2_w3).
body(r_fr2_127,fr2_w5).
body(r_fr2_127,fr2_y1).
body(r_fr2_127,fr2_y3).
body(r_fr2_127,fr2_z3).
body(r_fr2_127,fr2_z5).
head(r_fr2_128,fr2_r2).
body(r_fr2_128,fr6_a2).
body(r_fr2_128,fr2_s1).
body(r_fr2_128,fr2_x5).
body(r_fr2_128,fr2_y1).
body(r_fr2_128,fr2_y3).
head(r_fr2_129,fr2_r2).
body(r_fr2_129,fr2_d5).
body(r_fr2_129,fr2_q4).
body(r_fr2_129,fr2_w3).
body(r_fr2_129,fr2_z2).
body(r_fr2_129,fr2_z3).
head(r_fr2_130,fr2_r2).
body(r_fr2_130,fr2_r3).
body(r_fr2_130,fr2_t5).
body(r_fr2_130,fr2_v5).
body(r_fr2_130,fr2_y3).
head(r_fr2_131,fr2_r2).
body(r_fr2_131,fr2_b1).
body(r_fr2_131,fr7_f3).
body(r_fr2_131,fr2_d5).
head(r_fr2_132,fr2_r2).
body(r_fr2_132,fr2_d4).
body(r_fr2_132,fr2_d5).
body(r_fr2_132,fr2_s1).
body(r_fr2_132,fr2_v2).
body(r_fr2_132,fr2_x2).
body(r_fr2_132,fr2_x5).
body(r_fr2_132,fr2_y3).
body(r_fr2_132,fr2_z5).
head(r_fr2_133,fr2_r2).
body(r_fr2_133,fr2_a2).
body(r_fr2_133,fr2_b2).
body(r_fr2_133,fr2_b5).
body(r_fr2_133,fr2_c4).
body(r_fr2_133,fr2_c6).
body(r_fr2_133,fr2_d1).
body(r_fr2_133,fr2_d2).
body(r_fr2_133,fr2_d5).
body(r_fr2_133,fr2_e3).
head(r_fr2_134,fr2_w3).
body(r_fr2_134,fr2_a4).
body(r_fr2_134,fr2_b5).
body(r_fr2_134,fr2_c5).
body(r_fr2_134,fr2_f1).
body(r_fr2_134,fr2_f5).
head(r_fr2_135,fr2_w3).
body(r_fr2_135,fr2_a3).
body(r_fr2_135,fr2_a6).
body(r_fr2_135,fr2_b2).
body(r_fr2_135,fr2_b4).
body(r_fr2_135,fr2_c4).
body(r_fr2_135,fr6_a2).
body(r_fr2_135,fr3_y2).
body(r_fr2_135,fr2_f4).
body(r_fr2_135,fr2_x2).
head(r_fr2_136,fr2_w3).
body(r_fr2_136,fr2_b2).
body(r_fr2_136,fr2_r3).
head(r_fr2_137,fr2_q4).
body(r_fr2_137,fr2_a4).
body(r_fr2_137,fr2_b1).
body(r_fr2_137,fr2_b6).
body(r_fr2_137,fr2_c6).
body(r_fr2_137,fr7_f3).
body(r_fr2_137,fr6_a2).
body(r_fr2_137,fr2_e2).
body(r_fr2_137,fr2_q1).
body(r_fr2_137,fr2_x1).
body(r_fr2_137,fr2_y1).
head(r_fr2_138,fr2_q4).
body(r_fr2_138,fr2_b5).
body(r_fr2_138,fr2_e4).
body(r_fr2_138,fr2_p1).
body(r_fr2_138,fr2_q1).
body(r_fr2_138,fr2_q2).
body(r_fr2_138,fr2_r3).
body(r_fr2_138,fr2_t1).
body(r_fr2_138,fr2_t2).
body(r_fr2_138,fr2_t5).
body(r_fr2_138,fr2_y1).
body(r_fr2_138,fr2_y2).
body(r_fr2_138,fr2_y5).
body(r_fr2_138,fr2_z3).
head(r_fr2_139,fr2_q4).
body(r_fr2_139,fr2_b5).
body(r_fr2_139,fr2_c6).
body(r_fr2_139,fr2_d2).
body(r_fr2_139,fr7_f3).
body(r_fr2_139,fr2_d4).
body(r_fr2_139,fr2_e2).
body(r_fr2_139,fr2_f1).
body(r_fr2_139,fr2_r3).
head(r_fr2_140,fr2_q4).
body(r_fr2_140,fr2_a6).
body(r_fr2_140,fr2_d2).
body(r_fr2_140,fr2_f1).
body(r_fr2_140,fr2_t2).
body(r_fr2_140,fr2_u3).
body(r_fr2_140,fr2_x3).
body(r_fr2_140,fr2_x5).
body(r_fr2_140,fr2_y3).
head(r_fr2_141,fr2_q4).
body(r_fr2_141,fr2_a3).
body(r_fr2_141,fr2_b6).
body(r_fr2_141,fr2_e2).
body(r_fr2_141,fr2_e4).
body(r_fr2_141,fr2_t5).
body(r_fr2_141,fr2_u3).
body(r_fr2_141,fr2_x1).
head(r_fr2_142,fr2_q4).
body(r_fr2_142,fr2_a4).
body(r_fr2_142,fr2_b2).
body(r_fr2_142,fr2_b5).
body(r_fr2_142,fr2_d1).
body(r_fr2_142,fr2_e2).
body(r_fr2_142,fr2_s1).
body(r_fr2_142,fr2_u5).
body(r_fr2_142,fr2_v4).
body(r_fr2_142,fr2_v5).
body(r_fr2_142,fr2_x1).
body(r_fr2_142,fr2_y3).
body(r_fr2_142,fr2_z2).
head(r_fr2_143,fr2_q4).
body(r_fr2_143,fr2_b2).
body(r_fr2_143,fr6_s2).
body(r_fr2_143,fr2_f4).
body(r_fr2_143,fr2_p1).
body(r_fr2_143,fr2_q1).
body(r_fr2_143,fr2_q2).
body(r_fr2_143,fr2_r3).
body(r_fr2_143,fr2_t2).
body(r_fr2_143,fr2_u2).
body(r_fr2_143,fr2_v2).
body(r_fr2_143,fr2_x2).
body(r_fr2_143,fr2_x5).
head(r_fr2_144,fr2_q4).
body(r_fr2_144,fr2_b6).
body(r_fr2_144,fr2_d2).
body(r_fr2_144,fr2_d4).
body(r_fr2_144,fr2_f2).
body(r_fr2_144,fr2_t5).
body(r_fr2_144,fr2_u2).
body(r_fr2_144,fr2_v2).
body(r_fr2_144,fr2_x4).
body(r_fr2_144,fr2_z5).
head(r_fr2_145,fr2_r1).
body(r_fr2_145,fr2_p1).
body(r_fr2_145,fr2_p5).
body(r_fr2_145,fr2_q1).
body(r_fr2_145,fr2_t1).
body(r_fr2_145,fr2_t2).
body(r_fr2_145,fr2_t4).
body(r_fr2_145,fr2_u2).
body(r_fr2_145,fr2_x1).
body(r_fr2_145,fr2_y2).
head(r_fr2_146,fr2_r1).
body(r_fr2_146,fr2_b4).
body(r_fr2_146,fr2_c5).
body(r_fr2_146,fr2_d4).
body(r_fr2_146,fr2_q2).
body(r_fr2_146,fr2_u1).
body(r_fr2_146,fr2_u3).
body(r_fr2_146,fr2_v4).
body(r_fr2_146,fr2_w5).
body(r_fr2_146,fr2_x3).
body(r_fr2_146,fr2_x4).
head(r_fr2_147,fr2_u2).
body(r_fr2_147,fr2_b2).
body(r_fr2_147,fr2_b4).
body(r_fr2_147,fr2_b6).
body(r_fr2_147,fr2_c5).
body(r_fr2_147,fr2_f2).
body(r_fr2_147,fr3_y2).
head(r_fr2_148,fr2_u2).
body(r_fr2_148,fr2_a1).
head(r_fr2_149,fr2_u2).
body(r_fr2_149,fr2_a1).
body(r_fr2_149,fr2_a5).
body(r_fr2_149,fr2_b5).
body(r_fr2_149,fr2_b6).
body(r_fr2_149,fr2_c2).
body(r_fr2_149,fr2_e5).
body(r_fr2_149,fr2_f5).
body(r_fr2_149,fr2_q1).
body(r_fr2_149,fr2_q2).
body(r_fr2_149,fr2_u5).
body(r_fr2_149,fr2_x5).
body(r_fr2_149,fr2_y1).
head(r_fr2_150,fr2_u2).
body(r_fr2_150,fr2_a1).
body(r_fr2_150,fr3_y2).
body(r_fr2_150,fr2_q2).
body(r_fr2_150,fr2_y3).
body(r_fr2_150,fr2_z2).
head(r_fr2_151,fr2_u2).
body(r_fr2_151,fr2_e2).
head(r_fr2_152,fr2_z2).
body(r_fr2_152,fr2_b4).
head(r_fr2_153,fr2_z2).
body(r_fr2_153,fr2_c2).
body(r_fr2_153,fr2_d1).
body(r_fr2_153,fr7_f3).
body(r_fr2_153,fr6_a2).
body(r_fr2_153,fr2_e3).
body(r_fr2_153,fr2_e5).
body(r_fr2_153,fr2_f2).
body(r_fr2_153,fr2_f4).
body(r_fr2_153,fr2_q1).
body(r_fr2_153,fr2_r3).
body(r_fr2_153,fr2_u3).
body(r_fr2_153,fr2_x1).
body(r_fr2_153,fr2_y3).
head(r_fr2_154,fr2_z2).
body(r_fr2_154,fr2_a5).
body(r_fr2_154,fr2_f1).
body(r_fr2_154,fr2_p1).
body(r_fr2_154,fr2_q1).
body(r_fr2_154,fr2_s2).
body(r_fr2_154,fr2_u1).
body(r_fr2_154,fr2_u3).
body(r_fr2_154,fr2_u5).
body(r_fr2_154,fr2_v2).
body(r_fr2_154,fr2_x4).
body(r_fr2_154,fr2_y1).
body(r_fr2_154,fr2_y2).
body(r_fr2_154,fr2_y5).
head(r_fr2_155,fr2_z2).
head(r_fr2_156,fr2_z2).
body(r_fr2_156,fr2_a2).
body(r_fr2_156,fr2_d4).
body(r_fr2_156,fr2_d5).
body(r_fr2_156,fr2_q2).
body(r_fr2_156,fr2_r3).
body(r_fr2_156,fr2_s2).
body(r_fr2_156,fr2_u5).
body(r_fr2_156,fr2_v5).
body(r_fr2_156,fr2_w5).
body(r_fr2_156,fr2_x2).
body(r_fr2_156,fr2_y5).
head(r_fr2_157,fr2_z2).
body(r_fr2_157,fr2_b1).
body(r_fr2_157,fr2_u5).
body(r_fr2_157,fr2_v5).
body(r_fr2_157,fr2_z3).
head(r_fr2_158,fr2_z2).
body(r_fr2_158,fr2_c5).
body(r_fr2_158,fr2_c6).
body(r_fr2_158,fr2_e4).
body(r_fr2_158,fr2_f2).
head(r_fr2_159,fr2_y5).
body(r_fr2_159,fr2_d1).
body(r_fr2_159,fr2_q2).
body(r_fr2_159,fr2_t5).
body(r_fr2_159,fr2_u3).
body(r_fr2_159,fr2_v2).
body(r_fr2_159,fr2_v5).
body(r_fr2_159,fr2_w5).
body(r_fr2_159,fr2_x3).
body(r_fr2_159,fr2_x5).
body(r_fr2_159,fr2_z5).
head(r_fr2_160,fr2_y5).
body(r_fr2_160,fr2_b1).
head(r_fr2_161,fr2_y5).
body(r_fr2_161,fr2_a6).
body(r_fr2_161,fr2_b4).
body(r_fr2_161,fr3_y2).
body(r_fr2_161,fr2_f5).
body(r_fr2_161,fr2_v5).
head(r_fr2_162,fr2_y5).
head(r_fr2_163,fr2_y5).
body(r_fr2_163,fr2_p1).
body(r_fr2_163,fr2_q2).
body(r_fr2_163,fr2_u1).
body(r_fr2_163,fr2_v2).
body(r_fr2_163,fr2_v4).
head(r_fr2_164,fr2_y5).
body(r_fr2_164,fr2_b5).
body(r_fr2_164,fr2_c3).
body(r_fr2_164,fr2_q1).
body(r_fr2_164,fr2_s1).
body(r_fr2_164,fr2_t2).
body(r_fr2_164,fr2_u5).
body(r_fr2_164,fr2_w5).
body(r_fr2_164,fr2_x2).
body(r_fr2_164,fr2_x3).
body(r_fr2_164,fr2_x4).
body(r_fr2_164,fr2_x5).
body(r_fr2_164,fr2_y2).
head(r_fr2_165,fr2_y5).
body(r_fr2_165,fr2_a6).
body(r_fr2_165,fr2_e4).
body(r_fr2_165,fr2_q1).
body(r_fr2_165,fr2_r3).
body(r_fr2_165,fr2_x5).
body(r_fr2_165,fr2_y3).
head(r_fr2_166,fr2_y5).
body(r_fr2_166,fr2_c4).
body(r_fr2_166,fr2_f5).
head(r_fr2_167,fr2_y5).
body(r_fr2_167,fr2_p1).
body(r_fr2_167,fr2_s1).
head(r_fr2_168,fr2_u5).
body(r_fr2_168,fr2_a1).
body(r_fr2_168,fr2_a2).
body(r_fr2_168,fr2_b1).
body(r_fr2_168,fr2_b5).
body(r_fr2_168,fr2_c6).
body(r_fr2_168,fr2_d2).
body(r_fr2_168,fr2_d4).
body(r_fr2_168,fr2_e3).
body(r_fr2_168,fr2_f4).
head(r_fr2_169,fr2_u5).
head(r_fr2_170,fr2_x4).
body(r_fr2_170,fr2_a3).
body(r_fr2_170,fr2_b1).
body(r_fr2_170,fr2_d4).
body(r_fr2_170,fr2_e3).
body(r_fr2_170,fr2_f1).
body(r_fr2_170,fr2_q2).
body(r_fr2_170,fr2_t1).
body(r_fr2_170,fr2_u1).
body(r_fr2_170,fr2_v5).
body(r_fr2_170,fr2_w5).
body(r_fr2_170,fr2_x5).
body(r_fr2_170,fr2_y1).
head(r_fr2_171,fr2_x4).
body(r_fr2_171,fr2_a1).
body(r_fr2_171,fr2_a5).
body(r_fr2_171,fr2_a6).
body(r_fr2_171,fr2_b3).
body(r_fr2_171,fr2_b5).
body(r_fr2_171,fr2_b6).
body(r_fr2_171,fr6_s2).
body(r_fr2_171,fr2_d1).
body(r_fr2_171,fr2_d2).
body(r_fr2_171,fr6_a2).
body(r_fr2_171,fr2_e5).
body(r_fr2_171,fr3_y2).
head(r_fr2_172,fr2_x4).
head(r_fr2_173,fr2_x4).
body(r_fr2_173,fr2_q1).
body(r_fr2_173,fr2_x3).
head(r_fr2_174,fr2_u3).
body(r_fr2_174,fr2_a2).
body(r_fr2_174,fr2_a5).
body(r_fr2_174,fr2_b3).
body(r_fr2_174,fr6_s2).
body(r_fr2_174,fr2_c3).
body(r_fr2_174,fr2_c5).
body(r_fr2_174,fr2_d2).
body(r_fr2_174,fr3_y2).
body(r_fr2_174,fr2_f4).
body(r_fr2_174,fr2_q2).
body(r_fr2_174,fr2_r3).
body(r_fr2_174,fr2_s1).
body(r_fr2_174,fr2_t2).
head(r_fr2_175,fr2_u3).
body(r_fr2_175,fr2_a4).
body(r_fr2_175,fr2_c6).
body(r_fr2_175,fr2_e3).
body(r_fr2_175,fr2_f1).
body(r_fr2_175,fr2_t1).
body(r_fr2_175,fr2_t4).
body(r_fr2_175,fr2_t5).
body(r_fr2_175,fr2_v5).
body(r_fr2_175,fr2_x3).
body(r_fr2_175,fr2_x5).
body(r_fr2_175,fr2_z3).
head(r_fr2_176,fr2_u3).
body(r_fr2_176,fr2_b5).
body(r_fr2_176,fr2_d1).
body(r_fr2_176,fr2_e2).
body(r_fr2_176,fr2_f4).
body(r_fr2_176,fr2_r3).
body(r_fr2_176,fr2_t4).
body(r_fr2_176,fr2_v5).
body(r_fr2_176,fr2_w5).
body(r_fr2_176,fr2_y3).
head(r_fr2_177,fr2_u3).
body(r_fr2_177,fr2_a3).
body(r_fr2_177,fr2_a4).
body(r_fr2_177,fr2_b4).
body(r_fr2_177,fr2_c2).
body(r_fr2_177,fr2_x2).
head(r_fr2_178,fr2_y1).
body(r_fr2_178,fr2_a5).
body(r_fr2_178,fr2_b1).
body(r_fr2_178,fr2_c5).
body(r_fr2_178,fr2_d2).
body(r_fr2_178,fr7_f3).
body(r_fr2_178,fr2_f4).
head(r_fr2_179,fr2_y1).
body(r_fr2_179,fr2_p1).
body(r_fr2_179,fr2_s1).
body(r_fr2_179,fr2_u1).
body(r_fr2_179,fr2_x2).
body(r_fr2_179,fr2_z5).
head(r_fr2_180,fr2_y1).
body(r_fr2_180,fr2_b2).
body(r_fr2_180,fr2_d5).
body(r_fr2_180,fr3_y2).
body(r_fr2_180,fr2_q2).
body(r_fr2_180,fr2_t4).
body(r_fr2_180,fr2_y3).
body(r_fr2_180,fr2_z5).
head(r_fr2_181,fr2_y1).
body(r_fr2_181,fr2_a1).
body(r_fr2_181,fr2_a3).
body(r_fr2_181,fr2_b6).
body(r_fr2_181,fr7_f3).
body(r_fr2_181,fr2_p1).
body(r_fr2_181,fr2_s1).
body(r_fr2_181,fr2_t1).
body(r_fr2_181,fr2_t2).
body(r_fr2_181,fr2_t5).
body(r_fr2_181,fr2_x2).
body(r_fr2_181,fr2_x3).
body(r_fr2_181,fr2_z3).
body(r_fr2_181,fr2_z5).
head(r_fr2_182,fr2_y1).
body(r_fr2_182,fr2_a3).
body(r_fr2_182,fr2_a5).
body(r_fr2_182,fr2_a6).
body(r_fr2_182,fr2_b4).
body(r_fr2_182,fr2_c6).
head(r_fr2_183,fr2_y1).
body(r_fr2_183,fr2_p5).
body(r_fr2_183,fr2_q2).
body(r_fr2_183,fr2_s2).
body(r_fr2_183,fr2_v2).
body(r_fr2_183,fr2_v4).
body(r_fr2_183,fr2_w5).
head(r_fr2_184,fr2_y1).
body(r_fr2_184,fr2_b1).
body(r_fr2_184,fr2_b5).
body(r_fr2_184,fr2_c6).
body(r_fr2_184,fr2_p5).
body(r_fr2_184,fr2_s2).
body(r_fr2_184,fr2_t2).
body(r_fr2_184,fr2_t4).
body(r_fr2_184,fr2_x3).
body(r_fr2_184,fr2_y2).
head(r_fr2_185,fr2_y1).
body(r_fr2_185,fr2_a2).
body(r_fr2_185,fr7_f3).
body(r_fr2_185,fr2_q2).
body(r_fr2_185,fr2_s1).
body(r_fr2_185,fr2_y3).
head(r_fr2_186,fr2_y1).
body(r_fr2_186,fr2_a4).
head(r_fr2_187,fr2_t1).
body(r_fr2_187,fr2_t2).
body(r_fr2_187,fr2_z5).
head(r_fr2_188,fr2_t1).
body(r_fr2_188,fr2_a3).
body(r_fr2_188,fr2_b1).
body(r_fr2_188,fr2_b4).
body(r_fr2_188,fr6_s2).
body(r_fr2_188,fr2_c3).
body(r_fr2_188,fr7_f3).
body(r_fr2_188,fr2_e3).
head(r_fr2_189,fr2_t1).
head(r_fr2_190,fr2_t1).
body(r_fr2_190,fr2_c6).
body(r_fr2_190,fr2_r3).
body(r_fr2_190,fr2_u1).
body(r_fr2_190,fr2_y2).
body(r_fr2_190,fr2_z3).
head(r_fr2_191,fr2_t1).
body(r_fr2_191,fr2_a1).
body(r_fr2_191,fr2_c6).
body(r_fr2_191,fr2_d2).
body(r_fr2_191,fr6_a2).
body(r_fr2_191,fr2_v4).
head(r_fr2_192,fr2_t1).
body(r_fr2_192,fr2_a1).
body(r_fr2_192,fr2_b1).
body(r_fr2_192,fr2_b4).
body(r_fr2_192,fr6_s2).
body(r_fr2_192,fr2_c6).
body(r_fr2_192,fr2_f1).
body(r_fr2_192,fr2_f2).
body(r_fr2_192,fr3_y2).
body(r_fr2_192,fr2_f4).
body(r_fr2_192,fr2_s2).
head(r_fr2_193,fr2_x5).
body(r_fr2_193,fr2_f2).
body(r_fr2_193,fr2_q2).
body(r_fr2_193,fr2_s1).
body(r_fr2_193,fr2_t2).
body(r_fr2_193,fr2_t4).
body(r_fr2_193,fr2_t5).
body(r_fr2_193,fr2_u1).
body(r_fr2_193,fr2_v4).
body(r_fr2_193,fr2_v5).
body(r_fr2_193,fr2_w5).
body(r_fr2_193,fr2_y3).
body(r_fr2_193,fr2_z3).
head(r_fr2_194,fr2_x5).
body(r_fr2_194,fr6_s2).
body(r_fr2_194,fr2_e4).
body(r_fr2_194,fr3_y2).
body(r_fr2_194,fr2_p1).
body(r_fr2_194,fr2_q1).
body(r_fr2_194,fr2_z3).
head(r_fr2_195,fr2_x5).
head(r_fr2_196,fr2_v5).
body(r_fr2_196,fr2_b4).
body(r_fr2_196,fr2_d2).
body(r_fr2_196,fr2_p5).
body(r_fr2_196,fr2_r3).
body(r_fr2_196,fr2_s2).
body(r_fr2_196,fr2_t4).
body(r_fr2_196,fr2_v2).
head(r_fr2_197,fr2_v5).
body(r_fr2_197,fr2_b2).
body(r_fr2_197,fr7_f3).
body(r_fr2_197,fr2_x1).
body(r_fr2_197,fr2_y3).
head(r_fr2_198,fr2_v5).
body(r_fr2_198,fr2_a1).
body(r_fr2_198,fr2_a3).
body(r_fr2_198,fr2_a4).
body(r_fr2_198,fr2_b6).
body(r_fr2_198,fr6_s2).
body(r_fr2_198,fr2_c2).
body(r_fr2_198,fr2_c5).
body(r_fr2_198,fr2_e4).
body(r_fr2_198,fr2_q2).
body(r_fr2_198,fr2_s2).
body(r_fr2_198,fr2_t2).
body(r_fr2_198,fr2_w5).
body(r_fr2_198,fr2_z3).
head(r_fr2_199,fr2_v5).
body(r_fr2_199,fr7_f3).
body(r_fr2_199,fr2_p1).
body(r_fr2_199,fr2_p5).
body(r_fr2_199,fr2_q2).
body(r_fr2_199,fr2_t4).
body(r_fr2_199,fr2_v2).
body(r_fr2_199,fr2_z3).
body(r_fr2_199,fr2_z5).
head(r_fr2_200,fr2_u1).
body(r_fr2_200,fr2_c6).
body(r_fr2_200,fr2_e5).
body(r_fr2_200,fr2_f2).
body(r_fr2_200,fr2_p5).
body(r_fr2_200,fr2_t4).
body(r_fr2_200,fr2_v2).
body(r_fr2_200,fr2_x1).
head(r_fr2_201,fr2_u1).
body(r_fr2_201,fr2_a1).
body(r_fr2_201,fr2_b5).
body(r_fr2_201,fr2_c2).
body(r_fr2_201,fr2_c3).
body(r_fr2_201,fr2_c4).
body(r_fr2_201,fr2_d1).
body(r_fr2_201,fr2_d2).
body(r_fr2_201,fr7_f3).
body(r_fr2_201,fr2_e2).
body(r_fr2_201,fr2_e5).
body(r_fr2_201,fr3_y2).
body(r_fr2_201,fr2_x2).
head(r_fr2_202,fr2_u1).
body(r_fr2_202,fr2_a1).
body(r_fr2_202,fr2_a5).
body(r_fr2_202,fr2_c3).
body(r_fr2_202,fr2_c5).
body(r_fr2_202,fr2_d4).
body(r_fr2_202,fr2_r3).
head(r_fr2_203,fr2_u1).
body(r_fr2_203,fr2_x1).
head(r_fr2_204,fr2_w5).
body(r_fr2_204,fr2_p5).
body(r_fr2_204,fr2_s2).
body(r_fr2_204,fr2_t2).
body(r_fr2_204,fr2_t4).
body(r_fr2_204,fr2_x1).
body(r_fr2_204,fr2_x3).
head(r_fr2_205,fr2_w5).
body(r_fr2_205,fr2_a6).
body(r_fr2_205,fr2_b3).
body(r_fr2_205,fr2_p1).
head(r_fr2_206,fr2_w5).
body(r_fr2_206,fr2_a2).
body(r_fr2_206,fr2_b1).
body(r_fr2_206,fr7_f3).
body(r_fr2_206,fr2_f5).
body(r_fr2_206,fr2_p5).
body(r_fr2_206,fr2_r3).
body(r_fr2_206,fr2_t2).
body(r_fr2_206,fr2_t5).
body(r_fr2_206,fr2_v2).
body(r_fr2_206,fr2_x2).
body(r_fr2_206,fr2_y3).
body(r_fr2_206,fr2_z3).
head(r_fr2_207,fr2_t2).
body(r_fr2_207,fr2_a3).
body(r_fr2_207,fr2_a4).
body(r_fr2_207,fr2_b1).
body(r_fr2_207,fr2_b6).
body(r_fr2_207,fr2_e4).
body(r_fr2_207,fr3_y2).
body(r_fr2_207,fr2_q1).
body(r_fr2_207,fr2_x3).
head(r_fr2_208,fr2_t2).
body(r_fr2_208,fr2_b1).
body(r_fr2_208,fr2_b4).
body(r_fr2_208,fr2_e2).
body(r_fr2_208,fr2_f4).
body(r_fr2_208,fr2_f5).
head(r_fr2_209,fr2_t2).
body(r_fr2_209,fr7_f3).
body(r_fr2_209,fr2_f2).
body(r_fr2_209,fr2_p1).
body(r_fr2_209,fr2_q1).
body(r_fr2_209,fr2_q2).
body(r_fr2_209,fr2_r3).
body(r_fr2_209,fr2_s1).
body(r_fr2_209,fr2_s2).
body(r_fr2_209,fr2_v4).
body(r_fr2_209,fr2_x3).
body(r_fr2_209,fr2_y2).
body(r_fr2_209,fr2_z3).
body(r_fr2_209,fr2_z5).
head(r_fr2_210,fr2_t2).
body(r_fr2_210,fr2_b5).
body(r_fr2_210,fr2_e4).
body(r_fr2_210,fr2_q2).
body(r_fr2_210,fr2_v2).
head(r_fr2_211,fr2_t2).
body(r_fr2_211,fr2_b3).
body(r_fr2_211,fr2_p1).
body(r_fr2_211,fr2_t4).
body(r_fr2_211,fr2_x2).
body(r_fr2_211,fr2_y2).
body(r_fr2_211,fr2_z3).
head(r_fr2_212,fr2_t2).
body(r_fr2_212,fr2_a4).
body(r_fr2_212,fr2_d4).
body(r_fr2_212,fr2_p1).
body(r_fr2_212,fr2_q1).
body(r_fr2_212,fr2_q2).
body(r_fr2_212,fr2_z5).
head(r_fr2_213,fr2_t2).
body(r_fr2_213,fr3_y2).
body(r_fr2_213,fr2_q1).
body(r_fr2_213,fr2_v4).
body(r_fr2_213,fr2_y2).
body(r_fr2_213,fr2_y3).
body(r_fr2_213,fr2_z3).
head(r_fr2_214,fr2_t2).
body(r_fr2_214,fr2_e5).
body(r_fr2_214,fr2_s1).
body(r_fr2_214,fr2_v4).
head(r_fr2_215,fr2_t2).
body(r_fr2_215,fr2_b3).
body(r_fr2_215,fr2_c6).
body(r_fr2_215,fr7_f3).
body(r_fr2_215,fr2_q2).
body(r_fr2_215,fr2_t4).
body(r_fr2_215,fr2_v4).
body(r_fr2_215,fr2_x1).
body(r_fr2_215,fr2_x2).
body(r_fr2_215,fr2_x3).
head(r_fr2_216,fr2_t2).
head(r_fr2_217,fr2_p1).
body(r_fr2_217,fr2_e2).
body(r_fr2_217,fr2_p5).
body(r_fr2_217,fr2_q1).
body(r_fr2_217,fr2_q2).
body(r_fr2_217,fr2_r3).
body(r_fr2_217,fr2_s1).
body(r_fr2_217,fr2_t4).
body(r_fr2_217,fr2_v2).
body(r_fr2_217,fr2_x1).
body(r_fr2_217,fr2_x2).
body(r_fr2_217,fr2_y3).
body(r_fr2_217,fr2_z3).
body(r_fr2_217,fr2_z5).
head(r_fr2_218,fr2_p1).
head(r_fr2_219,fr2_p1).
body(r_fr2_219,fr2_a5).
body(r_fr2_219,fr2_a6).
body(r_fr2_219,fr7_f3).
body(r_fr2_219,fr6_a2).
body(r_fr2_219,fr2_e5).
body(r_fr2_219,fr2_f2).
body(r_fr2_219,fr3_y2).
body(r_fr2_219,fr2_p5).
body(r_fr2_219,fr2_q1).
body(r_fr2_219,fr2_t4).
body(r_fr2_219,fr2_v2).
body(r_fr2_219,fr2_x1).
body(r_fr2_219,fr2_y3).
head(r_fr2_220,fr2_p1).
body(r_fr2_220,fr7_f3).
body(r_fr2_220,fr2_f2).
body(r_fr2_220,fr2_f5).
body(r_fr2_220,fr2_r3).
body(r_fr2_220,fr2_v2).
head(r_fr2_221,fr2_x2).
body(r_fr2_221,fr2_b6).
body(r_fr2_221,fr2_q1).
body(r_fr2_221,fr2_q2).
body(r_fr2_221,fr2_r3).
body(r_fr2_221,fr2_v2).
body(r_fr2_221,fr2_x1).
body(r_fr2_221,fr2_x3).
head(r_fr2_222,fr2_x2).
body(r_fr2_222,fr2_e5).
body(r_fr2_222,fr2_p5).
body(r_fr2_222,fr2_q1).
body(r_fr2_222,fr2_q2).
body(r_fr2_222,fr2_s1).
body(r_fr2_222,fr2_v4).
body(r_fr2_222,fr2_x1).
body(r_fr2_222,fr2_x3).
body(r_fr2_222,fr2_y2).
body(r_fr2_222,fr2_y3).
body(r_fr2_222,fr2_z3).
body(r_fr2_222,fr2_z5).
head(r_fr2_223,fr2_x2).
body(r_fr2_223,fr2_s2).
body(r_fr2_223,fr2_t4).
body(r_fr2_223,fr2_y2).
body(r_fr2_223,fr2_z5).
head(r_fr2_224,fr2_x3).
body(r_fr2_224,fr2_c3).
body(r_fr2_224,fr2_v4).
body(r_fr2_224,fr2_x1).
head(r_fr2_225,fr2_x3).
body(r_fr2_225,fr2_p5).
body(r_fr2_225,fr2_q1).
body(r_fr2_225,fr2_q2).
body(r_fr2_225,fr2_r3).
body(r_fr2_225,fr2_s1).
body(r_fr2_225,fr2_t4).
body(r_fr2_225,fr2_t5).
body(r_fr2_225,fr2_v2).
body(r_fr2_225,fr2_v4).
body(r_fr2_225,fr2_y2).
body(r_fr2_225,fr2_y3).
body(r_fr2_225,fr2_z3).
body(r_fr2_225,fr2_z5).
head(r_fr2_226,fr2_x3).
body(r_fr2_226,fr6_s2).
body(r_fr2_226,fr2_d2).
body(r_fr2_226,fr2_p5).
body(r_fr2_226,fr2_q1).
body(r_fr2_226,fr2_s1).
body(r_fr2_226,fr2_s2).
body(r_fr2_226,fr2_v4).
body(r_fr2_226,fr2_y3).
body(r_fr2_226,fr2_z3).
body(r_fr2_226,fr2_z5).
head(r_fr2_227,fr2_x3).
body(r_fr2_227,fr2_a1).
body(r_fr2_227,fr2_z5).
head(r_fr2_228,fr2_x3).
body(r_fr2_228,fr2_b2).
body(r_fr2_228,fr2_b3).
body(r_fr2_228,fr2_b4).
body(r_fr2_228,fr2_b5).
body(r_fr2_228,fr2_c3).
body(r_fr2_228,fr2_c4).
body(r_fr2_228,fr2_d2).
body(r_fr2_228,fr2_d4).
body(r_fr2_228,fr2_d5).
body(r_fr2_228,fr2_e4).
body(r_fr2_228,fr2_f5).
body(r_fr2_228,fr2_v2).
body(r_fr2_228,fr2_v4).
head(r_fr2_229,fr2_x1).
body(r_fr2_229,fr7_f3).
body(r_fr2_229,fr2_q1).
body(r_fr2_229,fr2_v4).
head(r_fr2_230,fr2_x1).
body(r_fr2_230,fr2_d2).
head(r_fr2_231,fr2_x1).
head(r_fr2_232,fr2_x1).
body(r_fr2_232,fr2_b6).
body(r_fr2_232,fr2_e2).
body(r_fr2_232,fr2_p5).
body(r_fr2_232,fr2_q1).
body(r_fr2_232,fr2_s1).
body(r_fr2_232,fr2_s2).
body(r_fr2_232,fr2_t5).
body(r_fr2_232,fr2_v4).
body(r_fr2_232,fr2_y2).
body(r_fr2_232,fr2_y3).
body(r_fr2_232,fr2_z3).
body(r_fr2_232,fr2_z5).
head(r_fr2_233,fr2_x1).
body(r_fr2_233,fr2_b2).
body(r_fr2_233,fr2_c6).
body(r_fr2_233,fr2_d1).
body(r_fr2_233,fr2_f2).
body(r_fr2_233,fr2_f5).
body(r_fr2_233,fr2_p5).
body(r_fr2_233,fr2_q1).
body(r_fr2_233,fr2_q2).
body(r_fr2_233,fr2_r3).
body(r_fr2_233,fr2_t5).
body(r_fr2_233,fr2_v4).
head(r_fr2_234,fr2_s1).
body(r_fr2_234,fr2_a4).
body(r_fr2_234,fr2_a5).
body(r_fr2_234,fr2_b3).
body(r_fr2_234,fr2_c2).
body(r_fr2_234,fr2_c5).
body(r_fr2_234,fr2_d5).
body(r_fr2_234,fr3_y2).
body(r_fr2_234,fr2_v4).
head(r_fr2_235,fr2_s1).
body(r_fr2_235,fr2_a1).
body(r_fr2_235,fr2_e2).
body(r_fr2_235,fr2_e3).
body(r_fr2_235,fr2_v4).
head(r_fr2_236,fr2_s1).
body(r_fr2_236,fr2_a5).
body(r_fr2_236,fr2_b1).
body(r_fr2_236,fr2_c2).
body(r_fr2_236,fr2_c6).
body(r_fr2_236,fr2_d2).
body(r_fr2_236,fr2_d4).
body(r_fr2_236,fr2_e3).
body(r_fr2_236,fr2_s2).
body(r_fr2_236,fr2_z3).
body(r_fr2_236,fr2_z5).
head(r_fr2_237,fr2_s1).
body(r_fr2_237,fr7_f3).
body(r_fr2_237,fr2_e5).
body(r_fr2_237,fr2_p5).
body(r_fr2_237,fr2_q1).
body(r_fr2_237,fr2_q2).
body(r_fr2_237,fr2_t4).
body(r_fr2_237,fr2_v4).
head(r_fr2_238,fr2_s1).
body(r_fr2_238,fr2_a5).
body(r_fr2_238,fr2_a6).
body(r_fr2_238,fr2_c4).
body(r_fr2_238,fr2_e2).
body(r_fr2_238,fr2_p5).
body(r_fr2_238,fr2_q1).
body(r_fr2_238,fr2_q2).
body(r_fr2_238,fr2_s2).
body(r_fr2_238,fr2_t4).
body(r_fr2_238,fr2_t5).
body(r_fr2_238,fr2_v4).
body(r_fr2_238,fr2_y2).
body(r_fr2_238,fr2_z5).
head(r_fr2_239,fr2_r3).
head(r_fr2_240,fr2_r3).
body(r_fr2_240,fr2_b3).
body(r_fr2_240,fr2_d5).
body(r_fr2_240,fr2_e5).
body(r_fr2_240,fr2_f2).
body(r_fr2_240,fr2_q1).
body(r_fr2_240,fr2_q2).
body(r_fr2_240,fr2_v2).
body(r_fr2_240,fr2_v4).
head(r_fr2_241,fr2_r3).
body(r_fr2_241,fr2_a2).
body(r_fr2_241,fr2_a5).
body(r_fr2_241,fr2_b1).
body(r_fr2_241,fr2_b3).
body(r_fr2_241,fr6_s2).
body(r_fr2_241,fr2_c2).
body(r_fr2_241,fr2_c5).
body(r_fr2_241,fr2_d4).
body(r_fr2_241,fr2_d5).
body(r_fr2_241,fr2_f1).
head(r_fr2_242,fr2_r3).
body(r_fr2_242,fr2_b3).
body(r_fr2_242,fr2_c2).
body(r_fr2_242,fr2_q1).
body(r_fr2_242,fr2_s2).
body(r_fr2_242,fr2_t4).
body(r_fr2_242,fr2_t5).
body(r_fr2_242,fr2_v2).
body(r_fr2_242,fr2_y3).
head(r_fr2_243,fr2_r3).
body(r_fr2_243,fr2_f1).
body(r_fr2_243,fr2_q1).
body(r_fr2_243,fr2_q2).
body(r_fr2_243,fr2_t5).
body(r_fr2_243,fr2_z5).
head(r_fr2_244,fr2_r3).
body(r_fr2_244,fr2_t4).
body(r_fr2_244,fr2_z3).
head(r_fr2_245,fr2_t5).
body(r_fr2_245,fr2_c4).
body(r_fr2_245,fr2_q1).
body(r_fr2_245,fr2_q2).
body(r_fr2_245,fr2_y2).
head(r_fr2_246,fr2_t5).
body(r_fr2_246,fr2_a4).
body(r_fr2_246,fr2_b1).
body(r_fr2_246,fr2_b3).
body(r_fr2_246,fr2_b4).
body(r_fr2_246,fr2_c2).
body(r_fr2_246,fr2_d1).
body(r_fr2_246,fr2_d2).
body(r_fr2_246,fr2_e2).
body(r_fr2_246,fr2_t4).
body(r_fr2_246,fr2_z3).
body(r_fr2_246,fr2_z5).
head(r_fr2_247,fr2_t5).
body(r_fr2_247,fr2_d5).
body(r_fr2_247,fr2_f4).
body(r_fr2_247,fr2_p5).
body(r_fr2_247,fr2_s2).
body(r_fr2_247,fr2_t4).
body(r_fr2_247,fr2_v4).
body(r_fr2_247,fr2_y2).
body(r_fr2_247,fr2_z5).
head(r_fr2_248,fr2_t5).
body(r_fr2_248,fr2_c3).
body(r_fr2_248,fr2_c5).
body(r_fr2_248,fr2_d5).
body(r_fr2_248,fr6_a2).
body(r_fr2_248,fr2_p5).
body(r_fr2_248,fr2_q2).
body(r_fr2_248,fr2_s2).
body(r_fr2_248,fr2_t4).
body(r_fr2_248,fr2_v2).
body(r_fr2_248,fr2_v4).
body(r_fr2_248,fr2_y2).
body(r_fr2_248,fr2_z3).
head(r_fr2_249,fr2_t5).
body(r_fr2_249,fr2_c4).
body(r_fr2_249,fr2_d4).
body(r_fr2_249,fr6_a2).
body(r_fr2_249,fr2_e3).
head(r_fr2_250,fr2_t5).
body(r_fr2_250,fr2_a2).
body(r_fr2_250,fr2_c3).
body(r_fr2_250,fr2_d1).
body(r_fr2_250,fr2_d2).
body(r_fr2_250,fr6_a2).
body(r_fr2_250,fr2_e3).
body(r_fr2_250,fr2_f1).
head(r_fr2_251,fr2_t5).
head(r_fr2_252,fr2_t5).
body(r_fr2_252,fr2_b5).
body(r_fr2_252,fr6_s2).
body(r_fr2_252,fr2_d1).
body(r_fr2_252,fr2_f5).

assumption(fr3_a1).
assumption(fr3_b1).
assumption(fr3_c1).
assumption(fr3_d1).
assumption(fr3_e1).
assumption(fr3_f1).
assumption(fr3_a2).
assumption(fr3_b2).
assumption(fr3_c2).
assumption(fr3_d2).
assumption(fr3_e2).
assumption(fr10_u1).
assumption(fr3_a3).
assumption(fr3_b3).
assumption(fr3_c3).
contrary(fr3_a1,fr3_r2).
contrary(fr3_a2,fr3_q4).
contrary(fr3_a3,fr3_v2).
contrary(fr3_b1,fr3_x2).
contrary(fr3_b2,fr3_q1).
contrary(fr3_b3,fr3_a1).
contrary(fr3_c1,fr3_p1).
contrary(fr3_c2,fr3_w1).
contrary(fr3_c3,fr3_s1).
contrary(fr3_d1,fr3_y3).
contrary(fr3_d2,fr3_f1).
contrary(fr3_e1,fr3_a2).
contrary(fr3_e2,fr3_p2).
contrary(fr3_f1,fr3_w1).
contrary(fr10_u1,fr3_w2).
head(r_fr3_0,fr3_x1).
body(r_fr3_0,fr3_d2).
body(r_fr3_0,fr3_p2).
body(r_fr3_0,fr3_p3).
body(r_fr3_0,fr3_q2).
body(r_fr3_0,fr3_q4).
body(r_fr3_0,fr3_r1).
body(r_fr3_0,fr3_r2).
body(r_fr3_0,fr3_r3).
body(r_fr3_0,fr3_s1).
body(r_fr3_0,fr3_s2).
body(r_fr3_0,fr3_t2).
body(r_fr3_0,fr3_t3).
body(r_fr3_0,fr3_u2).
body(r_fr3_0,fr3_u3).
body(r_fr3_0,fr3_w1).
body(r_fr3_0,fr3_w2).
body(r_fr3_0,fr3_w3).
body(r_fr3_0,fr3_x2).
body(r_fr3_0,fr3_x3).
body(r_fr3_0,fr3_y1).
body(r_fr3_0,fr3_y2).
body(r_fr3_0,fr3_y3).
body(r_fr3_0,fr3_z1).
body(r_fr3_0,fr3_z3).
head(r_fr3_1,fr3_x1).
body(r_fr3_1,fr3_a2).
body(r_fr3_1,fr3_b1).
body(r_fr3_1,fr3_b3).
body(r_fr3_1,fr3_d2).
body(r_fr3_1,fr3_e1).
body(r_fr3_1,fr3_p2).
body(r_fr3_1,fr3_p3).
body(r_fr3_1,fr3_q1).
body(r_fr3_1,fr3_q2).
body(r_fr3_1,fr3_q4).
body(r_fr3_1,fr3_r2).
body(r_fr3_1,fr3_r3).
body(r_fr3_1,fr3_s2).
body(r_fr3_1,fr3_t1).
body(r_fr3_1,fr3_t2).
body(r_fr3_1,fr3_t3).
body(r_fr3_1,fr3_u1).
body(r_fr3_1,fr3_v1).
body(r_fr3_1,fr3_x3).
body(r_fr3_1,fr3_y1).
body(r_fr3_1,fr3_z2).
body(r_fr3_1,fr3_z3).
head(r_fr3_2,fr3_x1).
body(r_fr3_2,fr3_a2).
body(r_fr3_2,fr3_c2).
body(r_fr3_2,fr3_c3).
body(r_fr3_2,fr3_d1).
body(r_fr3_2,fr3_e1).
body(r_fr3_2,fr3_p2).
body(r_fr3_2,fr3_p4).
body(r_fr3_2,fr3_q3).
body(r_fr3_2,fr3_r1).
body(r_fr3_2,fr3_s1).
body(r_fr3_2,fr3_s3).
body(r_fr3_2,fr3_t1).
body(r_fr3_2,fr3_t2).
body(r_fr3_2,fr3_t3).
body(r_fr3_2,fr3_u2).
body(r_fr3_2,fr3_v3).
body(r_fr3_2,fr3_w2).
body(r_fr3_2,fr3_y1).
body(r_fr3_2,fr3_y2).
body(r_fr3_2,fr3_z1).
body(r_fr3_2,fr3_z2).
body(r_fr3_2,fr3_z3).
head(r_fr3_3,fr3_z2).
body(r_fr3_3,fr3_a1).
body(r_fr3_3,fr3_a3).
body(r_fr3_3,fr3_b3).
body(r_fr3_3,fr3_c1).
body(r_fr3_3,fr3_e2).
body(r_fr3_3,fr3_p1).
body(r_fr3_3,fr3_p2).
body(r_fr3_3,fr3_p3).
body(r_fr3_3,fr3_p4).
body(r_fr3_3,fr3_q1).
body(r_fr3_3,fr3_q3).
body(r_fr3_3,fr3_s2).
body(r_fr3_3,fr3_t2).
body(r_fr3_3,fr3_t3).
body(r_fr3_3,fr3_u2).
body(r_fr3_3,fr3_v1).
body(r_fr3_3,fr3_w1).
body(r_fr3_3,fr3_w2).
body(r_fr3_3,fr3_x1).
body(r_fr3_3,fr3_x3).
body(r_fr3_3,fr3_y1).
body(r_fr3_3,fr3_y2).
body(r_fr3_3,fr3_z1).
body(r_fr3_3,fr3_z3).
head(r_fr3_4,fr3_z2).
body(r_fr3_4,fr3_a2).
body(r_fr3_4,fr3_b3).
body(r_fr3_4,fr3_c1).
body(r_fr3_4,fr3_c2).
body(r_fr3_4,fr3_c3).
body(r_fr3_4,fr3_e2).
body(r_fr3_4,fr3_p2).
body(r_fr3_4,fr3_p3).
body(r_fr3_4,fr3_p4).
body(r_fr3_4,fr3_q1).
body(r_fr3_4,fr3_q4).
body(r_fr3_4,fr3_r2).
body(r_fr3_4,fr3_r3).
body(r_fr3_4,fr3_s2).
body(r_fr3_4,fr3_s3).
body(r_fr3_4,fr3_t2).
body(r_fr3_4,fr3_t3).
body(r_fr3_4,fr3_u1).
body(r_fr3_4,fr3_v3).
body(r_fr3_4,fr3_x3).
body(r_fr3_4,fr3_y2).
head(r_fr3_5,fr3_z2).
body(r_fr3_5,fr3_p2).
body(r_fr3_5,fr3_p3).
body(r_fr3_5,fr3_p4).
body(r_fr3_5,fr3_q1).
body(r_fr3_5,fr3_q3).
body(r_fr3_5,fr3_q4).
body(r_fr3_5,fr3_r3).
body(r_fr3_5,fr3_s2).
body(r_fr3_5,fr3_s3).
body(r_fr3_5,fr3_t2).
body(r_fr3_5,fr3_t3).
body(r_fr3_5,fr3_u2).
body(r_fr3_5,fr3_u3).
body(r_fr3_5,fr3_v1).
body(r_fr3_5,fr3_v3).
body(r_fr3_5,fr3_w1).
body(r_fr3_5,fr3_w2).
body(r_fr3_5,fr3_w3).
body(r_fr3_5,fr3_x2).
body(r_fr3_5,fr3_x3).
body(r_fr3_5,fr3_y2).
body(r_fr3_5,fr3_y3).
body(r_fr3_5,fr3_z1).
body(r_fr3_5,fr3_z3).
head(r_fr3_6,fr3_z2).
body(r_fr3_6,fr3_p1).
body(r_fr3_6,fr3_p2).
body(r_fr3_6,fr3_p3).
body(r_fr3_6,fr3_p4).
body(r_fr3_6,fr3_q1).
body(r_fr3_6,fr3_q2).
body(r_fr3_6,fr3_q3).
body(r_fr3_6,fr3_r1).
body(r_fr3_6,fr3_r2).
body(r_fr3_6,fr3_s2).
body(r_fr3_6,fr3_s3).
body(r_fr3_6,fr3_u1).
body(r_fr3_6,fr3_u2).
body(r_fr3_6,fr3_u3).
body(r_fr3_6,fr3_v2).
body(r_fr3_6,fr3_w2).
body(r_fr3_6,fr3_x1).
body(r_fr3_6,fr3_x2).
body(r_fr3_6,fr3_y1).
body(r_fr3_6,fr3_y2).
body(r_fr3_6,fr3_y3).
head(r_fr3_7,fr3_z2).
body(r_fr3_7,fr3_p1).
body(r_fr3_7,fr3_p4).
body(r_fr3_7,fr3_q1).
body(r_fr3_7,fr3_q3).
body(r_fr3_7,fr3_r1).
body(r_fr3_7,fr3_r2).
body(r_fr3_7,fr3_r3).
body(r_fr3_7,fr3_s3).
body(r_fr3_7,fr3_t2).
body(r_fr3_7,fr3_t3).
body(r_fr3_7,fr3_u1).
body(r_fr3_7,fr3_u2).
body(r_fr3_7,fr3_u3).
body(r_fr3_7,fr3_v1).
body(r_fr3_7,fr3_v2).
body(r_fr3_7,fr3_v3).
body(r_fr3_7,fr3_w2).
body(r_fr3_7,fr3_x2).
body(r_fr3_7,fr3_y1).
body(r_fr3_7,fr3_y3).
body(r_fr3_7,fr3_z1).
body(r_fr3_7,fr3_z3).
head(r_fr3_8,fr3_s1).
body(r_fr3_8,fr3_f1).
body(r_fr3_8,fr3_p1).
body(r_fr3_8,fr3_p2).
body(r_fr3_8,fr3_q1).
body(r_fr3_8,fr3_q2).
body(r_fr3_8,fr3_q3).
body(r_fr3_8,fr3_q4).
body(r_fr3_8,fr3_r1).
body(r_fr3_8,fr3_r3).
body(r_fr3_8,fr3_s2).
body(r_fr3_8,fr3_s3).
body(r_fr3_8,fr3_t1).
body(r_fr3_8,fr3_t3).
body(r_fr3_8,fr3_u2).
body(r_fr3_8,fr3_u3).
body(r_fr3_8,fr3_v1).
body(r_fr3_8,fr3_v3).
body(r_fr3_8,fr3_x1).
body(r_fr3_8,fr3_y1).
body(r_fr3_8,fr3_y2).
body(r_fr3_8,fr3_y3).
body(r_fr3_8,fr3_z3).
head(r_fr3_9,fr3_s1).
body(r_fr3_9,fr3_f1).
body(r_fr3_9,fr3_p3).
body(r_fr3_9,fr3_q2).
body(r_fr3_9,fr3_q3).
body(r_fr3_9,fr3_q4).
body(r_fr3_9,fr3_r2).
body(r_fr3_9,fr3_s3).
body(r_fr3_9,fr3_t1).
body(r_fr3_9,fr3_t2).
body(r_fr3_9,fr3_t3).
body(r_fr3_9,fr3_u1).
body(r_fr3_9,fr3_u2).
body(r_fr3_9,fr3_u3).
body(r_fr3_9,fr3_v2).
body(r_fr3_9,fr3_v3).
body(r_fr3_9,fr3_w1).
body(r_fr3_9,fr3_x1).
body(r_fr3_9,fr3_x3).
body(r_fr3_9,fr3_y1).
body(r_fr3_9,fr3_y2).
body(r_fr3_9,fr3_z1).
head(r_fr3_10,fr3_s1).
body(r_fr3_10,fr3_a3).
body(r_fr3_10,fr3_d1).
body(r_fr3_10,fr3_e2).
body(r_fr3_10,fr3_f1).
body(r_fr3_10,fr3_p1).
body(r_fr3_10,fr3_p4).
body(r_fr3_10,fr3_q1).
body(r_fr3_10,fr3_q2).
body(r_fr3_10,fr3_q4).
body(r_fr3_10,fr3_r1).
body(r_fr3_10,fr3_r2).
body(r_fr3_10,fr3_r3).
body(r_fr3_10,fr3_s2).
body(r_fr3_10,fr3_s3).
body(r_fr3_10,fr3_t1).
body(r_fr3_10,fr3_u1).
body(r_fr3_10,fr3_u2).
body(r_fr3_10,fr3_u3).
body(r_fr3_10,fr3_v2).
body(r_fr3_10,fr3_w1).
body(r_fr3_10,fr3_y1).
body(r_fr3_10,fr3_y2).
body(r_fr3_10,fr3_z1).
body(r_fr3_10,fr3_z3).
head(r_fr3_11,fr3_s1).
body(r_fr3_11,fr3_a1).
body(r_fr3_11,fr3_a2).
body(r_fr3_11,fr3_c2).
body(r_fr3_11,fr3_e2).
body(r_fr3_11,fr3_f1).
body(r_fr3_11,fr3_p2).
body(r_fr3_11,fr3_q2).
body(r_fr3_11,fr3_r3).
body(r_fr3_11,fr3_s2).
body(r_fr3_11,fr3_s3).
body(r_fr3_11,fr3_t1).
body(r_fr3_11,fr3_u1).
body(r_fr3_11,fr3_u2).
body(r_fr3_11,fr3_u3).
body(r_fr3_11,fr3_v1).
body(r_fr3_11,fr3_v3).
body(r_fr3_11,fr3_w1).
body(r_fr3_11,fr3_w2).
body(r_fr3_11,fr3_w3).
body(r_fr3_11,fr3_x1).
body(r_fr3_11,fr3_x2).
body(r_fr3_11,fr3_z1).
head(r_fr3_12,fr3_s1).
body(r_fr3_12,fr3_p2).
body(r_fr3_12,fr3_p4).
body(r_fr3_12,fr3_q1).
body(r_fr3_12,fr3_q2).
body(r_fr3_12,fr3_q4).
body(r_fr3_12,fr3_r2).
body(r_fr3_12,fr3_r3).
body(r_fr3_12,fr3_t2).
body(r_fr3_12,fr3_t3).
body(r_fr3_12,fr3_u2).
body(r_fr3_12,fr3_v1).
body(r_fr3_12,fr3_v3).
body(r_fr3_12,fr3_w1).
body(r_fr3_12,fr3_w3).
body(r_fr3_12,fr3_x1).
body(r_fr3_12,fr3_x2).
body(r_fr3_12,fr3_y1).
body(r_fr3_12,fr3_y2).
body(r_fr3_12,fr3_z1).
body(r_fr3_12,fr3_z2).
body(r_fr3_12,fr3_z3).
head(r_fr3_13,fr3_u2).
body(r_fr3_13,fr3_b1).
body(r_fr3_13,fr3_c2).
body(r_fr3_13,fr3_d1).
body(r_fr3_13,fr3_e2).
body(r_fr3_13,fr3_p4).
body(r_fr3_13,fr3_q1).
body(r_fr3_13,fr3_q2).
body(r_fr3_13,fr3_q3).
body(r_fr3_13,fr3_r1).
body(r_fr3_13,fr3_r2).
body(r_fr3_13,fr3_r3).
body(r_fr3_13,fr3_s2).
body(r_fr3_13,fr3_t3).
body(r_fr3_13,fr3_u1).
body(r_fr3_13,fr3_u3).
body(r_fr3_13,fr3_v1).
body(r_fr3_13,fr3_v2).
body(r_fr3_13,fr3_w3).
body(r_fr3_13,fr3_x2).
body(r_fr3_13,fr3_y2).
body(r_fr3_13,fr3_y3).
body(r_fr3_13,fr3_z1).
body(r_fr3_13,fr3_z3).
head(r_fr3_14,fr3_u2).
body(r_fr3_14,fr3_a1).
body(r_fr3_14,fr3_b2).
body(r_fr3_14,fr3_c1).
body(r_fr3_14,fr3_d2).
body(r_fr3_14,fr3_e2).
body(r_fr3_14,fr3_p1).
body(r_fr3_14,fr3_p2).
body(r_fr3_14,fr3_p3).
body(r_fr3_14,fr3_q2).
body(r_fr3_14,fr3_q4).
body(r_fr3_14,fr3_r1).
body(r_fr3_14,fr3_s2).
body(r_fr3_14,fr3_s3).
body(r_fr3_14,fr3_t3).
body(r_fr3_14,fr3_u1).
body(r_fr3_14,fr3_u3).
body(r_fr3_14,fr3_w1).
body(r_fr3_14,fr3_x2).
body(r_fr3_14,fr3_x3).
body(r_fr3_14,fr3_y1).
body(r_fr3_14,fr3_y2).
body(r_fr3_14,fr3_z2).
body(r_fr3_14,fr3_z3).
head(r_fr3_15,fr3_w3).
body(r_fr3_15,fr3_a1).
body(r_fr3_15,fr3_a3).
body(r_fr3_15,fr3_d1).
body(r_fr3_15,fr3_e2).
body(r_fr3_15,fr3_f1).
body(r_fr3_15,fr3_p2).
body(r_fr3_15,fr3_p3).
body(r_fr3_15,fr3_q2).
body(r_fr3_15,fr3_q3).
body(r_fr3_15,fr3_q4).
body(r_fr3_15,fr3_r1).
body(r_fr3_15,fr3_s1).
body(r_fr3_15,fr3_t1).
body(r_fr3_15,fr3_u1).
body(r_fr3_15,fr3_u2).
body(r_fr3_15,fr3_v3).
body(r_fr3_15,fr3_w1).
body(r_fr3_15,fr3_w2).
body(r_fr3_15,fr3_x2).
body(r_fr3_15,fr3_x3).
body(r_fr3_15,fr3_y3).
body(r_fr3_15,fr3_z1).
body(r_fr3_15,fr3_z2).
body(r_fr3_15,fr3_z3).
head(r_fr3_16,fr3_w3).
body(r_fr3_16,fr3_p1).
body(r_fr3_16,fr3_p2).
body(r_fr3_16,fr3_p3).
body(r_fr3_16,fr3_q2).
body(r_fr3_16,fr3_q4).
body(r_fr3_16,fr3_r2).
body(r_fr3_16,fr3_r3).
body(r_fr3_16,fr3_s1).
body(r_fr3_16,fr3_s2).
body(r_fr3_16,fr3_t1).
body(r_fr3_16,fr3_t2).
body(r_fr3_16,fr3_t3).
body(r_fr3_16,fr3_u2).
body(r_fr3_16,fr3_u3).
body(r_fr3_16,fr3_v1).
body(r_fr3_16,fr3_v2).
body(r_fr3_16,fr3_v3).
body(r_fr3_16,fr3_w2).
body(r_fr3_16,fr3_x2).
body(r_fr3_16,fr3_x3).
body(r_fr3_16,fr3_y1).
body(r_fr3_16,fr3_y2).
body(r_fr3_16,fr3_y3).
body(r_fr3_16,fr3_z1).
head(r_fr3_17,fr3_w3).
body(r_fr3_17,fr3_a1).
body(r_fr3_17,fr3_a2).
body(r_fr3_17,fr3_c1).
body(r_fr3_17,fr3_c2).
body(r_fr3_17,fr3_d1).
body(r_fr3_17,fr3_p2).
body(r_fr3_17,fr3_p4).
body(r_fr3_17,fr3_q2).
body(r_fr3_17,fr3_r1).
body(r_fr3_17,fr3_r2).
body(r_fr3_17,fr3_s2).
body(r_fr3_17,fr3_t1).
body(r_fr3_17,fr3_t2).
body(r_fr3_17,fr3_u1).
body(r_fr3_17,fr3_u2).
body(r_fr3_17,fr3_v2).
body(r_fr3_17,fr3_x1).
body(r_fr3_17,fr3_x2).
body(r_fr3_17,fr3_x3).
body(r_fr3_17,fr3_y3).
body(r_fr3_17,fr3_z2).
body(r_fr3_17,fr3_z3).
head(r_fr3_18,fr3_w3).
body(r_fr3_18,fr3_p1).
body(r_fr3_18,fr3_p3).
body(r_fr3_18,fr3_p4).
body(r_fr3_18,fr3_q1).
body(r_fr3_18,fr3_q2).
body(r_fr3_18,fr3_r1).
body(r_fr3_18,fr3_r3).
body(r_fr3_18,fr3_s2).
body(r_fr3_18,fr3_s3).
body(r_fr3_18,fr3_t1).
body(r_fr3_18,fr3_t2).
body(r_fr3_18,fr3_t3).
body(r_fr3_18,fr3_v2).
body(r_fr3_18,fr3_v3).
body(r_fr3_18,fr3_w2).
body(r_fr3_18,fr3_x1).
body(r_fr3_18,fr3_x3).
body(r_fr3_18,fr3_y1).
body(r_fr3_18,fr3_y2).
body(r_fr3_18,fr3_y3).
body(r_fr3_18,fr3_z1).
body(r_fr3_18,fr3_z2).
head(r_fr3_19,fr3_w3).
body(r_fr3_19,fr3_a3).
body(r_fr3_19,fr3_e1).
body(r_fr3_19,fr3_e2).
body(r_fr3_19,fr10_u1).
body(r_fr3_19,fr3_p3).
body(r_fr3_19,fr3_p4).
body(r_fr3_19,fr3_q2).
body(r_fr3_19,fr3_q3).
body(r_fr3_19,fr3_q4).
body(r_fr3_19,fr3_t2).
body(r_fr3_19,fr3_u1).
body(r_fr3_19,fr3_v1).
body(r_fr3_19,fr3_w1).
body(r_fr3_19,fr3_w2).
body(r_fr3_19,fr3_x2).
body(r_fr3_19,fr3_x3).
body(r_fr3_19,fr3_y2).
body(r_fr3_19,fr3_y3).
body(r_fr3_19,fr3_z1).
body(r_fr3_19,fr3_z2).
body(r_fr3_19,fr3_z3).
head(r_fr3_20,fr3_x3).
body(r_fr3_20,fr3_b1).
body(r_fr3_20,fr3_b2).
body(r_fr3_20,fr3_d2).
body(r_fr3_20,fr3_e2).
body(r_fr3_20,fr3_p1).
body(r_fr3_20,fr3_p4).
body(r_fr3_20,fr3_q4).
body(r_fr3_20,fr3_r1).
body(r_fr3_20,fr3_t1).
body(r_fr3_20,fr3_t3).
body(r_fr3_20,fr3_u1).
body(r_fr3_20,fr3_u2).
body(r_fr3_20,fr3_u3).
body(r_fr3_20,fr3_v2).
body(r_fr3_20,fr3_v3).
body(r_fr3_20,fr3_w2).
body(r_fr3_20,fr3_w3).
body(r_fr3_20,fr3_x2).
body(r_fr3_20,fr3_y1).
body(r_fr3_20,fr3_y3).
body(r_fr3_20,fr3_z2).
body(r_fr3_20,fr3_z3).
head(r_fr3_21,fr3_x3).
body(r_fr3_21,fr3_a2).
body(r_fr3_21,fr3_c1).
body(r_fr3_21,fr3_d1).
body(r_fr3_21,fr3_d2).
body(r_fr3_21,fr10_u1).
body(r_fr3_21,fr3_p2).
body(r_fr3_21,fr3_q1).
body(r_fr3_21,fr3_q2).
body(r_fr3_21,fr3_q3).
body(r_fr3_21,fr3_s1).
body(r_fr3_21,fr3_s2).
body(r_fr3_21,fr3_t2).
body(r_fr3_21,fr3_t3).
body(r_fr3_21,fr3_u1).
body(r_fr3_21,fr3_u3).
body(r_fr3_21,fr3_v1).
body(r_fr3_21,fr3_w2).
body(r_fr3_21,fr3_x1).
body(r_fr3_21,fr3_x2).
body(r_fr3_21,fr3_z1).
body(r_fr3_21,fr3_z2).
body(r_fr3_21,fr3_z3).
head(r_fr3_22,fr3_x3).
body(r_fr3_22,fr3_b3).
body(r_fr3_22,fr3_p2).
body(r_fr3_22,fr3_p3).
body(r_fr3_22,fr3_p4).
body(r_fr3_22,fr3_q1).
body(r_fr3_22,fr3_q3).
body(r_fr3_22,fr3_q4).
body(r_fr3_22,fr3_r1).
body(r_fr3_22,fr3_r2).
body(r_fr3_22,fr3_r3).
body(r_fr3_22,fr3_t1).
body(r_fr3_22,fr3_t2).
body(r_fr3_22,fr3_u1).
body(r_fr3_22,fr3_u3).
body(r_fr3_22,fr3_v2).
body(r_fr3_22,fr3_v3).
body(r_fr3_22,fr3_w1).
body(r_fr3_22,fr3_w2).
body(r_fr3_22,fr3_y1).
body(r_fr3_22,fr3_y2).
body(r_fr3_22,fr3_y3).
body(r_fr3_22,fr3_z1).
body(r_fr3_22,fr3_z2).
head(r_fr3_23,fr3_x3).
body(r_fr3_23,fr3_a3).
body(r_fr3_23,fr3_d1).
body(r_fr3_23,fr3_d2).
body(r_fr3_23,fr10_u1).
body(r_fr3_23,fr3_p3).
body(r_fr3_23,fr3_p4).
body(r_fr3_23,fr3_q2).
body(r_fr3_23,fr3_r3).
body(r_fr3_23,fr3_s1).
body(r_fr3_23,fr3_s3).
body(r_fr3_23,fr3_t2).
body(r_fr3_23,fr3_t3).
body(r_fr3_23,fr3_u1).
body(r_fr3_23,fr3_u2).
body(r_fr3_23,fr3_u3).
body(r_fr3_23,fr3_v1).
body(r_fr3_23,fr3_v3).
body(r_fr3_23,fr3_w2).
body(r_fr3_23,fr3_w3).
body(r_fr3_23,fr3_y2).
body(r_fr3_23,fr3_y3).
body(r_fr3_23,fr3_z1).
head(r_fr3_24,fr3_x3).
body(r_fr3_24,fr3_p2).
body(r_fr3_24,fr3_p3).
body(r_fr3_24,fr3_q1).
body(r_fr3_24,fr3_q2).
body(r_fr3_24,fr3_q3).
body(r_fr3_24,fr3_q4).
body(r_fr3_24,fr3_r2).
body(r_fr3_24,fr3_s1).
body(r_fr3_24,fr3_s2).
body(r_fr3_24,fr3_t1).
body(r_fr3_24,fr3_u1).
body(r_fr3_24,fr3_u2).
body(r_fr3_24,fr3_v3).
body(r_fr3_24,fr3_w2).
body(r_fr3_24,fr3_w3).
body(r_fr3_24,fr3_x1).
body(r_fr3_24,fr3_x2).
body(r_fr3_24,fr3_y1).
body(r_fr3_24,fr3_y2).
body(r_fr3_24,fr3_y3).
body(r_fr3_24,fr3_z2).
body(r_fr3_24,fr3_z3).
head(r_fr3_25,fr3_s3).
body(r_fr3_25,fr3_d1).
body(r_fr3_25,fr3_e1).
body(r_fr3_25,fr3_e2).
body(r_fr3_25,fr3_p2).
body(r_fr3_25,fr3_p3).
body(r_fr3_25,fr3_p4).
body(r_fr3_25,fr3_q1).
body(r_fr3_25,fr3_q3).
body(r_fr3_25,fr3_q4).
body(r_fr3_25,fr3_r2).
body(r_fr3_25,fr3_s1).
body(r_fr3_25,fr3_s2).
body(r_fr3_25,fr3_t2).
body(r_fr3_25,fr3_u1).
body(r_fr3_25,fr3_u2).
body(r_fr3_25,fr3_u3).
body(r_fr3_25,fr3_v3).
body(r_fr3_25,fr3_w1).
body(r_fr3_25,fr3_x3).
body(r_fr3_25,fr3_y3).
body(r_fr3_25,fr3_z1).
head(r_fr3_26,fr3_s3).
body(r_fr3_26,fr3_a2).
body(r_fr3_26,fr3_b2).
body(r_fr3_26,fr3_b3).
body(r_fr3_26,fr3_c3).
body(r_fr3_26,fr10_u1).
body(r_fr3_26,fr3_p1).
body(r_fr3_26,fr3_q2).
body(r_fr3_26,fr3_q3).
body(r_fr3_26,fr3_q4).
body(r_fr3_26,fr3_r2).
body(r_fr3_26,fr3_s2).
body(r_fr3_26,fr3_t1).
body(r_fr3_26,fr3_t2).
body(r_fr3_26,fr3_u2).
body(r_fr3_26,fr3_v1).
body(r_fr3_26,fr3_v2).
body(r_fr3_26,fr3_w1).
body(r_fr3_26,fr3_w3).
body(r_fr3_26,fr3_y1).
body(r_fr3_26,fr3_y2).
body(r_fr3_26,fr3_y3).
body(r_fr3_26,fr3_z1).
head(r_fr3_27,fr3_s3).
body(r_fr3_27,fr3_a2).
body(r_fr3_27,fr3_b3).
body(r_fr3_27,fr3_c2).
body(r_fr3_27,fr3_c3).
body(r_fr3_27,fr3_e1).
body(r_fr3_27,fr10_u1).
body(r_fr3_27,fr3_p1).
body(r_fr3_27,fr3_p2).
body(r_fr3_27,fr3_p4).
body(r_fr3_27,fr3_q2).
body(r_fr3_27,fr3_r2).
body(r_fr3_27,fr3_r3).
body(r_fr3_27,fr3_t2).
body(r_fr3_27,fr3_u2).
body(r_fr3_27,fr3_v3).
body(r_fr3_27,fr3_x2).
body(r_fr3_27,fr3_y1).
body(r_fr3_27,fr3_y2).
body(r_fr3_27,fr3_y3).
body(r_fr3_27,fr3_z1).
body(r_fr3_27,fr3_z2).
body(r_fr3_27,fr3_z3).
head(r_fr3_28,fr3_t3).
body(r_fr3_28,fr3_a1).
body(r_fr3_28,fr3_b1).
body(r_fr3_28,fr3_c3).
body(r_fr3_28,fr3_d2).
body(r_fr3_28,fr3_p3).
body(r_fr3_28,fr3_q1).
body(r_fr3_28,fr3_q2).
body(r_fr3_28,fr3_q3).
body(r_fr3_28,fr3_q4).
body(r_fr3_28,fr3_r2).
body(r_fr3_28,fr3_s1).
body(r_fr3_28,fr3_t2).
body(r_fr3_28,fr3_u2).
body(r_fr3_28,fr3_v1).
body(r_fr3_28,fr3_v2).
body(r_fr3_28,fr3_w1).
body(r_fr3_28,fr3_w2).
body(r_fr3_28,fr3_y1).
body(r_fr3_28,fr3_y3).
body(r_fr3_28,fr3_z1).
body(r_fr3_28,fr3_z3).
head(r_fr3_29,fr3_t3).
body(r_fr3_29,fr3_a2).
body(r_fr3_29,fr3_e2).
body(r_fr3_29,fr10_u1).
body(r_fr3_29,fr3_p1).
body(r_fr3_29,fr3_p2).
body(r_fr3_29,fr3_p4).
body(r_fr3_29,fr3_q1).
body(r_fr3_29,fr3_q3).
body(r_fr3_29,fr3_q4).
body(r_fr3_29,fr3_r1).
body(r_fr3_29,fr3_s1).
body(r_fr3_29,fr3_s2).
body(r_fr3_29,fr3_s3).
body(r_fr3_29,fr3_u1).
body(r_fr3_29,fr3_u3).
body(r_fr3_29,fr3_v2).
body(r_fr3_29,fr3_w1).
body(r_fr3_29,fr3_w3).
body(r_fr3_29,fr3_x2).
body(r_fr3_29,fr3_x3).
body(r_fr3_29,fr3_y1).
body(r_fr3_29,fr3_y2).
body(r_fr3_29,fr3_y3).
body(r_fr3_29,fr3_z1).
head(r_fr3_30,fr3_t3).
body(r_fr3_30,fr3_a1).
body(r_fr3_30,fr10_u1).
body(r_fr3_30,fr3_p2).
body(r_fr3_30,fr3_p3).
body(r_fr3_30,fr3_q3).
body(r_fr3_30,fr3_r1).
body(r_fr3_30,fr3_r2).
body(r_fr3_30,fr3_r3).
body(r_fr3_30,fr3_s1).
body(r_fr3_30,fr3_s2).
body(r_fr3_30,fr3_s3).
body(r_fr3_30,fr3_u1).
body(r_fr3_30,fr3_u2).
body(r_fr3_30,fr3_u3).
body(r_fr3_30,fr3_v1).
body(r_fr3_30,fr3_v2).
body(r_fr3_30,fr3_v3).
body(r_fr3_30,fr3_x1).
body(r_fr3_30,fr3_x2).
body(r_fr3_30,fr3_y1).
body(r_fr3_30,fr3_y2).
head(r_fr3_31,fr3_t3).
body(r_fr3_31,fr3_b1).
body(r_fr3_31,fr3_c2).
body(r_fr3_31,fr3_c3).
body(r_fr3_31,fr3_d2).
body(r_fr3_31,fr3_e2).
body(r_fr3_31,fr3_f1).
body(r_fr3_31,fr3_p2).
body(r_fr3_31,fr3_p3).
body(r_fr3_31,fr3_r2).
body(r_fr3_31,fr3_r3).
body(r_fr3_31,fr3_u1).
body(r_fr3_31,fr3_u3).
body(r_fr3_31,fr3_v1).
body(r_fr3_31,fr3_v3).
body(r_fr3_31,fr3_w1).
body(r_fr3_31,fr3_w3).
body(r_fr3_31,fr3_x1).
body(r_fr3_31,fr3_x2).
body(r_fr3_31,fr3_x3).
body(r_fr3_31,fr3_y1).
body(r_fr3_31,fr3_y3).
body(r_fr3_31,fr3_z1).
body(r_fr3_31,fr3_z2).
body(r_fr3_31,fr3_z3).
head(r_fr3_32,fr3_z1).
body(r_fr3_32,fr3_c1).
body(r_fr3_32,fr3_p3).
body(r_fr3_32,fr3_p4).
body(r_fr3_32,fr3_q2).
body(r_fr3_32,fr3_r1).
body(r_fr3_32,fr3_s2).
body(r_fr3_32,fr3_s3).
body(r_fr3_32,fr3_t1).
body(r_fr3_32,fr3_t2).
body(r_fr3_32,fr3_t3).
body(r_fr3_32,fr3_u2).
body(r_fr3_32,fr3_v2).
body(r_fr3_32,fr3_v3).
body(r_fr3_32,fr3_w2).
body(r_fr3_32,fr3_w3).
body(r_fr3_32,fr3_x1).
body(r_fr3_32,fr3_x2).
body(r_fr3_32,fr3_y1).
body(r_fr3_32,fr3_y2).
body(r_fr3_32,fr3_z2).
body(r_fr3_32,fr3_z3).
head(r_fr3_33,fr3_z1).
body(r_fr3_33,fr3_c1).
body(r_fr3_33,fr3_p1).
body(r_fr3_33,fr3_p4).
body(r_fr3_33,fr3_q1).
body(r_fr3_33,fr3_q4).
body(r_fr3_33,fr3_r1).
body(r_fr3_33,fr3_s1).
body(r_fr3_33,fr3_t1).
body(r_fr3_33,fr3_t2).
body(r_fr3_33,fr3_t3).
body(r_fr3_33,fr3_u1).
body(r_fr3_33,fr3_u3).
body(r_fr3_33,fr3_v1).
body(r_fr3_33,fr3_v2).
body(r_fr3_33,fr3_v3).
body(r_fr3_33,fr3_w2).
body(r_fr3_33,fr3_x1).
body(r_fr3_33,fr3_x2).
body(r_fr3_33,fr3_y1).
body(r_fr3_33,fr3_y3).
body(r_fr3_33,fr3_z3).
head(r_fr3_34,fr3_v1).
body(r_fr3_34,fr3_a2).
body(r_fr3_34,fr3_a3).
body(r_fr3_34,fr3_b1).
body(r_fr3_34,fr3_d2).
body(r_fr3_34,fr10_u1).
body(r_fr3_34,fr3_p3).
body(r_fr3_34,fr3_p4).
body(r_fr3_34,fr3_q2).
body(r_fr3_34,fr3_q4).
body(r_fr3_34,fr3_r2).
body(r_fr3_34,fr3_r3).
body(r_fr3_34,fr3_s1).
body(r_fr3_34,fr3_s2).
body(r_fr3_34,fr3_s3).
body(r_fr3_34,fr3_u1).
body(r_fr3_34,fr3_u2).
body(r_fr3_34,fr3_u3).
body(r_fr3_34,fr3_v3).
body(r_fr3_34,fr3_w3).
body(r_fr3_34,fr3_x1).
body(r_fr3_34,fr3_x2).
body(r_fr3_34,fr3_x3).
body(r_fr3_34,fr3_y3).
body(r_fr3_34,fr3_z1).
head(r_fr3_35,fr3_v1).
body(r_fr3_35,fr3_a3).
body(r_fr3_35,fr3_p2).
body(r_fr3_35,fr3_p3).
body(r_fr3_35,fr3_p4).
body(r_fr3_35,fr3_q1).
body(r_fr3_35,fr3_q2).
body(r_fr3_35,fr3_r2).
body(r_fr3_35,fr3_r3).
body(r_fr3_35,fr3_s2).
body(r_fr3_35,fr3_s3).
body(r_fr3_35,fr3_t3).
body(r_fr3_35,fr3_u1).
body(r_fr3_35,fr3_u3).
body(r_fr3_35,fr3_v3).
body(r_fr3_35,fr3_w1).
body(r_fr3_35,fr3_w2).
body(r_fr3_35,fr3_x1).
body(r_fr3_35,fr3_x3).
body(r_fr3_35,fr3_y1).
body(r_fr3_35,fr3_y2).
body(r_fr3_35,fr3_z1).
head(r_fr3_36,fr3_v1).
body(r_fr3_36,fr3_a2).
body(r_fr3_36,fr3_p1).
body(r_fr3_36,fr3_p4).
body(r_fr3_36,fr3_q2).
body(r_fr3_36,fr3_q3).
body(r_fr3_36,fr3_r1).
body(r_fr3_36,fr3_r3).
body(r_fr3_36,fr3_s1).
body(r_fr3_36,fr3_s2).
body(r_fr3_36,fr3_s3).
body(r_fr3_36,fr3_t1).
body(r_fr3_36,fr3_t2).
body(r_fr3_36,fr3_t3).
body(r_fr3_36,fr3_u1).
body(r_fr3_36,fr3_u2).
body(r_fr3_36,fr3_u3).
body(r_fr3_36,fr3_w1).
body(r_fr3_36,fr3_w2).
body(r_fr3_36,fr3_x2).
body(r_fr3_36,fr3_x3).
body(r_fr3_36,fr3_y1).
body(r_fr3_36,fr3_y2).
body(r_fr3_36,fr3_z1).
head(r_fr3_37,fr3_v1).
body(r_fr3_37,fr3_a1).
body(r_fr3_37,fr3_a3).
body(r_fr3_37,fr3_b1).
body(r_fr3_37,fr3_b2).
body(r_fr3_37,fr3_b3).
body(r_fr3_37,fr3_d1).
body(r_fr3_37,fr3_p1).
body(r_fr3_37,fr3_p3).
body(r_fr3_37,fr3_q1).
body(r_fr3_37,fr3_q4).
body(r_fr3_37,fr3_r1).
body(r_fr3_37,fr3_r3).
body(r_fr3_37,fr3_s2).
body(r_fr3_37,fr3_t2).
body(r_fr3_37,fr3_v2).
body(r_fr3_37,fr3_w2).
body(r_fr3_37,fr3_w3).
body(r_fr3_37,fr3_x3).
body(r_fr3_37,fr3_y2).
body(r_fr3_37,fr3_z1).
body(r_fr3_37,fr3_z3).
head(r_fr3_38,fr3_r1).
body(r_fr3_38,fr3_d1).
body(r_fr3_38,fr3_e2).
body(r_fr3_38,fr3_p1).
body(r_fr3_38,fr3_p2).
body(r_fr3_38,fr3_p4).
body(r_fr3_38,fr3_q1).
body(r_fr3_38,fr3_q2).
body(r_fr3_38,fr3_q3).
body(r_fr3_38,fr3_r2).
body(r_fr3_38,fr3_r3).
body(r_fr3_38,fr3_s1).
body(r_fr3_38,fr3_t1).
body(r_fr3_38,fr3_t2).
body(r_fr3_38,fr3_t3).
body(r_fr3_38,fr3_u3).
body(r_fr3_38,fr3_v2).
body(r_fr3_38,fr3_v3).
body(r_fr3_38,fr3_w1).
body(r_fr3_38,fr3_w2).
body(r_fr3_38,fr3_w3).
body(r_fr3_38,fr3_x1).
body(r_fr3_38,fr3_x2).
body(r_fr3_38,fr3_y1).
body(r_fr3_38,fr3_z3).
head(r_fr3_39,fr3_r1).
body(r_fr3_39,fr3_a2).
body(r_fr3_39,fr3_c2).
body(r_fr3_39,fr3_c3).
body(r_fr3_39,fr3_d1).
body(r_fr3_39,fr3_e2).
body(r_fr3_39,fr3_p1).
body(r_fr3_39,fr3_p2).
body(r_fr3_39,fr3_p3).
body(r_fr3_39,fr3_p4).
body(r_fr3_39,fr3_q3).
body(r_fr3_39,fr3_r2).
body(r_fr3_39,fr3_s1).
body(r_fr3_39,fr3_s3).
body(r_fr3_39,fr3_t1).
body(r_fr3_39,fr3_t2).
body(r_fr3_39,fr3_u2).
body(r_fr3_39,fr3_u3).
body(r_fr3_39,fr3_v1).
body(r_fr3_39,fr3_v2).
body(r_fr3_39,fr3_w1).
body(r_fr3_39,fr3_w3).
body(r_fr3_39,fr3_x3).
head(r_fr3_40,fr3_y2).
body(r_fr3_40,fr3_a3).
body(r_fr3_40,fr3_b1).
body(r_fr3_40,fr3_b2).
body(r_fr3_40,fr3_c2).
body(r_fr3_40,fr3_e1).
body(r_fr3_40,fr3_e2).
body(r_fr3_40,fr3_p1).
body(r_fr3_40,fr3_p2).
body(r_fr3_40,fr3_p4).
body(r_fr3_40,fr3_q3).
body(r_fr3_40,fr3_r1).
body(r_fr3_40,fr3_r2).
body(r_fr3_40,fr3_s1).
body(r_fr3_40,fr3_s2).
body(r_fr3_40,fr3_t2).
body(r_fr3_40,fr3_u3).
body(r_fr3_40,fr3_v1).
body(r_fr3_40,fr3_v2).
body(r_fr3_40,fr3_v3).
body(r_fr3_40,fr3_w3).
body(r_fr3_40,fr3_y1).
body(r_fr3_40,fr3_y3).
body(r_fr3_40,fr3_z3).
head(r_fr3_41,fr3_y2).
body(r_fr3_41,fr3_a3).
body(r_fr3_41,fr3_b2).
body(r_fr3_41,fr3_e1).
body(r_fr3_41,fr3_e2).
body(r_fr3_41,fr3_p2).
body(r_fr3_41,fr3_p4).
body(r_fr3_41,fr3_q2).
body(r_fr3_41,fr3_r1).
body(r_fr3_41,fr3_r2).
body(r_fr3_41,fr3_r3).
body(r_fr3_41,fr3_s1).
body(r_fr3_41,fr3_t1).
body(r_fr3_41,fr3_t2).
body(r_fr3_41,fr3_u1).
body(r_fr3_41,fr3_u3).
body(r_fr3_41,fr3_v1).
body(r_fr3_41,fr3_v2).
body(r_fr3_41,fr3_v3).
body(r_fr3_41,fr3_w1).
body(r_fr3_41,fr3_x1).
body(r_fr3_41,fr3_y1).
body(r_fr3_41,fr3_z1).
body(r_fr3_41,fr3_z2).
body(r_fr3_41,fr3_z3).
head(r_fr3_42,fr3_y2).
body(r_fr3_42,fr3_b3).
body(r_fr3_42,fr3_p1).
body(r_fr3_42,fr3_p4).
body(r_fr3_42,fr3_q1).
body(r_fr3_42,fr3_q2).
body(r_fr3_42,fr3_q3).
body(r_fr3_42,fr3_q4).
body(r_fr3_42,fr3_r2).
body(r_fr3_42,fr3_r3).
body(r_fr3_42,fr3_s1).
body(r_fr3_42,fr3_s2).
body(r_fr3_42,fr3_s3).
body(r_fr3_42,fr3_t3).
body(r_fr3_42,fr3_u1).
body(r_fr3_42,fr3_v1).
body(r_fr3_42,fr3_v3).
body(r_fr3_42,fr3_w1).
body(r_fr3_42,fr3_x1).
body(r_fr3_42,fr3_x2).
body(r_fr3_42,fr3_y3).
body(r_fr3_42,fr3_z1).
body(r_fr3_42,fr3_z2).
body(r_fr3_42,fr3_z3).
head(r_fr3_43,fr3_y2).
body(r_fr3_43,fr10_u1).
body(r_fr3_43,fr3_p1).
body(r_fr3_43,fr3_p2).
body(r_fr3_43,fr3_p4).
body(r_fr3_43,fr3_q1).
body(r_fr3_43,fr3_q2).
body(r_fr3_43,fr3_q3).
body(r_fr3_43,fr3_q4).
body(r_fr3_43,fr3_r1).
body(r_fr3_43,fr3_s2).
body(r_fr3_43,fr3_s3).
body(r_fr3_43,fr3_t1).
body(r_fr3_43,fr3_t2).
body(r_fr3_43,fr3_t3).
body(r_fr3_43,fr3_u3).
body(r_fr3_43,fr3_v1).
body(r_fr3_43,fr3_v2).
body(r_fr3_43,fr3_v3).
body(r_fr3_43,fr3_w1).
body(r_fr3_43,fr3_w2).
body(r_fr3_43,fr3_w3).
body(r_fr3_43,fr3_y3).
body(r_fr3_43,fr3_z1).
body(r_fr3_43,fr3_z3).
head(r_fr3_44,fr3_y2).
body(r_fr3_44,fr3_b2).
body(r_fr3_44,fr3_d1).
body(r_fr3_44,fr3_e2).
body(r_fr3_44,fr3_p2).
body(r_fr3_44,fr3_q1).
body(r_fr3_44,fr3_q2).
body(r_fr3_44,fr3_q3).
body(r_fr3_44,fr3_r3).
body(r_fr3_44,fr3_s1).
body(r_fr3_44,fr3_s3).
body(r_fr3_44,fr3_t2).
body(r_fr3_44,fr3_t3).
body(r_fr3_44,fr3_v2).
body(r_fr3_44,fr3_v3).
body(r_fr3_44,fr3_w1).
body(r_fr3_44,fr3_w3).
body(r_fr3_44,fr3_x1).
body(r_fr3_44,fr3_x3).
body(r_fr3_44,fr3_y1).
body(r_fr3_44,fr3_y3).
body(r_fr3_44,fr3_z1).
body(r_fr3_44,fr3_z2).
head(r_fr3_45,fr3_p1).
body(r_fr3_45,fr3_a2).
body(r_fr3_45,fr3_b2).
body(r_fr3_45,fr10_u1).
body(r_fr3_45,fr3_p3).
body(r_fr3_45,fr3_p4).
body(r_fr3_45,fr3_q2).
body(r_fr3_45,fr3_s1).
body(r_fr3_45,fr3_t1).
body(r_fr3_45,fr3_t2).
body(r_fr3_45,fr3_u2).
body(r_fr3_45,fr3_u3).
body(r_fr3_45,fr3_v1).
body(r_fr3_45,fr3_v2).
body(r_fr3_45,fr3_v3).
body(r_fr3_45,fr3_w1).
body(r_fr3_45,fr3_w2).
body(r_fr3_45,fr3_x1).
body(r_fr3_45,fr3_x2).
body(r_fr3_45,fr3_y1).
body(r_fr3_45,fr3_y2).
body(r_fr3_45,fr3_z1).
body(r_fr3_45,fr3_z2).
head(r_fr3_46,fr3_p1).
body(r_fr3_46,fr3_b3).
body(r_fr3_46,fr3_c2).
body(r_fr3_46,fr3_d2).
body(r_fr3_46,fr3_e1).
body(r_fr3_46,fr3_p3).
body(r_fr3_46,fr3_p4).
body(r_fr3_46,fr3_q1).
body(r_fr3_46,fr3_q2).
body(r_fr3_46,fr3_r2).
body(r_fr3_46,fr3_r3).
body(r_fr3_46,fr3_s1).
body(r_fr3_46,fr3_t1).
body(r_fr3_46,fr3_t2).
body(r_fr3_46,fr3_t3).
body(r_fr3_46,fr3_u1).
body(r_fr3_46,fr3_u2).
body(r_fr3_46,fr3_v3).
body(r_fr3_46,fr3_w1).
body(r_fr3_46,fr3_x3).
body(r_fr3_46,fr3_y1).
body(r_fr3_46,fr3_z1).
body(r_fr3_46,fr3_z2).
head(r_fr3_47,fr3_p1).
body(r_fr3_47,fr3_c2).
body(r_fr3_47,fr3_e1).
body(r_fr3_47,fr3_p3).
body(r_fr3_47,fr3_p4).
body(r_fr3_47,fr3_q3).
body(r_fr3_47,fr3_r1).
body(r_fr3_47,fr3_r3).
body(r_fr3_47,fr3_s3).
body(r_fr3_47,fr3_t1).
body(r_fr3_47,fr3_t2).
body(r_fr3_47,fr3_u1).
body(r_fr3_47,fr3_v1).
body(r_fr3_47,fr3_v2).
body(r_fr3_47,fr3_w1).
body(r_fr3_47,fr3_w2).
body(r_fr3_47,fr3_w3).
body(r_fr3_47,fr3_x1).
body(r_fr3_47,fr3_x3).
body(r_fr3_47,fr3_y1).
body(r_fr3_47,fr3_y2).
body(r_fr3_47,fr3_z3).
head(r_fr3_48,fr3_p1).
body(r_fr3_48,fr3_a2).
body(r_fr3_48,fr3_a3).
body(r_fr3_48,fr3_b3).
body(r_fr3_48,fr3_c2).
body(r_fr3_48,fr3_p2).
body(r_fr3_48,fr3_p4).
body(r_fr3_48,fr3_q2).
body(r_fr3_48,fr3_r1).
body(r_fr3_48,fr3_r3).
body(r_fr3_48,fr3_s3).
body(r_fr3_48,fr3_t2).
body(r_fr3_48,fr3_t3).
body(r_fr3_48,fr3_u2).
body(r_fr3_48,fr3_u3).
body(r_fr3_48,fr3_v1).
body(r_fr3_48,fr3_v2).
body(r_fr3_48,fr3_v3).
body(r_fr3_48,fr3_w1).
body(r_fr3_48,fr3_w2).
body(r_fr3_48,fr3_y3).
body(r_fr3_48,fr3_z1).
body(r_fr3_48,fr3_z2).
body(r_fr3_48,fr3_z3).
head(r_fr3_49,fr3_p1).
body(r_fr3_49,fr3_a1).
body(r_fr3_49,fr3_b1).
body(r_fr3_49,fr3_c3).
body(r_fr3_49,fr3_p2).
body(r_fr3_49,fr3_p4).
body(r_fr3_49,fr3_q2).
body(r_fr3_49,fr3_r1).
body(r_fr3_49,fr3_r2).
body(r_fr3_49,fr3_v1).
body(r_fr3_49,fr3_v2).
body(r_fr3_49,fr3_v3).
body(r_fr3_49,fr3_w1).
body(r_fr3_49,fr3_w2).
body(r_fr3_49,fr3_w3).
body(r_fr3_49,fr3_x1).
body(r_fr3_49,fr3_x2).
body(r_fr3_49,fr3_x3).
body(r_fr3_49,fr3_y1).
body(r_fr3_49,fr3_y2).
body(r_fr3_49,fr3_y3).
body(r_fr3_49,fr3_z1).
body(r_fr3_49,fr3_z2).
body(r_fr3_49,fr3_z3).
head(r_fr3_50,fr3_q4).
body(r_fr3_50,fr3_b1).
body(r_fr3_50,fr3_b2).
body(r_fr3_50,fr3_c2).
body(r_fr3_50,fr3_c3).
body(r_fr3_50,fr3_d1).
body(r_fr3_50,fr3_p1).
body(r_fr3_50,fr3_p3).
body(r_fr3_50,fr3_q2).
body(r_fr3_50,fr3_s1).
body(r_fr3_50,fr3_s2).
body(r_fr3_50,fr3_u1).
body(r_fr3_50,fr3_u2).
body(r_fr3_50,fr3_u3).
body(r_fr3_50,fr3_v2).
body(r_fr3_50,fr3_v3).
body(r_fr3_50,fr3_w1).
body(r_fr3_50,fr3_w3).
body(r_fr3_50,fr3_x2).
body(r_fr3_50,fr3_y1).
body(r_fr3_50,fr3_y3).
body(r_fr3_50,fr3_z2).
body(r_fr3_50,fr3_z3).
head(r_fr3_51,fr3_q4).
body(r_fr3_51,fr3_a3).
body(r_fr3_51,fr3_b2).
body(r_fr3_51,fr3_b3).
body(r_fr3_51,fr3_c3).
body(r_fr3_51,fr3_e2).
body(r_fr3_51,fr3_p2).
body(r_fr3_51,fr3_p3).
body(r_fr3_51,fr3_p4).
body(r_fr3_51,fr3_q1).
body(r_fr3_51,fr3_q2).
body(r_fr3_51,fr3_q3).
body(r_fr3_51,fr3_r1).
body(r_fr3_51,fr3_r2).
body(r_fr3_51,fr3_t2).
body(r_fr3_51,fr3_t3).
body(r_fr3_51,fr3_u1).
body(r_fr3_51,fr3_u2).
body(r_fr3_51,fr3_v1).
body(r_fr3_51,fr3_v2).
body(r_fr3_51,fr3_w1).
body(r_fr3_51,fr3_w2).
body(r_fr3_51,fr3_w3).
body(r_fr3_51,fr3_y3).
body(r_fr3_51,fr3_z2).
head(r_fr3_52,fr3_q4).
body(r_fr3_52,fr3_d2).
body(r_fr3_52,fr3_e2).
body(r_fr3_52,fr3_p1).
body(r_fr3_52,fr3_p4).
body(r_fr3_52,fr3_q2).
body(r_fr3_52,fr3_r1).
body(r_fr3_52,fr3_r2).
body(r_fr3_52,fr3_r3).
body(r_fr3_52,fr3_s1).
body(r_fr3_52,fr3_s3).
body(r_fr3_52,fr3_t1).
body(r_fr3_52,fr3_t2).
body(r_fr3_52,fr3_t3).
body(r_fr3_52,fr3_u2).
body(r_fr3_52,fr3_w1).
body(r_fr3_52,fr3_w2).
body(r_fr3_52,fr3_x2).
body(r_fr3_52,fr3_x3).
body(r_fr3_52,fr3_y1).
body(r_fr3_52,fr3_y3).
body(r_fr3_52,fr3_z2).
body(r_fr3_52,fr3_z3).
head(r_fr3_53,fr3_q4).
body(r_fr3_53,fr3_a3).
body(r_fr3_53,fr3_b3).
body(r_fr3_53,fr3_p1).
body(r_fr3_53,fr3_p4).
body(r_fr3_53,fr3_q1).
body(r_fr3_53,fr3_q2).
body(r_fr3_53,fr3_r2).
body(r_fr3_53,fr3_r3).
body(r_fr3_53,fr3_s1).
body(r_fr3_53,fr3_s3).
body(r_fr3_53,fr3_t2).
body(r_fr3_53,fr3_t3).
body(r_fr3_53,fr3_u1).
body(r_fr3_53,fr3_u3).
body(r_fr3_53,fr3_v1).
body(r_fr3_53,fr3_v3).
body(r_fr3_53,fr3_w3).
body(r_fr3_53,fr3_x1).
body(r_fr3_53,fr3_x3).
body(r_fr3_53,fr3_y1).
body(r_fr3_53,fr3_y2).
body(r_fr3_53,fr3_y3).
body(r_fr3_53,fr3_z2).
head(r_fr3_54,fr3_q4).
body(r_fr3_54,fr3_a3).
body(r_fr3_54,fr3_b3).
body(r_fr3_54,fr3_c2).
body(r_fr3_54,fr3_d2).
body(r_fr3_54,fr3_e1).
body(r_fr3_54,fr3_f1).
body(r_fr3_54,fr3_p1).
body(r_fr3_54,fr3_p2).
body(r_fr3_54,fr3_p3).
body(r_fr3_54,fr3_p4).
body(r_fr3_54,fr3_q3).
body(r_fr3_54,fr3_r1).
body(r_fr3_54,fr3_s3).
body(r_fr3_54,fr3_t1).
body(r_fr3_54,fr3_t3).
body(r_fr3_54,fr3_v2).
body(r_fr3_54,fr3_v3).
body(r_fr3_54,fr3_w1).
body(r_fr3_54,fr3_x3).
body(r_fr3_54,fr3_y1).
body(r_fr3_54,fr3_y2).
body(r_fr3_54,fr3_z1).
body(r_fr3_54,fr3_z2).
head(r_fr3_55,fr3_r2).
body(r_fr3_55,fr3_b2).
body(r_fr3_55,fr3_p1).
body(r_fr3_55,fr3_p3).
body(r_fr3_55,fr3_p4).
body(r_fr3_55,fr3_q1).
body(r_fr3_55,fr3_q2).
body(r_fr3_55,fr3_r3).
body(r_fr3_55,fr3_s1).
body(r_fr3_55,fr3_s3).
body(r_fr3_55,fr3_t3).
body(r_fr3_55,fr3_u1).
body(r_fr3_55,fr3_u2).
body(r_fr3_55,fr3_v3).
body(r_fr3_55,fr3_w1).
body(r_fr3_55,fr3_w2).
body(r_fr3_55,fr3_x1).
body(r_fr3_55,fr3_x2).
body(r_fr3_55,fr3_y1).
body(r_fr3_55,fr3_y2).
body(r_fr3_55,fr3_z1).
body(r_fr3_55,fr3_z2).
body(r_fr3_55,fr3_z3).
head(r_fr3_56,fr3_r2).
body(r_fr3_56,fr3_c3).
body(r_fr3_56,fr3_p1).
body(r_fr3_56,fr3_p2).
body(r_fr3_56,fr3_p3).
body(r_fr3_56,fr3_p4).
body(r_fr3_56,fr3_q1).
body(r_fr3_56,fr3_q3).
body(r_fr3_56,fr3_r3).
body(r_fr3_56,fr3_s1).
body(r_fr3_56,fr3_s2).
body(r_fr3_56,fr3_s3).
body(r_fr3_56,fr3_t1).
body(r_fr3_56,fr3_u1).
body(r_fr3_56,fr3_u2).
body(r_fr3_56,fr3_u3).
body(r_fr3_56,fr3_v1).
body(r_fr3_56,fr3_v3).
body(r_fr3_56,fr3_w1).
body(r_fr3_56,fr3_x1).
body(r_fr3_56,fr3_x2).
body(r_fr3_56,fr3_x3).
body(r_fr3_56,fr3_y1).
body(r_fr3_56,fr3_y2).
body(r_fr3_56,fr3_y3).
head(r_fr3_57,fr3_r2).
body(r_fr3_57,fr3_a2).
body(r_fr3_57,fr3_b1).
body(r_fr3_57,fr3_p1).
body(r_fr3_57,fr3_p2).
body(r_fr3_57,fr3_p4).
body(r_fr3_57,fr3_q1).
body(r_fr3_57,fr3_q2).
body(r_fr3_57,fr3_q3).
body(r_fr3_57,fr3_r1).
body(r_fr3_57,fr3_s3).
body(r_fr3_57,fr3_t3).
body(r_fr3_57,fr3_u1).
body(r_fr3_57,fr3_u2).
body(r_fr3_57,fr3_v2).
body(r_fr3_57,fr3_v3).
body(r_fr3_57,fr3_w1).
body(r_fr3_57,fr3_w3).
body(r_fr3_57,fr3_x1).
body(r_fr3_57,fr3_x2).
body(r_fr3_57,fr3_y1).
body(r_fr3_57,fr3_y2).
body(r_fr3_57,fr3_z1).
body(r_fr3_57,fr3_z2).
head(r_fr3_58,fr3_r2).
body(r_fr3_58,fr3_p1).
body(r_fr3_58,fr3_p2).
body(r_fr3_58,fr3_p3).
body(r_fr3_58,fr3_p4).
body(r_fr3_58,fr3_q1).
body(r_fr3_58,fr3_q3).
body(r_fr3_58,fr3_q4).
body(r_fr3_58,fr3_r1).
body(r_fr3_58,fr3_s1).
body(r_fr3_58,fr3_s2).
body(r_fr3_58,fr3_t1).
body(r_fr3_58,fr3_t2).
body(r_fr3_58,fr3_u2).
body(r_fr3_58,fr3_u3).
body(r_fr3_58,fr3_v1).
body(r_fr3_58,fr3_v3).
body(r_fr3_58,fr3_w1).
body(r_fr3_58,fr3_x1).
body(r_fr3_58,fr3_x3).
body(r_fr3_58,fr3_y2).
body(r_fr3_58,fr3_y3).
body(r_fr3_58,fr3_z1).
body(r_fr3_58,fr3_z2).
body(r_fr3_58,fr3_z3).
head(r_fr3_59,fr3_t2).
body(r_fr3_59,fr3_a1).
body(r_fr3_59,fr3_a2).
body(r_fr3_59,fr3_c1).
body(r_fr3_59,fr3_d2).
body(r_fr3_59,fr3_f1).
body(r_fr3_59,fr3_p1).
body(r_fr3_59,fr3_p4).
body(r_fr3_59,fr3_q3).
body(r_fr3_59,fr3_q4).
body(r_fr3_59,fr3_r2).
body(r_fr3_59,fr3_s1).
body(r_fr3_59,fr3_s2).
body(r_fr3_59,fr3_t1).
body(r_fr3_59,fr3_t3).
body(r_fr3_59,fr3_u2).
body(r_fr3_59,fr3_v1).
body(r_fr3_59,fr3_v2).
body(r_fr3_59,fr3_v3).
body(r_fr3_59,fr3_x1).
body(r_fr3_59,fr3_x3).
body(r_fr3_59,fr3_y3).
head(r_fr3_60,fr3_t2).
body(r_fr3_60,fr3_c1).
body(r_fr3_60,fr3_d2).
body(r_fr3_60,fr3_p1).
body(r_fr3_60,fr3_p2).
body(r_fr3_60,fr3_p3).
body(r_fr3_60,fr3_q1).
body(r_fr3_60,fr3_q3).
body(r_fr3_60,fr3_q4).
body(r_fr3_60,fr3_r2).
body(r_fr3_60,fr3_s1).
body(r_fr3_60,fr3_s2).
body(r_fr3_60,fr3_s3).
body(r_fr3_60,fr3_t1).
body(r_fr3_60,fr3_v1).
body(r_fr3_60,fr3_v2).
body(r_fr3_60,fr3_w2).
body(r_fr3_60,fr3_w3).
body(r_fr3_60,fr3_x3).
body(r_fr3_60,fr3_y1).
body(r_fr3_60,fr3_y2).
body(r_fr3_60,fr3_z3).
head(r_fr3_61,fr3_v2).
body(r_fr3_61,fr3_a2).
body(r_fr3_61,fr3_b2).
body(r_fr3_61,fr3_c2).
body(r_fr3_61,fr3_d2).
body(r_fr3_61,fr3_p3).
body(r_fr3_61,fr3_p4).
body(r_fr3_61,fr3_q1).
body(r_fr3_61,fr3_r1).
body(r_fr3_61,fr3_r2).
body(r_fr3_61,fr3_r3).
body(r_fr3_61,fr3_s1).
body(r_fr3_61,fr3_t1).
body(r_fr3_61,fr3_t3).
body(r_fr3_61,fr3_u2).
body(r_fr3_61,fr3_u3).
body(r_fr3_61,fr3_v1).
body(r_fr3_61,fr3_w2).
body(r_fr3_61,fr3_w3).
body(r_fr3_61,fr3_y1).
body(r_fr3_61,fr3_y2).
body(r_fr3_61,fr3_y3).
head(r_fr3_62,fr3_v2).
body(r_fr3_62,fr3_p1).
body(r_fr3_62,fr3_p3).
body(r_fr3_62,fr3_q1).
body(r_fr3_62,fr3_q2).
body(r_fr3_62,fr3_q3).
body(r_fr3_62,fr3_q4).
body(r_fr3_62,fr3_r2).
body(r_fr3_62,fr3_s1).
body(r_fr3_62,fr3_s2).
body(r_fr3_62,fr3_t1).
body(r_fr3_62,fr3_t2).
body(r_fr3_62,fr3_t3).
body(r_fr3_62,fr3_u1).
body(r_fr3_62,fr3_u2).
body(r_fr3_62,fr3_v3).
body(r_fr3_62,fr3_w3).
body(r_fr3_62,fr3_x1).
body(r_fr3_62,fr3_y1).
body(r_fr3_62,fr3_y2).
body(r_fr3_62,fr3_z2).
body(r_fr3_62,fr3_z3).
head(r_fr3_63,fr3_v2).
body(r_fr3_63,fr3_a3).
body(r_fr3_63,fr3_b3).
body(r_fr3_63,fr3_c1).
body(r_fr3_63,fr3_d2).
body(r_fr3_63,fr3_e1).
body(r_fr3_63,fr10_u1).
body(r_fr3_63,fr3_p4).
body(r_fr3_63,fr3_q2).
body(r_fr3_63,fr3_q3).
body(r_fr3_63,fr3_r1).
body(r_fr3_63,fr3_r2).
body(r_fr3_63,fr3_s1).
body(r_fr3_63,fr3_t3).
body(r_fr3_63,fr3_u1).
body(r_fr3_63,fr3_u2).
body(r_fr3_63,fr3_v3).
body(r_fr3_63,fr3_w2).
body(r_fr3_63,fr3_x1).
body(r_fr3_63,fr3_x2).
body(r_fr3_63,fr3_x3).
body(r_fr3_63,fr3_y2).
head(r_fr3_64,fr3_t1).
body(r_fr3_64,fr3_a1).
body(r_fr3_64,fr3_a2).
body(r_fr3_64,fr3_c1).
body(r_fr3_64,fr10_u1).
body(r_fr3_64,fr3_p2).
body(r_fr3_64,fr3_p3).
body(r_fr3_64,fr3_p4).
body(r_fr3_64,fr3_q1).
body(r_fr3_64,fr3_q2).
body(r_fr3_64,fr3_q4).
body(r_fr3_64,fr3_r1).
body(r_fr3_64,fr3_r2).
body(r_fr3_64,fr3_r3).
body(r_fr3_64,fr3_s1).
body(r_fr3_64,fr3_s3).
body(r_fr3_64,fr3_t2).
body(r_fr3_64,fr3_t3).
body(r_fr3_64,fr3_v1).
body(r_fr3_64,fr3_x2).
body(r_fr3_64,fr3_y3).
body(r_fr3_64,fr3_z1).
body(r_fr3_64,fr3_z3).
head(r_fr3_65,fr3_t1).
body(r_fr3_65,fr3_a1).
body(r_fr3_65,fr3_c1).
body(r_fr3_65,fr3_e1).
body(r_fr3_65,fr3_e2).
body(r_fr3_65,fr3_p1).
body(r_fr3_65,fr3_p3).
body(r_fr3_65,fr3_p4).
body(r_fr3_65,fr3_q2).
body(r_fr3_65,fr3_q3).
body(r_fr3_65,fr3_q4).
body(r_fr3_65,fr3_r2).
body(r_fr3_65,fr3_s1).
body(r_fr3_65,fr3_s2).
body(r_fr3_65,fr3_u1).
body(r_fr3_65,fr3_u3).
body(r_fr3_65,fr3_v3).
body(r_fr3_65,fr3_w1).
body(r_fr3_65,fr3_w2).
body(r_fr3_65,fr3_w3).
body(r_fr3_65,fr3_x2).
body(r_fr3_65,fr3_x3).
body(r_fr3_65,fr3_y2).
body(r_fr3_65,fr3_z1).
head(r_fr3_66,fr3_q2).
body(r_fr3_66,fr3_a3).
body(r_fr3_66,fr3_p3).
body(r_fr3_66,fr3_p4).
body(r_fr3_66,fr3_q3).
body(r_fr3_66,fr3_r2).
body(r_fr3_66,fr3_r3).
body(r_fr3_66,fr3_s1).
body(r_fr3_66,fr3_s2).
body(r_fr3_66,fr3_s3).
body(r_fr3_66,fr3_t1).
body(r_fr3_66,fr3_t2).
body(r_fr3_66,fr3_u1).
body(r_fr3_66,fr3_u2).
body(r_fr3_66,fr3_u3).
body(r_fr3_66,fr3_v1).
body(r_fr3_66,fr3_v2).
body(r_fr3_66,fr3_v3).
body(r_fr3_66,fr3_w2).
body(r_fr3_66,fr3_w3).
body(r_fr3_66,fr3_x2).
body(r_fr3_66,fr3_y2).
body(r_fr3_66,fr3_z1).
body(r_fr3_66,fr3_z2).
head(r_fr3_67,fr3_q2).
body(r_fr3_67,fr3_p2).
body(r_fr3_67,fr3_p3).
body(r_fr3_67,fr3_p4).
body(r_fr3_67,fr3_q1).
body(r_fr3_67,fr3_q4).
body(r_fr3_67,fr3_r1).
body(r_fr3_67,fr3_r2).
body(r_fr3_67,fr3_r3).
body(r_fr3_67,fr3_s2).
body(r_fr3_67,fr3_t1).
body(r_fr3_67,fr3_t2).
body(r_fr3_67,fr3_t3).
body(r_fr3_67,fr3_u1).
body(r_fr3_67,fr3_u3).
body(r_fr3_67,fr3_v3).
body(r_fr3_67,fr3_w2).
body(r_fr3_67,fr3_w3).
body(r_fr3_67,fr3_x1).
body(r_fr3_67,fr3_x2).
body(r_fr3_67,fr3_z1).
body(r_fr3_67,fr3_z3).
head(r_fr3_68,fr3_w1).
body(r_fr3_68,fr3_p1).
body(r_fr3_68,fr3_p2).
body(r_fr3_68,fr3_p3).
body(r_fr3_68,fr3_q1).
body(r_fr3_68,fr3_q2).
body(r_fr3_68,fr3_q3).
body(r_fr3_68,fr3_q4).
body(r_fr3_68,fr3_r1).
body(r_fr3_68,fr3_s1).
body(r_fr3_68,fr3_s3).
body(r_fr3_68,fr3_t1).
body(r_fr3_68,fr3_t3).
body(r_fr3_68,fr3_u1).
body(r_fr3_68,fr3_u2).
body(r_fr3_68,fr3_v1).
body(r_fr3_68,fr3_v2).
body(r_fr3_68,fr3_w3).
body(r_fr3_68,fr3_x1).
body(r_fr3_68,fr3_x2).
body(r_fr3_68,fr3_x3).
body(r_fr3_68,fr3_y1).
body(r_fr3_68,fr3_y3).
body(r_fr3_68,fr3_z1).
body(r_fr3_68,fr3_z2).
head(r_fr3_69,fr3_w1).
body(r_fr3_69,fr3_p2).
body(r_fr3_69,fr3_p3).
body(r_fr3_69,fr3_q1).
body(r_fr3_69,fr3_q2).
body(r_fr3_69,fr3_q3).
body(r_fr3_69,fr3_r1).
body(r_fr3_69,fr3_r2).
body(r_fr3_69,fr3_s1).
body(r_fr3_69,fr3_s2).
body(r_fr3_69,fr3_t1).
body(r_fr3_69,fr3_t2).
body(r_fr3_69,fr3_t3).
body(r_fr3_69,fr3_u1).
body(r_fr3_69,fr3_u3).
body(r_fr3_69,fr3_v1).
body(r_fr3_69,fr3_v3).
body(r_fr3_69,fr3_w3).
body(r_fr3_69,fr3_x1).
body(r_fr3_69,fr3_x2).
body(r_fr3_69,fr3_x3).
body(r_fr3_69,fr3_y1).
body(r_fr3_69,fr3_y2).
body(r_fr3_69,fr3_y3).
body(r_fr3_69,fr3_z3).
head(r_fr3_70,fr3_w1).
body(r_fr3_70,fr3_a2).
body(r_fr3_70,fr3_b1).
body(r_fr3_70,fr3_b3).
body(r_fr3_70,fr3_p1).
body(r_fr3_70,fr3_p3).
body(r_fr3_70,fr3_p4).
body(r_fr3_70,fr3_q3).
body(r_fr3_70,fr3_r1).
body(r_fr3_70,fr3_r3).
body(r_fr3_70,fr3_s3).
body(r_fr3_70,fr3_t1).
body(r_fr3_70,fr3_t2).
body(r_fr3_70,fr3_t3).
body(r_fr3_70,fr3_u1).
body(r_fr3_70,fr3_u3).
body(r_fr3_70,fr3_v2).
body(r_fr3_70,fr3_v3).
body(r_fr3_70,fr3_x1).
body(r_fr3_70,fr3_y1).
body(r_fr3_70,fr3_z1).
body(r_fr3_70,fr3_z3).
head(r_fr3_71,fr3_w1).
body(r_fr3_71,fr3_a1).
body(r_fr3_71,fr3_b2).
body(r_fr3_71,fr10_u1).
body(r_fr3_71,fr3_p1).
body(r_fr3_71,fr3_p2).
body(r_fr3_71,fr3_p3).
body(r_fr3_71,fr3_p4).
body(r_fr3_71,fr3_q1).
body(r_fr3_71,fr3_q2).
body(r_fr3_71,fr3_q3).
body(r_fr3_71,fr3_r2).
body(r_fr3_71,fr3_r3).
body(r_fr3_71,fr3_s1).
body(r_fr3_71,fr3_t1).
body(r_fr3_71,fr3_t2).
body(r_fr3_71,fr3_t3).
body(r_fr3_71,fr3_u2).
body(r_fr3_71,fr3_v3).
body(r_fr3_71,fr3_w3).
body(r_fr3_71,fr3_x2).
body(r_fr3_71,fr3_x3).
body(r_fr3_71,fr3_y1).
body(r_fr3_71,fr3_z2).
body(r_fr3_71,fr3_z3).

assumption(fr4_a1).
assumption(fr1_t3).
assumption(fr4_c1).
assumption(fr4_d1).
assumption(fr4_e1).
assumption(fr4_f1).
assumption(fr4_a2).
assumption(fr4_b2).
assumption(fr4_c2).
assumption(fr3_d1).
assumption(fr4_e2).
assumption(fr4_f2).
assumption(fr4_a3).
assumption(fr1_w2).
assumption(fr4_c3).
contrary(fr4_a1,fr4_d1).
contrary(fr4_a2,fr4_r3).
contrary(fr4_a3,fr4_e1).
contrary(fr1_t3,fr4_f1).
contrary(fr4_b2,fr4_c2).
contrary(fr1_w2,fr4_e1).
contrary(fr4_c1,fr4_r2).
contrary(fr4_c2,fr4_a3).
contrary(fr4_c3,fr1_t3).
contrary(fr4_d1,fr4_s2).
contrary(fr3_d1,fr4_r2).
contrary(fr4_e1,fr4_p1).
contrary(fr4_e2,fr4_b2).
contrary(fr4_f1,fr4_s1).
contrary(fr4_f2,fr4_a1).
head(r_fr4_0,fr4_p3).
body(r_fr4_0,fr4_a1).
body(r_fr4_0,fr4_a2).
body(r_fr4_0,fr1_w2).
body(r_fr4_0,fr4_c2).
head(r_fr4_1,fr4_p3).
body(r_fr4_1,fr4_q1).
head(r_fr4_2,fr4_p3).
body(r_fr4_2,fr4_q2).
body(r_fr4_2,fr4_s2).
body(r_fr4_2,fr4_t1).
body(r_fr4_2,fr4_v1).
body(r_fr4_2,fr4_v2).
body(r_fr4_2,fr4_z2).
head(r_fr4_3,fr4_p3).
body(r_fr4_3,fr4_f2).
head(r_fr4_4,fr4_p3).
body(r_fr4_4,fr4_a1).
body(r_fr4_4,fr4_c3).
body(r_fr4_4,fr4_z2).
head(r_fr4_5,fr4_p3).
body(r_fr4_5,fr4_a1).
body(r_fr4_5,fr1_w2).
head(r_fr4_6,fr4_p3).
body(r_fr4_6,fr4_a1).
body(r_fr4_6,fr4_p2).
body(r_fr4_6,fr1_v1).
body(r_fr4_6,fr4_z1).
head(r_fr4_7,fr4_p3).
body(r_fr4_7,fr4_s2).
body(r_fr4_7,fr4_u1).
head(r_fr4_8,fr4_p3).
body(r_fr4_8,fr4_p1).
body(r_fr4_8,fr4_p2).
body(r_fr4_8,fr1_v1).
head(r_fr4_9,fr4_p3).
body(r_fr4_9,fr4_a1).
body(r_fr4_9,fr4_a3).
body(r_fr4_9,fr4_b2).
body(r_fr4_9,fr4_e1).
body(r_fr4_9,fr4_u2).
body(r_fr4_9,fr4_y1).
head(r_fr4_10,fr4_p3).
body(r_fr4_10,fr4_s1).
body(r_fr4_10,fr4_t1).
body(r_fr4_10,fr8_t4).
body(r_fr4_10,fr4_x1).
body(r_fr4_10,fr4_z2).
head(r_fr4_11,fr4_p3).
body(r_fr4_11,fr4_a2).
body(r_fr4_11,fr4_c2).
body(r_fr4_11,fr4_d1).
body(r_fr4_11,fr4_e2).
head(r_fr4_12,fr4_p3).
body(r_fr4_12,fr1_v1).
body(r_fr4_12,fr4_r3).
body(r_fr4_12,fr4_x2).
head(r_fr4_13,fr4_p3).
body(r_fr4_13,fr4_c2).
body(r_fr4_13,fr4_f1).
head(r_fr4_14,fr4_p3).
body(r_fr4_14,fr4_d1).
body(r_fr4_14,fr4_r2).
body(r_fr4_14,fr4_u1).
head(r_fr4_15,fr4_p3).
body(r_fr4_15,fr4_q1).
body(r_fr4_15,fr4_x1).
head(r_fr4_16,fr4_p3).
head(r_fr4_17,fr4_p3).
body(r_fr4_17,fr4_b2).
body(r_fr4_17,fr3_d1).
body(r_fr4_17,fr4_p1).
body(r_fr4_17,fr4_t1).
head(r_fr4_18,fr4_p3).
body(r_fr4_18,fr4_t1).
body(r_fr4_18,fr4_v1).
body(r_fr4_18,fr4_w2).
body(r_fr4_18,fr4_y2).
head(r_fr4_19,fr4_p3).
body(r_fr4_19,fr4_a3).
body(r_fr4_19,fr1_t3).
body(r_fr4_19,fr1_w2).
body(r_fr4_19,fr4_c2).
body(r_fr4_19,fr4_c3).
head(r_fr4_20,fr4_p3).
body(r_fr4_20,fr4_q2).
body(r_fr4_20,fr1_v1).
body(r_fr4_20,fr4_w2).
body(r_fr4_20,fr4_y1).
body(r_fr4_20,fr4_z1).
head(r_fr4_21,fr4_p3).
body(r_fr4_21,fr1_w2).
body(r_fr4_21,fr4_p1).
body(r_fr4_21,fr4_p2).
body(r_fr4_21,fr4_v1).
body(r_fr4_21,fr4_w1).
head(r_fr4_22,fr4_p3).
body(r_fr4_22,fr4_c2).
body(r_fr4_22,fr4_d1).
body(r_fr4_22,fr4_f1).
body(r_fr4_22,fr4_s1).
body(r_fr4_22,fr4_s2).
head(r_fr4_23,fr4_p3).
body(r_fr4_23,fr1_w2).
body(r_fr4_23,fr4_c1).
body(r_fr4_23,fr4_c3).
body(r_fr4_23,fr4_p2).
body(r_fr4_23,fr4_r3).
head(r_fr4_24,fr4_p3).
body(r_fr4_24,fr4_a2).
body(r_fr4_24,fr4_a3).
body(r_fr4_24,fr1_t3).
body(r_fr4_24,fr4_r2).
body(r_fr4_24,fr4_u1).
body(r_fr4_24,fr4_v2).
head(r_fr4_25,fr4_s2).
body(r_fr4_25,fr4_e1).
head(r_fr4_26,fr4_s2).
body(r_fr4_26,fr4_f1).
body(r_fr4_26,fr4_t1).
body(r_fr4_26,fr4_x2).
head(r_fr4_27,fr4_s2).
body(r_fr4_27,fr4_c2).
body(r_fr4_27,fr4_f1).
body(r_fr4_27,fr8_t4).
body(r_fr4_27,fr4_u1).
body(r_fr4_27,fr4_x1).
head(r_fr4_28,fr4_s2).
body(r_fr4_28,fr4_f1).
body(r_fr4_28,fr4_p1).
body(r_fr4_28,fr1_v1).
body(r_fr4_28,fr4_w2).
head(r_fr4_29,fr4_s2).
body(r_fr4_29,fr1_t3).
body(r_fr4_29,fr4_p1).
body(r_fr4_29,fr4_p3).
body(r_fr4_29,fr4_u2).
body(r_fr4_29,fr4_x2).
head(r_fr4_30,fr4_s2).
body(r_fr4_30,fr4_b2).
body(r_fr4_30,fr1_w2).
body(r_fr4_30,fr4_f2).
body(r_fr4_30,fr8_t4).
head(r_fr4_31,fr4_s2).
body(r_fr4_31,fr4_v1).
body(r_fr4_31,fr4_w2).
body(r_fr4_31,fr4_x1).
head(r_fr4_32,fr4_s2).
body(r_fr4_32,fr1_w2).
body(r_fr4_32,fr4_p2).
head(r_fr4_33,fr4_s2).
body(r_fr4_33,fr1_w2).
body(r_fr4_33,fr4_c3).
body(r_fr4_33,fr4_e2).
body(r_fr4_33,fr4_f2).
body(r_fr4_33,fr4_p1).
body(r_fr4_33,fr4_x2).
head(r_fr4_34,fr4_s2).
body(r_fr4_34,fr4_e2).
body(r_fr4_34,fr4_w1).
head(r_fr4_35,fr4_s2).
body(r_fr4_35,fr4_q2).
head(r_fr4_36,fr4_s2).
body(r_fr4_36,fr4_p1).
body(r_fr4_36,fr4_r2).
body(r_fr4_36,fr4_r3).
body(r_fr4_36,fr4_t1).
body(r_fr4_36,fr4_u2).
body(r_fr4_36,fr4_y1).
head(r_fr4_37,fr4_s2).
body(r_fr4_37,fr4_p3).
body(r_fr4_37,fr4_t1).
body(r_fr4_37,fr4_u2).
head(r_fr4_38,fr4_s2).
body(r_fr4_38,fr4_w2).
head(r_fr4_39,fr4_s2).
body(r_fr4_39,fr4_d1).
body(r_fr4_39,fr4_t1).
body(r_fr4_39,fr8_t4).
body(r_fr4_39,fr4_w1).
body(r_fr4_39,fr4_x1).
body(r_fr4_39,fr4_z2).
head(r_fr4_40,fr4_s2).
body(r_fr4_40,fr1_t3).
body(r_fr4_40,fr4_q2).
body(r_fr4_40,fr4_x2).
body(r_fr4_40,fr4_z1).
head(r_fr4_41,fr4_s2).
body(r_fr4_41,fr3_d1).
body(r_fr4_41,fr4_p1).
head(r_fr4_42,fr4_s2).
body(r_fr4_42,fr1_t3).
body(r_fr4_42,fr4_c1).
body(r_fr4_42,fr4_p2).
body(r_fr4_42,fr4_v1).
head(r_fr4_43,fr4_s2).
body(r_fr4_43,fr4_x1).
body(r_fr4_43,fr4_y1).
head(r_fr4_44,fr4_s2).
head(r_fr4_45,fr4_s2).
body(r_fr4_45,fr4_c2).
head(r_fr4_46,fr4_s2).
body(r_fr4_46,fr1_t3).
body(r_fr4_46,fr4_d1).
body(r_fr4_46,fr4_f1).
body(r_fr4_46,fr4_x2).
head(r_fr4_47,fr4_s2).
body(r_fr4_47,fr4_s1).
body(r_fr4_47,fr4_x2).
head(r_fr4_48,fr4_s2).
body(r_fr4_48,fr1_v1).
body(r_fr4_48,fr4_w2).
head(r_fr4_49,fr1_v1).
body(r_fr4_49,fr4_a2).
body(r_fr4_49,fr4_p1).
body(r_fr4_49,fr4_q3).
body(r_fr4_49,fr4_s1).
body(r_fr4_49,fr4_t1).
body(r_fr4_49,fr4_x2).
head(r_fr4_50,fr1_v1).
body(r_fr4_50,fr4_e2).
body(r_fr4_50,fr4_r2).
body(r_fr4_50,fr4_v1).
body(r_fr4_50,fr4_v2).
body(r_fr4_50,fr4_x2).
head(r_fr4_51,fr1_v1).
body(r_fr4_51,fr4_e1).
body(r_fr4_51,fr4_p1).
body(r_fr4_51,fr4_p2).
body(r_fr4_51,fr4_p3).
body(r_fr4_51,fr4_q1).
body(r_fr4_51,fr4_u1).
head(r_fr4_52,fr1_v1).
body(r_fr4_52,fr4_a1).
body(r_fr4_52,fr1_t3).
body(r_fr4_52,fr4_c1).
body(r_fr4_52,fr4_d1).
body(r_fr4_52,fr3_d1).
body(r_fr4_52,fr4_e1).
head(r_fr4_53,fr1_v1).
body(r_fr4_53,fr4_a2).
head(r_fr4_54,fr1_v1).
body(r_fr4_54,fr1_w2).
body(r_fr4_54,fr8_t4).
head(r_fr4_55,fr1_v1).
body(r_fr4_55,fr4_e2).
body(r_fr4_55,fr4_w2).
body(r_fr4_55,fr4_x2).
body(r_fr4_55,fr4_y1).
head(r_fr4_56,fr1_v1).
body(r_fr4_56,fr1_w2).
body(r_fr4_56,fr4_c1).
body(r_fr4_56,fr4_f2).
body(r_fr4_56,fr4_q1).
head(r_fr4_57,fr1_v1).
head(r_fr4_58,fr1_v1).
body(r_fr4_58,fr3_d1).
body(r_fr4_58,fr4_f2).
body(r_fr4_58,fr4_p2).
body(r_fr4_58,fr4_x2).
head(r_fr4_59,fr1_v1).
body(r_fr4_59,fr4_a3).
body(r_fr4_59,fr4_c1).
body(r_fr4_59,fr4_v2).
body(r_fr4_59,fr4_x1).
head(r_fr4_60,fr1_v1).
body(r_fr4_60,fr4_f1).
body(r_fr4_60,fr4_p1).
body(r_fr4_60,fr4_s1).
body(r_fr4_60,fr4_v1).
head(r_fr4_61,fr1_v1).
body(r_fr4_61,fr4_f1).
head(r_fr4_62,fr1_v1).
body(r_fr4_62,fr4_a1).
body(r_fr4_62,fr4_a2).
body(r_fr4_62,fr4_f1).
body(r_fr4_62,fr4_f2).
body(r_fr4_62,fr4_r2).
body(r_fr4_62,fr4_t1).
head(r_fr4_63,fr1_v1).
body(r_fr4_63,fr4_a1).
body(r_fr4_63,fr4_q1).
body(r_fr4_63,fr4_q3).
body(r_fr4_63,fr4_v2).
body(r_fr4_63,fr4_x1).
head(r_fr4_64,fr1_v1).
body(r_fr4_64,fr4_a1).
body(r_fr4_64,fr4_c2).
body(r_fr4_64,fr4_f1).
body(r_fr4_64,fr4_p3).
body(r_fr4_64,fr4_w2).
body(r_fr4_64,fr4_z1).
head(r_fr4_65,fr1_v1).
body(r_fr4_65,fr4_p3).
body(r_fr4_65,fr4_r3).
body(r_fr4_65,fr4_x1).
body(r_fr4_65,fr4_z2).
head(r_fr4_66,fr1_v1).
body(r_fr4_66,fr4_b2).
body(r_fr4_66,fr4_c1).
body(r_fr4_66,fr4_f2).
body(r_fr4_66,fr4_q2).
head(r_fr4_67,fr1_v1).
body(r_fr4_67,fr4_a1).
body(r_fr4_67,fr4_c1).
body(r_fr4_67,fr4_c2).
body(r_fr4_67,fr4_c3).
body(r_fr4_67,fr4_e1).
head(r_fr4_68,fr1_v1).
body(r_fr4_68,fr4_p2).
body(r_fr4_68,fr4_q1).
body(r_fr4_68,fr4_q2).
body(r_fr4_68,fr4_t1).
body(r_fr4_68,fr4_v1).
body(r_fr4_68,fr4_z2).
head(r_fr4_69,fr1_v1).
body(r_fr4_69,fr4_p1).
body(r_fr4_69,fr4_q1).
body(r_fr4_69,fr4_x2).
head(r_fr4_70,fr1_v1).
body(r_fr4_70,fr4_p3).
body(r_fr4_70,fr4_q3).
body(r_fr4_70,fr4_s1).
body(r_fr4_70,fr8_t4).
body(r_fr4_70,fr4_z1).
head(r_fr4_71,fr1_v1).
body(r_fr4_71,fr4_c3).
body(r_fr4_71,fr4_e2).
head(r_fr4_72,fr1_v1).
body(r_fr4_72,fr1_t3).
body(r_fr4_72,fr1_w2).
body(r_fr4_72,fr4_e2).
head(r_fr4_73,fr4_x2).
body(r_fr4_73,fr4_p3).
body(r_fr4_73,fr4_t1).
body(r_fr4_73,fr4_u1).
body(r_fr4_73,fr4_y2).
head(r_fr4_74,fr4_x2).
body(r_fr4_74,fr4_a3).
body(r_fr4_74,fr4_d1).
body(r_fr4_74,fr4_q2).
body(r_fr4_74,fr4_s2).
body(r_fr4_74,fr4_w1).
head(r_fr4_75,fr4_x2).
body(r_fr4_75,fr4_t1).
body(r_fr4_75,fr4_w2).
head(r_fr4_76,fr4_x2).
body(r_fr4_76,fr4_p1).
head(r_fr4_77,fr4_x2).
body(r_fr4_77,fr4_a1).
body(r_fr4_77,fr1_t3).
body(r_fr4_77,fr3_d1).
body(r_fr4_77,fr4_r3).
body(r_fr4_77,fr4_s2).
body(r_fr4_77,fr4_x1).
head(r_fr4_78,fr4_x2).
body(r_fr4_78,fr4_f1).
body(r_fr4_78,fr1_v1).
body(r_fr4_78,fr4_r2).
body(r_fr4_78,fr4_s2).
body(r_fr4_78,fr4_t1).
body(r_fr4_78,fr4_u1).
head(r_fr4_79,fr4_x2).
body(r_fr4_79,fr1_t3).
body(r_fr4_79,fr1_w2).
body(r_fr4_79,fr3_d1).
body(r_fr4_79,fr4_e2).
head(r_fr4_80,fr4_x2).
body(r_fr4_80,fr4_c2).
body(r_fr4_80,fr4_v2).
head(r_fr4_81,fr4_x2).
body(r_fr4_81,fr4_q3).
body(r_fr4_81,fr4_u2).
body(r_fr4_81,fr4_w2).
head(r_fr4_82,fr4_x2).
body(r_fr4_82,fr4_a2).
body(r_fr4_82,fr4_b2).
body(r_fr4_82,fr4_c3).
body(r_fr4_82,fr4_d1).
body(r_fr4_82,fr4_f2).
head(r_fr4_83,fr4_x2).
body(r_fr4_83,fr4_p3).
body(r_fr4_83,fr4_q1).
body(r_fr4_83,fr1_v1).
body(r_fr4_83,fr4_t1).
head(r_fr4_84,fr4_x2).
body(r_fr4_84,fr4_z2).
head(r_fr4_85,fr4_x2).
body(r_fr4_85,fr1_w2).
body(r_fr4_85,fr4_f1).
head(r_fr4_86,fr4_x2).
body(r_fr4_86,fr4_a2).
body(r_fr4_86,fr1_t3).
body(r_fr4_86,fr4_e2).
body(r_fr4_86,fr4_f1).
body(r_fr4_86,fr4_q1).
head(r_fr4_87,fr4_x2).
body(r_fr4_87,fr4_a2).
body(r_fr4_87,fr3_d1).
body(r_fr4_87,fr4_t1).
body(r_fr4_87,fr4_v1).
body(r_fr4_87,fr4_w2).
head(r_fr4_88,fr4_x2).
body(r_fr4_88,fr4_a1).
body(r_fr4_88,fr4_b2).
body(r_fr4_88,fr4_c3).
head(r_fr4_89,fr4_x2).
body(r_fr4_89,fr4_v2).
head(r_fr4_90,fr4_x2).
body(r_fr4_90,fr4_p3).
body(r_fr4_90,fr4_r2).
body(r_fr4_90,fr4_u2).
body(r_fr4_90,fr4_v2).
head(r_fr4_91,fr4_x2).
body(r_fr4_91,fr4_q1).
body(r_fr4_91,fr4_q3).
body(r_fr4_91,fr4_s1).
body(r_fr4_91,fr8_t4).
body(r_fr4_91,fr4_u1).
body(r_fr4_91,fr4_v1).
head(r_fr4_92,fr4_x2).
body(r_fr4_92,fr1_t3).
body(r_fr4_92,fr4_p2).
body(r_fr4_92,fr4_q3).
body(r_fr4_92,fr1_v1).
body(r_fr4_92,fr4_r2).
body(r_fr4_92,fr4_t1).
head(r_fr4_93,fr4_x2).
body(r_fr4_93,fr4_a1).
head(r_fr4_94,fr4_x2).
head(r_fr4_95,fr4_x2).
body(r_fr4_95,fr4_w1).
head(r_fr4_96,fr4_x2).
body(r_fr4_96,fr4_c3).
body(r_fr4_96,fr3_d1).
body(r_fr4_96,fr4_q3).
body(r_fr4_96,fr4_r3).
body(r_fr4_96,fr4_v2).
body(r_fr4_96,fr4_w2).
head(r_fr4_97,fr4_s1).
body(r_fr4_97,fr4_p1).
body(r_fr4_97,fr4_t1).
body(r_fr4_97,fr4_u2).
head(r_fr4_98,fr4_s1).
body(r_fr4_98,fr4_c3).
body(r_fr4_98,fr4_d1).
body(r_fr4_98,fr4_f2).
body(r_fr4_98,fr4_p3).
head(r_fr4_99,fr4_s1).
body(r_fr4_99,fr4_e2).
body(r_fr4_99,fr4_r2).
body(r_fr4_99,fr4_s2).
body(r_fr4_99,fr4_t1).
body(r_fr4_99,fr4_x2).
head(r_fr4_100,fr4_s1).
body(r_fr4_100,fr4_c2).
body(r_fr4_100,fr4_p3).
body(r_fr4_100,fr4_u2).
body(r_fr4_100,fr4_w1).
head(r_fr4_101,fr4_s1).
body(r_fr4_101,fr4_p1).
head(r_fr4_102,fr4_s1).
body(r_fr4_102,fr4_e2).
body(r_fr4_102,fr4_f1).
body(r_fr4_102,fr4_w2).
head(r_fr4_103,fr4_s1).
body(r_fr4_103,fr4_d1).
body(r_fr4_103,fr4_p2).
body(r_fr4_103,fr1_v1).
body(r_fr4_103,fr4_r3).
body(r_fr4_103,fr4_y2).
head(r_fr4_104,fr4_s1).
body(r_fr4_104,fr4_t1).
body(r_fr4_104,fr4_u1).
body(r_fr4_104,fr4_w1).
body(r_fr4_104,fr4_z2).
head(r_fr4_105,fr4_s1).
body(r_fr4_105,fr4_c3).
body(r_fr4_105,fr4_e2).
body(r_fr4_105,fr4_w2).
body(r_fr4_105,fr4_x1).
head(r_fr4_106,fr4_s1).
body(r_fr4_106,fr4_a2).
body(r_fr4_106,fr4_t1).
body(r_fr4_106,fr4_v1).
body(r_fr4_106,fr4_y1).
body(r_fr4_106,fr4_z1).
head(r_fr4_107,fr4_s1).
body(r_fr4_107,fr4_e1).
body(r_fr4_107,fr1_v1).
body(r_fr4_107,fr4_x1).
head(r_fr4_108,fr4_s1).
body(r_fr4_108,fr4_e1).
head(r_fr4_109,fr4_s1).
body(r_fr4_109,fr1_t3).
body(r_fr4_109,fr4_r3).
body(r_fr4_109,fr4_w2).
body(r_fr4_109,fr4_y2).
head(r_fr4_110,fr4_s1).
body(r_fr4_110,fr4_a1).
body(r_fr4_110,fr4_w2).
head(r_fr4_111,fr4_s1).
body(r_fr4_111,fr4_a3).
body(r_fr4_111,fr4_c3).
body(r_fr4_111,fr3_d1).
body(r_fr4_111,fr4_v2).
head(r_fr4_112,fr4_s1).
body(r_fr4_112,fr4_a3).
body(r_fr4_112,fr1_w2).
body(r_fr4_112,fr4_e1).
body(r_fr4_112,fr4_f2).
body(r_fr4_112,fr4_v2).
body(r_fr4_112,fr4_w1).
head(r_fr4_113,fr4_s1).
body(r_fr4_113,fr4_z1).
head(r_fr4_114,fr4_s1).
body(r_fr4_114,fr4_p3).
body(r_fr4_114,fr4_r2).
head(r_fr4_115,fr4_s1).
body(r_fr4_115,fr4_c1).
body(r_fr4_115,fr4_c2).
body(r_fr4_115,fr4_f1).
body(r_fr4_115,fr4_z2).
head(r_fr4_116,fr4_s1).
body(r_fr4_116,fr4_p1).
body(r_fr4_116,fr4_p2).
body(r_fr4_116,fr4_u1).
body(r_fr4_116,fr4_v2).
body(r_fr4_116,fr4_x2).
head(r_fr4_117,fr4_s1).
body(r_fr4_117,fr4_q2).
body(r_fr4_117,fr4_x2).
head(r_fr4_118,fr4_s1).
body(r_fr4_118,fr4_q3).
body(r_fr4_118,fr4_t1).
body(r_fr4_118,fr4_z1).
body(r_fr4_118,fr4_z2).
head(r_fr4_119,fr4_s1).
head(r_fr4_120,fr4_s1).
body(r_fr4_120,fr4_q1).
body(r_fr4_120,fr4_q3).
body(r_fr4_120,fr8_t4).
body(r_fr4_120,fr4_y2).
head(r_fr4_121,fr4_s1).
body(r_fr4_121,fr4_z2).
head(r_fr4_122,fr4_q1).
body(r_fr4_122,fr4_a1).
body(r_fr4_122,fr4_a2).
body(r_fr4_122,fr4_a3).
body(r_fr4_122,fr4_b2).
head(r_fr4_123,fr4_q1).
body(r_fr4_123,fr4_a1).
body(r_fr4_123,fr4_a3).
body(r_fr4_123,fr4_f2).
body(r_fr4_123,fr4_r3).
body(r_fr4_123,fr4_s1).
body(r_fr4_123,fr4_w1).
head(r_fr4_124,fr4_q1).
body(r_fr4_124,fr4_a2).
body(r_fr4_124,fr4_c1).
body(r_fr4_124,fr4_c2).
body(r_fr4_124,fr3_d1).
body(r_fr4_124,fr4_p1).
head(r_fr4_125,fr4_q1).
body(r_fr4_125,fr4_a2).
body(r_fr4_125,fr4_q2).
body(r_fr4_125,fr4_z1).
head(r_fr4_126,fr4_q1).
body(r_fr4_126,fr4_r2).
head(r_fr4_127,fr4_q1).
body(r_fr4_127,fr4_a2).
body(r_fr4_127,fr3_d1).
body(r_fr4_127,fr4_s2).
body(r_fr4_127,fr4_v1).
head(r_fr4_128,fr4_q1).
body(r_fr4_128,fr3_d1).
body(r_fr4_128,fr4_z2).
head(r_fr4_129,fr4_q1).
body(r_fr4_129,fr4_c2).
body(r_fr4_129,fr4_c3).
body(r_fr4_129,fr4_q3).
body(r_fr4_129,fr4_x2).
head(r_fr4_130,fr4_q1).
body(r_fr4_130,fr8_t4).
head(r_fr4_131,fr4_q1).
body(r_fr4_131,fr4_c2).
body(r_fr4_131,fr3_d1).
body(r_fr4_131,fr4_y2).
head(r_fr4_132,fr4_q1).
body(r_fr4_132,fr4_e1).
body(r_fr4_132,fr1_v1).
body(r_fr4_132,fr4_u1).
body(r_fr4_132,fr4_v2).
body(r_fr4_132,fr4_x1).
head(r_fr4_133,fr4_q1).
body(r_fr4_133,fr4_p1).
body(r_fr4_133,fr1_v1).
body(r_fr4_133,fr4_w2).
head(r_fr4_134,fr4_q1).
body(r_fr4_134,fr4_a2).
body(r_fr4_134,fr1_t3).
body(r_fr4_134,fr4_c1).
body(r_fr4_134,fr4_e1).
body(r_fr4_134,fr4_s2).
head(r_fr4_135,fr4_q1).
body(r_fr4_135,fr4_p1).
body(r_fr4_135,fr4_r3).
head(r_fr4_136,fr4_q1).
body(r_fr4_136,fr4_a3).
body(r_fr4_136,fr1_t3).
body(r_fr4_136,fr4_b2).
head(r_fr4_137,fr4_q1).
body(r_fr4_137,fr4_f2).
body(r_fr4_137,fr4_w1).
head(r_fr4_138,fr4_q1).
body(r_fr4_138,fr4_e1).
body(r_fr4_138,fr4_v1).
body(r_fr4_138,fr4_w1).
head(r_fr4_139,fr4_q1).
body(r_fr4_139,fr4_b2).
body(r_fr4_139,fr1_w2).
body(r_fr4_139,fr4_q3).
body(r_fr4_139,fr4_r2).
body(r_fr4_139,fr4_t1).
head(r_fr4_140,fr4_q1).
body(r_fr4_140,fr4_c2).
body(r_fr4_140,fr4_e1).
body(r_fr4_140,fr4_q3).
head(r_fr4_141,fr4_q1).
head(r_fr4_142,fr4_q1).
body(r_fr4_142,fr4_c3).
head(r_fr4_143,fr4_q1).
body(r_fr4_143,fr4_f1).
head(r_fr4_144,fr4_q1).
body(r_fr4_144,fr4_e2).
body(r_fr4_144,fr4_p2).
body(r_fr4_144,fr4_q2).
body(r_fr4_144,fr4_v1).
body(r_fr4_144,fr4_z2).
head(r_fr4_145,fr4_q1).
body(r_fr4_145,fr1_t3).
body(r_fr4_145,fr4_c3).
head(r_fr4_146,fr4_q1).
body(r_fr4_146,fr4_a1).
body(r_fr4_146,fr1_t3).
body(r_fr4_146,fr8_t4).
head(r_fr4_147,fr4_q1).
body(r_fr4_147,fr4_a2).
body(r_fr4_147,fr4_e1).
body(r_fr4_147,fr4_w2).
head(r_fr4_148,fr4_w2).
body(r_fr4_148,fr1_t3).
body(r_fr4_148,fr4_e1).
body(r_fr4_148,fr4_e2).
body(r_fr4_148,fr4_f2).
head(r_fr4_149,fr4_w2).
body(r_fr4_149,fr4_a1).
body(r_fr4_149,fr4_a3).
body(r_fr4_149,fr4_e1).
body(r_fr4_149,fr4_f1).
head(r_fr4_150,fr4_w2).
body(r_fr4_150,fr4_a2).
body(r_fr4_150,fr4_c3).
body(r_fr4_150,fr4_d1).
body(r_fr4_150,fr4_f1).
head(r_fr4_151,fr4_w2).
body(r_fr4_151,fr1_t3).
body(r_fr4_151,fr1_w2).
body(r_fr4_151,fr4_z2).
head(r_fr4_152,fr4_w2).
body(r_fr4_152,fr4_r2).
body(r_fr4_152,fr4_u2).
body(r_fr4_152,fr4_w1).
body(r_fr4_152,fr4_y1).
head(r_fr4_153,fr4_w2).
body(r_fr4_153,fr4_a3).
body(r_fr4_153,fr1_t3).
body(r_fr4_153,fr4_c2).
body(r_fr4_153,fr4_f2).
body(r_fr4_153,fr4_v1).
head(r_fr4_154,fr4_w2).
body(r_fr4_154,fr4_f2).
body(r_fr4_154,fr4_r3).
body(r_fr4_154,fr4_s2).
body(r_fr4_154,fr4_t1).
body(r_fr4_154,fr4_x2).
head(r_fr4_155,fr4_w2).
body(r_fr4_155,fr3_d1).
body(r_fr4_155,fr4_f1).
body(r_fr4_155,fr4_v1).
body(r_fr4_155,fr4_w1).
head(r_fr4_156,fr4_w2).
body(r_fr4_156,fr4_a2).
body(r_fr4_156,fr4_a3).
body(r_fr4_156,fr4_r3).
body(r_fr4_156,fr8_t4).
body(r_fr4_156,fr4_y2).
head(r_fr4_157,fr4_w2).
body(r_fr4_157,fr4_a1).
body(r_fr4_157,fr1_w2).
body(r_fr4_157,fr4_e1).
body(r_fr4_157,fr4_f2).
body(r_fr4_157,fr4_p3).
body(r_fr4_157,fr4_q3).
head(r_fr4_158,fr4_w2).
body(r_fr4_158,fr4_e1).
head(r_fr4_159,fr4_w2).
body(r_fr4_159,fr4_a3).
body(r_fr4_159,fr4_v2).
head(r_fr4_160,fr4_w2).
body(r_fr4_160,fr3_d1).
head(r_fr4_161,fr4_w2).
body(r_fr4_161,fr4_b2).
body(r_fr4_161,fr4_d1).
body(r_fr4_161,fr4_f1).
body(r_fr4_161,fr4_p3).
body(r_fr4_161,fr1_v1).
head(r_fr4_162,fr4_w2).
head(r_fr4_163,fr4_w2).
body(r_fr4_163,fr4_c2).
body(r_fr4_163,fr3_d1).
head(r_fr4_164,fr4_w2).
body(r_fr4_164,fr1_w2).
body(r_fr4_164,fr4_v1).
body(r_fr4_164,fr4_w1).
body(r_fr4_164,fr4_z1).
head(r_fr4_165,fr4_w2).
body(r_fr4_165,fr1_w2).
body(r_fr4_165,fr4_f2).
head(r_fr4_166,fr4_w2).
body(r_fr4_166,fr1_w2).
body(r_fr4_166,fr4_c2).
body(r_fr4_166,fr3_d1).
body(r_fr4_166,fr4_p2).
head(r_fr4_167,fr4_w2).
body(r_fr4_167,fr4_p2).
body(r_fr4_167,fr4_q2).
body(r_fr4_167,fr4_r3).
body(r_fr4_167,fr4_s1).
body(r_fr4_167,fr4_x2).
head(r_fr4_168,fr4_w2).
body(r_fr4_168,fr4_c1).
body(r_fr4_168,fr4_c3).
head(r_fr4_169,fr4_w2).
body(r_fr4_169,fr1_t3).
body(r_fr4_169,fr1_w2).
body(r_fr4_169,fr4_f2).
head(r_fr4_170,fr4_w2).
body(r_fr4_170,fr3_d1).
body(r_fr4_170,fr4_q2).
body(r_fr4_170,fr4_s2).
body(r_fr4_170,fr8_t4).
body(r_fr4_170,fr4_w1).
head(r_fr4_171,fr4_w2).
body(r_fr4_171,fr1_t3).
body(r_fr4_171,fr4_f2).
body(r_fr4_171,fr4_p3).
body(r_fr4_171,fr8_t4).
head(r_fr4_172,fr4_y2).
body(r_fr4_172,fr4_b2).
body(r_fr4_172,fr4_e2).
body(r_fr4_172,fr4_f2).
body(r_fr4_172,fr4_q2).
head(r_fr4_173,fr4_y2).
body(r_fr4_173,fr4_a2).
body(r_fr4_173,fr4_c2).
body(r_fr4_173,fr3_d1).
body(r_fr4_173,fr4_q1).
body(r_fr4_173,fr4_u1).
body(r_fr4_173,fr4_w2).
head(r_fr4_174,fr4_y2).
body(r_fr4_174,fr4_s1).
body(r_fr4_174,fr4_v2).
head(r_fr4_175,fr4_y2).
body(r_fr4_175,fr1_t3).
body(r_fr4_175,fr4_c3).
body(r_fr4_175,fr3_d1).
body(r_fr4_175,fr4_p1).
body(r_fr4_175,fr1_v1).
body(r_fr4_175,fr4_z1).
head(r_fr4_176,fr4_y2).
body(r_fr4_176,fr4_a1).
body(r_fr4_176,fr3_d1).
body(r_fr4_176,fr4_f1).
head(r_fr4_177,fr4_y2).
body(r_fr4_177,fr4_c1).
body(r_fr4_177,fr3_d1).
body(r_fr4_177,fr4_f1).
body(r_fr4_177,fr4_f2).
body(r_fr4_177,fr4_u1).
head(r_fr4_178,fr4_y2).
body(r_fr4_178,fr4_a3).
body(r_fr4_178,fr4_c2).
head(r_fr4_179,fr4_y2).
body(r_fr4_179,fr4_c2).
body(r_fr4_179,fr4_f1).
head(r_fr4_180,fr4_y2).
body(r_fr4_180,fr4_b2).
body(r_fr4_180,fr4_c3).
body(r_fr4_180,fr4_e1).
body(r_fr4_180,fr4_q1).
body(r_fr4_180,fr4_q2).
body(r_fr4_180,fr4_q3).
head(r_fr4_181,fr4_y2).
body(r_fr4_181,fr4_a3).
body(r_fr4_181,fr1_t3).
body(r_fr4_181,fr4_c1).
body(r_fr4_181,fr3_d1).
body(r_fr4_181,fr4_u1).
head(r_fr4_182,fr4_y2).
body(r_fr4_182,fr4_a3).
body(r_fr4_182,fr1_t3).
body(r_fr4_182,fr1_w2).
body(r_fr4_182,fr4_c1).
body(r_fr4_182,fr4_e1).
body(r_fr4_182,fr4_f1).
head(r_fr4_183,fr4_y2).
body(r_fr4_183,fr4_a2).
body(r_fr4_183,fr1_t3).
body(r_fr4_183,fr1_w2).
body(r_fr4_183,fr4_e1).
body(r_fr4_183,fr4_f2).
body(r_fr4_183,fr4_q1).
head(r_fr4_184,fr4_y2).
body(r_fr4_184,fr4_c2).
head(r_fr4_185,fr4_y2).
body(r_fr4_185,fr4_v2).
head(r_fr4_186,fr4_y2).
body(r_fr4_186,fr4_c1).
body(r_fr4_186,fr4_c2).
body(r_fr4_186,fr4_e1).
body(r_fr4_186,fr4_f1).
head(r_fr4_187,fr4_y2).
body(r_fr4_187,fr4_e1).
head(r_fr4_188,fr4_y2).
body(r_fr4_188,fr1_w2).
body(r_fr4_188,fr1_v1).
body(r_fr4_188,fr8_t4).
body(r_fr4_188,fr4_u2).
body(r_fr4_188,fr4_y1).
head(r_fr4_189,fr4_y2).
body(r_fr4_189,fr1_t3).
body(r_fr4_189,fr4_c3).
body(r_fr4_189,fr4_d1).
body(r_fr4_189,fr3_d1).
body(r_fr4_189,fr4_f1).
head(r_fr4_190,fr4_y2).
head(r_fr4_191,fr4_y2).
body(r_fr4_191,fr4_a1).
body(r_fr4_191,fr4_e1).
body(r_fr4_191,fr4_f2).
head(r_fr4_192,fr4_y2).
body(r_fr4_192,fr4_r2).
body(r_fr4_192,fr8_t4).
body(r_fr4_192,fr4_x2).
body(r_fr4_192,fr4_y1).
head(r_fr4_193,fr4_y2).
body(r_fr4_193,fr1_t3).
body(r_fr4_193,fr4_c2).
body(r_fr4_193,fr4_f1).
body(r_fr4_193,fr4_u1).
body(r_fr4_193,fr4_w2).
head(r_fr4_194,fr4_y2).
body(r_fr4_194,fr4_q2).
body(r_fr4_194,fr4_s2).
head(r_fr4_195,fr4_y2).
body(r_fr4_195,fr1_t3).
body(r_fr4_195,fr4_c2).
body(r_fr4_195,fr3_d1).
body(r_fr4_195,fr4_e1).
body(r_fr4_195,fr4_f1).
body(r_fr4_195,fr4_z1).
head(r_fr4_196,fr4_t1).
body(r_fr4_196,fr3_d1).
body(r_fr4_196,fr4_f2).
head(r_fr4_197,fr4_t1).
body(r_fr4_197,fr4_a1).
body(r_fr4_197,fr4_c3).
head(r_fr4_198,fr4_t1).
body(r_fr4_198,fr4_f1).
body(r_fr4_198,fr4_x2).
head(r_fr4_199,fr4_t1).
body(r_fr4_199,fr4_c3).
body(r_fr4_199,fr4_f1).
body(r_fr4_199,fr4_s1).
head(r_fr4_200,fr4_t1).
body(r_fr4_200,fr4_c3).
body(r_fr4_200,fr4_f1).
body(r_fr4_200,fr4_u2).
body(r_fr4_200,fr4_x1).
body(r_fr4_200,fr4_x2).
head(r_fr4_201,fr4_t1).
head(r_fr4_202,fr4_t1).
body(r_fr4_202,fr4_a1).
body(r_fr4_202,fr4_a2).
body(r_fr4_202,fr4_a3).
body(r_fr4_202,fr4_c1).
body(r_fr4_202,fr4_e1).
head(r_fr4_203,fr4_t1).
body(r_fr4_203,fr4_p2).
head(r_fr4_204,fr4_t1).
body(r_fr4_204,fr4_a1).
body(r_fr4_204,fr4_f2).
head(r_fr4_205,fr4_t1).
body(r_fr4_205,fr4_p1).
body(r_fr4_205,fr4_q3).
body(r_fr4_205,fr4_s2).
body(r_fr4_205,fr4_v1).
body(r_fr4_205,fr4_z1).
body(r_fr4_205,fr4_z2).
head(r_fr4_206,fr4_t1).
body(r_fr4_206,fr4_c3).
head(r_fr4_207,fr4_t1).
body(r_fr4_207,fr4_c3).
body(r_fr4_207,fr4_e1).
body(r_fr4_207,fr4_f2).
body(r_fr4_207,fr4_w2).
head(r_fr4_208,fr4_t1).
body(r_fr4_208,fr1_t3).
body(r_fr4_208,fr4_c3).
body(r_fr4_208,fr4_e2).
body(r_fr4_208,fr4_f1).
head(r_fr4_209,fr4_t1).
body(r_fr4_209,fr4_b2).
body(r_fr4_209,fr3_d1).
body(r_fr4_209,fr4_f1).
head(r_fr4_210,fr4_t1).
body(r_fr4_210,fr4_a2).
body(r_fr4_210,fr1_w2).
body(r_fr4_210,fr4_f2).
head(r_fr4_211,fr4_t1).
body(r_fr4_211,fr4_p3).
head(r_fr4_212,fr4_t1).
body(r_fr4_212,fr4_q1).
body(r_fr4_212,fr1_v1).
body(r_fr4_212,fr4_s2).
body(r_fr4_212,fr4_u2).
body(r_fr4_212,fr4_z1).
head(r_fr4_213,fr4_t1).
body(r_fr4_213,fr4_d1).
body(r_fr4_213,fr4_q1).
body(r_fr4_213,fr4_s1).
body(r_fr4_213,fr4_w2).
body(r_fr4_213,fr4_z1).
head(r_fr4_214,fr4_t1).
body(r_fr4_214,fr4_a2).
body(r_fr4_214,fr3_d1).
body(r_fr4_214,fr4_f1).
body(r_fr4_214,fr4_f2).
body(r_fr4_214,fr4_w1).
head(r_fr4_215,fr4_t1).
body(r_fr4_215,fr4_f2).
body(r_fr4_215,fr4_p2).
body(r_fr4_215,fr4_v2).
body(r_fr4_215,fr4_w1).
head(r_fr4_216,fr4_t1).
body(r_fr4_216,fr4_a3).
head(r_fr4_217,fr4_t1).
body(r_fr4_217,fr4_c2).
body(r_fr4_217,fr4_q1).
body(r_fr4_217,fr8_t4).
body(r_fr4_217,fr4_x1).
head(r_fr4_218,fr4_t1).
body(r_fr4_218,fr4_q1).
body(r_fr4_218,fr4_u2).
body(r_fr4_218,fr4_v2).
body(r_fr4_218,fr4_z1).
head(r_fr4_219,fr4_t1).
body(r_fr4_219,fr4_e1).
head(r_fr4_220,fr4_t1).
body(r_fr4_220,fr4_c3).
body(r_fr4_220,fr4_q1).
body(r_fr4_220,fr1_v1).
body(r_fr4_220,fr4_r3).
head(r_fr4_221,fr4_z2).
body(r_fr4_221,fr4_e1).
head(r_fr4_222,fr4_z2).
body(r_fr4_222,fr4_a1).
body(r_fr4_222,fr4_b2).
body(r_fr4_222,fr4_c2).
head(r_fr4_223,fr4_z2).
body(r_fr4_223,fr4_u1).
body(r_fr4_223,fr4_y2).
head(r_fr4_224,fr4_z2).
body(r_fr4_224,fr4_q2).
body(r_fr4_224,fr4_t1).
head(r_fr4_225,fr4_z2).
body(r_fr4_225,fr4_q3).
body(r_fr4_225,fr4_r3).
head(r_fr4_226,fr4_z2).
body(r_fr4_226,fr4_a1).
body(r_fr4_226,fr4_a2).
body(r_fr4_226,fr4_a3).
body(r_fr4_226,fr1_w2).
body(r_fr4_226,fr4_c2).
body(r_fr4_226,fr4_d1).
head(r_fr4_227,fr4_z2).
body(r_fr4_227,fr4_a1).
body(r_fr4_227,fr4_q1).
body(r_fr4_227,fr4_s1).
body(r_fr4_227,fr4_y1).
head(r_fr4_228,fr4_z2).
head(r_fr4_229,fr4_z2).
body(r_fr4_229,fr4_d1).
body(r_fr4_229,fr4_f1).
head(r_fr4_230,fr4_z2).
body(r_fr4_230,fr4_p1).
body(r_fr4_230,fr4_q2).
body(r_fr4_230,fr4_y2).
head(r_fr4_231,fr4_z2).
body(r_fr4_231,fr4_p1).
body(r_fr4_231,fr4_u1).
body(r_fr4_231,fr4_y1).
body(r_fr4_231,fr4_y2).
head(r_fr4_232,fr4_z2).
body(r_fr4_232,fr4_a2).
body(r_fr4_232,fr4_c2).
body(r_fr4_232,fr4_f1).
body(r_fr4_232,fr4_f2).
body(r_fr4_232,fr4_u2).
body(r_fr4_232,fr4_w2).
head(r_fr4_233,fr4_z2).
body(r_fr4_233,fr4_d1).
head(r_fr4_234,fr4_z2).
body(r_fr4_234,fr4_a1).
body(r_fr4_234,fr1_v1).
body(r_fr4_234,fr4_u1).
body(r_fr4_234,fr4_y1).
head(r_fr4_235,fr4_z2).
body(r_fr4_235,fr4_c1).
body(r_fr4_235,fr4_v1).
body(r_fr4_235,fr4_w1).
head(r_fr4_236,fr4_z2).
body(r_fr4_236,fr1_t3).
body(r_fr4_236,fr4_f1).
body(r_fr4_236,fr4_f2).
body(r_fr4_236,fr4_t1).
body(r_fr4_236,fr8_t4).
body(r_fr4_236,fr4_x1).
head(r_fr4_237,fr4_z2).
body(r_fr4_237,fr4_a1).
body(r_fr4_237,fr1_t3).
body(r_fr4_237,fr4_c2).
head(r_fr4_238,fr4_z2).
body(r_fr4_238,fr4_a2).
body(r_fr4_238,fr4_c2).
body(r_fr4_238,fr4_e1).
body(r_fr4_238,fr4_e2).
head(r_fr4_239,fr4_z2).
body(r_fr4_239,fr4_f2).
body(r_fr4_239,fr4_w2).
head(r_fr4_240,fr4_z2).
body(r_fr4_240,fr4_u2).
body(r_fr4_240,fr4_z1).
head(r_fr4_241,fr4_z2).
body(r_fr4_241,fr1_t3).
body(r_fr4_241,fr4_b2).
body(r_fr4_241,fr4_c3).
body(r_fr4_241,fr3_d1).
body(r_fr4_241,fr4_f1).
head(r_fr4_242,fr4_z2).
body(r_fr4_242,fr4_a1).
body(r_fr4_242,fr4_a2).
body(r_fr4_242,fr4_b2).
body(r_fr4_242,fr4_f2).
head(r_fr4_243,fr4_z2).
body(r_fr4_243,fr4_a3).
body(r_fr4_243,fr4_w1).
head(r_fr4_244,fr4_z2).
body(r_fr4_244,fr4_t1).
body(r_fr4_244,fr8_t4).
body(r_fr4_244,fr4_z1).
head(r_fr4_245,fr4_x1).
body(r_fr4_245,fr1_w2).
body(r_fr4_245,fr3_d1).
body(r_fr4_245,fr4_p3).
body(r_fr4_245,fr4_s2).
body(r_fr4_245,fr4_y2).
head(r_fr4_246,fr4_x1).
body(r_fr4_246,fr1_t3).
body(r_fr4_246,fr4_c2).
body(r_fr4_246,fr4_p1).
body(r_fr4_246,fr4_r3).
body(r_fr4_246,fr4_v2).
body(r_fr4_246,fr4_w2).
head(r_fr4_247,fr4_x1).
body(r_fr4_247,fr4_c2).
body(r_fr4_247,fr4_w1).
body(r_fr4_247,fr4_z1).
head(r_fr4_248,fr4_x1).
body(r_fr4_248,fr4_a1).
body(r_fr4_248,fr4_c3).
body(r_fr4_248,fr3_d1).
body(r_fr4_248,fr4_r3).
body(r_fr4_248,fr4_v2).
head(r_fr4_249,fr4_x1).
body(r_fr4_249,fr4_a1).
body(r_fr4_249,fr4_c1).
body(r_fr4_249,fr4_c2).
body(r_fr4_249,fr4_e2).
body(r_fr4_249,fr4_f2).
head(r_fr4_250,fr4_x1).
body(r_fr4_250,fr4_p3).
body(r_fr4_250,fr4_u1).
body(r_fr4_250,fr4_y2).
head(r_fr4_251,fr4_x1).
body(r_fr4_251,fr1_t3).
body(r_fr4_251,fr4_p3).
body(r_fr4_251,fr4_r2).
body(r_fr4_251,fr4_w1).
body(r_fr4_251,fr4_w2).
head(r_fr4_252,fr4_x1).
body(r_fr4_252,fr4_c2).
body(r_fr4_252,fr4_c3).
body(r_fr4_252,fr4_d1).
head(r_fr4_253,fr4_x1).
body(r_fr4_253,fr4_a2).
body(r_fr4_253,fr4_e1).
body(r_fr4_253,fr4_e2).
head(r_fr4_254,fr4_x1).
body(r_fr4_254,fr4_p1).
body(r_fr4_254,fr4_r3).
body(r_fr4_254,fr4_s2).
head(r_fr4_255,fr4_x1).
body(r_fr4_255,fr1_v1).
body(r_fr4_255,fr4_s1).
head(r_fr4_256,fr4_x1).
body(r_fr4_256,fr4_f1).
head(r_fr4_257,fr4_x1).
body(r_fr4_257,fr4_e1).
body(r_fr4_257,fr4_q2).
body(r_fr4_257,fr4_z2).
head(r_fr4_258,fr4_x1).
body(r_fr4_258,fr1_t3).
body(r_fr4_258,fr1_w2).
body(r_fr4_258,fr4_c1).
body(r_fr4_258,fr4_c2).
body(r_fr4_258,fr4_f2).
body(r_fr4_258,fr4_w1).
head(r_fr4_259,fr4_x1).
body(r_fr4_259,fr4_c1).
head(r_fr4_260,fr4_x1).
body(r_fr4_260,fr4_f1).
body(r_fr4_260,fr4_p3).
body(r_fr4_260,fr4_r2).
head(r_fr4_261,fr4_x1).
body(r_fr4_261,fr4_b2).
body(r_fr4_261,fr4_c1).
body(r_fr4_261,fr4_c3).
body(r_fr4_261,fr4_r3).
head(r_fr4_262,fr4_x1).
head(r_fr4_263,fr4_x1).
body(r_fr4_263,fr4_d1).
body(r_fr4_263,fr4_s1).
body(r_fr4_263,fr4_z2).
head(r_fr4_264,fr4_x1).
body(r_fr4_264,fr4_b2).
body(r_fr4_264,fr4_r2).
body(r_fr4_264,fr4_v2).
head(r_fr4_265,fr4_x1).
body(r_fr4_265,fr1_v1).
body(r_fr4_265,fr4_t1).
head(r_fr4_266,fr4_x1).
body(r_fr4_266,fr4_c2).
body(r_fr4_266,fr4_e1).
head(r_fr4_267,fr4_x1).
body(r_fr4_267,fr4_f2).
body(r_fr4_267,fr4_q1).
head(r_fr4_268,fr4_x1).
body(r_fr4_268,fr4_d1).
body(r_fr4_268,fr4_f2).
body(r_fr4_268,fr4_v1).
body(r_fr4_268,fr4_v2).
head(r_fr4_269,fr4_q2).
body(r_fr4_269,fr4_b2).
body(r_fr4_269,fr4_e1).
body(r_fr4_269,fr4_e2).
body(r_fr4_269,fr4_v2).
body(r_fr4_269,fr4_x1).
body(r_fr4_269,fr4_z2).
head(r_fr4_270,fr4_q2).
body(r_fr4_270,fr4_x1).
head(r_fr4_271,fr4_q2).
body(r_fr4_271,fr4_a1).
body(r_fr4_271,fr4_a2).
body(r_fr4_271,fr4_b2).
body(r_fr4_271,fr1_w2).
body(r_fr4_271,fr4_e2).
head(r_fr4_272,fr4_q2).
body(r_fr4_272,fr4_a3).
body(r_fr4_272,fr4_c2).
body(r_fr4_272,fr4_s2).
body(r_fr4_272,fr4_t1).
body(r_fr4_272,fr4_v2).
body(r_fr4_272,fr4_y1).
head(r_fr4_273,fr4_q2).
body(r_fr4_273,fr4_p2).
body(r_fr4_273,fr4_w2).
body(r_fr4_273,fr4_x1).
head(r_fr4_274,fr4_q2).
body(r_fr4_274,fr4_c1).
body(r_fr4_274,fr4_u1).
body(r_fr4_274,fr4_w1).
head(r_fr4_275,fr4_q2).
body(r_fr4_275,fr4_b2).
body(r_fr4_275,fr4_f1).
body(r_fr4_275,fr4_p1).
body(r_fr4_275,fr1_v1).
body(r_fr4_275,fr4_v2).
head(r_fr4_276,fr4_q2).
body(r_fr4_276,fr1_w2).
body(r_fr4_276,fr4_p1).
body(r_fr4_276,fr4_u1).
body(r_fr4_276,fr4_v1).
body(r_fr4_276,fr4_w1).
body(r_fr4_276,fr4_z1).
head(r_fr4_277,fr4_q2).
body(r_fr4_277,fr1_t3).
body(r_fr4_277,fr4_b2).
body(r_fr4_277,fr3_d1).
body(r_fr4_277,fr4_e1).
body(r_fr4_277,fr4_f1).
body(r_fr4_277,fr4_w2).
head(r_fr4_278,fr4_q2).
body(r_fr4_278,fr4_a1).
body(r_fr4_278,fr1_t3).
body(r_fr4_278,fr4_c2).
body(r_fr4_278,fr4_d1).
body(r_fr4_278,fr3_d1).
body(r_fr4_278,fr4_z2).
head(r_fr4_279,fr4_q2).
head(r_fr4_280,fr4_q2).
body(r_fr4_280,fr4_c3).
body(r_fr4_280,fr4_e1).
head(r_fr4_281,fr4_q2).
body(r_fr4_281,fr4_a1).
body(r_fr4_281,fr4_a3).
body(r_fr4_281,fr4_b2).
body(r_fr4_281,fr8_t4).
body(r_fr4_281,fr4_x1).
body(r_fr4_281,fr4_z2).
head(r_fr4_282,fr4_q2).
body(r_fr4_282,fr4_p1).
body(r_fr4_282,fr8_t4).
head(r_fr4_283,fr4_q2).
body(r_fr4_283,fr3_d1).
body(r_fr4_283,fr4_p2).
body(r_fr4_283,fr4_s2).
body(r_fr4_283,fr4_v1).
body(r_fr4_283,fr4_z2).
head(r_fr4_284,fr4_q2).
body(r_fr4_284,fr4_a1).
body(r_fr4_284,fr4_c3).
body(r_fr4_284,fr4_e1).
head(r_fr4_285,fr4_q2).
body(r_fr4_285,fr4_c3).
body(r_fr4_285,fr4_e2).
body(r_fr4_285,fr4_f2).
body(r_fr4_285,fr4_p2).
body(r_fr4_285,fr4_y1).
head(r_fr4_286,fr4_q2).
body(r_fr4_286,fr4_a3).
body(r_fr4_286,fr4_b2).
body(r_fr4_286,fr4_c1).
body(r_fr4_286,fr4_e1).
body(r_fr4_286,fr4_e2).
body(r_fr4_286,fr4_f1).
head(r_fr4_287,fr4_q2).
body(r_fr4_287,fr4_p3).
body(r_fr4_287,fr4_q1).
body(r_fr4_287,fr4_z1).
body(r_fr4_287,fr4_z2).
head(r_fr4_288,fr4_q2).
body(r_fr4_288,fr4_c3).
head(r_fr4_289,fr4_q2).
body(r_fr4_289,fr4_a2).
body(r_fr4_289,fr4_f1).
body(r_fr4_289,fr4_p1).
body(r_fr4_289,fr4_q3).
head(r_fr4_290,fr4_q2).
body(r_fr4_290,fr4_u2).
head(r_fr4_291,fr4_q2).
body(r_fr4_291,fr4_c3).
body(r_fr4_291,fr4_e1).
body(r_fr4_291,fr4_e2).
body(r_fr4_291,fr4_y1).
head(r_fr4_292,fr4_q2).
body(r_fr4_292,fr4_c1).
head(r_fr4_293,fr4_q2).
body(r_fr4_293,fr4_q1).
body(r_fr4_293,fr1_v1).
body(r_fr4_293,fr4_x1).
head(r_fr4_294,fr4_q2).
body(r_fr4_294,fr4_f1).
body(r_fr4_294,fr4_p2).
body(r_fr4_294,fr4_q3).
body(r_fr4_294,fr4_x1).
body(r_fr4_294,fr4_y2).
head(r_fr4_295,fr4_p1).
body(r_fr4_295,fr4_a2).
body(r_fr4_295,fr4_b2).
head(r_fr4_296,fr4_p1).
body(r_fr4_296,fr1_t3).
head(r_fr4_297,fr4_p1).
body(r_fr4_297,fr4_p3).
body(r_fr4_297,fr4_r3).
body(r_fr4_297,fr4_x2).
body(r_fr4_297,fr4_z2).
head(r_fr4_298,fr4_p1).
body(r_fr4_298,fr4_w1).
head(r_fr4_299,fr4_p1).
body(r_fr4_299,fr4_p2).
body(r_fr4_299,fr8_t4).
body(r_fr4_299,fr4_u2).
body(r_fr4_299,fr4_w1).
head(r_fr4_300,fr4_p1).
body(r_fr4_300,fr4_p3).
body(r_fr4_300,fr1_v1).
body(r_fr4_300,fr4_v2).
body(r_fr4_300,fr4_w2).
body(r_fr4_300,fr4_y2).
body(r_fr4_300,fr4_z1).
head(r_fr4_301,fr4_p1).
body(r_fr4_301,fr4_c1).
body(r_fr4_301,fr4_y2).
head(r_fr4_302,fr4_p1).
body(r_fr4_302,fr4_a3).
body(r_fr4_302,fr4_b2).
body(r_fr4_302,fr4_p2).
body(r_fr4_302,fr4_q1).
head(r_fr4_303,fr4_p1).
body(r_fr4_303,fr1_t3).
body(r_fr4_303,fr4_c3).
body(r_fr4_303,fr4_p3).
body(r_fr4_303,fr4_w2).
head(r_fr4_304,fr4_p1).
body(r_fr4_304,fr4_c3).
body(r_fr4_304,fr4_u2).
body(r_fr4_304,fr4_v2).
body(r_fr4_304,fr4_y2).
head(r_fr4_305,fr4_p1).
body(r_fr4_305,fr1_w2).
body(r_fr4_305,fr4_f2).
body(r_fr4_305,fr4_v2).
body(r_fr4_305,fr4_x1).
head(r_fr4_306,fr4_p1).
body(r_fr4_306,fr4_a2).
body(r_fr4_306,fr4_c2).
body(r_fr4_306,fr4_c3).
body(r_fr4_306,fr4_d1).
body(r_fr4_306,fr4_q1).
body(r_fr4_306,fr4_q2).
head(r_fr4_307,fr4_p1).
body(r_fr4_307,fr4_a1).
body(r_fr4_307,fr4_a2).
body(r_fr4_307,fr4_a3).
body(r_fr4_307,fr4_d1).
body(r_fr4_307,fr4_e1).
head(r_fr4_308,fr4_p1).
body(r_fr4_308,fr4_a1).
body(r_fr4_308,fr4_a2).
body(r_fr4_308,fr4_a3).
body(r_fr4_308,fr4_b2).
body(r_fr4_308,fr3_d1).
body(r_fr4_308,fr4_f1).
head(r_fr4_309,fr4_p1).
body(r_fr4_309,fr4_c1).
body(r_fr4_309,fr4_d1).
body(r_fr4_309,fr4_x1).
body(r_fr4_309,fr4_z2).
head(r_fr4_310,fr4_p1).
body(r_fr4_310,fr4_a3).
body(r_fr4_310,fr4_e1).
body(r_fr4_310,fr4_f1).
body(r_fr4_310,fr4_q1).
body(r_fr4_310,fr4_s2).
body(r_fr4_310,fr4_v1).
head(r_fr4_311,fr4_p1).
body(r_fr4_311,fr1_v1).
body(r_fr4_311,fr4_s1).
body(r_fr4_311,fr4_v1).
body(r_fr4_311,fr4_v2).
head(r_fr4_312,fr4_p1).
head(r_fr4_313,fr4_p1).
body(r_fr4_313,fr4_a3).
body(r_fr4_313,fr4_c3).
body(r_fr4_313,fr4_f2).
head(r_fr4_314,fr4_p1).
body(r_fr4_314,fr4_c3).
body(r_fr4_314,fr4_y1).
head(r_fr4_315,fr4_p1).
body(r_fr4_315,fr4_q3).
body(r_fr4_315,fr4_x1).
head(r_fr4_316,fr4_p1).
body(r_fr4_316,fr4_a2).
body(r_fr4_316,fr4_r3).
head(r_fr4_317,fr4_p1).
body(r_fr4_317,fr4_e1).
body(r_fr4_317,fr4_y2).
head(r_fr4_318,fr8_t4).
head(r_fr4_319,fr8_t4).
body(r_fr4_319,fr4_c2).
body(r_fr4_319,fr4_d1).
body(r_fr4_319,fr4_e2).
body(r_fr4_319,fr1_v1).
body(r_fr4_319,fr4_u2).
body(r_fr4_319,fr4_w1).
head(r_fr4_320,fr8_t4).
body(r_fr4_320,fr4_a3).
body(r_fr4_320,fr4_v2).
body(r_fr4_320,fr4_w1).
body(r_fr4_320,fr4_x1).
head(r_fr4_321,fr8_t4).
body(r_fr4_321,fr4_a1).
body(r_fr4_321,fr4_q2).
body(r_fr4_321,fr4_u2).
head(r_fr4_322,fr8_t4).
body(r_fr4_322,fr4_c1).
body(r_fr4_322,fr4_r2).
body(r_fr4_322,fr4_r3).
head(r_fr4_323,fr8_t4).
body(r_fr4_323,fr4_a3).
body(r_fr4_323,fr4_b2).
body(r_fr4_323,fr4_c2).
body(r_fr4_323,fr4_u2).
body(r_fr4_323,fr4_z2).
head(r_fr4_324,fr8_t4).
body(r_fr4_324,fr4_u1).
head(r_fr4_325,fr8_t4).
body(r_fr4_325,fr4_a2).
body(r_fr4_325,fr4_q2).
body(r_fr4_325,fr4_u2).
body(r_fr4_325,fr4_v2).
head(r_fr4_326,fr8_t4).
body(r_fr4_326,fr4_a1).
body(r_fr4_326,fr4_b2).
body(r_fr4_326,fr4_d1).
body(r_fr4_326,fr4_t1).
body(r_fr4_326,fr4_x1).
body(r_fr4_326,fr4_x2).
head(r_fr4_327,fr8_t4).
body(r_fr4_327,fr4_b2).
body(r_fr4_327,fr4_d1).
body(r_fr4_327,fr4_x2).
head(r_fr4_328,fr8_t4).
body(r_fr4_328,fr4_a3).
body(r_fr4_328,fr1_w2).
body(r_fr4_328,fr4_c3).
head(r_fr4_329,fr8_t4).
body(r_fr4_329,fr4_a2).
body(r_fr4_329,fr4_b2).
head(r_fr4_330,fr8_t4).
body(r_fr4_330,fr4_r3).
body(r_fr4_330,fr4_x1).
head(r_fr4_331,fr8_t4).
body(r_fr4_331,fr4_a3).
body(r_fr4_331,fr4_e1).
body(r_fr4_331,fr4_p1).
body(r_fr4_331,fr4_p2).
body(r_fr4_331,fr4_x1).
head(r_fr4_332,fr8_t4).
body(r_fr4_332,fr4_p1).
body(r_fr4_332,fr4_z2).
head(r_fr4_333,fr8_t4).
body(r_fr4_333,fr4_a3).
body(r_fr4_333,fr1_w2).
body(r_fr4_333,fr4_q1).
head(r_fr4_334,fr8_t4).
body(r_fr4_334,fr4_a2).
body(r_fr4_334,fr4_c2).
body(r_fr4_334,fr4_f1).
body(r_fr4_334,fr1_v1).
head(r_fr4_335,fr8_t4).
body(r_fr4_335,fr4_b2).
head(r_fr4_336,fr8_t4).
body(r_fr4_336,fr4_e1).
body(r_fr4_336,fr4_p2).
head(r_fr4_337,fr8_t4).
body(r_fr4_337,fr4_p3).
head(r_fr4_338,fr8_t4).
body(r_fr4_338,fr1_w2).
body(r_fr4_338,fr4_c2).
body(r_fr4_338,fr4_z2).
head(r_fr4_339,fr8_t4).
body(r_fr4_339,fr4_c3).
body(r_fr4_339,fr4_e1).
body(r_fr4_339,fr4_f2).
body(r_fr4_339,fr4_q1).
body(r_fr4_339,fr4_x1).
body(r_fr4_339,fr4_x2).
head(r_fr4_340,fr8_t4).
body(r_fr4_340,fr4_a2).
body(r_fr4_340,fr4_p2).
body(r_fr4_340,fr4_q3).
body(r_fr4_340,fr4_w1).
body(r_fr4_340,fr4_x2).
head(r_fr4_341,fr8_t4).
body(r_fr4_341,fr4_p1).
body(r_fr4_341,fr4_r3).
head(r_fr4_342,fr4_y1).
body(r_fr4_342,fr4_c3).
body(r_fr4_342,fr4_q2).
body(r_fr4_342,fr4_u2).
body(r_fr4_342,fr4_x1).
head(r_fr4_343,fr4_y1).
body(r_fr4_343,fr4_p3).
body(r_fr4_343,fr4_q2).
body(r_fr4_343,fr1_v1).
body(r_fr4_343,fr4_z1).
head(r_fr4_344,fr4_y1).
body(r_fr4_344,fr4_b2).
body(r_fr4_344,fr4_c2).
body(r_fr4_344,fr3_d1).
body(r_fr4_344,fr4_s2).
body(r_fr4_344,fr4_z1).
head(r_fr4_345,fr4_y1).
body(r_fr4_345,fr4_q3).
body(r_fr4_345,fr8_t4).
body(r_fr4_345,fr4_w1).
head(r_fr4_346,fr4_y1).
body(r_fr4_346,fr4_a3).
body(r_fr4_346,fr1_t3).
body(r_fr4_346,fr4_c2).
body(r_fr4_346,fr4_d1).
body(r_fr4_346,fr4_p2).
body(r_fr4_346,fr4_u1).
head(r_fr4_347,fr4_y1).
body(r_fr4_347,fr4_p3).
body(r_fr4_347,fr4_r2).
body(r_fr4_347,fr4_w2).
head(r_fr4_348,fr4_y1).
body(r_fr4_348,fr4_a3).
body(r_fr4_348,fr4_b2).
body(r_fr4_348,fr4_c1).
body(r_fr4_348,fr4_d1).
body(r_fr4_348,fr4_e1).
head(r_fr4_349,fr4_y1).
body(r_fr4_349,fr4_b2).
body(r_fr4_349,fr4_u2).
body(r_fr4_349,fr4_x1).
body(r_fr4_349,fr4_x2).
head(r_fr4_350,fr4_y1).
body(r_fr4_350,fr4_e1).
body(r_fr4_350,fr4_f1).
body(r_fr4_350,fr1_v1).
body(r_fr4_350,fr4_t1).
body(r_fr4_350,fr8_t4).
head(r_fr4_351,fr4_y1).
body(r_fr4_351,fr1_t3).
body(r_fr4_351,fr4_c2).
body(r_fr4_351,fr4_c3).
body(r_fr4_351,fr3_d1).
body(r_fr4_351,fr4_f1).
body(r_fr4_351,fr4_f2).
head(r_fr4_352,fr4_y1).
body(r_fr4_352,fr8_t4).
body(r_fr4_352,fr4_w2).
head(r_fr4_353,fr4_y1).
body(r_fr4_353,fr4_b2).
body(r_fr4_353,fr4_p2).
body(r_fr4_353,fr4_q2).
body(r_fr4_353,fr4_t1).
head(r_fr4_354,fr4_y1).
body(r_fr4_354,fr4_a2).
body(r_fr4_354,fr4_a3).
body(r_fr4_354,fr1_t3).
body(r_fr4_354,fr1_w2).
body(r_fr4_354,fr3_d1).
body(r_fr4_354,fr4_f2).
head(r_fr4_355,fr4_y1).
body(r_fr4_355,fr4_r2).
body(r_fr4_355,fr4_u1).
body(r_fr4_355,fr4_v1).
head(r_fr4_356,fr4_y1).
body(r_fr4_356,fr4_q3).
body(r_fr4_356,fr1_v1).
body(r_fr4_356,fr4_s1).
body(r_fr4_356,fr4_s2).
body(r_fr4_356,fr4_v1).
body(r_fr4_356,fr4_z1).
head(r_fr4_357,fr4_y1).
body(r_fr4_357,fr4_a2).
body(r_fr4_357,fr4_a3).
body(r_fr4_357,fr1_t3).
body(r_fr4_357,fr1_w2).
body(r_fr4_357,fr4_c2).
body(r_fr4_357,fr4_f1).
head(r_fr4_358,fr4_y1).
body(r_fr4_358,fr4_c2).
body(r_fr4_358,fr4_f2).
body(r_fr4_358,fr4_w2).
body(r_fr4_358,fr4_z1).
head(r_fr4_359,fr4_y1).
body(r_fr4_359,fr4_c3).
head(r_fr4_360,fr4_y1).
head(r_fr4_361,fr4_y1).
body(r_fr4_361,fr4_a3).
body(r_fr4_361,fr4_e1).
body(r_fr4_361,fr4_f1).
body(r_fr4_361,fr4_p2).
body(r_fr4_361,fr4_r3).
body(r_fr4_361,fr4_x1).
head(r_fr4_362,fr4_y1).
body(r_fr4_362,fr4_q1).
body(r_fr4_362,fr1_v1).
body(r_fr4_362,fr4_s2).
body(r_fr4_362,fr4_u1).
body(r_fr4_362,fr4_z2).
head(r_fr4_363,fr4_y1).
body(r_fr4_363,fr4_c1).
head(r_fr4_364,fr4_y1).
body(r_fr4_364,fr1_t3).
body(r_fr4_364,fr4_b2).
head(r_fr4_365,fr4_y1).
body(r_fr4_365,fr4_r2).
body(r_fr4_365,fr4_r3).
head(r_fr4_366,fr4_y1).
body(r_fr4_366,fr4_v1).
body(r_fr4_366,fr4_z1).
head(r_fr4_367,fr4_y1).
body(r_fr4_367,fr1_t3).
body(r_fr4_367,fr4_f1).
head(r_fr4_368,fr4_p2).
body(r_fr4_368,fr4_p1).
body(r_fr4_368,fr4_p3).
body(r_fr4_368,fr4_w2).
body(r_fr4_368,fr4_x1).
body(r_fr4_368,fr4_y2).
head(r_fr4_369,fr4_p2).
body(r_fr4_369,fr4_a1).
body(r_fr4_369,fr4_w2).
head(r_fr4_370,fr4_p2).
body(r_fr4_370,fr3_d1).
body(r_fr4_370,fr4_v1).
head(r_fr4_371,fr4_p2).
body(r_fr4_371,fr4_a3).
body(r_fr4_371,fr4_d1).
body(r_fr4_371,fr4_q3).
body(r_fr4_371,fr4_u1).
body(r_fr4_371,fr4_v1).
head(r_fr4_372,fr4_p2).
body(r_fr4_372,fr3_d1).
body(r_fr4_372,fr4_e1).
body(r_fr4_372,fr4_e2).
head(r_fr4_373,fr4_p2).
body(r_fr4_373,fr4_c1).
body(r_fr4_373,fr4_c2).
body(r_fr4_373,fr4_c3).
body(r_fr4_373,fr4_d1).
body(r_fr4_373,fr4_e1).
head(r_fr4_374,fr4_p2).
body(r_fr4_374,fr1_w2).
body(r_fr4_374,fr4_r2).
head(r_fr4_375,fr4_p2).
body(r_fr4_375,fr4_v1).
head(r_fr4_376,fr4_p2).
body(r_fr4_376,fr4_a3).
body(r_fr4_376,fr1_w2).
body(r_fr4_376,fr4_c1).
body(r_fr4_376,fr4_d1).
body(r_fr4_376,fr4_e2).
head(r_fr4_377,fr4_p2).
body(r_fr4_377,fr8_t4).
body(r_fr4_377,fr4_v1).
body(r_fr4_377,fr4_x2).
body(r_fr4_377,fr4_y1).
body(r_fr4_377,fr4_z1).
head(r_fr4_378,fr4_p2).
body(r_fr4_378,fr4_e2).
head(r_fr4_379,fr4_p2).
body(r_fr4_379,fr4_a3).
body(r_fr4_379,fr1_w2).
body(r_fr4_379,fr4_c2).
body(r_fr4_379,fr3_d1).
body(r_fr4_379,fr4_e2).
body(r_fr4_379,fr4_f1).
head(r_fr4_380,fr4_p2).
body(r_fr4_380,fr4_a2).
body(r_fr4_380,fr4_e1).
body(r_fr4_380,fr4_v1).
head(r_fr4_381,fr4_p2).
body(r_fr4_381,fr4_c2).
body(r_fr4_381,fr4_e1).
head(r_fr4_382,fr4_p2).
body(r_fr4_382,fr4_p1).
body(r_fr4_382,fr4_r3).
body(r_fr4_382,fr4_s1).
body(r_fr4_382,fr4_t1).
body(r_fr4_382,fr4_v1).
body(r_fr4_382,fr4_w2).
head(r_fr4_383,fr4_p2).
body(r_fr4_383,fr4_a1).
body(r_fr4_383,fr4_b2).
body(r_fr4_383,fr4_c2).
body(r_fr4_383,fr4_s1).
head(r_fr4_384,fr4_p2).
body(r_fr4_384,fr4_a2).
body(r_fr4_384,fr4_c1).
body(r_fr4_384,fr4_x2).
head(r_fr4_385,fr4_p2).
body(r_fr4_385,fr1_t3).
body(r_fr4_385,fr4_b2).
body(r_fr4_385,fr4_c1).
body(r_fr4_385,fr4_d1).
body(r_fr4_385,fr4_e1).
body(r_fr4_385,fr4_e2).
head(r_fr4_386,fr4_p2).
body(r_fr4_386,fr4_a3).
body(r_fr4_386,fr4_c3).
body(r_fr4_386,fr4_d1).
body(r_fr4_386,fr4_p1).
head(r_fr4_387,fr4_p2).
body(r_fr4_387,fr4_c2).
body(r_fr4_387,fr4_f1).
body(r_fr4_387,fr4_p3).
body(r_fr4_387,fr1_v1).
body(r_fr4_387,fr4_y1).
head(r_fr4_388,fr4_p2).
body(r_fr4_388,fr4_c3).
body(r_fr4_388,fr4_f2).
body(r_fr4_388,fr1_v1).
body(r_fr4_388,fr4_r3).
head(r_fr4_389,fr4_p2).
head(r_fr4_390,fr4_p2).
body(r_fr4_390,fr4_b2).
body(r_fr4_390,fr4_c3).
body(r_fr4_390,fr4_e1).
body(r_fr4_390,fr4_v2).
body(r_fr4_390,fr4_w2).
body(r_fr4_390,fr4_z1).
head(r_fr4_391,fr4_p2).
body(r_fr4_391,fr4_p3).
body(r_fr4_391,fr1_v1).
body(r_fr4_391,fr4_u2).
body(r_fr4_391,fr4_x1).
head(r_fr4_392,fr4_p2).
body(r_fr4_392,fr4_s2).
head(r_fr4_393,fr4_p2).
body(r_fr4_393,fr4_a1).
body(r_fr4_393,fr4_c2).
body(r_fr4_393,fr4_e1).
body(r_fr4_393,fr4_q2).
body(r_fr4_393,fr4_t1).
body(r_fr4_393,fr8_t4).
head(r_fr4_394,fr4_q3).
body(r_fr4_394,fr4_d1).
head(r_fr4_395,fr4_q3).
body(r_fr4_395,fr1_t3).
body(r_fr4_395,fr4_x1).
head(r_fr4_396,fr4_q3).
body(r_fr4_396,fr4_p1).
body(r_fr4_396,fr4_p2).
body(r_fr4_396,fr4_s2).
body(r_fr4_396,fr4_x2).
head(r_fr4_397,fr4_q3).
body(r_fr4_397,fr4_a1).
body(r_fr4_397,fr4_a3).
body(r_fr4_397,fr1_t3).
body(r_fr4_397,fr4_b2).
body(r_fr4_397,fr4_c2).
body(r_fr4_397,fr4_d1).
head(r_fr4_398,fr4_q3).
body(r_fr4_398,fr4_a1).
body(r_fr4_398,fr4_a2).
body(r_fr4_398,fr1_w2).
body(r_fr4_398,fr4_d1).
body(r_fr4_398,fr4_q2).
head(r_fr4_399,fr4_q3).
body(r_fr4_399,fr4_a1).
body(r_fr4_399,fr4_e2).
body(r_fr4_399,fr4_p1).
body(r_fr4_399,fr4_x2).
head(r_fr4_400,fr4_q3).
body(r_fr4_400,fr3_d1).
head(r_fr4_401,fr4_q3).
body(r_fr4_401,fr4_c2).
body(r_fr4_401,fr4_f2).
head(r_fr4_402,fr4_q3).
body(r_fr4_402,fr4_c2).
body(r_fr4_402,fr4_q1).
body(r_fr4_402,fr4_s1).
body(r_fr4_402,fr4_w2).
head(r_fr4_403,fr4_q3).
body(r_fr4_403,fr1_w2).
body(r_fr4_403,fr4_c1).
body(r_fr4_403,fr4_c2).
body(r_fr4_403,fr4_f1).
head(r_fr4_404,fr4_q3).
body(r_fr4_404,fr4_p3).
head(r_fr4_405,fr4_q3).
body(r_fr4_405,fr4_f1).
head(r_fr4_406,fr4_q3).
body(r_fr4_406,fr4_e2).
head(r_fr4_407,fr4_q3).
body(r_fr4_407,fr4_w2).
body(r_fr4_407,fr4_x2).
body(r_fr4_407,fr4_y2).
head(r_fr4_408,fr4_q3).
body(r_fr4_408,fr4_a3).
body(r_fr4_408,fr1_t3).
body(r_fr4_408,fr4_e1).
body(r_fr4_408,fr4_p2).
body(r_fr4_408,fr4_q1).
body(r_fr4_408,fr4_x1).
head(r_fr4_409,fr4_q3).
body(r_fr4_409,fr4_c1).
body(r_fr4_409,fr4_e1).
body(r_fr4_409,fr4_e2).
head(r_fr4_410,fr4_q3).
body(r_fr4_410,fr1_t3).
body(r_fr4_410,fr4_c3).
body(r_fr4_410,fr3_d1).
body(r_fr4_410,fr4_e2).
body(r_fr4_410,fr4_r2).
head(r_fr4_411,fr4_q3).
body(r_fr4_411,fr4_a2).
body(r_fr4_411,fr1_t3).
body(r_fr4_411,fr4_e1).
head(r_fr4_412,fr4_q3).
body(r_fr4_412,fr1_t3).
body(r_fr4_412,fr4_b2).
body(r_fr4_412,fr4_e1).
head(r_fr4_413,fr4_q3).
body(r_fr4_413,fr4_q1).
body(r_fr4_413,fr1_v1).
body(r_fr4_413,fr4_v1).
head(r_fr4_414,fr4_q3).
head(r_fr4_415,fr4_q3).
body(r_fr4_415,fr4_f1).
body(r_fr4_415,fr4_w1).
body(r_fr4_415,fr4_z1).
head(r_fr4_416,fr4_q3).
body(r_fr4_416,fr4_a3).
body(r_fr4_416,fr4_c1).
body(r_fr4_416,fr4_d1).
body(r_fr4_416,fr4_f2).
body(r_fr4_416,fr4_u2).
head(r_fr4_417,fr4_q3).
body(r_fr4_417,fr4_x2).
head(r_fr4_418,fr4_q3).
body(r_fr4_418,fr4_w1).
head(r_fr4_419,fr4_u2).
body(r_fr4_419,fr4_c3).
body(r_fr4_419,fr4_f1).
body(r_fr4_419,fr4_q1).
body(r_fr4_419,fr4_q2).
body(r_fr4_419,fr4_w1).
body(r_fr4_419,fr4_z2).
head(r_fr4_420,fr4_u2).
body(r_fr4_420,fr4_c3).
body(r_fr4_420,fr4_f1).
body(r_fr4_420,fr4_f2).
body(r_fr4_420,fr4_u1).
body(r_fr4_420,fr4_x1).
head(r_fr4_421,fr4_u2).
body(r_fr4_421,fr4_b2).
body(r_fr4_421,fr4_c2).
body(r_fr4_421,fr4_d1).
body(r_fr4_421,fr1_v1).
body(r_fr4_421,fr4_r3).
body(r_fr4_421,fr4_x1).
head(r_fr4_422,fr4_u2).
body(r_fr4_422,fr4_q1).
body(r_fr4_422,fr4_s2).
body(r_fr4_422,fr4_w2).
head(r_fr4_423,fr4_u2).
body(r_fr4_423,fr4_q1).
body(r_fr4_423,fr4_q2).
body(r_fr4_423,fr4_q3).
body(r_fr4_423,fr4_t1).
body(r_fr4_423,fr4_x1).
head(r_fr4_424,fr4_u2).
body(r_fr4_424,fr1_w2).
body(r_fr4_424,fr4_e1).
head(r_fr4_425,fr4_u2).
body(r_fr4_425,fr4_a1).
body(r_fr4_425,fr4_c1).
body(r_fr4_425,fr3_d1).
body(r_fr4_425,fr4_f1).
body(r_fr4_425,fr4_x2).
head(r_fr4_426,fr4_u2).
body(r_fr4_426,fr4_e2).
body(r_fr4_426,fr4_p3).
body(r_fr4_426,fr4_u1).
body(r_fr4_426,fr4_w1).
head(r_fr4_427,fr4_u2).
body(r_fr4_427,fr4_c3).
body(r_fr4_427,fr3_d1).
body(r_fr4_427,fr4_p2).
body(r_fr4_427,fr4_q1).
body(r_fr4_427,fr4_y1).
head(r_fr4_428,fr4_u2).
body(r_fr4_428,fr4_s2).
body(r_fr4_428,fr4_t1).
body(r_fr4_428,fr8_t4).
body(r_fr4_428,fr4_w1).
head(r_fr4_429,fr4_u2).
body(r_fr4_429,fr4_a3).
body(r_fr4_429,fr4_s1).
body(r_fr4_429,fr4_s2).
head(r_fr4_430,fr4_u2).
body(r_fr4_430,fr4_a1).
body(r_fr4_430,fr1_t3).
body(r_fr4_430,fr4_d1).
body(r_fr4_430,fr3_d1).
head(r_fr4_431,fr4_u2).
body(r_fr4_431,fr1_t3).
body(r_fr4_431,fr1_w2).
body(r_fr4_431,fr4_p3).
body(r_fr4_431,fr4_q1).
body(r_fr4_431,fr8_t4).
head(r_fr4_432,fr4_u2).
body(r_fr4_432,fr4_a1).
body(r_fr4_432,fr4_b2).
body(r_fr4_432,fr4_c2).
body(r_fr4_432,fr4_c3).
body(r_fr4_432,fr4_f2).
head(r_fr4_433,fr4_u2).
body(r_fr4_433,fr4_b2).
body(r_fr4_433,fr1_w2).
body(r_fr4_433,fr4_d1).
head(r_fr4_434,fr4_u2).
body(r_fr4_434,fr4_z1).
head(r_fr4_435,fr4_u2).
body(r_fr4_435,fr4_q3).
body(r_fr4_435,fr4_w2).
head(r_fr4_436,fr4_u2).
body(r_fr4_436,fr4_a1).
body(r_fr4_436,fr4_a2).
body(r_fr4_436,fr4_v2).
head(r_fr4_437,fr4_u2).
body(r_fr4_437,fr4_f1).
body(r_fr4_437,fr4_p2).
body(r_fr4_437,fr4_q3).
body(r_fr4_437,fr4_r2).
body(r_fr4_437,fr4_y2).
head(r_fr4_438,fr4_u2).
body(r_fr4_438,fr1_t3).
body(r_fr4_438,fr3_d1).
head(r_fr4_439,fr4_u2).
body(r_fr4_439,fr4_e1).
head(r_fr4_440,fr4_u2).
head(r_fr4_441,fr4_u2).
body(r_fr4_441,fr4_c3).
body(r_fr4_441,fr4_e1).
body(r_fr4_441,fr4_q1).
body(r_fr4_441,fr1_v1).
body(r_fr4_441,fr4_v2).
head(r_fr4_442,fr4_u2).
body(r_fr4_442,fr4_a3).
body(r_fr4_442,fr4_c3).
head(r_fr4_443,fr4_v2).
body(r_fr4_443,fr4_f1).
body(r_fr4_443,fr4_q2).
body(r_fr4_443,fr8_t4).
body(r_fr4_443,fr4_v1).
body(r_fr4_443,fr4_w2).
body(r_fr4_443,fr4_z1).
head(r_fr4_444,fr4_v2).
body(r_fr4_444,fr4_a2).
body(r_fr4_444,fr4_f1).
body(r_fr4_444,fr4_f2).
body(r_fr4_444,fr4_q2).
body(r_fr4_444,fr4_x2).
body(r_fr4_444,fr4_z2).
head(r_fr4_445,fr4_v2).
body(r_fr4_445,fr4_c3).
head(r_fr4_446,fr4_v2).
body(r_fr4_446,fr4_p3).
body(r_fr4_446,fr1_v1).
body(r_fr4_446,fr4_t1).
body(r_fr4_446,fr4_w1).
head(r_fr4_447,fr4_v2).
body(r_fr4_447,fr4_a2).
body(r_fr4_447,fr1_t3).
body(r_fr4_447,fr4_c3).
body(r_fr4_447,fr4_d1).
body(r_fr4_447,fr3_d1).
body(r_fr4_447,fr4_x1).
head(r_fr4_448,fr4_v2).
body(r_fr4_448,fr4_r3).
head(r_fr4_449,fr4_v2).
body(r_fr4_449,fr4_a3).
body(r_fr4_449,fr1_w2).
body(r_fr4_449,fr4_c2).
body(r_fr4_449,fr4_c3).
body(r_fr4_449,fr3_d1).
body(r_fr4_449,fr4_e1).
head(r_fr4_450,fr4_v2).
body(r_fr4_450,fr4_p2).
body(r_fr4_450,fr4_q1).
body(r_fr4_450,fr4_r2).
body(r_fr4_450,fr4_s1).
body(r_fr4_450,fr8_t4).
body(r_fr4_450,fr4_x1).
head(r_fr4_451,fr4_v2).
body(r_fr4_451,fr4_a2).
body(r_fr4_451,fr4_r3).
head(r_fr4_452,fr4_v2).
body(r_fr4_452,fr4_a3).
body(r_fr4_452,fr4_c3).
body(r_fr4_452,fr3_d1).
body(r_fr4_452,fr4_q3).
body(r_fr4_452,fr4_s2).
head(r_fr4_453,fr4_v2).
body(r_fr4_453,fr4_a1).
body(r_fr4_453,fr4_a2).
body(r_fr4_453,fr1_w2).
body(r_fr4_453,fr4_c2).
body(r_fr4_453,fr3_d1).
head(r_fr4_454,fr4_v2).
body(r_fr4_454,fr4_b2).
body(r_fr4_454,fr1_w2).
body(r_fr4_454,fr4_c1).
body(r_fr4_454,fr4_d1).
body(r_fr4_454,fr4_e2).
head(r_fr4_455,fr4_v2).
body(r_fr4_455,fr4_p2).
body(r_fr4_455,fr4_w1).
body(r_fr4_455,fr4_w2).
head(r_fr4_456,fr4_v2).
body(r_fr4_456,fr4_r3).
body(r_fr4_456,fr4_s2).
body(r_fr4_456,fr4_u2).
body(r_fr4_456,fr4_w2).
body(r_fr4_456,fr4_y1).
head(r_fr4_457,fr4_v2).
body(r_fr4_457,fr4_d1).
body(r_fr4_457,fr4_p3).
head(r_fr4_458,fr4_v2).
body(r_fr4_458,fr4_f1).
head(r_fr4_459,fr4_v2).
body(r_fr4_459,fr1_v1).
head(r_fr4_460,fr4_v2).
body(r_fr4_460,fr4_a2).
body(r_fr4_460,fr4_b2).
body(r_fr4_460,fr4_c1).
body(r_fr4_460,fr4_f2).
head(r_fr4_461,fr4_v2).
body(r_fr4_461,fr8_t4).
head(r_fr4_462,fr4_v2).
body(r_fr4_462,fr4_c3).
body(r_fr4_462,fr4_q3).
body(r_fr4_462,fr4_y1).
head(r_fr4_463,fr4_v2).
body(r_fr4_463,fr8_t4).
body(r_fr4_463,fr4_x2).
body(r_fr4_463,fr4_z2).
head(r_fr4_464,fr4_v2).
head(r_fr4_465,fr4_v2).
body(r_fr4_465,fr1_t3).
body(r_fr4_465,fr4_q3).
body(r_fr4_465,fr4_r2).
body(r_fr4_465,fr4_s2).
body(r_fr4_465,fr4_w1).
body(r_fr4_465,fr4_z2).
head(r_fr4_466,fr4_v2).
body(r_fr4_466,fr4_c3).
body(r_fr4_466,fr4_e2).
body(r_fr4_466,fr4_f2).
head(r_fr4_467,fr4_v1).
body(r_fr4_467,fr4_u2).
body(r_fr4_467,fr4_x2).
head(r_fr4_468,fr4_v1).
body(r_fr4_468,fr4_a2).
body(r_fr4_468,fr4_c2).
body(r_fr4_468,fr4_e1).
body(r_fr4_468,fr4_r2).
head(r_fr4_469,fr4_v1).
body(r_fr4_469,fr4_c2).
body(r_fr4_469,fr4_c3).
body(r_fr4_469,fr4_e2).
head(r_fr4_470,fr4_v1).
body(r_fr4_470,fr1_t3).
body(r_fr4_470,fr1_w2).
body(r_fr4_470,fr4_e2).
body(r_fr4_470,fr4_q3).
head(r_fr4_471,fr4_v1).
body(r_fr4_471,fr4_a3).
body(r_fr4_471,fr4_t1).
head(r_fr4_472,fr4_v1).
body(r_fr4_472,fr1_w2).
body(r_fr4_472,fr4_r2).
body(r_fr4_472,fr4_t1).
body(r_fr4_472,fr4_u2).
body(r_fr4_472,fr4_w1).
body(r_fr4_472,fr4_z2).
head(r_fr4_473,fr4_v1).
body(r_fr4_473,fr1_t3).
body(r_fr4_473,fr4_c2).
body(r_fr4_473,fr4_d1).
body(r_fr4_473,fr1_v1).
body(r_fr4_473,fr4_w2).
body(r_fr4_473,fr4_x2).
head(r_fr4_474,fr4_v1).
body(r_fr4_474,fr4_p2).
head(r_fr4_475,fr4_v1).
body(r_fr4_475,fr1_v1).
head(r_fr4_476,fr4_v1).
body(r_fr4_476,fr4_r3).
body(r_fr4_476,fr8_t4).
body(r_fr4_476,fr4_w1).
body(r_fr4_476,fr4_w2).
body(r_fr4_476,fr4_x1).
body(r_fr4_476,fr4_y2).
head(r_fr4_477,fr4_v1).
body(r_fr4_477,fr4_a3).
body(r_fr4_477,fr4_p3).
body(r_fr4_477,fr4_w2).
body(r_fr4_477,fr4_x2).
body(r_fr4_477,fr4_y2).
head(r_fr4_478,fr4_v1).
body(r_fr4_478,fr4_q2).
body(r_fr4_478,fr4_s1).
body(r_fr4_478,fr8_t4).
body(r_fr4_478,fr4_u2).
head(r_fr4_479,fr4_v1).
body(r_fr4_479,fr4_t1).
body(r_fr4_479,fr4_z2).
head(r_fr4_480,fr4_v1).
body(r_fr4_480,fr3_d1).
body(r_fr4_480,fr4_e1).
body(r_fr4_480,fr4_u1).
head(r_fr4_481,fr4_v1).
body(r_fr4_481,fr1_w2).
body(r_fr4_481,fr4_p2).
body(r_fr4_481,fr4_q2).
body(r_fr4_481,fr4_w2).
body(r_fr4_481,fr4_y2).
head(r_fr4_482,fr4_v1).
body(r_fr4_482,fr4_a3).
head(r_fr4_483,fr4_v1).
body(r_fr4_483,fr1_t3).
body(r_fr4_483,fr1_w2).
body(r_fr4_483,fr4_r3).
body(r_fr4_483,fr4_z1).
head(r_fr4_484,fr4_v1).
body(r_fr4_484,fr4_a2).
body(r_fr4_484,fr4_a3).
body(r_fr4_484,fr3_d1).
body(r_fr4_484,fr4_p3).
body(r_fr4_484,fr4_r2).
body(r_fr4_484,fr4_s2).
head(r_fr4_485,fr4_v1).
body(r_fr4_485,fr4_c1).
head(r_fr4_486,fr4_v1).
body(r_fr4_486,fr4_f1).
body(r_fr4_486,fr4_q3).
body(r_fr4_486,fr4_s2).
body(r_fr4_486,fr4_t1).
body(r_fr4_486,fr8_t4).
body(r_fr4_486,fr4_z2).
head(r_fr4_487,fr4_v1).
body(r_fr4_487,fr4_a3).
body(r_fr4_487,fr4_b2).
body(r_fr4_487,fr4_c3).
body(r_fr4_487,fr4_e2).
body(r_fr4_487,fr4_u2).
head(r_fr4_488,fr4_v1).
body(r_fr4_488,fr4_c3).
head(r_fr4_489,fr4_v1).
head(r_fr4_490,fr4_v1).
body(r_fr4_490,fr1_v1).
body(r_fr4_490,fr4_x1).
body(r_fr4_490,fr4_z2).
head(r_fr4_491,fr4_v1).
body(r_fr4_491,fr4_a2).
body(r_fr4_491,fr4_c2).
body(r_fr4_491,fr4_e2).
body(r_fr4_491,fr4_f1).
head(r_fr4_492,fr4_v1).
body(r_fr4_492,fr1_t3).
body(r_fr4_492,fr4_c3).
body(r_fr4_492,fr4_d1).
body(r_fr4_492,fr4_p3).

assumption(fr5_a1).
assumption(fr5_b1).
assumption(fr5_c1).
assumption(fr5_d1).
assumption(fr5_e1).
assumption(fr5_f1).
assumption(fr5_a2).
assumption(fr5_b2).
assumption(fr5_c2).
assumption(fr5_d2).
assumption(fr5_e2).
assumption(fr5_f2).
assumption(fr6_d1).
assumption(fr5_b3).
assumption(fr5_c3).
contrary(fr5_a1,fr5_t1).
contrary(fr5_a2,fr5_z3).
contrary(fr6_d1,fr5_a1).
contrary(fr5_b1,fr5_t1).
contrary(fr5_b2,fr5_b1).
contrary(fr5_b3,fr5_z2).
contrary(fr5_c1,fr5_y1).
contrary(fr5_c2,fr5_q2).
contrary(fr5_c3,fr5_t3).
contrary(fr5_d1,fr5_t1).
contrary(fr5_d2,fr5_r2).
contrary(fr5_e1,fr5_t1).
contrary(fr5_e2,fr5_t1).
contrary(fr5_f1,fr5_p4).
contrary(fr5_f2,fr5_c3).
head(r_fr5_0,fr5_z2).
body(r_fr5_0,fr6_d1).
body(r_fr5_0,fr5_b3).
body(r_fr5_0,fr5_c3).
body(r_fr5_0,fr5_e2).
body(r_fr5_0,fr5_p1).
body(r_fr5_0,fr5_p2).
body(r_fr5_0,fr5_p3).
body(r_fr5_0,fr5_p4).
body(r_fr5_0,fr5_r1).
body(r_fr5_0,fr5_r2).
body(r_fr5_0,fr5_s1).
body(r_fr5_0,fr5_s3).
body(r_fr5_0,fr5_t1).
body(r_fr5_0,fr5_t2).
body(r_fr5_0,fr5_t3).
body(r_fr5_0,fr10_z1).
body(r_fr5_0,fr5_u3).
body(r_fr5_0,fr5_v1).
body(r_fr5_0,fr5_v2).
body(r_fr5_0,fr5_v3).
body(r_fr5_0,fr5_w3).
body(r_fr5_0,fr5_x3).
body(r_fr5_0,fr5_z1).
body(r_fr5_0,fr5_z3).
head(r_fr5_1,fr5_z2).
body(r_fr5_1,fr5_a2).
body(r_fr5_1,fr6_d1).
body(r_fr5_1,fr5_c2).
body(r_fr5_1,fr5_e2).
body(r_fr5_1,fr5_p1).
body(r_fr5_1,fr5_p2).
body(r_fr5_1,fr5_q1).
body(r_fr5_1,fr5_q3).
body(r_fr5_1,fr5_r2).
body(r_fr5_1,fr5_s1).
body(r_fr5_1,fr5_s2).
body(r_fr5_1,fr5_t2).
body(r_fr5_1,fr5_u3).
body(r_fr5_1,fr5_v2).
body(r_fr5_1,fr5_v3).
body(r_fr5_1,fr5_w1).
body(r_fr5_1,fr5_w3).
body(r_fr5_1,fr2_w4).
body(r_fr5_1,fr5_x2).
body(r_fr5_1,fr5_x3).
body(r_fr5_1,fr5_y1).
body(r_fr5_1,fr5_y2).
body(r_fr5_1,fr5_z1).
body(r_fr5_1,fr5_z3).
head(r_fr5_2,fr5_z2).
body(r_fr5_2,fr5_a2).
body(r_fr5_2,fr5_b3).
body(r_fr5_2,fr5_c3).
body(r_fr5_2,fr5_e2).
body(r_fr5_2,fr5_p1).
body(r_fr5_2,fr5_p2).
body(r_fr5_2,fr5_q2).
body(r_fr5_2,fr5_q3).
body(r_fr5_2,fr5_r1).
body(r_fr5_2,fr10_a3).
body(r_fr5_2,fr5_s1).
body(r_fr5_2,fr5_s2).
body(r_fr5_2,fr5_t2).
body(r_fr5_2,fr5_t3).
body(r_fr5_2,fr10_z1).
body(r_fr5_2,fr5_v2).
body(r_fr5_2,fr5_v3).
body(r_fr5_2,fr5_w1).
body(r_fr5_2,fr3_d1).
body(r_fr5_2,fr5_x2).
body(r_fr5_2,fr5_y2).
body(r_fr5_2,fr3_q4).
body(r_fr5_2,fr5_z3).
head(r_fr5_3,fr5_z2).
body(r_fr5_3,fr6_d1).
body(r_fr5_3,fr5_b1).
body(r_fr5_3,fr5_c2).
body(r_fr5_3,fr5_d2).
body(r_fr5_3,fr5_e1).
body(r_fr5_3,fr5_e2).
body(r_fr5_3,fr5_p1).
body(r_fr5_3,fr5_p2).
body(r_fr5_3,fr5_q1).
body(r_fr5_3,fr5_q2).
body(r_fr5_3,fr5_s1).
body(r_fr5_3,fr5_t1).
body(r_fr5_3,fr10_z1).
body(r_fr5_3,fr5_u2).
body(r_fr5_3,fr5_u3).
body(r_fr5_3,fr5_v1).
body(r_fr5_3,fr5_v3).
body(r_fr5_3,fr5_w1).
body(r_fr5_3,fr5_w3).
body(r_fr5_3,fr2_w4).
body(r_fr5_3,fr5_x3).
body(r_fr5_3,fr5_y1).
body(r_fr5_3,fr5_z1).
body(r_fr5_3,fr5_z3).
head(r_fr5_4,fr5_z2).
body(r_fr5_4,fr5_f2).
body(r_fr5_4,fr5_p1).
body(r_fr5_4,fr5_p3).
body(r_fr5_4,fr5_q1).
body(r_fr5_4,fr5_q2).
body(r_fr5_4,fr5_q3).
body(r_fr5_4,fr5_q4).
body(r_fr5_4,fr5_r1).
body(r_fr5_4,fr5_r2).
body(r_fr5_4,fr5_s1).
body(r_fr5_4,fr5_s2).
body(r_fr5_4,fr5_s3).
body(r_fr5_4,fr5_t3).
body(r_fr5_4,fr10_z1).
body(r_fr5_4,fr5_u2).
body(r_fr5_4,fr5_u3).
body(r_fr5_4,fr5_v1).
body(r_fr5_4,fr5_v2).
body(r_fr5_4,fr5_w1).
body(r_fr5_4,fr3_d1).
body(r_fr5_4,fr5_w3).
body(r_fr5_4,fr5_x2).
body(r_fr5_4,fr5_x3).
head(r_fr5_5,fr3_d1).
body(r_fr5_5,fr5_a2).
body(r_fr5_5,fr5_c3).
body(r_fr5_5,fr5_d1).
body(r_fr5_5,fr5_e2).
body(r_fr5_5,fr5_p1).
body(r_fr5_5,fr5_p2).
body(r_fr5_5,fr5_p4).
body(r_fr5_5,fr5_q2).
body(r_fr5_5,fr5_q3).
body(r_fr5_5,fr5_q4).
body(r_fr5_5,fr5_r1).
body(r_fr5_5,fr5_r2).
body(r_fr5_5,fr5_s1).
body(r_fr5_5,fr5_s2).
body(r_fr5_5,fr5_t1).
body(r_fr5_5,fr5_t3).
body(r_fr5_5,fr10_z1).
body(r_fr5_5,fr5_v1).
body(r_fr5_5,fr5_v2).
body(r_fr5_5,fr5_w1).
body(r_fr5_5,fr5_w3).
body(r_fr5_5,fr5_x2).
body(r_fr5_5,fr5_y1).
body(r_fr5_5,fr5_y2).
head(r_fr5_6,fr3_d1).
body(r_fr5_6,fr5_a2).
body(r_fr5_6,fr5_b1).
body(r_fr5_6,fr5_c2).
body(r_fr5_6,fr5_c3).
body(r_fr5_6,fr5_d2).
body(r_fr5_6,fr5_e2).
body(r_fr5_6,fr5_p1).
body(r_fr5_6,fr5_p2).
body(r_fr5_6,fr5_p4).
body(r_fr5_6,fr5_q4).
body(r_fr5_6,fr5_r2).
body(r_fr5_6,fr5_s2).
body(r_fr5_6,fr5_s3).
body(r_fr5_6,fr5_t1).
body(r_fr5_6,fr5_t2).
body(r_fr5_6,fr10_z1).
body(r_fr5_6,fr5_u2).
body(r_fr5_6,fr5_v1).
body(r_fr5_6,fr5_v3).
body(r_fr5_6,fr2_w4).
body(r_fr5_6,fr5_x2).
body(r_fr5_6,fr5_y1).
head(r_fr5_7,fr3_d1).
body(r_fr5_7,fr5_a2).
body(r_fr5_7,fr5_b2).
body(r_fr5_7,fr5_c2).
body(r_fr5_7,fr5_p2).
body(r_fr5_7,fr5_p4).
body(r_fr5_7,fr5_q1).
body(r_fr5_7,fr5_q2).
body(r_fr5_7,fr5_r1).
body(r_fr5_7,fr5_r2).
body(r_fr5_7,fr5_s2).
body(r_fr5_7,fr5_s3).
body(r_fr5_7,fr5_t3).
body(r_fr5_7,fr10_z1).
body(r_fr5_7,fr5_u3).
body(r_fr5_7,fr5_v2).
body(r_fr5_7,fr5_v3).
body(r_fr5_7,fr5_w1).
body(r_fr5_7,fr2_w4).
body(r_fr5_7,fr5_x2).
body(r_fr5_7,fr5_x3).
body(r_fr5_7,fr5_y1).
body(r_fr5_7,fr3_q4).
body(r_fr5_7,fr5_z1).
body(r_fr5_7,fr5_z3).
head(r_fr5_8,fr5_p4).
body(r_fr5_8,fr5_c2).
body(r_fr5_8,fr5_e1).
body(r_fr5_8,fr5_f2).
body(r_fr5_8,fr5_p1).
body(r_fr5_8,fr5_q1).
body(r_fr5_8,fr5_q2).
body(r_fr5_8,fr5_q4).
body(r_fr5_8,fr5_r1).
body(r_fr5_8,fr10_a3).
body(r_fr5_8,fr5_s2).
body(r_fr5_8,fr5_s3).
body(r_fr5_8,fr5_t1).
body(r_fr5_8,fr5_t2).
body(r_fr5_8,fr5_t3).
body(r_fr5_8,fr10_z1).
body(r_fr5_8,fr5_v2).
body(r_fr5_8,fr5_w1).
body(r_fr5_8,fr5_w3).
body(r_fr5_8,fr2_w4).
body(r_fr5_8,fr5_x3).
body(r_fr5_8,fr5_y1).
body(r_fr5_8,fr3_q4).
body(r_fr5_8,fr5_z3).
head(r_fr5_9,fr5_p4).
body(r_fr5_9,fr5_b2).
body(r_fr5_9,fr5_c2).
body(r_fr5_9,fr5_p1).
body(r_fr5_9,fr5_p2).
body(r_fr5_9,fr5_q1).
body(r_fr5_9,fr5_q2).
body(r_fr5_9,fr5_q3).
body(r_fr5_9,fr5_q4).
body(r_fr5_9,fr10_a3).
body(r_fr5_9,fr5_s1).
body(r_fr5_9,fr5_s2).
body(r_fr5_9,fr5_s3).
body(r_fr5_9,fr5_t2).
body(r_fr5_9,fr5_t3).
body(r_fr5_9,fr5_u3).
body(r_fr5_9,fr5_v2).
body(r_fr5_9,fr5_v3).
body(r_fr5_9,fr5_w3).
body(r_fr5_9,fr2_w4).
body(r_fr5_9,fr5_y1).
body(r_fr5_9,fr5_y2).
body(r_fr5_9,fr3_q4).
body(r_fr5_9,fr5_z3).
head(r_fr5_10,fr5_p4).
body(r_fr5_10,fr5_c2).
body(r_fr5_10,fr5_c3).
body(r_fr5_10,fr5_q1).
body(r_fr5_10,fr5_q2).
body(r_fr5_10,fr5_q4).
body(r_fr5_10,fr5_r2).
body(r_fr5_10,fr5_s1).
body(r_fr5_10,fr5_s2).
body(r_fr5_10,fr5_s3).
body(r_fr5_10,fr5_t1).
body(r_fr5_10,fr5_t2).
body(r_fr5_10,fr5_v1).
body(r_fr5_10,fr5_v2).
body(r_fr5_10,fr5_v3).
body(r_fr5_10,fr5_w1).
body(r_fr5_10,fr5_w3).
body(r_fr5_10,fr2_w4).
body(r_fr5_10,fr5_x2).
body(r_fr5_10,fr5_x3).
body(r_fr5_10,fr5_y1).
body(r_fr5_10,fr5_y2).
body(r_fr5_10,fr3_q4).
body(r_fr5_10,fr5_z1).
body(r_fr5_10,fr5_z3).
head(r_fr5_11,fr5_y1).
body(r_fr5_11,fr6_d1).
body(r_fr5_11,fr5_b3).
body(r_fr5_11,fr5_d1).
body(r_fr5_11,fr5_e2).
body(r_fr5_11,fr5_p1).
body(r_fr5_11,fr5_p3).
body(r_fr5_11,fr5_q1).
body(r_fr5_11,fr5_q2).
body(r_fr5_11,fr5_q3).
body(r_fr5_11,fr5_q4).
body(r_fr5_11,fr10_a3).
body(r_fr5_11,fr5_s1).
body(r_fr5_11,fr5_s3).
body(r_fr5_11,fr5_t3).
body(r_fr5_11,fr5_u3).
body(r_fr5_11,fr5_v2).
body(r_fr5_11,fr5_v3).
body(r_fr5_11,fr5_w1).
body(r_fr5_11,fr5_w3).
body(r_fr5_11,fr5_x2).
body(r_fr5_11,fr3_q4).
body(r_fr5_11,fr5_z1).
head(r_fr5_12,fr5_y1).
body(r_fr5_12,fr5_b2).
body(r_fr5_12,fr5_e1).
body(r_fr5_12,fr5_e2).
body(r_fr5_12,fr5_f2).
body(r_fr5_12,fr5_p3).
body(r_fr5_12,fr5_r1).
body(r_fr5_12,fr5_r2).
body(r_fr5_12,fr5_s3).
body(r_fr5_12,fr5_t1).
body(r_fr5_12,fr5_t2).
body(r_fr5_12,fr5_t3).
body(r_fr5_12,fr10_z1).
body(r_fr5_12,fr5_u2).
body(r_fr5_12,fr5_u3).
body(r_fr5_12,fr5_v1).
body(r_fr5_12,fr5_v3).
body(r_fr5_12,fr5_w3).
body(r_fr5_12,fr5_x3).
body(r_fr5_12,fr5_y2).
body(r_fr5_12,fr3_q4).
body(r_fr5_12,fr5_z3).
head(r_fr5_13,fr5_p3).
body(r_fr5_13,fr5_a2).
body(r_fr5_13,fr5_b2).
body(r_fr5_13,fr5_d2).
body(r_fr5_13,fr5_f1).
body(r_fr5_13,fr5_p2).
body(r_fr5_13,fr5_q1).
body(r_fr5_13,fr5_q2).
body(r_fr5_13,fr5_q4).
body(r_fr5_13,fr5_s1).
body(r_fr5_13,fr5_s3).
body(r_fr5_13,fr5_t1).
body(r_fr5_13,fr5_t2).
body(r_fr5_13,fr5_t3).
body(r_fr5_13,fr10_z1).
body(r_fr5_13,fr5_v1).
body(r_fr5_13,fr5_v2).
body(r_fr5_13,fr5_v3).
body(r_fr5_13,fr5_w1).
body(r_fr5_13,fr5_w3).
body(r_fr5_13,fr2_w4).
body(r_fr5_13,fr5_x2).
body(r_fr5_13,fr5_y2).
body(r_fr5_13,fr3_q4).
head(r_fr5_14,fr5_p3).
body(r_fr5_14,fr5_e1).
body(r_fr5_14,fr5_p2).
body(r_fr5_14,fr5_q1).
body(r_fr5_14,fr5_q3).
body(r_fr5_14,fr5_q4).
body(r_fr5_14,fr5_r1).
body(r_fr5_14,fr10_a3).
body(r_fr5_14,fr5_s1).
body(r_fr5_14,fr5_t1).
body(r_fr5_14,fr5_t3).
body(r_fr5_14,fr5_u2).
body(r_fr5_14,fr5_v1).
body(r_fr5_14,fr5_v2).
body(r_fr5_14,fr5_v3).
body(r_fr5_14,fr5_w1).
body(r_fr5_14,fr5_w3).
body(r_fr5_14,fr2_w4).
body(r_fr5_14,fr5_x2).
body(r_fr5_14,fr5_x3).
body(r_fr5_14,fr5_y2).
body(r_fr5_14,fr5_z1).
body(r_fr5_14,fr5_z3).
head(r_fr5_15,fr5_p3).
body(r_fr5_15,fr5_c1).
body(r_fr5_15,fr5_c3).
body(r_fr5_15,fr5_d2).
body(r_fr5_15,fr5_e1).
body(r_fr5_15,fr5_f2).
body(r_fr5_15,fr5_p1).
body(r_fr5_15,fr5_p2).
body(r_fr5_15,fr5_q1).
body(r_fr5_15,fr5_q2).
body(r_fr5_15,fr5_r1).
body(r_fr5_15,fr5_s3).
body(r_fr5_15,fr5_t1).
body(r_fr5_15,fr5_t2).
body(r_fr5_15,fr5_t3).
body(r_fr5_15,fr10_z1).
body(r_fr5_15,fr5_v1).
body(r_fr5_15,fr5_v2).
body(r_fr5_15,fr5_w1).
body(r_fr5_15,fr5_x2).
body(r_fr5_15,fr3_q4).
body(r_fr5_15,fr5_z3).
head(r_fr5_16,fr5_s1).
body(r_fr5_16,fr6_d1).
body(r_fr5_16,fr5_p1).
body(r_fr5_16,fr5_p2).
body(r_fr5_16,fr5_q2).
body(r_fr5_16,fr5_q3).
body(r_fr5_16,fr5_q4).
body(r_fr5_16,fr5_r1).
body(r_fr5_16,fr10_a3).
body(r_fr5_16,fr5_s3).
body(r_fr5_16,fr5_t3).
body(r_fr5_16,fr10_z1).
body(r_fr5_16,fr5_v2).
body(r_fr5_16,fr5_v3).
body(r_fr5_16,fr5_w1).
body(r_fr5_16,fr5_w3).
body(r_fr5_16,fr2_w4).
body(r_fr5_16,fr5_x2).
body(r_fr5_16,fr5_x3).
body(r_fr5_16,fr3_q4).
body(r_fr5_16,fr5_z1).
body(r_fr5_16,fr5_z3).
head(r_fr5_17,fr5_s1).
body(r_fr5_17,fr5_b3).
body(r_fr5_17,fr5_c3).
body(r_fr5_17,fr5_d2).
body(r_fr5_17,fr5_e2).
body(r_fr5_17,fr5_p1).
body(r_fr5_17,fr5_p2).
body(r_fr5_17,fr5_q2).
body(r_fr5_17,fr5_q3).
body(r_fr5_17,fr5_q4).
body(r_fr5_17,fr5_r1).
body(r_fr5_17,fr5_r2).
body(r_fr5_17,fr10_a3).
body(r_fr5_17,fr5_s2).
body(r_fr5_17,fr5_t1).
body(r_fr5_17,fr5_t2).
body(r_fr5_17,fr5_t3).
body(r_fr5_17,fr10_z1).
body(r_fr5_17,fr5_u3).
body(r_fr5_17,fr5_v1).
body(r_fr5_17,fr2_w4).
body(r_fr5_17,fr5_x2).
body(r_fr5_17,fr3_q4).
body(r_fr5_17,fr5_z1).
head(r_fr5_18,fr5_s1).
body(r_fr5_18,fr5_a1).
body(r_fr5_18,fr5_d1).
body(r_fr5_18,fr5_d2).
body(r_fr5_18,fr5_e1).
body(r_fr5_18,fr5_e2).
body(r_fr5_18,fr5_f1).
body(r_fr5_18,fr5_p1).
body(r_fr5_18,fr5_q1).
body(r_fr5_18,fr5_q4).
body(r_fr5_18,fr5_r1).
body(r_fr5_18,fr10_a3).
body(r_fr5_18,fr5_s2).
body(r_fr5_18,fr10_z1).
body(r_fr5_18,fr5_u3).
body(r_fr5_18,fr5_v3).
body(r_fr5_18,fr5_w3).
body(r_fr5_18,fr2_w4).
body(r_fr5_18,fr5_x3).
body(r_fr5_18,fr5_y2).
body(r_fr5_18,fr3_q4).
body(r_fr5_18,fr5_z1).
body(r_fr5_18,fr5_z3).
head(r_fr5_19,fr5_s1).
body(r_fr5_19,fr5_a1).
body(r_fr5_19,fr6_d1).
body(r_fr5_19,fr5_b1).
body(r_fr5_19,fr5_b2).
body(r_fr5_19,fr5_b3).
body(r_fr5_19,fr5_c3).
body(r_fr5_19,fr5_p1).
body(r_fr5_19,fr5_p2).
body(r_fr5_19,fr5_q1).
body(r_fr5_19,fr5_r2).
body(r_fr5_19,fr10_a3).
body(r_fr5_19,fr5_s2).
body(r_fr5_19,fr5_t2).
body(r_fr5_19,fr5_t3).
body(r_fr5_19,fr5_u3).
body(r_fr5_19,fr5_v1).
body(r_fr5_19,fr5_v2).
body(r_fr5_19,fr5_v3).
body(r_fr5_19,fr5_w1).
body(r_fr5_19,fr5_x2).
body(r_fr5_19,fr5_y2).
body(r_fr5_19,fr3_q4).
body(r_fr5_19,fr5_z3).
head(r_fr5_20,fr5_s1).
body(r_fr5_20,fr5_a1).
body(r_fr5_20,fr6_d1).
body(r_fr5_20,fr5_c3).
body(r_fr5_20,fr5_d1).
body(r_fr5_20,fr5_f1).
body(r_fr5_20,fr5_p1).
body(r_fr5_20,fr5_p2).
body(r_fr5_20,fr5_q1).
body(r_fr5_20,fr5_q2).
body(r_fr5_20,fr5_q4).
body(r_fr5_20,fr5_s2).
body(r_fr5_20,fr5_t1).
body(r_fr5_20,fr5_t2).
body(r_fr5_20,fr5_u2).
body(r_fr5_20,fr5_u3).
body(r_fr5_20,fr5_v1).
body(r_fr5_20,fr5_v2).
body(r_fr5_20,fr5_v3).
body(r_fr5_20,fr5_w1).
body(r_fr5_20,fr2_w4).
body(r_fr5_20,fr5_x3).
body(r_fr5_20,fr5_y2).
body(r_fr5_20,fr3_q4).
body(r_fr5_20,fr5_z1).
head(r_fr5_21,fr5_u3).
body(r_fr5_21,fr5_a1).
body(r_fr5_21,fr5_b1).
body(r_fr5_21,fr5_b3).
body(r_fr5_21,fr5_d1).
body(r_fr5_21,fr5_f2).
body(r_fr5_21,fr5_p2).
body(r_fr5_21,fr5_q1).
body(r_fr5_21,fr5_q2).
body(r_fr5_21,fr5_q4).
body(r_fr5_21,fr5_r2).
body(r_fr5_21,fr10_a3).
body(r_fr5_21,fr5_t1).
body(r_fr5_21,fr5_t2).
body(r_fr5_21,fr5_t3).
body(r_fr5_21,fr10_z1).
body(r_fr5_21,fr5_u2).
body(r_fr5_21,fr5_v2).
body(r_fr5_21,fr5_w1).
body(r_fr5_21,fr5_w3).
body(r_fr5_21,fr2_w4).
body(r_fr5_21,fr5_x3).
body(r_fr5_21,fr5_y2).
body(r_fr5_21,fr3_q4).
body(r_fr5_21,fr5_z1).
head(r_fr5_22,fr5_u3).
body(r_fr5_22,fr5_a1).
body(r_fr5_22,fr5_c1).
body(r_fr5_22,fr5_c3).
body(r_fr5_22,fr5_d1).
body(r_fr5_22,fr5_q1).
body(r_fr5_22,fr5_q2).
body(r_fr5_22,fr5_q3).
body(r_fr5_22,fr5_q4).
body(r_fr5_22,fr5_r1).
body(r_fr5_22,fr5_r2).
body(r_fr5_22,fr10_a3).
body(r_fr5_22,fr5_s2).
body(r_fr5_22,fr5_s3).
body(r_fr5_22,fr5_t1).
body(r_fr5_22,fr5_t2).
body(r_fr5_22,fr10_z1).
body(r_fr5_22,fr5_u2).
body(r_fr5_22,fr5_v1).
body(r_fr5_22,fr5_v2).
body(r_fr5_22,fr5_v3).
body(r_fr5_22,fr5_w1).
body(r_fr5_22,fr5_w3).
body(r_fr5_22,fr5_y2).
body(r_fr5_22,fr5_z1).
head(r_fr5_23,fr5_u3).
body(r_fr5_23,fr5_a2).
body(r_fr5_23,fr5_b1).
body(r_fr5_23,fr5_d1).
body(r_fr5_23,fr5_f1).
body(r_fr5_23,fr5_f2).
body(r_fr5_23,fr5_p1).
body(r_fr5_23,fr5_p2).
body(r_fr5_23,fr5_q4).
body(r_fr5_23,fr5_r1).
body(r_fr5_23,fr10_a3).
body(r_fr5_23,fr5_s2).
body(r_fr5_23,fr5_s3).
body(r_fr5_23,fr5_t1).
body(r_fr5_23,fr5_t2).
body(r_fr5_23,fr5_t3).
body(r_fr5_23,fr5_v1).
body(r_fr5_23,fr5_v3).
body(r_fr5_23,fr2_w4).
body(r_fr5_23,fr5_x3).
body(r_fr5_23,fr3_q4).
body(r_fr5_23,fr5_z1).
body(r_fr5_23,fr5_z3).
head(r_fr5_24,fr5_u3).
body(r_fr5_24,fr5_c3).
body(r_fr5_24,fr5_d1).
body(r_fr5_24,fr5_p2).
body(r_fr5_24,fr5_q1).
body(r_fr5_24,fr5_q2).
body(r_fr5_24,fr5_q3).
body(r_fr5_24,fr5_r1).
body(r_fr5_24,fr10_a3).
body(r_fr5_24,fr5_s2).
body(r_fr5_24,fr5_s3).
body(r_fr5_24,fr5_t2).
body(r_fr5_24,fr10_z1).
body(r_fr5_24,fr5_u2).
body(r_fr5_24,fr5_v1).
body(r_fr5_24,fr5_v2).
body(r_fr5_24,fr5_v3).
body(r_fr5_24,fr5_w1).
body(r_fr5_24,fr5_w3).
body(r_fr5_24,fr2_w4).
body(r_fr5_24,fr5_x2).
body(r_fr5_24,fr5_y2).
body(r_fr5_24,fr3_q4).
body(r_fr5_24,fr5_z1).
head(r_fr5_25,fr5_x2).
body(r_fr5_25,fr5_c1).
body(r_fr5_25,fr5_p1).
body(r_fr5_25,fr5_p2).
body(r_fr5_25,fr5_q1).
body(r_fr5_25,fr5_q2).
body(r_fr5_25,fr5_q3).
body(r_fr5_25,fr5_q4).
body(r_fr5_25,fr5_r2).
body(r_fr5_25,fr10_a3).
body(r_fr5_25,fr5_s2).
body(r_fr5_25,fr5_s3).
body(r_fr5_25,fr5_t1).
body(r_fr5_25,fr5_t2).
body(r_fr5_25,fr5_t3).
body(r_fr5_25,fr10_z1).
body(r_fr5_25,fr5_u2).
body(r_fr5_25,fr5_v3).
body(r_fr5_25,fr5_w1).
body(r_fr5_25,fr5_w3).
body(r_fr5_25,fr2_w4).
body(r_fr5_25,fr5_x3).
body(r_fr5_25,fr5_y2).
body(r_fr5_25,fr5_z1).
body(r_fr5_25,fr5_z3).
head(r_fr5_26,fr5_x2).
body(r_fr5_26,fr5_c1).
body(r_fr5_26,fr5_d1).
body(r_fr5_26,fr5_p1).
body(r_fr5_26,fr5_p2).
body(r_fr5_26,fr5_q1).
body(r_fr5_26,fr5_q2).
body(r_fr5_26,fr5_r1).
body(r_fr5_26,fr5_r2).
body(r_fr5_26,fr10_a3).
body(r_fr5_26,fr5_s2).
body(r_fr5_26,fr5_s3).
body(r_fr5_26,fr5_t1).
body(r_fr5_26,fr5_t3).
body(r_fr5_26,fr10_z1).
body(r_fr5_26,fr5_v1).
body(r_fr5_26,fr5_v2).
body(r_fr5_26,fr5_v3).
body(r_fr5_26,fr5_w3).
body(r_fr5_26,fr2_w4).
body(r_fr5_26,fr3_q4).
body(r_fr5_26,fr5_z1).
body(r_fr5_26,fr5_z3).
head(r_fr5_27,fr5_z1).
body(r_fr5_27,fr5_a1).
body(r_fr5_27,fr6_d1).
body(r_fr5_27,fr5_c3).
body(r_fr5_27,fr5_p1).
body(r_fr5_27,fr5_p2).
body(r_fr5_27,fr5_q1).
body(r_fr5_27,fr5_q3).
body(r_fr5_27,fr5_q4).
body(r_fr5_27,fr5_r1).
body(r_fr5_27,fr5_r2).
body(r_fr5_27,fr10_a3).
body(r_fr5_27,fr5_s2).
body(r_fr5_27,fr5_s3).
body(r_fr5_27,fr5_t1).
body(r_fr5_27,fr5_t2).
body(r_fr5_27,fr5_t3).
body(r_fr5_27,fr5_v1).
body(r_fr5_27,fr5_v2).
body(r_fr5_27,fr5_w1).
body(r_fr5_27,fr5_w3).
body(r_fr5_27,fr2_w4).
body(r_fr5_27,fr5_x3).
body(r_fr5_27,fr3_q4).
body(r_fr5_27,fr5_z3).
head(r_fr5_28,fr5_z1).
body(r_fr5_28,fr5_a1).
body(r_fr5_28,fr5_a2).
body(r_fr5_28,fr5_c1).
body(r_fr5_28,fr5_e1).
body(r_fr5_28,fr5_e2).
body(r_fr5_28,fr5_p2).
body(r_fr5_28,fr5_q1).
body(r_fr5_28,fr5_q3).
body(r_fr5_28,fr5_q4).
body(r_fr5_28,fr5_r1).
body(r_fr5_28,fr5_r2).
body(r_fr5_28,fr5_t2).
body(r_fr5_28,fr5_t3).
body(r_fr5_28,fr10_z1).
body(r_fr5_28,fr5_u2).
body(r_fr5_28,fr5_v1).
body(r_fr5_28,fr5_v2).
body(r_fr5_28,fr5_w1).
body(r_fr5_28,fr2_w4).
body(r_fr5_28,fr3_q4).
body(r_fr5_28,fr5_z3).
head(r_fr5_29,fr5_z1).
body(r_fr5_29,fr5_a1).
body(r_fr5_29,fr5_a2).
body(r_fr5_29,fr5_b2).
body(r_fr5_29,fr5_c2).
body(r_fr5_29,fr5_p1).
body(r_fr5_29,fr5_p2).
body(r_fr5_29,fr5_q2).
body(r_fr5_29,fr5_q4).
body(r_fr5_29,fr5_r2).
body(r_fr5_29,fr10_a3).
body(r_fr5_29,fr5_s3).
body(r_fr5_29,fr5_t1).
body(r_fr5_29,fr5_t2).
body(r_fr5_29,fr5_t3).
body(r_fr5_29,fr10_z1).
body(r_fr5_29,fr5_u2).
body(r_fr5_29,fr5_v1).
body(r_fr5_29,fr5_v2).
body(r_fr5_29,fr5_w1).
body(r_fr5_29,fr5_w3).
body(r_fr5_29,fr2_w4).
body(r_fr5_29,fr5_y2).
body(r_fr5_29,fr3_q4).
head(r_fr5_30,fr5_z1).
body(r_fr5_30,fr5_p1).
body(r_fr5_30,fr5_p2).
body(r_fr5_30,fr5_q2).
body(r_fr5_30,fr5_q3).
body(r_fr5_30,fr5_q4).
body(r_fr5_30,fr5_r1).
body(r_fr5_30,fr5_r2).
body(r_fr5_30,fr10_a3).
body(r_fr5_30,fr5_s2).
body(r_fr5_30,fr5_s3).
body(r_fr5_30,fr5_t1).
body(r_fr5_30,fr5_t2).
body(r_fr5_30,fr5_t3).
body(r_fr5_30,fr10_z1).
body(r_fr5_30,fr5_v1).
body(r_fr5_30,fr5_v2).
body(r_fr5_30,fr5_v3).
body(r_fr5_30,fr5_w1).
body(r_fr5_30,fr5_w3).
body(r_fr5_30,fr2_w4).
body(r_fr5_30,fr5_x3).
body(r_fr5_30,fr5_y2).
body(r_fr5_30,fr3_q4).
head(r_fr5_31,fr5_q2).
body(r_fr5_31,fr5_p1).
body(r_fr5_31,fr5_p2).
body(r_fr5_31,fr5_q1).
body(r_fr5_31,fr5_q3).
body(r_fr5_31,fr5_q4).
body(r_fr5_31,fr5_r1).
body(r_fr5_31,fr5_r2).
body(r_fr5_31,fr10_a3).
body(r_fr5_31,fr5_s2).
body(r_fr5_31,fr5_t1).
body(r_fr5_31,fr5_t2).
body(r_fr5_31,fr5_t3).
body(r_fr5_31,fr10_z1).
body(r_fr5_31,fr5_u2).
body(r_fr5_31,fr5_v1).
body(r_fr5_31,fr5_v2).
body(r_fr5_31,fr5_v3).
body(r_fr5_31,fr5_w1).
body(r_fr5_31,fr5_w3).
body(r_fr5_31,fr2_w4).
body(r_fr5_31,fr5_x3).
body(r_fr5_31,fr5_y2).
body(r_fr5_31,fr3_q4).
body(r_fr5_31,fr5_z3).
head(r_fr5_32,fr5_q2).
body(r_fr5_32,fr6_d1).
body(r_fr5_32,fr5_b1).
body(r_fr5_32,fr5_b2).
body(r_fr5_32,fr5_d1).
body(r_fr5_32,fr5_e2).
body(r_fr5_32,fr5_f1).
body(r_fr5_32,fr5_p1).
body(r_fr5_32,fr5_p2).
body(r_fr5_32,fr5_q4).
body(r_fr5_32,fr5_r2).
body(r_fr5_32,fr5_s2).
body(r_fr5_32,fr5_s3).
body(r_fr5_32,fr5_t2).
body(r_fr5_32,fr10_z1).
body(r_fr5_32,fr5_v1).
body(r_fr5_32,fr5_w1).
body(r_fr5_32,fr5_w3).
body(r_fr5_32,fr2_w4).
body(r_fr5_32,fr5_x3).
body(r_fr5_32,fr5_y2).
body(r_fr5_32,fr5_z3).
head(r_fr5_33,fr5_q2).
body(r_fr5_33,fr5_c3).
body(r_fr5_33,fr5_e1).
body(r_fr5_33,fr5_f2).
body(r_fr5_33,fr5_q1).
body(r_fr5_33,fr5_q3).
body(r_fr5_33,fr5_q4).
body(r_fr5_33,fr5_r1).
body(r_fr5_33,fr5_r2).
body(r_fr5_33,fr10_a3).
body(r_fr5_33,fr5_s2).
body(r_fr5_33,fr5_t1).
body(r_fr5_33,fr5_t3).
body(r_fr5_33,fr10_z1).
body(r_fr5_33,fr5_u2).
body(r_fr5_33,fr5_v1).
body(r_fr5_33,fr5_v2).
body(r_fr5_33,fr5_w3).
body(r_fr5_33,fr2_w4).
body(r_fr5_33,fr5_x3).
body(r_fr5_33,fr5_y2).
body(r_fr5_33,fr3_q4).
body(r_fr5_33,fr5_z3).
head(r_fr5_34,fr5_q2).
body(r_fr5_34,fr5_b2).
body(r_fr5_34,fr5_c1).
body(r_fr5_34,fr5_c2).
body(r_fr5_34,fr5_d1).
body(r_fr5_34,fr5_p1).
body(r_fr5_34,fr5_q1).
body(r_fr5_34,fr5_q3).
body(r_fr5_34,fr5_q4).
body(r_fr5_34,fr5_r1).
body(r_fr5_34,fr5_r2).
body(r_fr5_34,fr5_s2).
body(r_fr5_34,fr5_s3).
body(r_fr5_34,fr5_t2).
body(r_fr5_34,fr5_t3).
body(r_fr5_34,fr10_z1).
body(r_fr5_34,fr5_u2).
body(r_fr5_34,fr5_v3).
body(r_fr5_34,fr5_w1).
body(r_fr5_34,fr5_w3).
body(r_fr5_34,fr2_w4).
body(r_fr5_34,fr5_x3).
body(r_fr5_34,fr5_y2).
body(r_fr5_34,fr3_q4).
body(r_fr5_34,fr5_z3).
head(r_fr5_35,fr5_q1).
body(r_fr5_35,fr5_a1).
body(r_fr5_35,fr5_b2).
body(r_fr5_35,fr5_d2).
body(r_fr5_35,fr5_p1).
body(r_fr5_35,fr5_p2).
body(r_fr5_35,fr5_q3).
body(r_fr5_35,fr5_q4).
body(r_fr5_35,fr5_r2).
body(r_fr5_35,fr10_a3).
body(r_fr5_35,fr5_s2).
body(r_fr5_35,fr5_s3).
body(r_fr5_35,fr5_t1).
body(r_fr5_35,fr5_t2).
body(r_fr5_35,fr5_t3).
body(r_fr5_35,fr10_z1).
body(r_fr5_35,fr5_v1).
body(r_fr5_35,fr5_v2).
body(r_fr5_35,fr5_v3).
body(r_fr5_35,fr5_w1).
body(r_fr5_35,fr5_w3).
body(r_fr5_35,fr2_w4).
body(r_fr5_35,fr5_x3).
body(r_fr5_35,fr5_y2).
body(r_fr5_35,fr3_q4).
head(r_fr5_36,fr5_q1).
body(r_fr5_36,fr5_b1).
body(r_fr5_36,fr5_c2).
body(r_fr5_36,fr5_d2).
body(r_fr5_36,fr5_e1).
body(r_fr5_36,fr5_f2).
body(r_fr5_36,fr5_p1).
body(r_fr5_36,fr5_p2).
body(r_fr5_36,fr5_q4).
body(r_fr5_36,fr5_r1).
body(r_fr5_36,fr5_r2).
body(r_fr5_36,fr10_a3).
body(r_fr5_36,fr5_s2).
body(r_fr5_36,fr5_s3).
body(r_fr5_36,fr5_t1).
body(r_fr5_36,fr5_t2).
body(r_fr5_36,fr5_u2).
body(r_fr5_36,fr5_v1).
body(r_fr5_36,fr5_v2).
body(r_fr5_36,fr5_w3).
body(r_fr5_36,fr2_w4).
body(r_fr5_36,fr3_q4).
body(r_fr5_36,fr5_z3).
head(r_fr5_37,fr5_q1).
body(r_fr5_37,fr5_d1).
body(r_fr5_37,fr5_p2).
body(r_fr5_37,fr5_q3).
body(r_fr5_37,fr5_q4).
body(r_fr5_37,fr5_r1).
body(r_fr5_37,fr5_r2).
body(r_fr5_37,fr10_a3).
body(r_fr5_37,fr5_s2).
body(r_fr5_37,fr5_s3).
body(r_fr5_37,fr5_t1).
body(r_fr5_37,fr5_t2).
body(r_fr5_37,fr5_t3).
body(r_fr5_37,fr10_z1).
body(r_fr5_37,fr5_u2).
body(r_fr5_37,fr5_v1).
body(r_fr5_37,fr5_v2).
body(r_fr5_37,fr5_w1).
body(r_fr5_37,fr5_w3).
body(r_fr5_37,fr5_x3).
body(r_fr5_37,fr5_y2).
body(r_fr5_37,fr3_q4).
head(r_fr5_38,fr5_q3).
body(r_fr5_38,fr5_a1).
body(r_fr5_38,fr5_b3).
body(r_fr5_38,fr5_d2).
body(r_fr5_38,fr5_e2).
body(r_fr5_38,fr5_f2).
body(r_fr5_38,fr5_q4).
body(r_fr5_38,fr5_r1).
body(r_fr5_38,fr5_r2).
body(r_fr5_38,fr10_a3).
body(r_fr5_38,fr5_s2).
body(r_fr5_38,fr5_s3).
body(r_fr5_38,fr5_t1).
body(r_fr5_38,fr5_t2).
body(r_fr5_38,fr5_t3).
body(r_fr5_38,fr10_z1).
body(r_fr5_38,fr5_u2).
body(r_fr5_38,fr5_v2).
body(r_fr5_38,fr5_v3).
body(r_fr5_38,fr5_w1).
body(r_fr5_38,fr5_w3).
body(r_fr5_38,fr5_x3).
body(r_fr5_38,fr5_y2).
body(r_fr5_38,fr5_z3).
head(r_fr5_39,fr5_q3).
body(r_fr5_39,fr5_a2).
body(r_fr5_39,fr5_b1).
body(r_fr5_39,fr5_b3).
body(r_fr5_39,fr5_d2).
body(r_fr5_39,fr5_e2).
body(r_fr5_39,fr5_p1).
body(r_fr5_39,fr5_p2).
body(r_fr5_39,fr5_q4).
body(r_fr5_39,fr5_r1).
body(r_fr5_39,fr5_r2).
body(r_fr5_39,fr10_a3).
body(r_fr5_39,fr5_s3).
body(r_fr5_39,fr5_t1).
body(r_fr5_39,fr5_t2).
body(r_fr5_39,fr5_t3).
body(r_fr5_39,fr5_u2).
body(r_fr5_39,fr5_v3).
body(r_fr5_39,fr5_w1).
body(r_fr5_39,fr5_x3).
body(r_fr5_39,fr5_y2).
body(r_fr5_39,fr3_q4).
head(r_fr5_40,fr5_r2).
body(r_fr5_40,fr6_d1).
body(r_fr5_40,fr5_b1).
body(r_fr5_40,fr5_c1).
body(r_fr5_40,fr5_d1).
body(r_fr5_40,fr5_e1).
body(r_fr5_40,fr5_f2).
body(r_fr5_40,fr5_p2).
body(r_fr5_40,fr5_q4).
body(r_fr5_40,fr5_r1).
body(r_fr5_40,fr10_a3).
body(r_fr5_40,fr5_s2).
body(r_fr5_40,fr5_s3).
body(r_fr5_40,fr5_t1).
body(r_fr5_40,fr5_t2).
body(r_fr5_40,fr10_z1).
body(r_fr5_40,fr5_u2).
body(r_fr5_40,fr5_v1).
body(r_fr5_40,fr5_v2).
body(r_fr5_40,fr5_v3).
body(r_fr5_40,fr5_w3).
body(r_fr5_40,fr2_w4).
body(r_fr5_40,fr5_x3).
body(r_fr5_40,fr5_y2).
body(r_fr5_40,fr3_q4).
head(r_fr5_41,fr5_r2).
body(r_fr5_41,fr5_b3).
body(r_fr5_41,fr5_d2).
body(r_fr5_41,fr5_f1).
body(r_fr5_41,fr5_p1).
body(r_fr5_41,fr5_p2).
body(r_fr5_41,fr5_q4).
body(r_fr5_41,fr5_r1).
body(r_fr5_41,fr5_s3).
body(r_fr5_41,fr5_t1).
body(r_fr5_41,fr5_t2).
body(r_fr5_41,fr5_t3).
body(r_fr5_41,fr10_z1).
body(r_fr5_41,fr5_u2).
body(r_fr5_41,fr5_v1).
body(r_fr5_41,fr5_v2).
body(r_fr5_41,fr5_v3).
body(r_fr5_41,fr5_w3).
body(r_fr5_41,fr2_w4).
body(r_fr5_41,fr5_x3).
body(r_fr5_41,fr5_y2).
body(r_fr5_41,fr3_q4).
body(r_fr5_41,fr5_z3).
head(r_fr5_42,fr5_r2).
body(r_fr5_42,fr5_a1).
body(r_fr5_42,fr5_a2).
body(r_fr5_42,fr5_b3).
body(r_fr5_42,fr5_c1).
body(r_fr5_42,fr5_c3).
body(r_fr5_42,fr5_e1).
body(r_fr5_42,fr5_p1).
body(r_fr5_42,fr5_p2).
body(r_fr5_42,fr5_q4).
body(r_fr5_42,fr5_r1).
body(r_fr5_42,fr5_s3).
body(r_fr5_42,fr5_t2).
body(r_fr5_42,fr5_t3).
body(r_fr5_42,fr10_z1).
body(r_fr5_42,fr5_v1).
body(r_fr5_42,fr5_v2).
body(r_fr5_42,fr5_v3).
body(r_fr5_42,fr5_w1).
body(r_fr5_42,fr5_w3).
body(r_fr5_42,fr2_w4).
body(r_fr5_42,fr5_x3).
body(r_fr5_42,fr5_y2).
body(r_fr5_42,fr5_z3).
head(r_fr5_43,fr5_r2).
body(r_fr5_43,fr5_b2).
body(r_fr5_43,fr5_c3).
body(r_fr5_43,fr5_d1).
body(r_fr5_43,fr5_e2).
body(r_fr5_43,fr5_f1).
body(r_fr5_43,fr5_p1).
body(r_fr5_43,fr5_p2).
body(r_fr5_43,fr5_r1).
body(r_fr5_43,fr10_a3).
body(r_fr5_43,fr5_s3).
body(r_fr5_43,fr5_t1).
body(r_fr5_43,fr5_t2).
body(r_fr5_43,fr5_t3).
body(r_fr5_43,fr10_z1).
body(r_fr5_43,fr5_v1).
body(r_fr5_43,fr5_v2).
body(r_fr5_43,fr5_v3).
body(r_fr5_43,fr5_w3).
body(r_fr5_43,fr5_x3).
body(r_fr5_43,fr3_q4).
body(r_fr5_43,fr5_z3).
head(r_fr5_44,fr5_r2).
body(r_fr5_44,fr6_d1).
body(r_fr5_44,fr5_c1).
body(r_fr5_44,fr5_c3).
body(r_fr5_44,fr5_p1).
body(r_fr5_44,fr5_p2).
body(r_fr5_44,fr5_q4).
body(r_fr5_44,fr5_r1).
body(r_fr5_44,fr10_a3).
body(r_fr5_44,fr5_s2).
body(r_fr5_44,fr5_s3).
body(r_fr5_44,fr5_t2).
body(r_fr5_44,fr5_t3).
body(r_fr5_44,fr10_z1).
body(r_fr5_44,fr5_u2).
body(r_fr5_44,fr5_v1).
body(r_fr5_44,fr5_v3).
body(r_fr5_44,fr5_w1).
body(r_fr5_44,fr5_w3).
body(r_fr5_44,fr5_x3).
body(r_fr5_44,fr5_y2).
body(r_fr5_44,fr5_z3).
head(r_fr5_45,fr5_v3).
body(r_fr5_45,fr5_a2).
body(r_fr5_45,fr5_e2).
body(r_fr5_45,fr5_f1).
body(r_fr5_45,fr5_f2).
body(r_fr5_45,fr5_p1).
body(r_fr5_45,fr5_p2).
body(r_fr5_45,fr5_q4).
body(r_fr5_45,fr5_r1).
body(r_fr5_45,fr10_a3).
body(r_fr5_45,fr5_s2).
body(r_fr5_45,fr5_s3).
body(r_fr5_45,fr5_t1).
body(r_fr5_45,fr5_t2).
body(r_fr5_45,fr5_t3).
body(r_fr5_45,fr10_z1).
body(r_fr5_45,fr5_u2).
body(r_fr5_45,fr5_v1).
body(r_fr5_45,fr5_w1).
body(r_fr5_45,fr5_w3).
body(r_fr5_45,fr2_w4).
body(r_fr5_45,fr5_x3).
body(r_fr5_45,fr5_z3).
head(r_fr5_46,fr5_v3).
body(r_fr5_46,fr6_d1).
body(r_fr5_46,fr5_d1).
body(r_fr5_46,fr5_e1).
body(r_fr5_46,fr5_p1).
body(r_fr5_46,fr5_p2).
body(r_fr5_46,fr5_q4).
body(r_fr5_46,fr5_r1).
body(r_fr5_46,fr10_a3).
body(r_fr5_46,fr5_s2).
body(r_fr5_46,fr5_s3).
body(r_fr5_46,fr5_t1).
body(r_fr5_46,fr5_t2).
body(r_fr5_46,fr5_t3).
body(r_fr5_46,fr10_z1).
body(r_fr5_46,fr5_u2).
body(r_fr5_46,fr5_v1).
body(r_fr5_46,fr5_v2).
body(r_fr5_46,fr5_w1).
body(r_fr5_46,fr2_w4).
body(r_fr5_46,fr5_x3).
body(r_fr5_46,fr3_q4).
body(r_fr5_46,fr5_z3).
head(r_fr5_47,fr5_v3).
body(r_fr5_47,fr5_c2).
body(r_fr5_47,fr5_c3).
body(r_fr5_47,fr5_f2).
body(r_fr5_47,fr5_p2).
body(r_fr5_47,fr5_q4).
body(r_fr5_47,fr5_r1).
body(r_fr5_47,fr10_a3).
body(r_fr5_47,fr5_s2).
body(r_fr5_47,fr5_s3).
body(r_fr5_47,fr5_t1).
body(r_fr5_47,fr5_t2).
body(r_fr5_47,fr5_t3).
body(r_fr5_47,fr10_z1).
body(r_fr5_47,fr5_u2).
body(r_fr5_47,fr5_v1).
body(r_fr5_47,fr5_v2).
body(r_fr5_47,fr5_w1).
body(r_fr5_47,fr2_w4).
body(r_fr5_47,fr5_x3).
body(r_fr5_47,fr5_y2).
body(r_fr5_47,fr3_q4).
body(r_fr5_47,fr5_z3).
head(r_fr5_48,fr5_v3).
body(r_fr5_48,fr5_b2).
body(r_fr5_48,fr5_c2).
body(r_fr5_48,fr5_d2).
body(r_fr5_48,fr5_e1).
body(r_fr5_48,fr5_e2).
body(r_fr5_48,fr5_p1).
body(r_fr5_48,fr5_p2).
body(r_fr5_48,fr5_q4).
body(r_fr5_48,fr10_a3).
body(r_fr5_48,fr5_s3).
body(r_fr5_48,fr5_t1).
body(r_fr5_48,fr5_t2).
body(r_fr5_48,fr5_t3).
body(r_fr5_48,fr10_z1).
body(r_fr5_48,fr5_u2).
body(r_fr5_48,fr5_v1).
body(r_fr5_48,fr5_v2).
body(r_fr5_48,fr5_w1).
body(r_fr5_48,fr5_w3).
body(r_fr5_48,fr3_q4).
body(r_fr5_48,fr5_z3).
head(r_fr5_49,fr5_y2).
body(r_fr5_49,fr5_a2).
body(r_fr5_49,fr5_c1).
body(r_fr5_49,fr5_p2).
body(r_fr5_49,fr5_q4).
body(r_fr5_49,fr5_r1).
body(r_fr5_49,fr10_a3).
body(r_fr5_49,fr5_s2).
body(r_fr5_49,fr5_s3).
body(r_fr5_49,fr5_t1).
body(r_fr5_49,fr5_t2).
body(r_fr5_49,fr5_t3).
body(r_fr5_49,fr10_z1).
body(r_fr5_49,fr5_u2).
body(r_fr5_49,fr5_v1).
body(r_fr5_49,fr5_v2).
body(r_fr5_49,fr5_w1).
body(r_fr5_49,fr5_w3).
body(r_fr5_49,fr2_w4).
body(r_fr5_49,fr5_x3).
body(r_fr5_49,fr3_q4).
body(r_fr5_49,fr5_z3).
head(r_fr5_50,fr5_y2).
body(r_fr5_50,fr5_b3).
body(r_fr5_50,fr5_c1).
body(r_fr5_50,fr5_d1).
body(r_fr5_50,fr5_e2).
body(r_fr5_50,fr5_p1).
body(r_fr5_50,fr5_p2).
body(r_fr5_50,fr5_q4).
body(r_fr5_50,fr5_r1).
body(r_fr5_50,fr10_a3).
body(r_fr5_50,fr5_s2).
body(r_fr5_50,fr5_s3).
body(r_fr5_50,fr5_t1).
body(r_fr5_50,fr5_t2).
body(r_fr5_50,fr5_t3).
body(r_fr5_50,fr10_z1).
body(r_fr5_50,fr5_u2).
body(r_fr5_50,fr5_v1).
body(r_fr5_50,fr5_v2).
body(r_fr5_50,fr5_w1).
body(r_fr5_50,fr5_w3).
body(r_fr5_50,fr2_w4).
body(r_fr5_50,fr5_x3).
body(r_fr5_50,fr3_q4).
body(r_fr5_50,fr5_z3).
head(r_fr5_51,fr5_y2).
body(r_fr5_51,fr5_a1).
body(r_fr5_51,fr5_c1).
body(r_fr5_51,fr5_p1).
body(r_fr5_51,fr5_p2).
body(r_fr5_51,fr5_q4).
body(r_fr5_51,fr5_r1).
body(r_fr5_51,fr10_a3).
body(r_fr5_51,fr5_s2).
body(r_fr5_51,fr5_s3).
body(r_fr5_51,fr5_t1).
body(r_fr5_51,fr5_t2).
body(r_fr5_51,fr5_t3).
body(r_fr5_51,fr10_z1).
body(r_fr5_51,fr5_u2).
body(r_fr5_51,fr5_v1).
body(r_fr5_51,fr5_v2).
body(r_fr5_51,fr5_w1).
body(r_fr5_51,fr5_w3).
body(r_fr5_51,fr2_w4).
body(r_fr5_51,fr5_x3).
body(r_fr5_51,fr3_q4).
body(r_fr5_51,fr5_z3).
head(r_fr5_52,fr5_y2).
body(r_fr5_52,fr5_b1).
body(r_fr5_52,fr5_d2).
body(r_fr5_52,fr5_p1).
body(r_fr5_52,fr5_p2).
body(r_fr5_52,fr5_q4).
body(r_fr5_52,fr5_r1).
body(r_fr5_52,fr10_a3).
body(r_fr5_52,fr5_s2).
body(r_fr5_52,fr5_s3).
body(r_fr5_52,fr5_t1).
body(r_fr5_52,fr5_t2).
body(r_fr5_52,fr5_t3).
body(r_fr5_52,fr10_z1).
body(r_fr5_52,fr5_u2).
body(r_fr5_52,fr5_v1).
body(r_fr5_52,fr5_v2).
body(r_fr5_52,fr5_w1).
body(r_fr5_52,fr5_w3).
body(r_fr5_52,fr2_w4).
body(r_fr5_52,fr5_x3).
body(r_fr5_52,fr3_q4).
body(r_fr5_52,fr5_z3).
head(r_fr5_53,fr5_w3).
body(r_fr5_53,fr5_a1).
body(r_fr5_53,fr5_a2).
body(r_fr5_53,fr5_c3).
body(r_fr5_53,fr5_p1).
body(r_fr5_53,fr5_p2).
body(r_fr5_53,fr5_q4).
body(r_fr5_53,fr5_r1).
body(r_fr5_53,fr10_a3).
body(r_fr5_53,fr5_s2).
body(r_fr5_53,fr5_s3).
body(r_fr5_53,fr5_t1).
body(r_fr5_53,fr5_t3).
body(r_fr5_53,fr10_z1).
body(r_fr5_53,fr5_u2).
body(r_fr5_53,fr5_v1).
body(r_fr5_53,fr5_v2).
body(r_fr5_53,fr5_w1).
body(r_fr5_53,fr2_w4).
body(r_fr5_53,fr5_x3).
body(r_fr5_53,fr3_q4).
body(r_fr5_53,fr5_z3).
head(r_fr5_54,fr5_w3).
body(r_fr5_54,fr5_b3).
body(r_fr5_54,fr5_c1).
body(r_fr5_54,fr5_d1).
body(r_fr5_54,fr5_f2).
body(r_fr5_54,fr5_p1).
body(r_fr5_54,fr5_p2).
body(r_fr5_54,fr5_q4).
body(r_fr5_54,fr5_r1).
body(r_fr5_54,fr10_a3).
body(r_fr5_54,fr5_s2).
body(r_fr5_54,fr5_s3).
body(r_fr5_54,fr5_t1).
body(r_fr5_54,fr5_t2).
body(r_fr5_54,fr5_t3).
body(r_fr5_54,fr10_z1).
body(r_fr5_54,fr5_u2).
body(r_fr5_54,fr5_v1).
body(r_fr5_54,fr5_v2).
body(r_fr5_54,fr5_w1).
body(r_fr5_54,fr2_w4).
body(r_fr5_54,fr5_x3).
body(r_fr5_54,fr3_q4).
body(r_fr5_54,fr5_z3).
head(r_fr5_55,fr5_w3).
body(r_fr5_55,fr5_a1).
body(r_fr5_55,fr5_b2).
body(r_fr5_55,fr5_c2).
body(r_fr5_55,fr5_d2).
body(r_fr5_55,fr5_f1).
body(r_fr5_55,fr5_f2).
body(r_fr5_55,fr5_p1).
body(r_fr5_55,fr5_p2).
body(r_fr5_55,fr10_a3).
body(r_fr5_55,fr5_s2).
body(r_fr5_55,fr5_t1).
body(r_fr5_55,fr5_t2).
body(r_fr5_55,fr5_t3).
body(r_fr5_55,fr10_z1).
body(r_fr5_55,fr5_u2).
body(r_fr5_55,fr5_v1).
body(r_fr5_55,fr5_v2).
body(r_fr5_55,fr5_w1).
body(r_fr5_55,fr5_x3).
body(r_fr5_55,fr3_q4).
body(r_fr5_55,fr5_z3).
head(r_fr5_56,fr5_v2).
body(r_fr5_56,fr5_a2).
body(r_fr5_56,fr6_d1).
body(r_fr5_56,fr5_b3).
body(r_fr5_56,fr5_e2).
body(r_fr5_56,fr5_f1).
body(r_fr5_56,fr5_f2).
body(r_fr5_56,fr5_p1).
body(r_fr5_56,fr5_p2).
body(r_fr5_56,fr5_r1).
body(r_fr5_56,fr10_a3).
body(r_fr5_56,fr5_s2).
body(r_fr5_56,fr5_s3).
body(r_fr5_56,fr5_t1).
body(r_fr5_56,fr5_t2).
body(r_fr5_56,fr10_z1).
body(r_fr5_56,fr5_u2).
body(r_fr5_56,fr5_w1).
body(r_fr5_56,fr2_w4).
body(r_fr5_56,fr5_x3).
body(r_fr5_56,fr3_q4).
body(r_fr5_56,fr5_z3).
head(r_fr5_57,fr5_v2).
body(r_fr5_57,fr6_d1).
body(r_fr5_57,fr5_c2).
body(r_fr5_57,fr5_c3).
body(r_fr5_57,fr5_d1).
body(r_fr5_57,fr5_d2).
body(r_fr5_57,fr5_f1).
body(r_fr5_57,fr5_p1).
body(r_fr5_57,fr5_p2).
body(r_fr5_57,fr5_q4).
body(r_fr5_57,fr5_r1).
body(r_fr5_57,fr10_a3).
body(r_fr5_57,fr5_s2).
body(r_fr5_57,fr5_s3).
body(r_fr5_57,fr5_t1).
body(r_fr5_57,fr5_t2).
body(r_fr5_57,fr5_t3).
body(r_fr5_57,fr10_z1).
body(r_fr5_57,fr5_u2).
body(r_fr5_57,fr5_v1).
body(r_fr5_57,fr5_w1).
body(r_fr5_57,fr2_w4).
body(r_fr5_57,fr5_x3).
body(r_fr5_57,fr3_q4).
body(r_fr5_57,fr5_z3).
head(r_fr5_58,fr5_v2).
body(r_fr5_58,fr6_d1).
body(r_fr5_58,fr5_b2).
body(r_fr5_58,fr5_b3).
body(r_fr5_58,fr5_c2).
body(r_fr5_58,fr5_c3).
body(r_fr5_58,fr5_f1).
body(r_fr5_58,fr5_p1).
body(r_fr5_58,fr5_p2).
body(r_fr5_58,fr5_q4).
body(r_fr5_58,fr5_r1).
body(r_fr5_58,fr10_a3).
body(r_fr5_58,fr5_s2).
body(r_fr5_58,fr5_s3).
body(r_fr5_58,fr5_t1).
body(r_fr5_58,fr5_t3).
body(r_fr5_58,fr10_z1).
body(r_fr5_58,fr5_u2).
body(r_fr5_58,fr5_v1).
body(r_fr5_58,fr5_w1).
body(r_fr5_58,fr2_w4).
body(r_fr5_58,fr5_x3).
body(r_fr5_58,fr3_q4).
body(r_fr5_58,fr5_z3).
head(r_fr5_59,fr5_v2).
body(r_fr5_59,fr5_a1).
body(r_fr5_59,fr6_d1).
body(r_fr5_59,fr5_b3).
body(r_fr5_59,fr5_d2).
body(r_fr5_59,fr5_p1).
body(r_fr5_59,fr5_p2).
body(r_fr5_59,fr5_q4).
body(r_fr5_59,fr10_a3).
body(r_fr5_59,fr5_s2).
body(r_fr5_59,fr5_s3).
body(r_fr5_59,fr5_t1).
body(r_fr5_59,fr5_t2).
body(r_fr5_59,fr5_t3).
body(r_fr5_59,fr10_z1).
body(r_fr5_59,fr5_u2).
body(r_fr5_59,fr5_v1).
body(r_fr5_59,fr5_w1).
body(r_fr5_59,fr2_w4).
body(r_fr5_59,fr5_x3).
body(r_fr5_59,fr3_q4).
body(r_fr5_59,fr5_z3).
head(r_fr5_60,fr5_t1).
body(r_fr5_60,fr6_d1).
body(r_fr5_60,fr5_c1).
body(r_fr5_60,fr5_d1).
body(r_fr5_60,fr5_e2).
body(r_fr5_60,fr5_f2).
body(r_fr5_60,fr5_p1).
body(r_fr5_60,fr5_p2).
body(r_fr5_60,fr5_q4).
body(r_fr5_60,fr5_r1).
body(r_fr5_60,fr10_a3).
body(r_fr5_60,fr5_s3).
body(r_fr5_60,fr5_t2).
body(r_fr5_60,fr5_t3).
body(r_fr5_60,fr10_z1).
body(r_fr5_60,fr5_u2).
body(r_fr5_60,fr5_v1).
body(r_fr5_60,fr5_w1).
body(r_fr5_60,fr2_w4).
body(r_fr5_60,fr5_x3).
body(r_fr5_60,fr3_q4).
body(r_fr5_60,fr5_z3).
head(r_fr5_61,fr5_t1).
body(r_fr5_61,fr5_a2).
body(r_fr5_61,fr5_d1).
body(r_fr5_61,fr5_d2).
body(r_fr5_61,fr5_e1).
body(r_fr5_61,fr5_f1).
body(r_fr5_61,fr5_f2).
body(r_fr5_61,fr5_p1).
body(r_fr5_61,fr5_p2).
body(r_fr5_61,fr5_q4).
body(r_fr5_61,fr5_r1).
body(r_fr5_61,fr10_a3).
body(r_fr5_61,fr5_s2).
body(r_fr5_61,fr5_s3).
body(r_fr5_61,fr5_t2).
body(r_fr5_61,fr5_t3).
body(r_fr5_61,fr10_z1).
body(r_fr5_61,fr5_u2).
body(r_fr5_61,fr5_v1).
body(r_fr5_61,fr5_w1).
body(r_fr5_61,fr2_w4).
body(r_fr5_61,fr5_x3).
body(r_fr5_61,fr3_q4).
body(r_fr5_61,fr5_z3).
head(r_fr5_62,fr5_t1).
body(r_fr5_62,fr5_a2).
body(r_fr5_62,fr5_b2).
body(r_fr5_62,fr5_b3).
body(r_fr5_62,fr5_d2).
body(r_fr5_62,fr5_e1).
body(r_fr5_62,fr5_f2).
body(r_fr5_62,fr5_p1).
body(r_fr5_62,fr5_p2).
body(r_fr5_62,fr5_q4).
body(r_fr5_62,fr5_r1).
body(r_fr5_62,fr5_s2).
body(r_fr5_62,fr5_s3).
body(r_fr5_62,fr5_t2).
body(r_fr5_62,fr5_t3).
body(r_fr5_62,fr5_u2).
body(r_fr5_62,fr5_v1).
body(r_fr5_62,fr5_w1).
body(r_fr5_62,fr2_w4).
body(r_fr5_62,fr5_x3).
body(r_fr5_62,fr3_q4).
body(r_fr5_62,fr5_z3).
head(r_fr5_63,fr5_t1).
body(r_fr5_63,fr5_a1).
body(r_fr5_63,fr5_b1).
body(r_fr5_63,fr5_c1).
body(r_fr5_63,fr5_d1).
body(r_fr5_63,fr5_d2).
body(r_fr5_63,fr5_e1).
body(r_fr5_63,fr5_p1).
body(r_fr5_63,fr5_p2).
body(r_fr5_63,fr5_q4).
body(r_fr5_63,fr5_r1).
body(r_fr5_63,fr10_a3).
body(r_fr5_63,fr5_s2).
body(r_fr5_63,fr5_s3).
body(r_fr5_63,fr5_t2).
body(r_fr5_63,fr5_t3).
body(r_fr5_63,fr10_z1).
body(r_fr5_63,fr5_u2).
body(r_fr5_63,fr5_v1).
body(r_fr5_63,fr5_w1).
body(r_fr5_63,fr2_w4).
body(r_fr5_63,fr5_x3).
body(r_fr5_63,fr3_q4).
body(r_fr5_63,fr5_z3).
head(r_fr5_64,fr5_t3).
body(r_fr5_64,fr6_d1).
body(r_fr5_64,fr5_b1).
body(r_fr5_64,fr5_c2).
body(r_fr5_64,fr5_d1).
body(r_fr5_64,fr5_e1).
body(r_fr5_64,fr5_f2).
body(r_fr5_64,fr5_p1).
body(r_fr5_64,fr5_p2).
body(r_fr5_64,fr5_q4).
body(r_fr5_64,fr5_r1).
body(r_fr5_64,fr10_a3).
body(r_fr5_64,fr5_s2).
body(r_fr5_64,fr5_s3).
body(r_fr5_64,fr5_t2).
body(r_fr5_64,fr10_z1).
body(r_fr5_64,fr5_v1).
body(r_fr5_64,fr5_w1).
body(r_fr5_64,fr2_w4).
body(r_fr5_64,fr5_x3).
body(r_fr5_64,fr3_q4).
body(r_fr5_64,fr5_z3).
head(r_fr5_65,fr5_t3).
body(r_fr5_65,fr5_a2).
body(r_fr5_65,fr5_b3).
body(r_fr5_65,fr5_c2).
body(r_fr5_65,fr5_c3).
body(r_fr5_65,fr5_e2).
body(r_fr5_65,fr5_p1).
body(r_fr5_65,fr5_p2).
body(r_fr5_65,fr5_q4).
body(r_fr5_65,fr5_r1).
body(r_fr5_65,fr10_a3).
body(r_fr5_65,fr5_s2).
body(r_fr5_65,fr5_s3).
body(r_fr5_65,fr5_t2).
body(r_fr5_65,fr10_z1).
body(r_fr5_65,fr5_u2).
body(r_fr5_65,fr5_v1).
body(r_fr5_65,fr5_w1).
body(r_fr5_65,fr2_w4).
body(r_fr5_65,fr5_x3).
body(r_fr5_65,fr3_q4).
body(r_fr5_65,fr5_z3).
head(r_fr5_66,fr5_q4).
body(r_fr5_66,fr5_a2).
body(r_fr5_66,fr6_d1).
body(r_fr5_66,fr5_c1).
body(r_fr5_66,fr5_d2).
body(r_fr5_66,fr5_e1).
body(r_fr5_66,fr5_f1).
body(r_fr5_66,fr5_p1).
body(r_fr5_66,fr5_p2).
body(r_fr5_66,fr5_r1).
body(r_fr5_66,fr10_a3).
body(r_fr5_66,fr5_s2).
body(r_fr5_66,fr5_s3).
body(r_fr5_66,fr5_t2).
body(r_fr5_66,fr10_z1).
body(r_fr5_66,fr5_u2).
body(r_fr5_66,fr5_v1).
body(r_fr5_66,fr5_w1).
body(r_fr5_66,fr2_w4).
body(r_fr5_66,fr5_x3).
body(r_fr5_66,fr3_q4).
body(r_fr5_66,fr5_z3).
head(r_fr5_67,fr5_q4).
body(r_fr5_67,fr5_a2).
body(r_fr5_67,fr6_d1).
body(r_fr5_67,fr5_b1).
body(r_fr5_67,fr5_c2).
body(r_fr5_67,fr5_d2).
body(r_fr5_67,fr5_f2).
body(r_fr5_67,fr5_p1).
body(r_fr5_67,fr5_p2).
body(r_fr5_67,fr5_r1).
body(r_fr5_67,fr10_a3).
body(r_fr5_67,fr5_s2).
body(r_fr5_67,fr5_s3).
body(r_fr5_67,fr5_t2).
body(r_fr5_67,fr10_z1).
body(r_fr5_67,fr5_u2).
body(r_fr5_67,fr5_v1).
body(r_fr5_67,fr5_w1).
body(r_fr5_67,fr2_w4).
body(r_fr5_67,fr5_x3).
body(r_fr5_67,fr3_q4).
body(r_fr5_67,fr5_z3).
head(r_fr5_68,fr5_q4).
body(r_fr5_68,fr5_b2).
body(r_fr5_68,fr5_c3).
body(r_fr5_68,fr5_d1).
body(r_fr5_68,fr5_d2).
body(r_fr5_68,fr5_e2).
body(r_fr5_68,fr5_f1).
body(r_fr5_68,fr5_p1).
body(r_fr5_68,fr5_p2).
body(r_fr5_68,fr5_r1).
body(r_fr5_68,fr10_a3).
body(r_fr5_68,fr5_s2).
body(r_fr5_68,fr5_s3).
body(r_fr5_68,fr5_t2).
body(r_fr5_68,fr10_z1).
body(r_fr5_68,fr5_u2).
body(r_fr5_68,fr5_v1).
body(r_fr5_68,fr5_w1).
body(r_fr5_68,fr2_w4).
body(r_fr5_68,fr5_x3).
body(r_fr5_68,fr3_q4).
body(r_fr5_68,fr5_z3).
head(r_fr5_69,fr5_q4).
body(r_fr5_69,fr5_a2).
body(r_fr5_69,fr5_b1).
body(r_fr5_69,fr5_c1).
body(r_fr5_69,fr5_d2).
body(r_fr5_69,fr5_e1).
body(r_fr5_69,fr5_f1).
body(r_fr5_69,fr5_p1).
body(r_fr5_69,fr5_p2).
body(r_fr5_69,fr5_r1).
body(r_fr5_69,fr10_a3).
body(r_fr5_69,fr5_s2).
body(r_fr5_69,fr5_s3).
body(r_fr5_69,fr5_t2).
body(r_fr5_69,fr10_z1).
body(r_fr5_69,fr5_u2).
body(r_fr5_69,fr5_v1).
body(r_fr5_69,fr5_w1).
body(r_fr5_69,fr2_w4).
body(r_fr5_69,fr5_x3).
body(r_fr5_69,fr3_q4).
body(r_fr5_69,fr5_z3).

assumption(fr6_a1).
assumption(fr6_b1).
assumption(fr6_c1).
assumption(fr6_d1).
assumption(fr8_z1).
assumption(fr6_f1).
assumption(fr6_a2).
assumption(fr6_b2).
assumption(fr6_c2).
assumption(fr6_d2).
assumption(fr6_e2).
assumption(fr6_f2).
assumption(fr6_a3).
assumption(fr6_b3).
assumption(fr6_c3).
contrary(fr6_a1,fr6_b2).
contrary(fr6_a2,fr6_f2).
contrary(fr6_a3,fr6_f2).
contrary(fr6_b1,fr6_c1).
contrary(fr6_b2,fr6_d2).
contrary(fr6_b3,fr6_r2).
contrary(fr6_c1,fr6_u1).
contrary(fr6_c2,fr6_t1).
contrary(fr6_c3,fr6_f2).
contrary(fr6_d1,fr6_x2).
contrary(fr6_d2,fr6_c1).
contrary(fr8_z1,fr6_q2).
contrary(fr6_e2,fr6_c3).
contrary(fr6_f1,fr6_d2).
contrary(fr6_f2,fr6_d2).
head(r_fr6_0,fr6_s2).
body(r_fr6_0,fr6_a2).
body(r_fr6_0,fr6_a3).
body(r_fr6_0,fr6_b1).
body(r_fr6_0,fr6_b3).
body(r_fr6_0,fr6_c3).
body(r_fr6_0,fr6_d2).
head(r_fr6_1,fr6_s2).
body(r_fr6_1,fr6_a3).
body(r_fr6_1,fr6_q2).
body(r_fr6_1,fr6_s1).
body(r_fr6_1,fr6_v2).
body(r_fr6_1,fr6_x2).
head(r_fr6_2,fr6_s2).
body(r_fr6_2,fr6_a2).
body(r_fr6_2,fr6_a3).
body(r_fr6_2,fr6_e2).
body(r_fr6_2,fr6_f2).
head(r_fr6_3,fr6_s2).
body(r_fr6_3,fr6_a1).
body(r_fr6_3,fr6_a2).
body(r_fr6_3,fr6_u1).
head(r_fr6_4,fr6_s2).
head(r_fr6_5,fr6_s2).
body(r_fr6_5,fr6_a3).
head(r_fr6_6,fr6_s2).
body(r_fr6_6,fr6_v1).
head(r_fr6_7,fr6_s2).
body(r_fr6_7,fr6_a3).
body(r_fr6_7,fr6_p2).
body(r_fr6_7,fr6_u2).
body(r_fr6_7,fr6_v1).
body(r_fr6_7,fr6_w2).
body(r_fr6_7,fr6_x2).
head(r_fr6_8,fr6_s2).
body(r_fr6_8,fr6_c2).
head(r_fr6_9,fr6_s2).
body(r_fr6_9,fr6_b2).
body(r_fr6_9,fr6_e2).
body(r_fr6_9,fr6_r2).
body(r_fr6_9,fr6_u1).
body(r_fr6_9,fr7_z5).
head(r_fr6_10,fr6_v1).
body(r_fr6_10,fr6_a3).
body(r_fr6_10,fr6_p1).
body(r_fr6_10,fr8_c2).
body(r_fr6_10,fr6_z1).
head(r_fr6_11,fr6_v1).
body(r_fr6_11,fr6_c1).
body(r_fr6_11,fr6_c2).
body(r_fr6_11,fr6_d2).
body(r_fr6_11,fr8_z1).
body(r_fr6_11,fr6_e2).
body(r_fr6_11,fr7_z5).
head(r_fr6_12,fr6_v1).
body(r_fr6_12,fr6_c3).
body(r_fr6_12,fr6_u2).
head(r_fr6_13,fr6_v1).
body(r_fr6_13,fr6_a3).
body(r_fr6_13,fr6_c3).
body(r_fr6_13,fr6_d1).
head(r_fr6_14,fr6_v1).
body(r_fr6_14,fr6_d1).
head(r_fr6_15,fr6_v1).
body(r_fr6_15,fr6_a1).
body(r_fr6_15,fr6_a2).
body(r_fr6_15,fr6_q1).
body(r_fr6_15,fr3_d1).
body(r_fr6_15,fr6_x2).
head(r_fr6_16,fr6_v1).
body(r_fr6_16,fr6_b3).
body(r_fr6_16,fr6_s2).
head(r_fr6_17,fr6_v1).
body(r_fr6_17,fr6_b2).
body(r_fr6_17,fr6_b3).
body(r_fr6_17,fr6_f2).
head(r_fr6_18,fr6_v1).
body(r_fr6_18,fr6_a1).
body(r_fr6_18,fr6_b2).
body(r_fr6_18,fr6_c2).
body(r_fr6_18,fr6_w2).
body(r_fr6_18,fr4_y2).
head(r_fr6_19,fr6_r1).
body(r_fr6_19,fr6_f1).
head(r_fr6_20,fr6_r1).
body(r_fr6_20,fr6_c3).
body(r_fr6_20,fr7_z5).
body(r_fr6_20,fr6_x2).
head(r_fr6_21,fr6_r1).
body(r_fr6_21,fr6_b2).
body(r_fr6_21,fr6_b3).
body(r_fr6_21,fr6_s1).
head(r_fr6_22,fr6_r1).
body(r_fr6_22,fr6_a1).
body(r_fr6_22,fr6_c3).
head(r_fr6_23,fr6_r1).
body(r_fr6_23,fr4_a2).
body(r_fr6_23,fr6_r2).
body(r_fr6_23,fr6_t1).
head(r_fr6_24,fr6_r1).
body(r_fr6_24,fr6_a2).
body(r_fr6_24,fr6_a3).
body(r_fr6_24,fr6_b3).
body(r_fr6_24,fr3_d1).
head(r_fr6_25,fr6_r1).
body(r_fr6_25,fr6_a2).
body(r_fr6_25,fr6_a3).
body(r_fr6_25,fr6_d1).
body(r_fr6_25,fr6_e2).
body(r_fr6_25,fr4_a2).
head(r_fr6_26,fr6_r1).
body(r_fr6_26,fr6_b1).
body(r_fr6_26,fr6_c3).
body(r_fr6_26,fr6_p2).
body(r_fr6_26,fr6_t1).
head(r_fr6_27,fr6_r1).
body(r_fr6_27,fr6_a2).
body(r_fr6_27,fr6_a3).
body(r_fr6_27,fr6_b1).
body(r_fr6_27,fr6_b3).
body(r_fr6_27,fr6_f2).
body(r_fr6_27,fr3_d1).
head(r_fr6_28,fr6_r1).
body(r_fr6_28,fr6_a2).
body(r_fr6_28,fr6_b2).
body(r_fr6_28,fr6_e2).
head(r_fr6_29,fr6_r1).
head(r_fr6_30,fr6_z2).
body(r_fr6_30,fr8_z1).
body(r_fr6_30,fr8_c2).
head(r_fr6_31,fr6_z2).
head(r_fr6_32,fr6_z2).
body(r_fr6_32,fr6_s2).
body(r_fr6_32,fr6_y2).
head(r_fr6_33,fr6_z2).
body(r_fr6_33,fr6_p2).
body(r_fr6_33,fr6_r3).
body(r_fr6_33,fr6_u2).
body(r_fr6_33,fr6_x2).
head(r_fr6_34,fr6_z2).
body(r_fr6_34,fr6_c2).
body(r_fr6_34,fr6_p1).
body(r_fr6_34,fr6_y2).
head(r_fr6_35,fr6_z2).
body(r_fr6_35,fr6_a3).
body(r_fr6_35,fr6_b2).
body(r_fr6_35,fr6_c1).
head(r_fr6_36,fr6_z2).
body(r_fr6_36,fr6_a1).
body(r_fr6_36,fr6_b3).
body(r_fr6_36,fr7_z5).
head(r_fr6_37,fr6_z2).
body(r_fr6_37,fr6_d1).
body(r_fr6_37,fr6_e2).
body(r_fr6_37,fr6_p2).
body(r_fr6_37,fr6_u2).
body(r_fr6_37,fr7_z5).
body(r_fr6_37,fr6_x2).
head(r_fr6_38,fr6_z2).
body(r_fr6_38,fr6_b3).
body(r_fr6_38,fr6_f2).
body(r_fr6_38,fr6_q1).
body(r_fr6_38,fr6_q3).
body(r_fr6_38,fr6_r1).
body(r_fr6_38,fr6_r2).
head(r_fr6_39,fr6_r2).
body(r_fr6_39,fr6_a2).
body(r_fr6_39,fr6_b2).
body(r_fr6_39,fr6_e2).
body(r_fr6_39,fr6_f1).
body(r_fr6_39,fr6_f2).
body(r_fr6_39,fr6_u1).
head(r_fr6_40,fr6_r2).
body(r_fr6_40,fr6_a1).
body(r_fr6_40,fr6_a2).
body(r_fr6_40,fr6_a3).
body(r_fr6_40,fr6_b2).
body(r_fr6_40,fr6_c2).
body(r_fr6_40,fr6_c3).
head(r_fr6_41,fr6_r2).
body(r_fr6_41,fr6_a3).
body(r_fr6_41,fr6_b2).
body(r_fr6_41,fr6_c3).
body(r_fr6_41,fr6_f1).
body(r_fr6_41,fr6_v1).
head(r_fr6_42,fr6_r2).
body(r_fr6_42,fr6_b3).
body(r_fr6_42,fr6_c2).
body(r_fr6_42,fr6_c3).
body(r_fr6_42,fr6_f1).
body(r_fr6_42,fr6_s2).
head(r_fr6_43,fr6_r2).
body(r_fr6_43,fr6_d1).
body(r_fr6_43,fr6_q3).
body(r_fr6_43,fr8_c2).
head(r_fr6_44,fr6_r2).
body(r_fr6_44,fr6_a2).
body(r_fr6_44,fr6_e2).
body(r_fr6_44,fr6_y2).
head(r_fr6_45,fr6_r2).
body(r_fr6_45,fr6_c1).
body(r_fr6_45,fr8_z1).
body(r_fr6_45,fr6_e2).
body(r_fr6_45,fr6_f2).
head(r_fr6_46,fr6_r2).
body(r_fr6_46,fr6_a1).
body(r_fr6_46,fr6_s2).
body(r_fr6_46,fr6_u1).
head(r_fr6_47,fr6_r2).
body(r_fr6_47,fr6_d1).
body(r_fr6_47,fr6_p2).
body(r_fr6_47,fr6_q1).
body(r_fr6_47,fr6_s1).
body(r_fr6_47,fr8_c2).
body(r_fr6_47,fr6_w2).
head(r_fr6_48,fr6_u1).
body(r_fr6_48,fr6_q3).
body(r_fr6_48,fr6_u2).
head(r_fr6_49,fr6_u1).
body(r_fr6_49,fr4_a2).
body(r_fr6_49,fr6_r1).
body(r_fr6_49,fr6_x2).
body(r_fr6_49,fr4_y2).
body(r_fr6_49,fr6_z2).
head(r_fr6_50,fr6_u1).
body(r_fr6_50,fr4_a2).
body(r_fr6_50,fr6_s2).
body(r_fr6_50,fr6_v2).
body(r_fr6_50,fr7_z5).
body(r_fr6_50,fr4_y2).
head(r_fr6_51,fr6_u1).
body(r_fr6_51,fr6_b1).
body(r_fr6_51,fr6_q2).
head(r_fr6_52,fr6_u1).
body(r_fr6_52,fr6_q1).
body(r_fr6_52,fr6_z2).
head(r_fr6_53,fr6_u1).
body(r_fr6_53,fr6_q2).
head(r_fr6_54,fr6_u1).
body(r_fr6_54,fr6_d2).
body(r_fr6_54,fr6_p2).
body(r_fr6_54,fr6_u2).
body(r_fr6_54,fr6_x2).
head(r_fr6_55,fr6_u1).
body(r_fr6_55,fr6_c1).
body(r_fr6_55,fr6_d2).
body(r_fr6_55,fr6_f1).
body(r_fr6_55,fr4_y2).
head(r_fr6_56,fr6_u1).
body(r_fr6_56,fr6_a3).
head(r_fr6_57,fr6_u1).
head(r_fr6_58,fr6_u1).
body(r_fr6_58,fr6_b1).
body(r_fr6_58,fr6_b2).
body(r_fr6_58,fr6_b3).
body(r_fr6_58,fr6_f1).
body(r_fr6_58,fr4_a2).
body(r_fr6_58,fr3_d1).
head(r_fr6_59,fr3_d1).
body(r_fr6_59,fr6_c3).
body(r_fr6_59,fr6_f2).
body(r_fr6_59,fr6_s2).
head(r_fr6_60,fr3_d1).
body(r_fr6_60,fr8_z1).
body(r_fr6_60,fr6_r1).
head(r_fr6_61,fr3_d1).
body(r_fr6_61,fr6_b3).
body(r_fr6_61,fr6_c1).
body(r_fr6_61,fr6_f1).
body(r_fr6_61,fr6_p2).
body(r_fr6_61,fr6_s2).
body(r_fr6_61,fr6_v1).
head(r_fr6_62,fr3_d1).
body(r_fr6_62,fr6_a2).
head(r_fr6_63,fr3_d1).
head(r_fr6_64,fr3_d1).
body(r_fr6_64,fr6_a1).
body(r_fr6_64,fr6_c2).
body(r_fr6_64,fr6_c3).
body(r_fr6_64,fr6_d2).
body(r_fr6_64,fr6_f1).
body(r_fr6_64,fr6_f2).
head(r_fr6_65,fr3_d1).
body(r_fr6_65,fr6_b2).
body(r_fr6_65,fr6_f1).
body(r_fr6_65,fr6_q2).
body(r_fr6_65,fr6_u1).
body(r_fr6_65,fr6_v1).
head(r_fr6_66,fr3_d1).
body(r_fr6_66,fr6_q2).
body(r_fr6_66,fr6_u1).
head(r_fr6_67,fr3_d1).
body(r_fr6_67,fr6_b1).
body(r_fr6_67,fr6_d2).
body(r_fr6_67,fr8_c2).
head(r_fr6_68,fr3_d1).
body(r_fr6_68,fr6_a2).
body(r_fr6_68,fr6_a3).
body(r_fr6_68,fr6_f2).
body(r_fr6_68,fr6_q1).
head(r_fr6_69,fr8_c2).
body(r_fr6_69,fr6_a1).
body(r_fr6_69,fr6_c1).
body(r_fr6_69,fr6_p1).
body(r_fr6_69,fr6_s2).
body(r_fr6_69,fr3_d1).
head(r_fr6_70,fr8_c2).
body(r_fr6_70,fr6_a3).
body(r_fr6_70,fr6_q2).
body(r_fr6_70,fr6_r1).
head(r_fr6_71,fr8_c2).
body(r_fr6_71,fr6_b2).
body(r_fr6_71,fr6_f1).
body(r_fr6_71,fr6_s1).
body(r_fr6_71,fr6_w2).
head(r_fr6_72,fr8_c2).
body(r_fr6_72,fr6_a1).
body(r_fr6_72,fr6_f1).
body(r_fr6_72,fr6_z1).
head(r_fr6_73,fr8_c2).
body(r_fr6_73,fr6_f1).
head(r_fr6_74,fr8_c2).
body(r_fr6_74,fr6_b2).
body(r_fr6_74,fr6_b3).
body(r_fr6_74,fr6_c1).
body(r_fr6_74,fr6_d1).
body(r_fr6_74,fr8_z1).
head(r_fr6_75,fr8_c2).
body(r_fr6_75,fr6_a3).
body(r_fr6_75,fr6_b1).
body(r_fr6_75,fr6_f1).
head(r_fr6_76,fr8_c2).
body(r_fr6_76,fr6_f1).
body(r_fr6_76,fr6_t1).
body(r_fr6_76,fr3_d1).
body(r_fr6_76,fr7_z5).
body(r_fr6_76,fr6_y2).
body(r_fr6_76,fr6_z1).
head(r_fr6_77,fr8_c2).
body(r_fr6_77,fr6_r2).
head(r_fr6_78,fr6_q1).
body(r_fr6_78,fr6_a3).
body(r_fr6_78,fr6_b2).
body(r_fr6_78,fr6_p1).
body(r_fr6_78,fr6_y2).
head(r_fr6_79,fr6_q1).
body(r_fr6_79,fr6_c1).
body(r_fr6_79,fr8_z1).
body(r_fr6_79,fr6_f1).
head(r_fr6_80,fr6_q1).
body(r_fr6_80,fr6_u1).
body(r_fr6_80,fr6_u2).
head(r_fr6_81,fr6_q1).
body(r_fr6_81,fr6_d1).
head(r_fr6_82,fr6_q1).
body(r_fr6_82,fr6_a2).
body(r_fr6_82,fr6_b1).
head(r_fr6_83,fr6_q1).
body(r_fr6_83,fr6_a3).
head(r_fr6_84,fr6_q1).
body(r_fr6_84,fr6_c1).
head(r_fr6_85,fr6_q1).
head(r_fr6_86,fr6_q1).
body(r_fr6_86,fr6_p2).
body(r_fr6_86,fr6_x2).
body(r_fr6_86,fr6_y2).
head(r_fr6_87,fr6_q1).
body(r_fr6_87,fr6_b3).
body(r_fr6_87,fr7_z5).
head(r_fr6_88,fr6_q1).
body(r_fr6_88,fr6_c2).
body(r_fr6_88,fr6_d2).
body(r_fr6_88,fr6_e2).
body(r_fr6_88,fr6_s2).
head(r_fr6_89,fr6_q3).
body(r_fr6_89,fr6_c1).
body(r_fr6_89,fr6_c2).
body(r_fr6_89,fr6_f1).
body(r_fr6_89,fr6_z2).
head(r_fr6_90,fr6_q3).
body(r_fr6_90,fr6_b1).
head(r_fr6_91,fr6_q3).
body(r_fr6_91,fr6_a3).
body(r_fr6_91,fr8_z1).
body(r_fr6_91,fr6_f1).
body(r_fr6_91,fr7_z5).
head(r_fr6_92,fr6_q3).
body(r_fr6_92,fr6_r1).
body(r_fr6_92,fr6_z1).
head(r_fr6_93,fr6_q3).
body(r_fr6_93,fr6_a2).
body(r_fr6_93,fr6_a3).
body(r_fr6_93,fr6_b2).
body(r_fr6_93,fr6_e2).
body(r_fr6_93,fr6_q1).
body(r_fr6_93,fr6_s1).
head(r_fr6_94,fr6_q3).
body(r_fr6_94,fr6_r3).
body(r_fr6_94,fr3_d1).
head(r_fr6_95,fr6_q3).
body(r_fr6_95,fr6_a3).
body(r_fr6_95,fr4_a2).
body(r_fr6_95,fr6_s1).
body(r_fr6_95,fr4_y2).
body(r_fr6_95,fr6_z2).
head(r_fr6_96,fr6_q3).
body(r_fr6_96,fr6_a3).
body(r_fr6_96,fr6_e2).
head(r_fr6_97,fr6_q3).
body(r_fr6_97,fr6_a2).
body(r_fr6_97,fr6_w2).
body(r_fr6_97,fr6_y2).
body(r_fr6_97,fr6_z1).
head(r_fr6_98,fr6_q3).
body(r_fr6_98,fr6_b1).
body(r_fr6_98,fr6_b2).
body(r_fr6_98,fr6_d2).
body(r_fr6_98,fr6_f1).
head(r_fr6_99,fr4_a2).
body(r_fr6_99,fr6_q1).
body(r_fr6_99,fr6_s2).
body(r_fr6_99,fr7_z5).
head(r_fr6_100,fr4_a2).
body(r_fr6_100,fr6_a3).
body(r_fr6_100,fr6_e2).
body(r_fr6_100,fr6_f2).
head(r_fr6_101,fr4_a2).
body(r_fr6_101,fr6_a1).
body(r_fr6_101,fr6_a2).
body(r_fr6_101,fr6_a3).
body(r_fr6_101,fr6_b3).
body(r_fr6_101,fr6_d1).
head(r_fr6_102,fr4_a2).
body(r_fr6_102,fr6_b1).
body(r_fr6_102,fr6_c2).
body(r_fr6_102,fr6_v2).
body(r_fr6_102,fr8_c2).
body(r_fr6_102,fr6_x2).
body(r_fr6_102,fr6_y2).
head(r_fr6_103,fr4_a2).
body(r_fr6_103,fr6_c2).
head(r_fr6_104,fr4_a2).
body(r_fr6_104,fr6_a3).
body(r_fr6_104,fr6_c1).
body(r_fr6_104,fr6_e2).
body(r_fr6_104,fr6_f1).
body(r_fr6_104,fr6_z2).
head(r_fr6_105,fr4_a2).
body(r_fr6_105,fr6_a3).
body(r_fr6_105,fr6_b2).
body(r_fr6_105,fr6_d1).
body(r_fr6_105,fr6_t1).
head(r_fr6_106,fr4_a2).
body(r_fr6_106,fr6_f1).
body(r_fr6_106,fr6_p1).
body(r_fr6_106,fr6_q3).
body(r_fr6_106,fr6_u1).
body(r_fr6_106,fr6_v1).
body(r_fr6_106,fr7_z5).
head(r_fr6_107,fr4_a2).
body(r_fr6_107,fr6_b1).
body(r_fr6_107,fr6_p1).
body(r_fr6_107,fr6_s1).
body(r_fr6_107,fr6_t1).
body(r_fr6_107,fr6_v2).
body(r_fr6_107,fr7_z5).
head(r_fr6_108,fr4_a2).
head(r_fr6_109,fr6_s1).
body(r_fr6_109,fr6_a2).
body(r_fr6_109,fr3_d1).
body(r_fr6_109,fr6_u1).
body(r_fr6_109,fr6_v1).
body(r_fr6_109,fr6_v2).
body(r_fr6_109,fr6_z2).
head(r_fr6_110,fr6_s1).
head(r_fr6_111,fr6_s1).
body(r_fr6_111,fr6_q1).
body(r_fr6_111,fr6_q2).
body(r_fr6_111,fr6_q3).
body(r_fr6_111,fr6_r2).
body(r_fr6_111,fr6_v2).
body(r_fr6_111,fr6_x2).
head(r_fr6_112,fr6_s1).
body(r_fr6_112,fr6_c1).
body(r_fr6_112,fr6_d1).
body(r_fr6_112,fr6_f1).
body(r_fr6_112,fr6_p1).
body(r_fr6_112,fr6_z2).
head(r_fr6_113,fr6_s1).
body(r_fr6_113,fr6_a2).
body(r_fr6_113,fr8_z1).
head(r_fr6_114,fr6_s1).
body(r_fr6_114,fr8_z1).
head(r_fr6_115,fr6_s1).
body(r_fr6_115,fr7_z5).
head(r_fr6_116,fr6_s1).
body(r_fr6_116,fr6_a1).
body(r_fr6_116,fr6_c2).
body(r_fr6_116,fr8_z1).
body(r_fr6_116,fr6_f1).
head(r_fr6_117,fr6_s1).
body(r_fr6_117,fr6_u1).
body(r_fr6_117,fr6_u2).
body(r_fr6_117,fr6_v1).
body(r_fr6_117,fr6_z1).
head(r_fr6_118,fr6_s1).
body(r_fr6_118,fr7_z5).
body(r_fr6_118,fr4_y2).
head(r_fr6_119,fr6_s1).
body(r_fr6_119,fr6_t1).
head(r_fr6_120,fr6_r3).
body(r_fr6_120,fr6_q3).
body(r_fr6_120,fr6_t1).
body(r_fr6_120,fr6_v1).
body(r_fr6_120,fr6_w2).
body(r_fr6_120,fr7_z5).
body(r_fr6_120,fr6_z2).
head(r_fr6_121,fr6_r3).
body(r_fr6_121,fr6_p1).
body(r_fr6_121,fr6_p2).
body(r_fr6_121,fr6_r1).
body(r_fr6_121,fr6_r2).
body(r_fr6_121,fr6_v2).
body(r_fr6_121,fr4_y2).
head(r_fr6_122,fr6_r3).
body(r_fr6_122,fr6_q2).
body(r_fr6_122,fr6_q3).
body(r_fr6_122,fr6_t1).
body(r_fr6_122,fr3_d1).
body(r_fr6_122,fr6_v1).
body(r_fr6_122,fr6_z2).
head(r_fr6_123,fr6_r3).
body(r_fr6_123,fr6_u2).
body(r_fr6_123,fr6_w2).
head(r_fr6_124,fr6_r3).
head(r_fr6_125,fr6_r3).
body(r_fr6_125,fr6_a3).
body(r_fr6_125,fr6_w2).
head(r_fr6_126,fr6_r3).
body(r_fr6_126,fr6_a1).
body(r_fr6_126,fr6_b1).
body(r_fr6_126,fr6_b2).
body(r_fr6_126,fr6_f2).
body(r_fr6_126,fr6_v2).
head(r_fr6_127,fr6_r3).
body(r_fr6_127,fr6_p2).
body(r_fr6_127,fr6_u1).
body(r_fr6_127,fr7_z5).
body(r_fr6_127,fr6_x2).
head(r_fr6_128,fr6_r3).
body(r_fr6_128,fr6_c2).
head(r_fr6_129,fr6_r3).
body(r_fr6_129,fr4_y2).
head(r_fr6_130,fr6_v2).
body(r_fr6_130,fr6_a3).
body(r_fr6_130,fr6_b2).
body(r_fr6_130,fr6_c1).
body(r_fr6_130,fr6_p2).
body(r_fr6_130,fr6_s1).
body(r_fr6_130,fr4_y2).
head(r_fr6_131,fr6_v2).
body(r_fr6_131,fr6_d1).
body(r_fr6_131,fr6_f1).
head(r_fr6_132,fr6_v2).
body(r_fr6_132,fr6_f1).
head(r_fr6_133,fr6_v2).
body(r_fr6_133,fr6_p1).
head(r_fr6_134,fr6_v2).
body(r_fr6_134,fr4_a2).
body(r_fr6_134,fr6_q1).
head(r_fr6_135,fr6_v2).
body(r_fr6_135,fr6_b1).
body(r_fr6_135,fr6_c1).
body(r_fr6_135,fr6_d2).
body(r_fr6_135,fr6_u1).
body(r_fr6_135,fr8_c2).
body(r_fr6_135,fr6_z1).
head(r_fr6_136,fr6_v2).
body(r_fr6_136,fr4_a2).
body(r_fr6_136,fr6_q2).
body(r_fr6_136,fr6_y2).
body(r_fr6_136,fr6_z1).
head(r_fr6_137,fr6_v2).
body(r_fr6_137,fr6_a3).
body(r_fr6_137,fr6_c1).
body(r_fr6_137,fr4_a2).
body(r_fr6_137,fr6_q2).
body(r_fr6_137,fr6_w2).
head(r_fr6_138,fr6_v2).
body(r_fr6_138,fr6_f2).
body(r_fr6_138,fr6_q3).
body(r_fr6_138,fr6_r3).
body(r_fr6_138,fr6_s1).
body(r_fr6_138,fr6_w2).
body(r_fr6_138,fr6_x2).
head(r_fr6_139,fr6_v2).
head(r_fr6_140,fr6_v2).
body(r_fr6_140,fr6_e2).
head(r_fr6_141,fr7_z5).
body(r_fr6_141,fr6_c2).
body(r_fr6_141,fr6_y2).
head(r_fr6_142,fr7_z5).
body(r_fr6_142,fr6_c1).
head(r_fr6_143,fr7_z5).
body(r_fr6_143,fr6_b1).
body(r_fr6_143,fr6_d2).
body(r_fr6_143,fr6_t1).
body(r_fr6_143,fr6_v1).
body(r_fr6_143,fr6_x2).
body(r_fr6_143,fr6_z2).
head(r_fr6_144,fr7_z5).
body(r_fr6_144,fr6_d1).
body(r_fr6_144,fr6_q2).
body(r_fr6_144,fr6_s2).
body(r_fr6_144,fr6_u2).
head(r_fr6_145,fr7_z5).
body(r_fr6_145,fr6_t1).
head(r_fr6_146,fr7_z5).
body(r_fr6_146,fr6_b2).
body(r_fr6_146,fr6_b3).
body(r_fr6_146,fr6_d1).
body(r_fr6_146,fr6_u2).
body(r_fr6_146,fr6_z1).
head(r_fr6_147,fr7_z5).
body(r_fr6_147,fr6_e2).
body(r_fr6_147,fr6_f2).
body(r_fr6_147,fr6_q2).
body(r_fr6_147,fr6_z1).
head(r_fr6_148,fr7_z5).
body(r_fr6_148,fr6_a2).
body(r_fr6_148,fr6_c1).
body(r_fr6_148,fr6_f2).
head(r_fr6_149,fr7_z5).
head(r_fr6_150,fr7_z5).
body(r_fr6_150,fr6_r3).
body(r_fr6_150,fr6_u2).
body(r_fr6_150,fr6_y2).
head(r_fr6_151,fr6_p2).
body(r_fr6_151,fr6_c1).
body(r_fr6_151,fr6_e2).
head(r_fr6_152,fr6_p2).
body(r_fr6_152,fr6_s1).
body(r_fr6_152,fr6_u2).
head(r_fr6_153,fr6_p2).
body(r_fr6_153,fr6_b2).
body(r_fr6_153,fr6_f1).
body(r_fr6_153,fr6_r1).
body(r_fr6_153,fr3_d1).
body(r_fr6_153,fr6_v1).
head(r_fr6_154,fr6_p2).
body(r_fr6_154,fr6_a1).
body(r_fr6_154,fr6_p1).
body(r_fr6_154,fr6_s1).
body(r_fr6_154,fr6_u1).
body(r_fr6_154,fr6_v1).
body(r_fr6_154,fr6_x2).
head(r_fr6_155,fr6_p2).
body(r_fr6_155,fr6_q1).
body(r_fr6_155,fr6_r3).
body(r_fr6_155,fr6_t1).
body(r_fr6_155,fr6_u2).
body(r_fr6_155,fr7_z5).
head(r_fr6_156,fr6_p2).
body(r_fr6_156,fr6_q2).
body(r_fr6_156,fr6_q3).
body(r_fr6_156,fr6_u2).
body(r_fr6_156,fr4_y2).
head(r_fr6_157,fr6_p2).
body(r_fr6_157,fr6_b1).
body(r_fr6_157,fr6_e2).
body(r_fr6_157,fr3_d1).
body(r_fr6_157,fr7_z5).
body(r_fr6_157,fr4_y2).
head(r_fr6_158,fr6_p2).
body(r_fr6_158,fr6_c2).
head(r_fr6_159,fr6_p2).
head(r_fr6_160,fr6_y2).
body(r_fr6_160,fr6_a2).
body(r_fr6_160,fr6_c2).
body(r_fr6_160,fr6_c3).
body(r_fr6_160,fr6_d2).
body(r_fr6_160,fr6_s1).
body(r_fr6_160,fr6_t1).
head(r_fr6_161,fr6_y2).
body(r_fr6_161,fr6_b3).
body(r_fr6_161,fr6_d2).
body(r_fr6_161,fr6_f1).
head(r_fr6_162,fr6_y2).
body(r_fr6_162,fr6_b3).
body(r_fr6_162,fr6_d1).
body(r_fr6_162,fr6_d2).
body(r_fr6_162,fr6_e2).
body(r_fr6_162,fr6_f2).
head(r_fr6_163,fr6_y2).
body(r_fr6_163,fr6_b1).
body(r_fr6_163,fr6_b3).
body(r_fr6_163,fr6_c1).
body(r_fr6_163,fr6_d2).
body(r_fr6_163,fr6_r1).
head(r_fr6_164,fr6_y2).
body(r_fr6_164,fr6_p2).
body(r_fr6_164,fr4_a2).
body(r_fr6_164,fr6_r1).
body(r_fr6_164,fr6_u2).
body(r_fr6_164,fr7_z5).
body(r_fr6_164,fr6_z1).
head(r_fr6_165,fr6_y2).
body(r_fr6_165,fr6_p1).
body(r_fr6_165,fr6_q2).
body(r_fr6_165,fr6_u1).
body(r_fr6_165,fr6_w2).
body(r_fr6_165,fr7_z5).
head(r_fr6_166,fr6_y2).
body(r_fr6_166,fr6_a1).
body(r_fr6_166,fr6_a3).
body(r_fr6_166,fr6_c2).
body(r_fr6_166,fr6_c3).
head(r_fr6_167,fr6_y2).
head(r_fr6_168,fr4_y2).
body(r_fr6_168,fr6_f2).
body(r_fr6_168,fr6_q1).
body(r_fr6_168,fr6_q2).
body(r_fr6_168,fr6_v2).
body(r_fr6_168,fr6_z1).
head(r_fr6_169,fr4_y2).
body(r_fr6_169,fr6_b1).
body(r_fr6_169,fr6_f1).
body(r_fr6_169,fr6_q1).
body(r_fr6_169,fr6_r2).
body(r_fr6_169,fr8_c2).
body(r_fr6_169,fr6_w2).
head(r_fr6_170,fr4_y2).
body(r_fr6_170,fr6_a3).
body(r_fr6_170,fr6_c3).
head(r_fr6_171,fr4_y2).
body(r_fr6_171,fr6_a2).
head(r_fr6_172,fr4_y2).
body(r_fr6_172,fr6_a2).
body(r_fr6_172,fr6_b1).
head(r_fr6_173,fr4_y2).
body(r_fr6_173,fr6_a1).
body(r_fr6_173,fr6_b3).
body(r_fr6_173,fr6_f2).
body(r_fr6_173,fr6_r1).
body(r_fr6_173,fr6_y2).
head(r_fr6_174,fr4_y2).
body(r_fr6_174,fr6_c2).
body(r_fr6_174,fr6_d2).
body(r_fr6_174,fr8_z1).
body(r_fr6_174,fr6_e2).
body(r_fr6_174,fr6_q1).
head(r_fr6_175,fr4_y2).
body(r_fr6_175,fr6_e2).
body(r_fr6_175,fr6_t1).
head(r_fr6_176,fr4_y2).
head(r_fr6_177,fr6_z1).
body(r_fr6_177,fr6_x2).
body(r_fr6_177,fr6_y2).
head(r_fr6_178,fr6_z1).
body(r_fr6_178,fr6_b2).
body(r_fr6_178,fr6_c1).
body(r_fr6_178,fr6_f1).
body(r_fr6_178,fr6_f2).
head(r_fr6_179,fr6_z1).
body(r_fr6_179,fr6_b1).
body(r_fr6_179,fr6_c1).
head(r_fr6_180,fr6_z1).
body(r_fr6_180,fr6_v1).
body(r_fr6_180,fr6_w2).
head(r_fr6_181,fr6_z1).
body(r_fr6_181,fr6_p1).
body(r_fr6_181,fr6_q3).
body(r_fr6_181,fr6_r3).
body(r_fr6_181,fr6_s1).
body(r_fr6_181,fr6_u2).
head(r_fr6_182,fr6_z1).
body(r_fr6_182,fr6_a1).
body(r_fr6_182,fr6_a3).
body(r_fr6_182,fr6_c1).
body(r_fr6_182,fr6_e2).
body(r_fr6_182,fr6_f2).
head(r_fr6_183,fr6_z1).
body(r_fr6_183,fr6_b3).
body(r_fr6_183,fr6_c1).
body(r_fr6_183,fr4_a2).
body(r_fr6_183,fr6_s1).
body(r_fr6_183,fr6_u2).
head(r_fr6_184,fr6_z1).
body(r_fr6_184,fr6_f2).
head(r_fr6_185,fr6_z1).
body(r_fr6_185,fr6_b3).
body(r_fr6_185,fr6_c1).
body(r_fr6_185,fr6_c3).
body(r_fr6_185,fr6_d2).
body(r_fr6_185,fr8_z1).
head(r_fr6_186,fr6_z1).
head(r_fr6_187,fr6_z1).
body(r_fr6_187,fr6_c1).
body(r_fr6_187,fr6_q2).
body(r_fr6_187,fr6_q3).
body(r_fr6_187,fr6_s2).
body(r_fr6_187,fr6_u1).
head(r_fr6_188,fr6_x2).
body(r_fr6_188,fr4_a2).
body(r_fr6_188,fr6_s1).
body(r_fr6_188,fr6_u2).
body(r_fr6_188,fr6_v2).
head(r_fr6_189,fr6_x2).
body(r_fr6_189,fr6_s1).
head(r_fr6_190,fr6_x2).
body(r_fr6_190,fr6_a3).
body(r_fr6_190,fr6_s2).
body(r_fr6_190,fr7_z5).
head(r_fr6_191,fr6_x2).
body(r_fr6_191,fr6_c1).
body(r_fr6_191,fr8_z1).
head(r_fr6_192,fr6_x2).
body(r_fr6_192,fr6_c3).
body(r_fr6_192,fr6_r2).
body(r_fr6_192,fr6_u2).
body(r_fr6_192,fr6_v1).
body(r_fr6_192,fr4_y2).
head(r_fr6_193,fr6_x2).
body(r_fr6_193,fr6_b1).
body(r_fr6_193,fr6_d2).
body(r_fr6_193,fr6_s2).
body(r_fr6_193,fr6_z2).
head(r_fr6_194,fr6_x2).
body(r_fr6_194,fr6_b1).
body(r_fr6_194,fr6_c1).
body(r_fr6_194,fr6_c2).
body(r_fr6_194,fr6_d2).
body(r_fr6_194,fr8_c2).
head(r_fr6_195,fr6_x2).
body(r_fr6_195,fr6_a1).
body(r_fr6_195,fr6_a2).
body(r_fr6_195,fr6_c3).
body(r_fr6_195,fr7_z5).
head(r_fr6_196,fr6_x2).
head(r_fr6_197,fr6_x2).
body(r_fr6_197,fr6_v2).
body(r_fr6_197,fr7_z5).
head(r_fr6_198,fr6_x2).
body(r_fr6_198,fr6_a1).
body(r_fr6_198,fr6_b2).
body(r_fr6_198,fr6_f2).
body(r_fr6_198,fr6_u1).

assumption(fr7_a1).
assumption(fr7_b1).
assumption(fr7_c1).
assumption(fr7_d1).
assumption(fr7_e1).
assumption(fr7_f1).
assumption(fr7_a2).
assumption(fr7_b2).
assumption(fr7_c2).
assumption(fr7_d2).
assumption(fr7_e2).
assumption(fr7_f2).
assumption(fr7_a3).
assumption(fr7_b3).
assumption(fr7_c3).
assumption(fr7_d3).
assumption(fr7_e3).
assumption(fr7_f3).
assumption(fr7_a4).
assumption(fr7_b4).
assumption(fr7_c4).
assumption(fr7_d4).
assumption(fr7_e4).
assumption(fr7_f4).
assumption(fr7_a5).
assumption(fr7_b5).
assumption(fr7_c5).
assumption(fr7_d5).
assumption(fr7_e5).
assumption(fr10_y2).
assumption(fr7_a6).
assumption(fr7_b6).
assumption(fr7_c6).
contrary(fr7_a1,fr7_d1).
contrary(fr7_a2,fr7_v2).
contrary(fr7_a3,fr7_s5).
contrary(fr7_a4,fr7_f1).
contrary(fr7_a5,fr7_a3).
contrary(fr7_a6,fr7_t3).
contrary(fr7_b1,fr7_y4).
contrary(fr7_b2,fr7_q2).
contrary(fr7_b3,fr7_e2).
contrary(fr7_b4,fr7_t3).
contrary(fr7_b5,fr7_y2).
contrary(fr7_b6,fr7_e3).
contrary(fr7_c1,fr7_r5).
contrary(fr7_c2,fr7_p1).
contrary(fr7_c3,fr7_v1).
contrary(fr7_c4,fr7_r4).
contrary(fr7_c5,fr7_z5).
contrary(fr7_c6,fr7_r4).
contrary(fr7_d1,fr7_b6).
contrary(fr7_d2,fr7_v2).
contrary(fr7_d3,fr7_c3).
contrary(fr7_d4,fr7_e1).
contrary(fr7_d5,fr7_b5).
contrary(fr7_e1,fr7_r1).
contrary(fr7_e2,fr7_t2).
contrary(fr7_e3,fr7_c6).
contrary(fr7_e4,fr7_a1).
contrary(fr7_e5,fr7_x3).
contrary(fr7_f1,fr7_a6).
contrary(fr7_f2,fr7_b2).
contrary(fr7_f3,fr7_y5).
contrary(fr7_f4,fr7_r2).
contrary(fr10_y2,fr7_v1).
head(r_fr7_0,fr7_z5).
body(r_fr7_0,fr7_a5).
body(r_fr7_0,fr7_e2).
body(r_fr7_0,fr7_p1).
body(r_fr7_0,fr7_p5).
body(r_fr7_0,fr7_q1).
body(r_fr7_0,fr7_q2).
body(r_fr7_0,fr7_q5).
body(r_fr7_0,fr7_s4).
body(r_fr7_0,fr7_w2).
body(r_fr7_0,fr7_x1).
body(r_fr7_0,fr7_x5).
body(r_fr7_0,fr7_y5).
head(r_fr7_1,fr7_z5).
body(r_fr7_1,fr7_r3).
body(r_fr7_1,fr7_w3).
body(r_fr7_1,fr7_x4).
head(r_fr7_2,fr7_u5).
head(r_fr7_3,fr7_u5).
body(r_fr7_3,fr7_a4).
body(r_fr7_3,fr7_a6).
body(r_fr7_3,fr7_d5).
body(r_fr7_3,fr7_f4).
body(r_fr7_3,fr7_x2).
body(r_fr7_3,fr7_x3).
head(r_fr7_4,fr7_v3).
body(r_fr7_4,fr7_f4).
body(r_fr7_4,fr7_t5).
body(r_fr7_4,fr7_x3).
body(r_fr7_4,fr7_y5).
body(r_fr7_4,fr7_z3).
head(r_fr7_5,fr7_v3).
body(r_fr7_5,fr7_c3).
body(r_fr7_5,fr7_q1).
body(r_fr7_5,fr7_r3).
body(r_fr7_5,fr7_r5).
body(r_fr7_5,fr7_t5).
body(r_fr7_5,fr7_u2).
body(r_fr7_5,fr7_w5).
body(r_fr7_5,fr7_x4).
body(r_fr7_5,fr7_y2).
body(r_fr7_5,fr7_y3).
head(r_fr7_6,fr7_v3).
body(r_fr7_6,fr7_a5).
body(r_fr7_6,fr7_c1).
body(r_fr7_6,fr7_c2).
body(r_fr7_6,fr7_d2).
body(r_fr7_6,fr7_d4).
body(r_fr7_6,fr7_e2).
body(r_fr7_6,fr7_e5).
body(r_fr7_6,fr10_y2).
body(r_fr7_6,fr7_s2).
body(r_fr7_6,fr7_t2).
body(r_fr7_6,fr7_u3).
body(r_fr7_6,fr7_u4).
body(r_fr7_6,fr7_y1).
head(r_fr7_7,fr7_v3).
head(r_fr7_8,fr7_t5).
body(r_fr7_8,fr7_b6).
body(r_fr7_8,fr7_y4).
head(r_fr7_9,fr7_t5).
body(r_fr7_9,fr7_b1).
body(r_fr7_9,fr7_b3).
body(r_fr7_9,fr10_r1).
head(r_fr7_10,fr7_t5).
body(r_fr7_10,fr7_b1).
body(r_fr7_10,fr7_d5).
body(r_fr7_10,fr7_q1).
body(r_fr7_10,fr7_t4).
body(r_fr7_10,fr7_w1).
body(r_fr7_10,fr7_w5).
body(r_fr7_10,fr7_z3).
head(r_fr7_11,fr7_t5).
body(r_fr7_11,fr7_a2).
body(r_fr7_11,fr7_e1).
body(r_fr7_11,fr7_e2).
body(r_fr7_11,fr7_s1).
body(r_fr7_11,fr7_u1).
body(r_fr7_11,fr7_u4).
body(r_fr7_11,fr7_y5).
head(r_fr7_12,fr7_t5).
body(r_fr7_12,fr7_b1).
head(r_fr7_13,fr7_t5).
body(r_fr7_13,fr7_b2).
body(r_fr7_13,fr7_b4).
body(r_fr7_13,fr7_d1).
body(r_fr7_13,fr7_e1).
body(r_fr7_13,fr7_e2).
body(r_fr7_13,fr7_f3).
body(r_fr7_13,fr7_q3).
body(r_fr7_13,fr7_s2).
head(r_fr7_14,fr7_t5).
body(r_fr7_14,fr7_y5).
body(r_fr7_14,fr7_z1).
head(r_fr7_15,fr7_t5).
body(r_fr7_15,fr7_b1).
body(r_fr7_15,fr7_b3).
body(r_fr7_15,fr7_c3).
body(r_fr7_15,fr7_c5).
body(r_fr7_15,fr7_f2).
head(r_fr7_16,fr7_t5).
body(r_fr7_16,fr7_a4).
body(r_fr7_16,fr7_b4).
body(r_fr7_16,fr7_b6).
body(r_fr7_16,fr7_c1).
body(r_fr7_16,fr7_c4).
body(r_fr7_16,fr7_c5).
body(r_fr7_16,fr7_d2).
body(r_fr7_16,fr7_d3).
body(r_fr7_16,fr7_e2).
body(r_fr7_16,fr7_e3).
body(r_fr7_16,fr7_e4).
body(r_fr7_16,fr7_e5).
body(r_fr7_16,fr7_f1).
head(r_fr7_17,fr7_t5).
body(r_fr7_17,fr7_b4).
body(r_fr7_17,fr7_c4).
body(r_fr7_17,fr7_f2).
body(r_fr7_17,fr7_p3).
body(r_fr7_17,fr7_t1).
body(r_fr7_17,fr7_w1).
body(r_fr7_17,fr7_y1).
body(r_fr7_17,fr7_y5).
body(r_fr7_17,fr7_z1).
body(r_fr7_17,fr7_z3).
head(r_fr7_18,fr7_t5).
body(r_fr7_18,fr7_a1).
body(r_fr7_18,fr7_b1).
body(r_fr7_18,fr7_b2).
body(r_fr7_18,fr7_y2).
head(r_fr7_19,fr7_p2).
body(r_fr7_19,fr7_q4).
head(r_fr7_20,fr7_p2).
body(r_fr7_20,fr7_a1).
body(r_fr7_20,fr7_b2).
body(r_fr7_20,fr7_e1).
body(r_fr7_20,fr7_e3).
body(r_fr7_20,fr7_p4).
body(r_fr7_20,fr7_q3).
head(r_fr7_21,fr7_p2).
body(r_fr7_21,fr7_a3).
body(r_fr7_21,fr7_b2).
body(r_fr7_21,fr7_b4).
body(r_fr7_21,fr7_b5).
body(r_fr7_21,fr7_c1).
body(r_fr7_21,fr7_d3).
body(r_fr7_21,fr7_f3).
body(r_fr7_21,fr7_f4).
head(r_fr7_22,fr7_p2).
body(r_fr7_22,fr7_f4).
body(r_fr7_22,fr7_r3).
body(r_fr7_22,fr7_r5).
body(r_fr7_22,fr7_u3).
body(r_fr7_22,fr7_v4).
body(r_fr7_22,fr7_w1).
body(r_fr7_22,fr7_w2).
body(r_fr7_22,fr10_r1).
head(r_fr7_23,fr7_p2).
body(r_fr7_23,fr7_c3).
body(r_fr7_23,fr7_f3).
body(r_fr7_23,fr7_f4).
head(r_fr7_24,fr7_p2).
body(r_fr7_24,fr7_a4).
body(r_fr7_24,fr7_c6).
body(r_fr7_24,fr10_y2).
body(r_fr7_24,fr7_r1).
body(r_fr7_24,fr7_t4).
body(r_fr7_24,fr7_v4).
body(r_fr7_24,fr7_x1).
body(r_fr7_24,fr7_z2).
head(r_fr7_25,fr7_p2).
body(r_fr7_25,fr7_b3).
body(r_fr7_25,fr7_b6).
body(r_fr7_25,fr7_c3).
body(r_fr7_25,fr7_d2).
head(r_fr7_26,fr7_p2).
body(r_fr7_26,fr7_f1).
body(r_fr7_26,fr7_r2).
body(r_fr7_26,fr7_s2).
body(r_fr7_26,fr7_u2).
body(r_fr7_26,fr7_v5).
body(r_fr7_26,fr7_w1).
body(r_fr7_26,fr7_w2).
body(r_fr7_26,fr7_y5).
body(r_fr7_26,fr7_z1).
head(r_fr7_27,fr7_t3).
body(r_fr7_27,fr7_c3).
body(r_fr7_27,fr7_d1).
body(r_fr7_27,fr7_d3).
body(r_fr7_27,fr7_e2).
body(r_fr7_27,fr7_e4).
body(r_fr7_27,fr7_s2).
body(r_fr7_27,fr7_v2).
body(r_fr7_27,fr7_x3).
head(r_fr7_28,fr7_t3).
body(r_fr7_28,fr7_b2).
body(r_fr7_28,fr7_b4).
body(r_fr7_28,fr7_e1).
body(r_fr7_28,fr7_e5).
head(r_fr7_29,fr7_t3).
body(r_fr7_29,fr7_a3).
body(r_fr7_29,fr7_e2).
body(r_fr7_29,fr7_q2).
body(r_fr7_29,fr7_u3).
body(r_fr7_29,fr7_v4).
body(r_fr7_29,fr7_y1).
body(r_fr7_29,fr7_y5).
body(r_fr7_29,fr7_z3).
head(r_fr7_30,fr7_t3).
body(r_fr7_30,fr7_a1).
body(r_fr7_30,fr7_b5).
body(r_fr7_30,fr7_c2).
body(r_fr7_30,fr7_c4).
body(r_fr7_30,fr7_c5).
body(r_fr7_30,fr7_d2).
body(r_fr7_30,fr7_d3).
body(r_fr7_30,fr7_d4).
body(r_fr7_30,fr7_e2).
body(r_fr7_30,fr7_t2).
head(r_fr7_31,fr7_t3).
body(r_fr7_31,fr7_b2).
body(r_fr7_31,fr7_b6).
body(r_fr7_31,fr7_d1).
body(r_fr7_31,fr7_d3).
body(r_fr7_31,fr7_d5).
body(r_fr7_31,fr7_e1).
body(r_fr7_31,fr10_y2).
head(r_fr7_32,fr7_t3).
body(r_fr7_32,fr7_a1).
body(r_fr7_32,fr7_a4).
body(r_fr7_32,fr7_a6).
body(r_fr7_32,fr7_b4).
body(r_fr7_32,fr7_c1).
body(r_fr7_32,fr7_c5).
body(r_fr7_32,fr7_d3).
body(r_fr7_32,fr7_d4).
body(r_fr7_32,fr7_f4).
body(r_fr7_32,fr10_y2).
body(r_fr7_32,fr7_r1).
body(r_fr7_32,fr7_r2).
body(r_fr7_32,fr7_z3).
head(r_fr7_33,fr7_t3).
body(r_fr7_33,fr7_c6).
body(r_fr7_33,fr7_d4).
body(r_fr7_33,fr7_q1).
body(r_fr7_33,fr7_q2).
body(r_fr7_33,fr7_r1).
body(r_fr7_33,fr7_w1).
body(r_fr7_33,fr7_x3).
body(r_fr7_33,fr7_y1).
body(r_fr7_33,fr7_z2).
head(r_fr7_34,fr7_t3).
body(r_fr7_34,fr7_q1).
body(r_fr7_34,fr7_r5).
body(r_fr7_34,fr7_v2).
body(r_fr7_34,fr7_v5).
body(r_fr7_34,fr7_w1).
body(r_fr7_34,fr7_x4).
body(r_fr7_34,fr7_y4).
body(r_fr7_34,fr7_z4).
head(r_fr7_35,fr7_t3).
body(r_fr7_35,fr7_q2).
body(r_fr7_35,fr7_r4).
body(r_fr7_35,fr7_w5).
head(r_fr7_36,fr7_t3).
body(r_fr7_36,fr7_b5).
body(r_fr7_36,fr7_b6).
body(r_fr7_36,fr7_c6).
body(r_fr7_36,fr10_y2).
head(r_fr7_37,fr7_w3).
body(r_fr7_37,fr7_a6).
body(r_fr7_37,fr7_s3).
body(r_fr7_37,fr7_x3).
body(r_fr7_37,fr7_y5).
head(r_fr7_38,fr7_w3).
body(r_fr7_38,fr7_c5).
body(r_fr7_38,fr7_d4).
body(r_fr7_38,fr7_d5).
body(r_fr7_38,fr7_t4).
body(r_fr7_38,fr7_v5).
head(r_fr7_39,fr7_w3).
body(r_fr7_39,fr7_d1).
body(r_fr7_39,fr7_p3).
body(r_fr7_39,fr7_p4).
body(r_fr7_39,fr7_q1).
body(r_fr7_39,fr7_x1).
body(r_fr7_39,fr7_x3).
head(r_fr7_40,fr7_w3).
body(r_fr7_40,fr7_a3).
body(r_fr7_40,fr7_z1).
head(r_fr7_41,fr7_w3).
body(r_fr7_41,fr7_a3).
body(r_fr7_41,fr7_b4).
body(r_fr7_41,fr7_c4).
body(r_fr7_41,fr7_d1).
body(r_fr7_41,fr7_q2).
body(r_fr7_41,fr7_t2).
head(r_fr7_42,fr7_w3).
body(r_fr7_42,fr7_c3).
body(r_fr7_42,fr7_e1).
body(r_fr7_42,fr7_r2).
body(r_fr7_42,fr7_u1).
body(r_fr7_42,fr7_v4).
body(r_fr7_42,fr7_x4).
body(r_fr7_42,fr7_y4).
head(r_fr7_43,fr7_w3).
body(r_fr7_43,fr7_a1).
body(r_fr7_43,fr7_b1).
body(r_fr7_43,fr7_b3).
body(r_fr7_43,fr7_c3).
body(r_fr7_43,fr7_q3).
body(r_fr7_43,fr7_s4).
body(r_fr7_43,fr7_y2).
body(r_fr7_43,fr7_y4).
body(r_fr7_43,fr7_z3).
head(r_fr7_44,fr7_w3).
body(r_fr7_44,fr7_a3).
body(r_fr7_44,fr7_a5).
body(r_fr7_44,fr7_c2).
body(r_fr7_44,fr7_d3).
body(r_fr7_44,fr7_e3).
body(r_fr7_44,fr7_e5).
body(r_fr7_44,fr7_f1).
body(r_fr7_44,fr7_f3).
body(r_fr7_44,fr7_t4).
body(r_fr7_44,fr7_w2).
head(r_fr7_45,fr7_w3).
body(r_fr7_45,fr7_u1).
head(r_fr7_46,fr7_w3).
body(r_fr7_46,fr7_a1).
body(r_fr7_46,fr7_a3).
body(r_fr7_46,fr7_a6).
body(r_fr7_46,fr7_b1).
body(r_fr7_46,fr7_c6).
body(r_fr7_46,fr7_d3).
body(r_fr7_46,fr7_e2).
body(r_fr7_46,fr7_f2).
body(r_fr7_46,fr7_t1).
body(r_fr7_46,fr7_w2).
body(r_fr7_46,fr7_y1).
body(r_fr7_46,fr7_z2).
head(r_fr7_47,fr7_w3).
body(r_fr7_47,fr7_b6).
body(r_fr7_47,fr7_e3).
body(r_fr7_47,fr7_e5).
body(r_fr7_47,fr7_q5).
body(r_fr7_47,fr7_u4).
head(r_fr7_48,fr7_t2).
body(r_fr7_48,fr7_a2).
body(r_fr7_48,fr7_a3).
body(r_fr7_48,fr7_a5).
body(r_fr7_48,fr7_a6).
body(r_fr7_48,fr7_b5).
body(r_fr7_48,fr7_c2).
body(r_fr7_48,fr7_c4).
body(r_fr7_48,fr7_c5).
body(r_fr7_48,fr7_c6).
body(r_fr7_48,fr7_d3).
body(r_fr7_48,fr7_e1).
body(r_fr7_48,fr7_f4).
body(r_fr7_48,fr7_z2).
head(r_fr7_49,fr7_t2).
body(r_fr7_49,fr7_p3).
body(r_fr7_49,fr7_q1).
body(r_fr7_49,fr7_q3).
body(r_fr7_49,fr7_q5).
body(r_fr7_49,fr7_v2).
body(r_fr7_49,fr10_r1).
body(r_fr7_49,fr7_x2).
body(r_fr7_49,fr7_x3).
body(r_fr7_49,fr7_z2).
head(r_fr7_50,fr7_t2).
body(r_fr7_50,fr7_a1).
body(r_fr7_50,fr7_a3).
body(r_fr7_50,fr7_b6).
body(r_fr7_50,fr7_c4).
body(r_fr7_50,fr7_d2).
body(r_fr7_50,fr7_d5).
body(r_fr7_50,fr7_e3).
body(r_fr7_50,fr7_r2).
body(r_fr7_50,fr7_y5).
head(r_fr7_51,fr7_t2).
head(r_fr7_52,fr7_t2).
body(r_fr7_52,fr7_r1).
body(r_fr7_52,fr7_r2).
body(r_fr7_52,fr7_s4).
body(r_fr7_52,fr7_u1).
body(r_fr7_52,fr7_v4).
body(r_fr7_52,fr7_w5).
body(r_fr7_52,fr7_x3).
body(r_fr7_52,fr7_x4).
head(r_fr7_53,fr10_r1).
body(r_fr7_53,fr7_b5).
body(r_fr7_53,fr7_e5).
body(r_fr7_53,fr7_p4).
body(r_fr7_53,fr7_p5).
body(r_fr7_53,fr7_r1).
body(r_fr7_53,fr7_t4).
body(r_fr7_53,fr7_u2).
body(r_fr7_53,fr7_u4).
body(r_fr7_53,fr7_v4).
body(r_fr7_53,fr7_x4).
body(r_fr7_53,fr7_y2).
body(r_fr7_53,fr7_z2).
head(r_fr7_54,fr10_r1).
body(r_fr7_54,fr7_b5).
body(r_fr7_54,fr7_e2).
body(r_fr7_54,fr7_w1).
body(r_fr7_54,fr7_y3).
head(r_fr7_55,fr10_r1).
body(r_fr7_55,fr7_a4).
body(r_fr7_55,fr7_a5).
body(r_fr7_55,fr7_b3).
body(r_fr7_55,fr7_b4).
body(r_fr7_55,fr7_c5).
body(r_fr7_55,fr7_f2).
body(r_fr7_55,fr7_w5).
head(r_fr7_56,fr7_v5).
body(r_fr7_56,fr7_a1).
body(r_fr7_56,fr7_q4).
body(r_fr7_56,fr7_r5).
body(r_fr7_56,fr7_t1).
body(r_fr7_56,fr7_v4).
head(r_fr7_57,fr7_v5).
body(r_fr7_57,fr7_r3).
body(r_fr7_57,fr7_t1).
body(r_fr7_57,fr7_t4).
body(r_fr7_57,fr7_u2).
body(r_fr7_57,fr7_u3).
body(r_fr7_57,fr7_w1).
body(r_fr7_57,fr7_x1).
head(r_fr7_58,fr7_v5).
body(r_fr7_58,fr7_b4).
body(r_fr7_58,fr7_s1).
body(r_fr7_58,fr7_v4).
body(r_fr7_58,fr7_y3).
head(r_fr7_59,fr7_v5).
body(r_fr7_59,fr7_p5).
body(r_fr7_59,fr7_q3).
body(r_fr7_59,fr7_q4).
body(r_fr7_59,fr7_s1).
body(r_fr7_59,fr7_s4).
body(r_fr7_59,fr7_t1).
body(r_fr7_59,fr7_v2).
body(r_fr7_59,fr7_v4).
body(r_fr7_59,fr7_x2).
body(r_fr7_59,fr7_y2).
body(r_fr7_59,fr7_z1).
body(r_fr7_59,fr7_z2).
head(r_fr7_60,fr7_v5).
head(r_fr7_61,fr7_v5).
body(r_fr7_61,fr7_p1).
body(r_fr7_61,fr7_q4).
body(r_fr7_61,fr7_t4).
body(r_fr7_61,fr7_u2).
body(r_fr7_61,fr7_u4).
head(r_fr7_62,fr7_v5).
body(r_fr7_62,fr7_q1).
body(r_fr7_62,fr7_r1).
body(r_fr7_62,fr7_s1).
body(r_fr7_62,fr7_y4).
body(r_fr7_62,fr7_y5).
head(r_fr7_63,fr7_v5).
body(r_fr7_63,fr7_a4).
body(r_fr7_63,fr7_b2).
body(r_fr7_63,fr7_v1).
head(r_fr7_64,fr7_v5).
body(r_fr7_64,fr7_a6).
body(r_fr7_64,fr7_b4).
body(r_fr7_64,fr7_c3).
body(r_fr7_64,fr7_q1).
body(r_fr7_64,fr7_v2).
body(r_fr7_64,fr7_y1).
body(r_fr7_64,fr7_y3).
body(r_fr7_64,fr7_z2).
head(r_fr7_65,fr7_p3).
body(r_fr7_65,fr7_a6).
body(r_fr7_65,fr7_e2).
body(r_fr7_65,fr10_y2).
body(r_fr7_65,fr7_q3).
body(r_fr7_65,fr7_q4).
body(r_fr7_65,fr7_r3).
body(r_fr7_65,fr7_s2).
body(r_fr7_65,fr7_x1).
body(r_fr7_65,fr7_x2).
body(r_fr7_65,fr7_x4).
body(r_fr7_65,fr7_y4).
body(r_fr7_65,fr7_z2).
head(r_fr7_66,fr7_p3).
body(r_fr7_66,fr7_a5).
body(r_fr7_66,fr7_c3).
body(r_fr7_66,fr7_q4).
body(r_fr7_66,fr7_r2).
body(r_fr7_66,fr7_s2).
body(r_fr7_66,fr7_s4).
body(r_fr7_66,fr7_v2).
body(r_fr7_66,fr7_x4).
body(r_fr7_66,fr7_z2).
head(r_fr7_67,fr7_p3).
body(r_fr7_67,fr7_a4).
body(r_fr7_67,fr7_c1).
body(r_fr7_67,fr7_c5).
body(r_fr7_67,fr7_e2).
body(r_fr7_67,fr7_u4).
body(r_fr7_67,fr7_w1).
body(r_fr7_67,fr7_x3).
head(r_fr7_68,fr7_p3).
body(r_fr7_68,fr7_c4).
body(r_fr7_68,fr7_d1).
body(r_fr7_68,fr7_e1).
body(r_fr7_68,fr7_f2).
body(r_fr7_68,fr7_r1).
body(r_fr7_68,fr7_u3).
head(r_fr7_69,fr7_p3).
body(r_fr7_69,fr7_a2).
body(r_fr7_69,fr7_a4).
body(r_fr7_69,fr7_a5).
body(r_fr7_69,fr7_c2).
body(r_fr7_69,fr7_c5).
body(r_fr7_69,fr7_c6).
body(r_fr7_69,fr7_d5).
body(r_fr7_69,fr7_f2).
body(r_fr7_69,fr10_y2).
head(r_fr7_70,fr7_x4).
body(r_fr7_70,fr7_c1).
body(r_fr7_70,fr7_e2).
head(r_fr7_71,fr7_x4).
body(r_fr7_71,fr7_b6).
body(r_fr7_71,fr7_d5).
body(r_fr7_71,fr7_e2).
body(r_fr7_71,fr7_q5).
body(r_fr7_71,fr7_u4).
head(r_fr7_72,fr7_x4).
body(r_fr7_72,fr7_c1).
body(r_fr7_72,fr7_e3).
body(r_fr7_72,fr7_p5).
body(r_fr7_72,fr7_q1).
body(r_fr7_72,fr7_r4).
body(r_fr7_72,fr7_s5).
body(r_fr7_72,fr7_u2).
body(r_fr7_72,fr7_x1).
body(r_fr7_72,fr7_x5).
head(r_fr7_73,fr7_x4).
body(r_fr7_73,fr7_a4).
body(r_fr7_73,fr7_e1).
body(r_fr7_73,fr7_r1).
body(r_fr7_73,fr7_s3).
body(r_fr7_73,fr7_s5).
body(r_fr7_73,fr7_u1).
body(r_fr7_73,fr7_u4).
body(r_fr7_73,fr7_w2).
body(r_fr7_73,fr7_w5).
body(r_fr7_73,fr7_y3).
head(r_fr7_74,fr7_x4).
body(r_fr7_74,fr7_a5).
body(r_fr7_74,fr7_e4).
body(r_fr7_74,fr7_q4).
body(r_fr7_74,fr7_w1).
body(r_fr7_74,fr7_w2).
body(r_fr7_74,fr7_w5).
body(r_fr7_74,fr7_y3).
body(r_fr7_74,fr7_z1).
body(r_fr7_74,fr7_z2).
body(r_fr7_74,fr7_z4).
head(r_fr7_75,fr7_x4).
body(r_fr7_75,fr7_c1).
body(r_fr7_75,fr7_c3).
body(r_fr7_75,fr7_c5).
body(r_fr7_75,fr7_e2).
head(r_fr7_76,fr7_x4).
body(r_fr7_76,fr7_a1).
body(r_fr7_76,fr7_c2).
body(r_fr7_76,fr7_e1).
body(r_fr7_76,fr7_e2).
body(r_fr7_76,fr7_f2).
body(r_fr7_76,fr7_f3).
body(r_fr7_76,fr7_q4).
body(r_fr7_76,fr7_s5).
body(r_fr7_76,fr7_w2).
body(r_fr7_76,fr7_x2).
head(r_fr7_77,fr7_x4).
body(r_fr7_77,fr7_d3).
body(r_fr7_77,fr7_e2).
body(r_fr7_77,fr7_e3).
body(r_fr7_77,fr7_e5).
body(r_fr7_77,fr7_z3).
head(r_fr7_78,fr7_x4).
body(r_fr7_78,fr7_b3).
body(r_fr7_78,fr7_q1).
body(r_fr7_78,fr7_q2).
body(r_fr7_78,fr7_q3).
body(r_fr7_78,fr7_r1).
body(r_fr7_78,fr7_s1).
body(r_fr7_78,fr7_s2).
body(r_fr7_78,fr7_u1).
body(r_fr7_78,fr7_u2).
body(r_fr7_78,fr7_y1).
body(r_fr7_78,fr7_y2).
body(r_fr7_78,fr7_z4).
head(r_fr7_79,fr7_q1).
body(r_fr7_79,fr7_b6).
body(r_fr7_79,fr7_c6).
body(r_fr7_79,fr7_d1).
body(r_fr7_79,fr7_d3).
body(r_fr7_79,fr7_d5).
body(r_fr7_79,fr7_u1).
body(r_fr7_79,fr7_u3).
body(r_fr7_79,fr7_w1).
body(r_fr7_79,fr7_z3).
head(r_fr7_80,fr7_q1).
body(r_fr7_80,fr7_a1).
body(r_fr7_80,fr7_b1).
body(r_fr7_80,fr7_b5).
body(r_fr7_80,fr7_d1).
body(r_fr7_80,fr7_e4).
body(r_fr7_80,fr7_e5).
body(r_fr7_80,fr7_f1).
body(r_fr7_80,fr7_f3).
body(r_fr7_80,fr7_r1).
body(r_fr7_80,fr7_s2).
body(r_fr7_80,fr7_v2).
head(r_fr7_81,fr7_q1).
body(r_fr7_81,fr7_a2).
body(r_fr7_81,fr7_d2).
head(r_fr7_82,fr7_r5).
body(r_fr7_82,fr7_c6).
body(r_fr7_82,fr7_d4).
body(r_fr7_82,fr7_e5).
body(r_fr7_82,fr10_y2).
head(r_fr7_83,fr7_r5).
body(r_fr7_83,fr7_a4).
body(r_fr7_83,fr7_a6).
body(r_fr7_83,fr7_c3).
body(r_fr7_83,fr7_e5).
body(r_fr7_83,fr7_r1).
body(r_fr7_83,fr7_u1).
body(r_fr7_83,fr7_y4).
head(r_fr7_84,fr7_r5).
body(r_fr7_84,fr7_b1).
body(r_fr7_84,fr7_b3).
body(r_fr7_84,fr7_b6).
body(r_fr7_84,fr7_c1).
body(r_fr7_84,fr7_c6).
body(r_fr7_84,fr7_d2).
body(r_fr7_84,fr7_e1).
body(r_fr7_84,fr10_y2).
body(r_fr7_84,fr7_p4).
body(r_fr7_84,fr7_r2).
body(r_fr7_84,fr7_s2).
body(r_fr7_84,fr7_u3).
head(r_fr7_85,fr7_r5).
body(r_fr7_85,fr7_b5).
body(r_fr7_85,fr7_c1).
body(r_fr7_85,fr7_c2).
body(r_fr7_85,fr7_c3).
body(r_fr7_85,fr7_c4).
body(r_fr7_85,fr7_c6).
body(r_fr7_85,fr7_d2).
body(r_fr7_85,fr7_e1).
body(r_fr7_85,fr7_e4).
body(r_fr7_85,fr7_f1).
body(r_fr7_85,fr7_f3).
body(r_fr7_85,fr7_f4).
body(r_fr7_85,fr10_y2).
head(r_fr7_86,fr7_r5).
body(r_fr7_86,fr7_a1).
body(r_fr7_86,fr7_d1).
body(r_fr7_86,fr7_f4).
head(r_fr7_87,fr7_r5).
body(r_fr7_87,fr7_a5).
body(r_fr7_87,fr7_c3).
head(r_fr7_88,fr7_t4).
body(r_fr7_88,fr7_b6).
body(r_fr7_88,fr7_c6).
body(r_fr7_88,fr7_d1).
body(r_fr7_88,fr7_d2).
head(r_fr7_89,fr7_t4).
body(r_fr7_89,fr7_c2).
body(r_fr7_89,fr7_f4).
head(r_fr7_90,fr7_t4).
body(r_fr7_90,fr7_a2).
body(r_fr7_90,fr7_y4).
head(r_fr7_91,fr7_t4).
body(r_fr7_91,fr7_v2).
head(r_fr7_92,fr7_t4).
body(r_fr7_92,fr7_a3).
body(r_fr7_92,fr7_c1).
body(r_fr7_92,fr7_d3).
body(r_fr7_92,fr7_d5).
body(r_fr7_92,fr7_f2).
body(r_fr7_92,fr10_y2).
body(r_fr7_92,fr7_q2).
body(r_fr7_92,fr7_v2).
head(r_fr7_93,fr7_t4).
body(r_fr7_93,fr7_a4).
body(r_fr7_93,fr7_b1).
body(r_fr7_93,fr7_b3).
body(r_fr7_93,fr7_b5).
body(r_fr7_93,fr7_c3).
body(r_fr7_93,fr7_c4).
body(r_fr7_93,fr7_d2).
body(r_fr7_93,fr7_f1).
body(r_fr7_93,fr7_u3).
head(r_fr7_94,fr7_t4).
body(r_fr7_94,fr10_y2).
head(r_fr7_95,fr7_t4).
body(r_fr7_95,fr7_a1).
body(r_fr7_95,fr7_a2).
body(r_fr7_95,fr7_a4).
body(r_fr7_95,fr7_a6).
body(r_fr7_95,fr7_b6).
body(r_fr7_95,fr7_e1).
body(r_fr7_95,fr7_f3).
body(r_fr7_95,fr10_y2).
head(r_fr7_96,fr7_t4).
body(r_fr7_96,fr7_a1).
body(r_fr7_96,fr7_c3).
body(r_fr7_96,fr7_f3).
body(r_fr7_96,fr7_p4).
body(r_fr7_96,fr7_r4).
head(r_fr7_97,fr7_t4).
body(r_fr7_97,fr7_a3).
body(r_fr7_97,fr7_b3).
body(r_fr7_97,fr7_b5).
body(r_fr7_97,fr7_d1).
body(r_fr7_97,fr7_d5).
body(r_fr7_97,fr7_e1).
body(r_fr7_97,fr7_e2).
body(r_fr7_97,fr7_f1).
body(r_fr7_97,fr10_y2).
body(r_fr7_97,fr7_p1).
body(r_fr7_97,fr7_r2).
body(r_fr7_97,fr7_s5).
body(r_fr7_97,fr7_x5).
head(r_fr7_98,fr7_t4).
head(r_fr7_99,fr7_z1).
body(r_fr7_99,fr7_a1).
body(r_fr7_99,fr7_c3).
body(r_fr7_99,fr7_c4).
body(r_fr7_99,fr7_f3).
body(r_fr7_99,fr10_y2).
body(r_fr7_99,fr7_p1).
body(r_fr7_99,fr7_r1).
body(r_fr7_99,fr7_v4).
body(r_fr7_99,fr7_y2).
body(r_fr7_99,fr7_y3).
body(r_fr7_99,fr7_z3).
head(r_fr7_100,fr7_z1).
body(r_fr7_100,fr7_a3).
body(r_fr7_100,fr7_a6).
body(r_fr7_100,fr7_c2).
body(r_fr7_100,fr7_c6).
body(r_fr7_100,fr7_d3).
body(r_fr7_100,fr7_q2).
body(r_fr7_100,fr7_w1).
body(r_fr7_100,fr7_x3).
body(r_fr7_100,fr7_z2).
head(r_fr7_101,fr7_z1).
body(r_fr7_101,fr7_b4).
body(r_fr7_101,fr7_c4).
body(r_fr7_101,fr7_d1).
body(r_fr7_101,fr7_y4).
body(r_fr7_101,fr7_z2).
head(r_fr7_102,fr7_z1).
body(r_fr7_102,fr7_c1).
body(r_fr7_102,fr7_f1).
body(r_fr7_102,fr7_p1).
body(r_fr7_102,fr7_r1).
body(r_fr7_102,fr7_s4).
body(r_fr7_102,fr7_w1).
body(r_fr7_102,fr7_x5).
body(r_fr7_102,fr7_y3).
head(r_fr7_103,fr7_z1).
body(r_fr7_103,fr7_c2).
body(r_fr7_103,fr7_d5).
body(r_fr7_103,fr7_e5).
body(r_fr7_103,fr7_p1).
body(r_fr7_103,fr7_q3).
body(r_fr7_103,fr7_u1).
body(r_fr7_103,fr7_u2).
body(r_fr7_103,fr7_u3).
body(r_fr7_103,fr7_w1).
body(r_fr7_103,fr7_w2).
body(r_fr7_103,fr7_x1).
body(r_fr7_103,fr7_y4).
body(r_fr7_103,fr7_z3).
head(r_fr7_104,fr7_z1).
head(r_fr7_105,fr7_z1).
body(r_fr7_105,fr7_a1).
body(r_fr7_105,fr7_a2).
body(r_fr7_105,fr7_a6).
body(r_fr7_105,fr7_b3).
body(r_fr7_105,fr7_c1).
body(r_fr7_105,fr7_c2).
body(r_fr7_105,fr7_c3).
body(r_fr7_105,fr7_c6).
body(r_fr7_105,fr7_d1).
body(r_fr7_105,fr7_d2).
body(r_fr7_105,fr7_d4).
body(r_fr7_105,fr7_x5).
head(r_fr7_106,fr7_z1).
body(r_fr7_106,fr7_c1).
body(r_fr7_106,fr7_e3).
body(r_fr7_106,fr7_r1).
body(r_fr7_106,fr7_s1).
body(r_fr7_106,fr7_s3).
body(r_fr7_106,fr7_v1).
body(r_fr7_106,fr7_w1).
body(r_fr7_106,fr7_x5).
body(r_fr7_106,fr7_y4).
head(r_fr7_107,fr7_z1).
body(r_fr7_107,fr7_a3).
body(r_fr7_107,fr7_a5).
body(r_fr7_107,fr7_b5).
body(r_fr7_107,fr7_d3).
body(r_fr7_107,fr7_d5).
body(r_fr7_107,fr7_p5).
body(r_fr7_107,fr7_q2).
body(r_fr7_107,fr7_q4).
body(r_fr7_107,fr7_s5).
body(r_fr7_107,fr7_w5).
body(r_fr7_107,fr7_y1).
head(r_fr7_108,fr7_p1).
body(r_fr7_108,fr7_a3).
body(r_fr7_108,fr7_a6).
body(r_fr7_108,fr7_c3).
body(r_fr7_108,fr7_c5).
body(r_fr7_108,fr7_q4).
body(r_fr7_108,fr7_q5).
body(r_fr7_108,fr7_u4).
head(r_fr7_109,fr7_p1).
body(r_fr7_109,fr7_q4).
body(r_fr7_109,fr7_t1).
head(r_fr7_110,fr7_p1).
body(r_fr7_110,fr7_a1).
body(r_fr7_110,fr7_a2).
body(r_fr7_110,fr7_a3).
body(r_fr7_110,fr7_a6).
body(r_fr7_110,fr7_c4).
body(r_fr7_110,fr7_c5).
body(r_fr7_110,fr7_c6).
body(r_fr7_110,fr7_d1).
body(r_fr7_110,fr7_d3).
body(r_fr7_110,fr7_d5).
body(r_fr7_110,fr7_e1).
body(r_fr7_110,fr7_e2).
body(r_fr7_110,fr7_f1).
head(r_fr7_111,fr7_p1).
body(r_fr7_111,fr7_a1).
body(r_fr7_111,fr7_f4).
body(r_fr7_111,fr7_r1).
body(r_fr7_111,fr7_r4).
body(r_fr7_111,fr7_s4).
body(r_fr7_111,fr7_s5).
body(r_fr7_111,fr7_t1).
body(r_fr7_111,fr7_u1).
body(r_fr7_111,fr7_w1).
body(r_fr7_111,fr7_w2).
body(r_fr7_111,fr7_w5).
body(r_fr7_111,fr7_x2).
body(r_fr7_111,fr7_z3).
head(r_fr7_112,fr7_p1).
body(r_fr7_112,fr7_r3).
body(r_fr7_112,fr7_u2).
body(r_fr7_112,fr7_w2).
body(r_fr7_112,fr7_y3).
head(r_fr7_113,fr7_p1).
body(r_fr7_113,fr7_c6).
body(r_fr7_113,fr7_e1).
body(r_fr7_113,fr7_q3).
body(r_fr7_113,fr7_s5).
body(r_fr7_113,fr7_v2).
body(r_fr7_113,fr7_x5).
head(r_fr7_114,fr7_p1).
body(r_fr7_114,fr7_a6).
body(r_fr7_114,fr7_q2).
body(r_fr7_114,fr7_r3).
body(r_fr7_114,fr7_s4).
body(r_fr7_114,fr7_u2).
body(r_fr7_114,fr7_v2).
body(r_fr7_114,fr7_w1).
body(r_fr7_114,fr7_x2).
body(r_fr7_114,fr7_x3).
head(r_fr7_115,fr7_p1).
body(r_fr7_115,fr7_s1).
head(r_fr7_116,fr7_p1).
body(r_fr7_116,fr7_b3).
body(r_fr7_116,fr7_p4).
body(r_fr7_116,fr7_u1).
body(r_fr7_116,fr7_u2).
body(r_fr7_116,fr7_x5).
head(r_fr7_117,fr7_p1).
body(r_fr7_117,fr7_r1).
body(r_fr7_117,fr7_s2).
body(r_fr7_117,fr7_s3).
body(r_fr7_117,fr7_w1).
body(r_fr7_117,fr7_y3).
head(r_fr7_118,fr7_p1).
body(r_fr7_118,fr7_q3).
body(r_fr7_118,fr7_q5).
head(r_fr7_119,fr7_p4).
body(r_fr7_119,fr7_u4).
body(r_fr7_119,fr7_y1).
head(r_fr7_120,fr7_p4).
head(r_fr7_121,fr7_p4).
body(r_fr7_121,fr7_b3).
body(r_fr7_121,fr7_b6).
body(r_fr7_121,fr7_c3).
body(r_fr7_121,fr7_d1).
body(r_fr7_121,fr7_d3).
body(r_fr7_121,fr7_e1).
body(r_fr7_121,fr7_e3).
body(r_fr7_121,fr7_q2).
body(r_fr7_121,fr7_s5).
body(r_fr7_121,fr7_x1).
body(r_fr7_121,fr7_x5).
body(r_fr7_121,fr7_y3).
body(r_fr7_121,fr7_z2).
head(r_fr7_122,fr7_p4).
body(r_fr7_122,fr7_b4).
body(r_fr7_122,fr7_e1).
body(r_fr7_122,fr7_e3).
body(r_fr7_122,fr7_f2).
body(r_fr7_122,fr7_q2).
body(r_fr7_122,fr7_u3).
body(r_fr7_122,fr7_x1).
body(r_fr7_122,fr7_y1).
body(r_fr7_122,fr7_z2).
head(r_fr7_123,fr7_p4).
body(r_fr7_123,fr7_a1).
body(r_fr7_123,fr7_e2).
body(r_fr7_123,fr7_e3).
head(r_fr7_124,fr7_p4).
body(r_fr7_124,fr7_p5).
body(r_fr7_124,fr7_r1).
body(r_fr7_124,fr7_r2).
body(r_fr7_124,fr7_u4).
body(r_fr7_124,fr7_y3).
body(r_fr7_124,fr7_z2).
body(r_fr7_124,fr7_z3).
body(r_fr7_124,fr7_z4).
head(r_fr7_125,fr7_p4).
body(r_fr7_125,fr7_c5).
body(r_fr7_125,fr7_e5).
body(r_fr7_125,fr7_s2).
head(r_fr7_126,fr7_p4).
body(r_fr7_126,fr7_p5).
body(r_fr7_126,fr7_q2).
body(r_fr7_126,fr7_q3).
body(r_fr7_126,fr7_r1).
body(r_fr7_126,fr7_r2).
body(r_fr7_126,fr7_s1).
body(r_fr7_126,fr7_s5).
body(r_fr7_126,fr7_u2).
body(r_fr7_126,fr7_x1).
body(r_fr7_126,fr7_x5).
body(r_fr7_126,fr7_y1).
body(r_fr7_126,fr7_y2).
head(r_fr7_127,fr7_q4).
body(r_fr7_127,fr7_b1).
body(r_fr7_127,fr7_c4).
body(r_fr7_127,fr7_e3).
body(r_fr7_127,fr7_f2).
body(r_fr7_127,fr10_y2).
body(r_fr7_127,fr7_s3).
body(r_fr7_127,fr7_v4).
body(r_fr7_127,fr7_y2).
head(r_fr7_128,fr7_q4).
body(r_fr7_128,fr7_e1).
body(r_fr7_128,fr7_p5).
body(r_fr7_128,fr7_q3).
body(r_fr7_128,fr7_s4).
body(r_fr7_128,fr7_u2).
body(r_fr7_128,fr7_v1).
body(r_fr7_128,fr7_w1).
body(r_fr7_128,fr7_x5).
body(r_fr7_128,fr7_y1).
body(r_fr7_128,fr7_y4).
body(r_fr7_128,fr7_z4).
head(r_fr7_129,fr7_q4).
body(r_fr7_129,fr7_r1).
body(r_fr7_129,fr7_z4).
head(r_fr7_130,fr7_q4).
body(r_fr7_130,fr7_p5).
body(r_fr7_130,fr7_q2).
body(r_fr7_130,fr7_q3).
body(r_fr7_130,fr7_r3).
body(r_fr7_130,fr7_r4).
body(r_fr7_130,fr7_u1).
body(r_fr7_130,fr7_v2).
body(r_fr7_130,fr7_x3).
body(r_fr7_130,fr7_x5).
body(r_fr7_130,fr7_y4).
body(r_fr7_130,fr7_y5).
body(r_fr7_130,fr7_z4).
head(r_fr7_131,fr7_q4).
body(r_fr7_131,fr7_w1).
head(r_fr7_132,fr7_q4).
body(r_fr7_132,fr7_c2).
body(r_fr7_132,fr7_p5).
body(r_fr7_132,fr7_q5).
body(r_fr7_132,fr7_y2).
body(r_fr7_132,fr7_z2).
body(r_fr7_132,fr7_z3).
body(r_fr7_132,fr7_z4).
head(r_fr7_133,fr7_q4).
body(r_fr7_133,fr7_a2).
body(r_fr7_133,fr7_a6).
body(r_fr7_133,fr7_r3).
body(r_fr7_133,fr7_s1).
body(r_fr7_133,fr7_u1).
body(r_fr7_133,fr7_w2).
body(r_fr7_133,fr7_x1).
body(r_fr7_133,fr7_y1).
body(r_fr7_133,fr7_y2).
body(r_fr7_133,fr7_y3).
head(r_fr7_134,fr7_z2).
body(r_fr7_134,fr7_b3).
body(r_fr7_134,fr7_c1).
body(r_fr7_134,fr7_c4).
body(r_fr7_134,fr7_d1).
body(r_fr7_134,fr7_d2).
body(r_fr7_134,fr7_q5).
head(r_fr7_135,fr7_z2).
body(r_fr7_135,fr7_a1).
body(r_fr7_135,fr7_b1).
body(r_fr7_135,fr7_b6).
body(r_fr7_135,fr7_d2).
body(r_fr7_135,fr7_d4).
body(r_fr7_135,fr7_e2).
body(r_fr7_135,fr7_e3).
head(r_fr7_136,fr7_z2).
body(r_fr7_136,fr7_e2).
body(r_fr7_136,fr7_s1).
body(r_fr7_136,fr7_y1).
head(r_fr7_137,fr7_z2).
body(r_fr7_137,fr7_a2).
body(r_fr7_137,fr7_b2).
body(r_fr7_137,fr7_b4).
body(r_fr7_137,fr7_d5).
body(r_fr7_137,fr7_e3).
body(r_fr7_137,fr7_e4).
body(r_fr7_137,fr7_f4).
body(r_fr7_137,fr7_r2).
body(r_fr7_137,fr7_r4).
body(r_fr7_137,fr7_s2).
body(r_fr7_137,fr7_s4).
body(r_fr7_137,fr7_x3).
body(r_fr7_137,fr7_y1).
head(r_fr7_138,fr7_z2).
body(r_fr7_138,fr7_a4).
body(r_fr7_138,fr7_r1).
body(r_fr7_138,fr7_u4).
body(r_fr7_138,fr7_v1).
body(r_fr7_138,fr7_y5).
body(r_fr7_138,fr7_z3).
head(r_fr7_139,fr7_z2).
body(r_fr7_139,fr7_a6).
body(r_fr7_139,fr7_b5).
body(r_fr7_139,fr7_c2).
body(r_fr7_139,fr7_c3).
body(r_fr7_139,fr7_d3).
body(r_fr7_139,fr7_e1).
body(r_fr7_139,fr7_e4).
body(r_fr7_139,fr7_f2).
body(r_fr7_139,fr7_f4).
body(r_fr7_139,fr10_y2).
body(r_fr7_139,fr7_z3).
head(r_fr7_140,fr7_z2).
head(r_fr7_141,fr7_z2).
body(r_fr7_141,fr7_a6).
body(r_fr7_141,fr7_d2).
body(r_fr7_141,fr7_e1).
body(r_fr7_141,fr7_p5).
body(r_fr7_141,fr7_s4).
body(r_fr7_141,fr7_u1).
body(r_fr7_141,fr7_v4).
body(r_fr7_141,fr7_w2).
head(r_fr7_142,fr7_z2).
body(r_fr7_142,fr7_c2).
body(r_fr7_142,fr7_c6).
body(r_fr7_142,fr10_y2).
body(r_fr7_142,fr7_r3).
body(r_fr7_142,fr7_s4).
body(r_fr7_142,fr7_v1).
body(r_fr7_142,fr7_x1).
head(r_fr7_143,fr7_z2).
body(r_fr7_143,fr7_c6).
head(r_fr7_144,fr7_z3).
body(r_fr7_144,fr7_a1).
body(r_fr7_144,fr7_a4).
body(r_fr7_144,fr7_b1).
body(r_fr7_144,fr7_c1).
body(r_fr7_144,fr7_d2).
body(r_fr7_144,fr7_d3).
body(r_fr7_144,fr7_q3).
body(r_fr7_144,fr7_s5).
body(r_fr7_144,fr7_v2).
body(r_fr7_144,fr7_y1).
body(r_fr7_144,fr7_y2).
head(r_fr7_145,fr7_z3).
body(r_fr7_145,fr7_b6).
body(r_fr7_145,fr7_r4).
body(r_fr7_145,fr7_x5).
head(r_fr7_146,fr7_z3).
body(r_fr7_146,fr7_c4).
body(r_fr7_146,fr7_v4).
head(r_fr7_147,fr7_s3).
body(r_fr7_147,fr7_a6).
body(r_fr7_147,fr7_b2).
body(r_fr7_147,fr7_d3).
body(r_fr7_147,fr7_r1).
body(r_fr7_147,fr7_w2).
body(r_fr7_147,fr7_y4).
head(r_fr7_148,fr7_s3).
body(r_fr7_148,fr7_b1).
body(r_fr7_148,fr7_b4).
body(r_fr7_148,fr7_b6).
body(r_fr7_148,fr7_c3).
body(r_fr7_148,fr7_e3).
body(r_fr7_148,fr7_e4).
body(r_fr7_148,fr10_y2).
body(r_fr7_148,fr7_y4).
body(r_fr7_148,fr7_z4).
head(r_fr7_149,fr7_s3).
body(r_fr7_149,fr7_p5).
body(r_fr7_149,fr7_s1).
body(r_fr7_149,fr7_u2).
body(r_fr7_149,fr7_x5).
body(r_fr7_149,fr7_z4).
head(r_fr7_150,fr7_s3).
body(r_fr7_150,fr7_a1).
body(r_fr7_150,fr7_c1).
body(r_fr7_150,fr7_c4).
body(r_fr7_150,fr7_e4).
body(r_fr7_150,fr7_f4).
body(r_fr7_150,fr10_y2).
body(r_fr7_150,fr7_q5).
body(r_fr7_150,fr7_r3).
body(r_fr7_150,fr7_s1).
body(r_fr7_150,fr7_w1).
body(r_fr7_150,fr7_y1).
head(r_fr7_151,fr7_s3).
body(r_fr7_151,fr7_e4).
head(r_fr7_152,fr7_s3).
body(r_fr7_152,fr7_u3).
body(r_fr7_152,fr7_x3).
body(r_fr7_152,fr7_y3).
head(r_fr7_153,fr7_s3).
body(r_fr7_153,fr7_a6).
head(r_fr7_154,fr7_s3).
body(r_fr7_154,fr7_p5).
body(r_fr7_154,fr7_r1).
body(r_fr7_154,fr7_r2).
body(r_fr7_154,fr7_u3).
body(r_fr7_154,fr7_w1).
body(r_fr7_154,fr7_w5).
body(r_fr7_154,fr7_x2).
body(r_fr7_154,fr7_x5).
body(r_fr7_154,fr7_y2).
body(r_fr7_154,fr7_y5).
body(r_fr7_154,fr7_z4).
head(r_fr7_155,fr7_u4).
body(r_fr7_155,fr7_p5).
body(r_fr7_155,fr7_v2).
head(r_fr7_156,fr7_u4).
body(r_fr7_156,fr7_q2).
body(r_fr7_156,fr7_q5).
body(r_fr7_156,fr7_r3).
body(r_fr7_156,fr7_r4).
body(r_fr7_156,fr7_s4).
body(r_fr7_156,fr7_w1).
body(r_fr7_156,fr7_w5).
body(r_fr7_156,fr7_x5).
body(r_fr7_156,fr7_y4).
body(r_fr7_156,fr7_z4).
head(r_fr7_157,fr7_u4).
body(r_fr7_157,fr7_a2).
body(r_fr7_157,fr7_e4).
body(r_fr7_157,fr7_f1).
head(r_fr7_158,fr7_u4).
body(r_fr7_158,fr7_b4).
body(r_fr7_158,fr7_d5).
head(r_fr7_159,fr7_u4).
body(r_fr7_159,fr7_c1).
body(r_fr7_159,fr7_q5).
body(r_fr7_159,fr7_r3).
body(r_fr7_159,fr7_r4).
body(r_fr7_159,fr7_s2).
body(r_fr7_159,fr7_x1).
body(r_fr7_159,fr7_y1).
body(r_fr7_159,fr7_y2).
body(r_fr7_159,fr7_z4).
head(r_fr7_160,fr7_u4).
body(r_fr7_160,fr7_a2).
body(r_fr7_160,fr7_f2).
body(r_fr7_160,fr7_p5).
body(r_fr7_160,fr7_s2).
body(r_fr7_160,fr7_u2).
body(r_fr7_160,fr7_z4).
head(r_fr7_161,fr7_u4).
body(r_fr7_161,fr7_a3).
body(r_fr7_161,fr7_c4).
body(r_fr7_161,fr7_d2).
body(r_fr7_161,fr7_e2).
body(r_fr7_161,fr7_p5).
body(r_fr7_161,fr7_r2).
body(r_fr7_161,fr7_u1).
head(r_fr7_162,fr7_u4).
body(r_fr7_162,fr7_q5).
body(r_fr7_162,fr7_u1).
head(r_fr7_163,fr7_u4).
body(r_fr7_163,fr7_a2).
body(r_fr7_163,fr7_a3).
body(r_fr7_163,fr7_a5).
body(r_fr7_163,fr7_b1).
body(r_fr7_163,fr7_b4).
body(r_fr7_163,fr7_b5).
body(r_fr7_163,fr7_c1).
body(r_fr7_163,fr7_c3).
body(r_fr7_163,fr7_c4).
body(r_fr7_163,fr7_d5).
body(r_fr7_163,fr7_e5).
body(r_fr7_163,fr7_f2).
head(r_fr7_164,fr7_u4).
body(r_fr7_164,fr7_s4).
body(r_fr7_164,fr7_x3).
head(r_fr7_165,fr7_u4).
body(r_fr7_165,fr7_a3).
body(r_fr7_165,fr7_b2).
body(r_fr7_165,fr7_b3).
body(r_fr7_165,fr7_c1).
body(r_fr7_165,fr7_c4).
body(r_fr7_165,fr7_d5).
head(r_fr7_166,fr7_y2).
body(r_fr7_166,fr7_b4).
body(r_fr7_166,fr7_c5).
body(r_fr7_166,fr7_d3).
head(r_fr7_167,fr7_y2).
body(r_fr7_167,fr7_a3).
body(r_fr7_167,fr7_a6).
body(r_fr7_167,fr7_b1).
body(r_fr7_167,fr7_c2).
body(r_fr7_167,fr7_f2).
body(r_fr7_167,fr7_t1).
body(r_fr7_167,fr7_y1).
head(r_fr7_168,fr7_y2).
body(r_fr7_168,fr7_e2).
body(r_fr7_168,fr7_q2).
body(r_fr7_168,fr7_s1).
body(r_fr7_168,fr7_u2).
body(r_fr7_168,fr7_u3).
body(r_fr7_168,fr7_v1).
body(r_fr7_168,fr7_v4).
body(r_fr7_168,fr7_w5).
body(r_fr7_168,fr7_y4).
head(r_fr7_169,fr7_y2).
body(r_fr7_169,fr7_c2).
body(r_fr7_169,fr7_q2).
body(r_fr7_169,fr7_w1).
body(r_fr7_169,fr7_y4).
head(r_fr7_170,fr7_y2).
body(r_fr7_170,fr7_d2).
body(r_fr7_170,fr7_f1).
body(r_fr7_170,fr7_q2).
body(r_fr7_170,fr7_q5).
body(r_fr7_170,fr7_r4).
body(r_fr7_170,fr7_s2).
body(r_fr7_170,fr7_s5).
body(r_fr7_170,fr7_t1).
body(r_fr7_170,fr7_z4).
head(r_fr7_171,fr7_y2).
body(r_fr7_171,fr7_a1).
body(r_fr7_171,fr7_b5).
body(r_fr7_171,fr7_c3).
body(r_fr7_171,fr7_e1).
body(r_fr7_171,fr7_f2).
head(r_fr7_172,fr7_y2).
body(r_fr7_172,fr7_b4).
body(r_fr7_172,fr7_e4).
body(r_fr7_172,fr7_s4).
body(r_fr7_172,fr7_u3).
body(r_fr7_172,fr7_y5).
head(r_fr7_173,fr7_y2).
body(r_fr7_173,fr7_a4).
body(r_fr7_173,fr7_c4).
body(r_fr7_173,fr7_c5).
body(r_fr7_173,fr7_e1).
body(r_fr7_173,fr7_f1).
body(r_fr7_173,fr7_f2).
body(r_fr7_173,fr7_f4).
body(r_fr7_173,fr7_p5).
body(r_fr7_173,fr7_s2).
body(r_fr7_173,fr7_v4).
body(r_fr7_173,fr7_w1).
body(r_fr7_173,fr7_x2).
head(r_fr7_174,fr7_y1).
body(r_fr7_174,fr7_a2).
body(r_fr7_174,fr7_b5).
body(r_fr7_174,fr7_f3).
body(r_fr7_174,fr7_s5).
body(r_fr7_174,fr7_x1).
body(r_fr7_174,fr7_x2).
head(r_fr7_175,fr7_y1).
body(r_fr7_175,fr7_x1).
head(r_fr7_176,fr7_y1).
body(r_fr7_176,fr7_a4).
body(r_fr7_176,fr7_a5).
body(r_fr7_176,fr7_a6).
body(r_fr7_176,fr7_b6).
body(r_fr7_176,fr7_c5).
body(r_fr7_176,fr7_d3).
body(r_fr7_176,fr7_e1).
body(r_fr7_176,fr7_e3).
body(r_fr7_176,fr7_r2).
body(r_fr7_176,fr7_y4).
head(r_fr7_177,fr7_x5).
body(r_fr7_177,fr7_a1).
body(r_fr7_177,fr7_b4).
body(r_fr7_177,fr7_c2).
body(r_fr7_177,fr7_c4).
body(r_fr7_177,fr7_c5).
body(r_fr7_177,fr7_d5).
body(r_fr7_177,fr7_e1).
body(r_fr7_177,fr7_e2).
body(r_fr7_177,fr7_e4).
body(r_fr7_177,fr7_q2).
body(r_fr7_177,fr7_r2).
head(r_fr7_178,fr7_x5).
head(r_fr7_179,fr7_x5).
body(r_fr7_179,fr7_a1).
body(r_fr7_179,fr7_c5).
body(r_fr7_179,fr7_d4).
body(r_fr7_179,fr7_f1).
body(r_fr7_179,fr7_f3).
body(r_fr7_179,fr7_r4).
body(r_fr7_179,fr7_s1).
body(r_fr7_179,fr7_u3).
body(r_fr7_179,fr7_y4).
head(r_fr7_180,fr7_x5).
body(r_fr7_180,fr7_c5).
body(r_fr7_180,fr7_p5).
body(r_fr7_180,fr7_r1).
body(r_fr7_180,fr7_v1).
body(r_fr7_180,fr7_v2).
body(r_fr7_180,fr7_v4).
body(r_fr7_180,fr7_w2).
body(r_fr7_180,fr7_x2).
body(r_fr7_180,fr7_y4).
body(r_fr7_180,fr7_y5).
body(r_fr7_180,fr7_z4).
head(r_fr7_181,fr7_x5).
body(r_fr7_181,fr7_b3).
body(r_fr7_181,fr7_b6).
body(r_fr7_181,fr7_c3).
head(r_fr7_182,fr7_x5).
body(r_fr7_182,fr7_a2).
body(r_fr7_182,fr7_a3).
body(r_fr7_182,fr7_b1).
body(r_fr7_182,fr7_b3).
body(r_fr7_182,fr7_c2).
body(r_fr7_182,fr7_e1).
body(r_fr7_182,fr7_e5).
body(r_fr7_182,fr7_f2).
body(r_fr7_182,fr10_y2).
head(r_fr7_183,fr7_v4).
body(r_fr7_183,fr7_a2).
body(r_fr7_183,fr7_a3).
body(r_fr7_183,fr7_e2).
body(r_fr7_183,fr7_v1).
head(r_fr7_184,fr7_v4).
body(r_fr7_184,fr7_u1).
head(r_fr7_185,fr7_v4).
body(r_fr7_185,fr7_b4).
body(r_fr7_185,fr7_e2).
body(r_fr7_185,fr7_w2).
head(r_fr7_186,fr7_v4).
body(r_fr7_186,fr7_b4).
body(r_fr7_186,fr7_d5).
body(r_fr7_186,fr7_f1).
body(r_fr7_186,fr7_q3).
body(r_fr7_186,fr7_r1).
body(r_fr7_186,fr7_r4).
body(r_fr7_186,fr7_s1).
body(r_fr7_186,fr7_z4).
head(r_fr7_187,fr7_x1).
body(r_fr7_187,fr7_d2).
head(r_fr7_188,fr7_x1).
body(r_fr7_188,fr7_a3).
body(r_fr7_188,fr7_b2).
body(r_fr7_188,fr7_c4).
body(r_fr7_188,fr7_f1).
body(r_fr7_188,fr7_q2).
body(r_fr7_188,fr7_u2).
head(r_fr7_189,fr7_y5).
body(r_fr7_189,fr7_a4).
body(r_fr7_189,fr7_d2).
body(r_fr7_189,fr10_y2).
head(r_fr7_190,fr7_y5).
body(r_fr7_190,fr7_b3).
body(r_fr7_190,fr7_c1).
body(r_fr7_190,fr7_d5).
head(r_fr7_191,fr7_y5).
body(r_fr7_191,fr7_v2).
body(r_fr7_191,fr7_x3).
head(r_fr7_192,fr7_y5).
body(r_fr7_192,fr7_a1).
body(r_fr7_192,fr7_b3).
body(r_fr7_192,fr7_b5).
body(r_fr7_192,fr7_c3).
body(r_fr7_192,fr7_c6).
body(r_fr7_192,fr7_e2).
body(r_fr7_192,fr7_f3).
body(r_fr7_192,fr7_f4).
body(r_fr7_192,fr7_r4).
body(r_fr7_192,fr7_t1).
body(r_fr7_192,fr7_u1).
body(r_fr7_192,fr7_u3).
head(r_fr7_193,fr7_y5).
body(r_fr7_193,fr7_a6).
body(r_fr7_193,fr7_b6).
body(r_fr7_193,fr7_c2).
body(r_fr7_193,fr7_c3).
body(r_fr7_193,fr7_c5).
body(r_fr7_193,fr7_c6).
body(r_fr7_193,fr7_d1).
body(r_fr7_193,fr7_d2).
body(r_fr7_193,fr7_d3).
body(r_fr7_193,fr7_e4).
body(r_fr7_193,fr7_f1).
body(r_fr7_193,fr7_f2).
body(r_fr7_193,fr7_f4).
head(r_fr7_194,fr7_y5).
head(r_fr7_195,fr7_y5).
body(r_fr7_195,fr7_f4).
body(r_fr7_195,fr7_u3).
body(r_fr7_195,fr7_w5).
body(r_fr7_195,fr7_y3).
body(r_fr7_195,fr7_z4).
head(r_fr7_196,fr7_y5).
body(r_fr7_196,fr7_a5).
body(r_fr7_196,fr7_b6).
body(r_fr7_196,fr7_c1).
body(r_fr7_196,fr7_c3).
body(r_fr7_196,fr7_e3).
body(r_fr7_196,fr7_f2).
body(r_fr7_196,fr7_p5).
body(r_fr7_196,fr7_q2).
body(r_fr7_196,fr7_s1).
head(r_fr7_197,fr7_y5).
body(r_fr7_197,fr7_b2).
body(r_fr7_197,fr7_c4).
body(r_fr7_197,fr7_r2).
body(r_fr7_197,fr7_w2).
head(r_fr7_198,fr7_y5).
body(r_fr7_198,fr7_c4).
body(r_fr7_198,fr7_q3).
body(r_fr7_198,fr7_r4).
body(r_fr7_198,fr7_s5).
body(r_fr7_198,fr7_u1).
body(r_fr7_198,fr7_w1).
body(r_fr7_198,fr7_x2).
body(r_fr7_198,fr7_y3).
head(r_fr7_199,fr7_r3).
body(r_fr7_199,fr7_a5).
body(r_fr7_199,fr7_c5).
body(r_fr7_199,fr7_f1).
body(r_fr7_199,fr7_f3).
body(r_fr7_199,fr7_p5).
head(r_fr7_200,fr7_r3).
body(r_fr7_200,fr7_b5).
body(r_fr7_200,fr7_c3).
body(r_fr7_200,fr7_c6).
body(r_fr7_200,fr7_d2).
body(r_fr7_200,fr7_e2).
body(r_fr7_200,fr7_e3).
body(r_fr7_200,fr7_e5).
body(r_fr7_200,fr7_f3).
body(r_fr7_200,fr10_y2).
body(r_fr7_200,fr7_w1).
head(r_fr7_201,fr7_r3).
body(r_fr7_201,fr7_b2).
body(r_fr7_201,fr7_b3).
body(r_fr7_201,fr7_b4).
body(r_fr7_201,fr7_d5).
body(r_fr7_201,fr7_e1).
body(r_fr7_201,fr7_q2).
body(r_fr7_201,fr7_r4).
body(r_fr7_201,fr7_s1).
body(r_fr7_201,fr7_s4).
body(r_fr7_201,fr7_s5).
body(r_fr7_201,fr7_v2).
body(r_fr7_201,fr7_y4).
head(r_fr7_202,fr7_q2).
body(r_fr7_202,fr7_b2).
body(r_fr7_202,fr7_f3).
body(r_fr7_202,fr7_r2).
body(r_fr7_202,fr7_s5).
body(r_fr7_202,fr7_u2).
body(r_fr7_202,fr7_w2).
body(r_fr7_202,fr7_y3).
body(r_fr7_202,fr7_y4).
head(r_fr7_203,fr7_q2).
body(r_fr7_203,fr7_c1).
body(r_fr7_203,fr7_e2).
body(r_fr7_203,fr7_q5).
body(r_fr7_203,fr7_r1).
body(r_fr7_203,fr7_v1).
body(r_fr7_203,fr7_x3).
head(r_fr7_204,fr7_q2).
body(r_fr7_204,fr7_a2).
body(r_fr7_204,fr7_c1).
body(r_fr7_204,fr7_c2).
body(r_fr7_204,fr7_c4).
body(r_fr7_204,fr7_c5).
body(r_fr7_204,fr7_f2).
body(r_fr7_204,fr7_f4).
body(r_fr7_204,fr7_p5).
body(r_fr7_204,fr7_s5).
head(r_fr7_205,fr7_q2).
body(r_fr7_205,fr7_a2).
body(r_fr7_205,fr7_a6).
body(r_fr7_205,fr7_b5).
body(r_fr7_205,fr7_c1).
body(r_fr7_205,fr7_c5).
body(r_fr7_205,fr7_c6).
head(r_fr7_206,fr7_r4).
body(r_fr7_206,fr7_b1).
body(r_fr7_206,fr7_d2).
body(r_fr7_206,fr7_f1).
body(r_fr7_206,fr7_u2).
body(r_fr7_206,fr7_w1).
body(r_fr7_206,fr7_x2).
body(r_fr7_206,fr7_x3).
head(r_fr7_207,fr7_r4).
body(r_fr7_207,fr7_c3).
body(r_fr7_207,fr7_e1).
body(r_fr7_207,fr7_f4).
body(r_fr7_207,fr7_q3).
body(r_fr7_207,fr7_r2).
body(r_fr7_207,fr7_s1).
body(r_fr7_207,fr7_s2).
body(r_fr7_207,fr7_s4).
body(r_fr7_207,fr7_u1).
body(r_fr7_207,fr7_u2).
body(r_fr7_207,fr7_v1).
body(r_fr7_207,fr7_y4).
head(r_fr7_208,fr7_r4).
head(r_fr7_209,fr7_r4).
body(r_fr7_209,fr7_b2).
body(r_fr7_209,fr7_s4).
head(r_fr7_210,fr7_r4).
body(r_fr7_210,fr7_a2).
body(r_fr7_210,fr7_c5).
body(r_fr7_210,fr7_d4).
body(r_fr7_210,fr7_s2).
body(r_fr7_210,fr7_s4).
body(r_fr7_210,fr7_s5).
body(r_fr7_210,fr7_v2).
body(r_fr7_210,fr7_x2).
body(r_fr7_210,fr7_x3).
body(r_fr7_210,fr7_y3).
body(r_fr7_210,fr7_y4).
body(r_fr7_210,fr7_z4).
head(r_fr7_211,fr7_r4).
body(r_fr7_211,fr7_p5).
body(r_fr7_211,fr7_q3).
body(r_fr7_211,fr7_r2).
body(r_fr7_211,fr7_s2).
body(r_fr7_211,fr7_s4).
body(r_fr7_211,fr7_s5).
body(r_fr7_211,fr7_v2).
head(r_fr7_212,fr7_r4).
body(r_fr7_212,fr7_c5).
head(r_fr7_213,fr7_r4).
body(r_fr7_213,fr7_a1).
body(r_fr7_213,fr7_b1).
body(r_fr7_213,fr7_p5).
body(r_fr7_213,fr7_r2).
body(r_fr7_213,fr7_s2).
body(r_fr7_213,fr7_s5).
body(r_fr7_213,fr7_u1).
body(r_fr7_213,fr7_y4).
head(r_fr7_214,fr7_r4).
body(r_fr7_214,fr7_a2).
body(r_fr7_214,fr7_a6).
body(r_fr7_214,fr7_b3).
body(r_fr7_214,fr7_c2).
body(r_fr7_214,fr7_d3).
body(r_fr7_214,fr7_d5).
body(r_fr7_214,fr7_f1).
body(r_fr7_214,fr7_f3).
body(r_fr7_214,fr7_r2).
body(r_fr7_214,fr7_w1).
body(r_fr7_214,fr7_w5).
head(r_fr7_215,fr7_r4).
body(r_fr7_215,fr7_c3).
body(r_fr7_215,fr7_c4).
body(r_fr7_215,fr7_c6).
body(r_fr7_215,fr7_d1).
body(r_fr7_215,fr7_q5).
body(r_fr7_215,fr7_s1).
body(r_fr7_215,fr7_u1).
body(r_fr7_215,fr7_v1).
body(r_fr7_215,fr7_w2).
body(r_fr7_215,fr7_y3).
head(r_fr7_216,fr7_r4).
body(r_fr7_216,fr7_a6).
body(r_fr7_216,fr7_b5).
body(r_fr7_216,fr7_c2).
body(r_fr7_216,fr7_c4).
body(r_fr7_216,fr7_c5).
body(r_fr7_216,fr7_d3).
body(r_fr7_216,fr7_d5).
body(r_fr7_216,fr7_e3).
body(r_fr7_216,fr7_e4).
body(r_fr7_216,fr7_f2).
body(r_fr7_216,fr10_y2).
head(r_fr7_217,fr7_w1).
body(r_fr7_217,fr7_a6).
body(r_fr7_217,fr7_p5).
body(r_fr7_217,fr7_s5).
body(r_fr7_217,fr7_t1).
body(r_fr7_217,fr7_w5).
body(r_fr7_217,fr7_x3).
body(r_fr7_217,fr7_z4).
head(r_fr7_218,fr7_w1).
body(r_fr7_218,fr7_a4).
body(r_fr7_218,fr7_a6).
body(r_fr7_218,fr7_v2).
head(r_fr7_219,fr7_w1).
body(r_fr7_219,fr7_a1).
body(r_fr7_219,fr7_b3).
body(r_fr7_219,fr7_b6).
body(r_fr7_219,fr7_d4).
body(r_fr7_219,fr7_e1).
body(r_fr7_219,fr7_e3).
body(r_fr7_219,fr10_y2).
body(r_fr7_219,fr7_s4).
body(r_fr7_219,fr7_y3).
head(r_fr7_220,fr7_w1).
body(r_fr7_220,fr7_a6).
body(r_fr7_220,fr7_b5).
body(r_fr7_220,fr7_c6).
body(r_fr7_220,fr7_d2).
body(r_fr7_220,fr7_f1).
body(r_fr7_220,fr7_f3).
head(r_fr7_221,fr7_v1).
body(r_fr7_221,fr7_c4).
body(r_fr7_221,fr7_e3).
body(r_fr7_221,fr7_u1).
body(r_fr7_221,fr7_y3).
head(r_fr7_222,fr7_v1).
body(r_fr7_222,fr7_a4).
body(r_fr7_222,fr7_b5).
body(r_fr7_222,fr7_c6).
body(r_fr7_222,fr7_d1).
body(r_fr7_222,fr7_e1).
body(r_fr7_222,fr7_e2).
body(r_fr7_222,fr7_e3).
body(r_fr7_222,fr7_e4).
body(r_fr7_222,fr7_e5).
body(r_fr7_222,fr7_f3).
body(r_fr7_222,fr7_f4).
body(r_fr7_222,fr10_y2).
head(r_fr7_223,fr7_v1).
body(r_fr7_223,fr7_a2).
body(r_fr7_223,fr7_b1).
body(r_fr7_223,fr7_b5).
body(r_fr7_223,fr7_c5).
body(r_fr7_223,fr7_c6).
body(r_fr7_223,fr7_d1).
body(r_fr7_223,fr7_f2).
body(r_fr7_223,fr7_f3).
body(r_fr7_223,fr10_y2).
body(r_fr7_223,fr7_r1).
body(r_fr7_223,fr7_u2).
head(r_fr7_224,fr7_v1).
head(r_fr7_225,fr7_v1).
body(r_fr7_225,fr7_a2).
body(r_fr7_225,fr7_b2).
body(r_fr7_225,fr7_b6).
body(r_fr7_225,fr7_d2).
body(r_fr7_225,fr7_d3).
body(r_fr7_225,fr10_y2).
body(r_fr7_225,fr7_y3).
body(r_fr7_225,fr7_y4).
body(r_fr7_225,fr7_z4).
head(r_fr7_226,fr7_s1).
body(r_fr7_226,fr7_a3).
body(r_fr7_226,fr7_a5).
body(r_fr7_226,fr7_r1).
body(r_fr7_226,fr7_u2).
body(r_fr7_226,fr7_v2).
head(r_fr7_227,fr7_s1).
head(r_fr7_228,fr7_s1).
body(r_fr7_228,fr7_b6).
body(r_fr7_228,fr7_d3).
body(r_fr7_228,fr7_q5).
body(r_fr7_228,fr7_r2).
body(r_fr7_228,fr7_u3).
body(r_fr7_228,fr7_w5).
body(r_fr7_228,fr7_x2).
body(r_fr7_228,fr7_x3).
body(r_fr7_228,fr7_y3).
body(r_fr7_228,fr7_y4).
head(r_fr7_229,fr7_s1).
body(r_fr7_229,fr7_b4).
body(r_fr7_229,fr7_e3).
body(r_fr7_229,fr7_q3).
body(r_fr7_229,fr7_r1).
body(r_fr7_229,fr7_s2).
body(r_fr7_229,fr7_s4).
body(r_fr7_229,fr7_t1).
body(r_fr7_229,fr7_u3).
body(r_fr7_229,fr7_w2).
body(r_fr7_229,fr7_w5).
body(r_fr7_229,fr7_x2).
body(r_fr7_229,fr7_y3).
body(r_fr7_229,fr7_z4).
head(r_fr7_230,fr7_s1).
body(r_fr7_230,fr7_r2).
body(r_fr7_230,fr7_s2).
body(r_fr7_230,fr7_u2).
body(r_fr7_230,fr7_u3).
body(r_fr7_230,fr7_v2).
body(r_fr7_230,fr7_x2).
head(r_fr7_231,fr7_s1).
body(r_fr7_231,fr7_c5).
body(r_fr7_231,fr7_e4).
body(r_fr7_231,fr7_u2).
body(r_fr7_231,fr7_w2).
body(r_fr7_231,fr7_y3).
body(r_fr7_231,fr7_y4).
head(r_fr7_232,fr7_s1).
body(r_fr7_232,fr7_r1).
head(r_fr7_233,fr7_s1).
body(r_fr7_233,fr7_a3).
body(r_fr7_233,fr7_b1).
body(r_fr7_233,fr7_b3).
body(r_fr7_233,fr7_e1).
body(r_fr7_233,fr7_p5).
body(r_fr7_233,fr7_q5).
body(r_fr7_233,fr7_r1).
body(r_fr7_233,fr7_s2).
body(r_fr7_233,fr7_t1).
body(r_fr7_233,fr7_u1).
body(r_fr7_233,fr7_w2).
body(r_fr7_233,fr7_x2).
body(r_fr7_233,fr7_x3).
head(r_fr7_234,fr7_s1).
body(r_fr7_234,fr7_a5).
body(r_fr7_234,fr7_a6).
body(r_fr7_234,fr7_b3).
body(r_fr7_234,fr7_c3).
body(r_fr7_234,fr7_t1).
head(r_fr7_235,fr7_s1).
body(r_fr7_235,fr7_d5).
body(r_fr7_235,fr7_p5).
body(r_fr7_235,fr7_r1).
body(r_fr7_235,fr7_u1).
body(r_fr7_235,fr7_y3).
head(r_fr7_236,fr7_w5).
body(r_fr7_236,fr7_f4).
body(r_fr7_236,fr7_s5).
body(r_fr7_236,fr7_u2).
body(r_fr7_236,fr7_w2).
head(r_fr7_237,fr7_w5).
body(r_fr7_237,fr7_d5).
body(r_fr7_237,fr10_y2).
body(r_fr7_237,fr7_p5).
body(r_fr7_237,fr7_q5).
body(r_fr7_237,fr7_r2).
body(r_fr7_237,fr7_s2).
body(r_fr7_237,fr7_s4).
body(r_fr7_237,fr7_u2).
body(r_fr7_237,fr7_u3).
body(r_fr7_237,fr7_v2).
body(r_fr7_237,fr7_x2).
body(r_fr7_237,fr7_y4).
head(r_fr7_238,fr7_w5).
body(r_fr7_238,fr7_a1).
body(r_fr7_238,fr7_a4).
body(r_fr7_238,fr7_c3).
body(r_fr7_238,fr7_c4).
body(r_fr7_238,fr7_e3).
body(r_fr7_238,fr7_f1).
head(r_fr7_239,fr7_w5).
body(r_fr7_239,fr7_z4).
head(r_fr7_240,fr7_w5).
body(r_fr7_240,fr7_a1).
body(r_fr7_240,fr7_a3).
body(r_fr7_240,fr7_b1).
body(r_fr7_240,fr7_b6).
body(r_fr7_240,fr7_c1).
body(r_fr7_240,fr7_q3).
body(r_fr7_240,fr7_q5).
body(r_fr7_240,fr7_r1).
body(r_fr7_240,fr7_s4).
body(r_fr7_240,fr7_s5).
body(r_fr7_240,fr7_u1).
body(r_fr7_240,fr7_u3).
head(r_fr7_241,fr7_w5).
body(r_fr7_241,fr7_a4).
body(r_fr7_241,fr7_a6).
body(r_fr7_241,fr7_c2).
body(r_fr7_241,fr7_c3).
body(r_fr7_241,fr7_c5).
body(r_fr7_241,fr7_c6).
body(r_fr7_241,fr7_e2).
body(r_fr7_241,fr7_f2).
body(r_fr7_241,fr7_f3).
body(r_fr7_241,fr10_y2).
body(r_fr7_241,fr7_q3).
head(r_fr7_242,fr7_w5).
body(r_fr7_242,fr7_a2).
body(r_fr7_242,fr7_b2).
head(r_fr7_243,fr7_q3).
body(r_fr7_243,fr7_b5).
body(r_fr7_243,fr7_d4).
body(r_fr7_243,fr7_f3).
body(r_fr7_243,fr7_p5).
body(r_fr7_243,fr7_q5).
body(r_fr7_243,fr7_r1).
body(r_fr7_243,fr7_s4).
body(r_fr7_243,fr7_u2).
body(r_fr7_243,fr7_u3).
body(r_fr7_243,fr7_x3).
body(r_fr7_243,fr7_y4).
head(r_fr7_244,fr7_q3).
body(r_fr7_244,fr7_b2).
body(r_fr7_244,fr7_b5).
body(r_fr7_244,fr7_c2).
body(r_fr7_244,fr7_d2).
body(r_fr7_244,fr7_d3).
body(r_fr7_244,fr7_q5).
body(r_fr7_244,fr7_s4).
head(r_fr7_245,fr7_q3).
body(r_fr7_245,fr7_u1).
body(r_fr7_245,fr7_x2).
head(r_fr7_246,fr7_q3).
body(r_fr7_246,fr7_b1).
body(r_fr7_246,fr7_x2).
head(r_fr7_247,fr7_q3).
body(r_fr7_247,fr7_b6).
body(r_fr7_247,fr7_x3).
head(r_fr7_248,fr7_u2).
body(r_fr7_248,fr7_c5).
body(r_fr7_248,fr7_e3).
body(r_fr7_248,fr7_f3).
body(r_fr7_248,fr7_r1).
head(r_fr7_249,fr7_u2).
body(r_fr7_249,fr7_b6).
body(r_fr7_249,fr7_d2).
body(r_fr7_249,fr7_d4).
body(r_fr7_249,fr7_f2).
body(r_fr7_249,fr7_p5).
body(r_fr7_249,fr7_q5).
body(r_fr7_249,fr7_r1).
body(r_fr7_249,fr7_t1).
body(r_fr7_249,fr7_u3).
body(r_fr7_249,fr7_v2).
body(r_fr7_249,fr7_x2).
body(r_fr7_249,fr7_y3).
body(r_fr7_249,fr7_z4).
head(r_fr7_250,fr7_u2).
body(r_fr7_250,fr7_a4).
body(r_fr7_250,fr7_b2).
body(r_fr7_250,fr7_b3).
body(r_fr7_250,fr7_d2).
head(r_fr7_251,fr7_u2).
body(r_fr7_251,fr7_d5).
body(r_fr7_251,fr7_f3).
body(r_fr7_251,fr7_s2).
body(r_fr7_251,fr7_t1).
body(r_fr7_251,fr7_y3).
body(r_fr7_251,fr7_z4).
head(r_fr7_252,fr7_u2).
body(r_fr7_252,fr7_r1).
body(r_fr7_252,fr7_r2).
head(r_fr7_253,fr7_u2).
body(r_fr7_253,fr7_s2).
body(r_fr7_253,fr7_u3).
body(r_fr7_253,fr7_v2).
body(r_fr7_253,fr7_x2).
body(r_fr7_253,fr7_x3).
head(r_fr7_254,fr7_u1).
body(r_fr7_254,fr7_a5).
body(r_fr7_254,fr7_d1).
head(r_fr7_255,fr7_u1).
body(r_fr7_255,fr7_b3).
body(r_fr7_255,fr7_d3).
body(r_fr7_255,fr7_d4).
body(r_fr7_255,fr7_d5).
body(r_fr7_255,fr7_f2).
body(r_fr7_255,fr7_p5).
body(r_fr7_255,fr7_s5).
body(r_fr7_255,fr7_t1).
body(r_fr7_255,fr7_w2).
head(r_fr7_256,fr7_u1).
head(r_fr7_257,fr7_u1).
body(r_fr7_257,fr7_d1).
head(r_fr7_258,fr7_u1).
body(r_fr7_258,fr7_s2).
head(r_fr7_259,fr7_u1).
body(r_fr7_259,fr7_a2).
body(r_fr7_259,fr7_b1).
body(r_fr7_259,fr7_c4).
body(r_fr7_259,fr7_d2).
body(r_fr7_259,fr7_e1).
body(r_fr7_259,fr7_f1).
body(r_fr7_259,fr7_f3).
body(r_fr7_259,fr7_q5).
body(r_fr7_259,fr7_s4).
body(r_fr7_259,fr7_u3).
body(r_fr7_259,fr7_w2).
head(r_fr7_260,fr7_u1).
body(r_fr7_260,fr7_c5).
body(r_fr7_260,fr7_q5).
body(r_fr7_260,fr7_s2).
body(r_fr7_260,fr7_y4).
head(r_fr7_261,fr7_q5).
body(r_fr7_261,fr7_a3).
body(r_fr7_261,fr7_b1).
body(r_fr7_261,fr7_b4).
body(r_fr7_261,fr7_b5).
body(r_fr7_261,fr7_c1).
body(r_fr7_261,fr7_c6).
body(r_fr7_261,fr7_d1).
body(r_fr7_261,fr7_e1).
body(r_fr7_261,fr7_e5).
body(r_fr7_261,fr7_f3).
body(r_fr7_261,fr7_s4).
body(r_fr7_261,fr7_v2).
body(r_fr7_261,fr7_x2).
head(r_fr7_262,fr7_q5).
body(r_fr7_262,fr7_a4).
body(r_fr7_262,fr7_c6).
body(r_fr7_262,fr7_d1).
body(r_fr7_262,fr7_d4).
body(r_fr7_262,fr7_r2).
body(r_fr7_262,fr7_y4).
head(r_fr7_263,fr7_q5).
body(r_fr7_263,fr7_b1).
body(r_fr7_263,fr7_b3).
body(r_fr7_263,fr7_e3).
body(r_fr7_263,fr7_f3).
body(r_fr7_263,fr7_r2).
body(r_fr7_263,fr7_t1).
body(r_fr7_263,fr7_x3).
body(r_fr7_263,fr7_z4).
head(r_fr7_264,fr7_q5).
body(r_fr7_264,fr7_u3).
body(r_fr7_264,fr7_v2).
body(r_fr7_264,fr7_x3).
head(r_fr7_265,fr7_q5).
head(r_fr7_266,fr7_w2).
body(r_fr7_266,fr7_b2).
body(r_fr7_266,fr7_b5).
body(r_fr7_266,fr7_d2).
body(r_fr7_266,fr7_e2).
body(r_fr7_266,fr7_e4).
body(r_fr7_266,fr7_y4).
head(r_fr7_267,fr7_w2).
body(r_fr7_267,fr7_a6).
body(r_fr7_267,fr7_b2).
body(r_fr7_267,fr7_d1).
body(r_fr7_267,fr7_d3).
body(r_fr7_267,fr7_d5).
body(r_fr7_267,fr7_e1).
body(r_fr7_267,fr7_e2).
body(r_fr7_267,fr7_e3).
body(r_fr7_267,fr10_y2).
body(r_fr7_267,fr7_r2).
body(r_fr7_267,fr7_s5).
head(r_fr7_268,fr7_y4).
body(r_fr7_268,fr7_e5).
body(r_fr7_268,fr7_x3).
head(r_fr7_269,fr7_y4).
body(r_fr7_269,fr7_a6).
body(r_fr7_269,fr7_c2).
body(r_fr7_269,fr7_d2).
body(r_fr7_269,fr7_d3).
body(r_fr7_269,fr7_e3).
body(r_fr7_269,fr7_e4).
body(r_fr7_269,fr7_f2).
body(r_fr7_269,fr7_p5).
body(r_fr7_269,fr7_t1).
body(r_fr7_269,fr7_u3).
body(r_fr7_269,fr7_v2).
body(r_fr7_269,fr7_x3).
head(r_fr7_270,fr7_y4).
body(r_fr7_270,fr7_r1).
body(r_fr7_270,fr7_r2).
body(r_fr7_270,fr7_u3).
head(r_fr7_271,fr7_y4).
body(r_fr7_271,fr7_r2).
body(r_fr7_271,fr7_s2).
body(r_fr7_271,fr7_t1).
body(r_fr7_271,fr7_x2).
body(r_fr7_271,fr7_y3).
head(r_fr7_272,fr7_z4).
body(r_fr7_272,fr7_a6).
body(r_fr7_272,fr7_e3).
body(r_fr7_272,fr7_r1).
body(r_fr7_272,fr7_s2).
body(r_fr7_272,fr7_s4).
body(r_fr7_272,fr7_v2).
body(r_fr7_272,fr7_y3).
head(r_fr7_273,fr7_z4).
body(r_fr7_273,fr7_d4).
body(r_fr7_273,fr7_e5).
body(r_fr7_273,fr7_p5).
body(r_fr7_273,fr7_t1).
head(r_fr7_274,fr7_z4).
body(r_fr7_274,fr7_a6).
body(r_fr7_274,fr7_b4).
body(r_fr7_274,fr7_b6).
head(r_fr7_275,fr7_x3).
head(r_fr7_276,fr7_x3).
body(r_fr7_276,fr7_p5).
body(r_fr7_276,fr7_r1).
body(r_fr7_276,fr7_s4).
body(r_fr7_276,fr7_u3).
body(r_fr7_276,fr7_v2).
body(r_fr7_276,fr7_x2).
body(r_fr7_276,fr7_y3).
head(r_fr7_277,fr7_x3).
body(r_fr7_277,fr7_p5).
body(r_fr7_277,fr7_s2).

assumption(fr8_a1).
assumption(fr2_z2).
assumption(fr8_c1).
assumption(fr9_t2).
assumption(fr8_e1).
assumption(fr8_f1).
assumption(fr8_a2).
assumption(fr8_b2).
assumption(fr8_c2).
assumption(fr2_a4).
assumption(fr8_e2).
assumption(fr8_f2).
assumption(fr8_a3).
assumption(fr8_b3).
assumption(fr7_a5).
contrary(fr8_a1,fr8_z1).
contrary(fr8_a2,fr8_c1).
contrary(fr8_a3,fr8_t2).
contrary(fr2_z2,fr8_t5).
contrary(fr8_b2,fr8_a1).
contrary(fr8_b3,fr8_t2).
contrary(fr8_c1,fr1_t3).
contrary(fr8_c2,fr8_z2).
contrary(fr7_a5,fr8_v5).
contrary(fr9_t2,fr8_w7).
contrary(fr2_a4,fr7_a2).
contrary(fr8_e1,fr8_v3).
contrary(fr8_e2,fr8_z6).
contrary(fr8_f1,fr8_z6).
contrary(fr8_f2,fr8_p1).
head(r_fr8_0,fr8_t5).
body(r_fr8_0,fr8_p3).
body(r_fr8_0,fr8_q2).
body(r_fr8_0,fr8_u2).
head(r_fr8_1,fr8_t5).
body(r_fr8_1,fr8_b3).
body(r_fr8_1,fr8_e1).
body(r_fr8_1,fr8_e2).
head(r_fr8_2,fr8_t5).
body(r_fr8_2,fr8_b2).
body(r_fr8_2,fr2_a4).
body(r_fr8_2,fr8_q4).
body(r_fr8_2,fr8_s6).
body(r_fr8_2,fr8_x5).
body(r_fr8_2,fr8_z1).
head(r_fr8_3,fr8_t5).
body(r_fr8_3,fr9_t2).
body(r_fr8_3,fr8_p6).
body(r_fr8_3,fr8_u6).
head(r_fr8_4,fr1_t3).
body(r_fr8_4,fr9_t2).
body(r_fr8_4,fr2_a4).
body(r_fr8_4,fr8_s5).
body(r_fr8_4,fr8_v5).
body(r_fr8_4,fr8_x1).
head(r_fr8_5,fr1_t3).
head(r_fr8_6,fr8_w5).
head(r_fr8_7,fr8_w5).
body(r_fr8_7,fr8_c2).
body(r_fr8_7,fr8_v7).
body(r_fr8_7,fr8_w7).
head(r_fr8_8,fr8_w5).
body(r_fr8_8,fr8_p2).
body(r_fr8_8,fr2_e2).
head(r_fr8_9,fr8_w5).
body(r_fr8_9,fr8_x1).
body(r_fr8_9,fr8_x4).
body(r_fr8_9,fr8_y5).
head(r_fr8_10,fr7_a2).
body(r_fr8_10,fr8_e2).
body(r_fr8_10,fr8_p6).
body(r_fr8_10,fr8_r2).
head(r_fr8_11,fr7_a2).
head(r_fr8_12,fr7_a2).
body(r_fr8_12,fr8_a3).
body(r_fr8_12,fr8_r1).
body(r_fr8_12,fr8_r5).
body(r_fr8_12,fr1_t3).
head(r_fr8_13,fr7_a2).
body(r_fr8_13,fr7_a5).
body(r_fr8_13,fr8_r7).
head(r_fr8_14,fr8_z2).
body(r_fr8_14,fr8_a1).
body(r_fr8_14,fr8_a2).
body(r_fr8_14,fr8_a3).
body(r_fr8_14,fr2_z2).
body(r_fr8_14,fr8_e1).
head(r_fr8_15,fr8_z2).
body(r_fr8_15,fr8_a1).
body(r_fr8_15,fr8_e1).
body(r_fr8_15,fr8_f2).
body(r_fr8_15,fr8_p1).
head(r_fr8_16,fr8_z2).
body(r_fr8_16,fr8_q1).
body(r_fr8_16,fr8_s4).
body(r_fr8_16,fr8_s5).
body(r_fr8_16,fr1_t3).
body(r_fr8_16,fr8_t5).
body(r_fr8_16,fr8_y5).
head(r_fr8_17,fr8_z2).
body(r_fr8_17,fr8_s5).
head(r_fr8_18,fr8_q7).
body(r_fr8_18,fr7_a5).
body(r_fr8_18,fr9_t2).
body(r_fr8_18,fr8_f2).
head(r_fr8_19,fr8_q7).
body(r_fr8_19,fr2_z2).
body(r_fr8_19,fr8_b3).
body(r_fr8_19,fr8_v4).
body(r_fr8_19,fr8_y1).
body(r_fr8_19,fr8_y2).
body(r_fr8_19,fr8_z5).
head(r_fr8_20,fr8_v7).
body(r_fr8_20,fr2_z2).
body(r_fr8_20,fr8_w5).
body(r_fr8_20,fr8_x4).
head(r_fr8_21,fr8_v7).
body(r_fr8_21,fr8_c2).
body(r_fr8_21,fr8_f2).
head(r_fr8_22,fr8_v4).
body(r_fr8_22,fr8_p5).
body(r_fr8_22,fr8_q1).
body(r_fr8_22,fr1_p3).
body(r_fr8_22,fr8_t6).
body(r_fr8_22,fr8_v7).
body(r_fr8_22,fr8_y2).
head(r_fr8_23,fr8_v4).
body(r_fr8_23,fr8_c1).
body(r_fr8_23,fr8_e2).
body(r_fr8_23,fr8_w1).
body(r_fr8_23,fr8_x7).
head(r_fr8_24,fr8_v4).
body(r_fr8_24,fr8_b2).
body(r_fr8_24,fr8_f1).
body(r_fr8_24,fr8_q1).
body(r_fr8_24,fr1_t3).
head(r_fr8_25,fr8_v4).
body(r_fr8_25,fr8_c2).
body(r_fr8_25,fr8_e2).
body(r_fr8_25,fr8_r6).
body(r_fr8_25,fr8_u6).
head(r_fr8_26,fr8_v4).
body(r_fr8_26,fr8_b3).
body(r_fr8_26,fr8_c1).
head(r_fr8_27,fr8_r2).
body(r_fr8_27,fr8_b3).
body(r_fr8_27,fr8_s5).
head(r_fr8_28,fr8_r2).
body(r_fr8_28,fr8_c1).
body(r_fr8_28,fr8_q7).
head(r_fr8_29,fr8_r2).
head(r_fr8_30,fr8_r4).
body(r_fr8_30,fr2_z2).
body(r_fr8_30,fr8_s1).
body(r_fr8_30,fr8_t2).
body(r_fr8_30,fr8_v1).
head(r_fr8_31,fr8_r4).
body(r_fr8_31,fr8_u6).
body(r_fr8_31,fr8_u7).
body(r_fr8_31,fr8_v3).
body(r_fr8_31,fr8_v4).
body(r_fr8_31,fr8_v6).
body(r_fr8_31,fr8_w5).
head(r_fr8_32,fr8_r4).
body(r_fr8_32,fr8_a3).
body(r_fr8_32,fr8_q4).
body(r_fr8_32,fr8_r6).
body(r_fr8_32,fr8_s5).
body(r_fr8_32,fr8_y2).
head(r_fr8_33,fr8_r4).
body(r_fr8_33,fr8_a1).
body(r_fr8_33,fr8_b3).
body(r_fr8_33,fr8_f1).
head(r_fr8_34,fr8_r4).
body(r_fr8_34,fr8_c2).
body(r_fr8_34,fr2_a4).
body(r_fr8_34,fr8_e1).
body(r_fr8_34,fr8_f1).
body(r_fr8_34,fr8_q2).
body(r_fr8_34,fr8_y4).
head(r_fr8_35,fr8_p6).
body(r_fr8_35,fr8_s3).
body(r_fr8_35,fr8_v5).
head(r_fr8_36,fr8_p6).
body(r_fr8_36,fr8_q7).
body(r_fr8_36,fr8_s4).
body(r_fr8_36,fr8_u7).
body(r_fr8_36,fr8_x7).
head(r_fr8_37,fr8_z1).
body(r_fr8_37,fr2_z2).
body(r_fr8_37,fr8_p4).
body(r_fr8_37,fr7_p4).
body(r_fr8_37,fr8_y6).
head(r_fr8_38,fr8_z1).
body(r_fr8_38,fr8_a1).
body(r_fr8_38,fr2_a4).
head(r_fr8_39,fr8_z1).
body(r_fr8_39,fr8_t4).
head(r_fr8_40,fr8_z1).
body(r_fr8_40,fr8_e2).
body(r_fr8_40,fr8_p5).
body(r_fr8_40,fr8_u1).
body(r_fr8_40,fr8_y4).
body(r_fr8_40,fr8_y5).
body(r_fr8_40,fr8_z3).
head(r_fr8_41,fr8_z1).
body(r_fr8_41,fr2_a4).
body(r_fr8_41,fr8_u1).
body(r_fr8_41,fr8_v5).
head(r_fr8_42,fr8_w3).
head(r_fr8_43,fr8_w3).
body(r_fr8_43,fr2_a4).
head(r_fr8_44,fr8_w3).
body(r_fr8_44,fr8_z1).
head(r_fr8_45,fr8_u3).
body(r_fr8_45,fr8_v2).
head(r_fr8_46,fr8_u3).
head(r_fr8_47,fr8_u3).
body(r_fr8_47,fr8_q4).
body(r_fr8_47,fr8_r1).
body(r_fr8_47,fr8_r3).
body(r_fr8_47,fr8_w1).
body(r_fr8_47,fr8_w6).
head(r_fr8_48,fr8_s1).
body(r_fr8_48,fr7_a5).
body(r_fr8_48,fr8_t5).
head(r_fr8_49,fr8_s1).
head(r_fr8_50,fr8_u6).
body(r_fr8_50,fr8_a1).
body(r_fr8_50,fr8_a2).
body(r_fr8_50,fr8_f1).
body(r_fr8_50,fr8_q1).
head(r_fr8_51,fr8_u6).
body(r_fr8_51,fr8_b3).
body(r_fr8_51,fr8_f1).
body(r_fr8_51,fr8_r3).
body(r_fr8_51,fr8_s1).
body(r_fr8_51,fr8_t7).
head(r_fr8_52,fr8_u6).
body(r_fr8_52,fr7_a5).
body(r_fr8_52,fr8_f2).
head(r_fr8_53,fr8_u6).
body(r_fr8_53,fr8_a1).
body(r_fr8_53,fr8_c1).
head(r_fr8_54,fr8_u6).
body(r_fr8_54,fr8_a1).
body(r_fr8_54,fr8_b3).
body(r_fr8_54,fr7_p4).
body(r_fr8_54,fr8_u3).
body(r_fr8_54,fr8_v1).
head(r_fr8_55,fr8_s6).
body(r_fr8_55,fr8_y1).
head(r_fr8_56,fr8_s6).
body(r_fr8_56,fr8_b3).
body(r_fr8_56,fr8_c1).
body(r_fr8_56,fr7_a2).
head(r_fr8_57,fr8_s6).
body(r_fr8_57,fr8_b3).
body(r_fr8_57,fr8_e1).
body(r_fr8_57,fr8_f2).
body(r_fr8_57,fr8_v5).
body(r_fr8_57,fr8_x3).
body(r_fr8_57,fr8_x6).
head(r_fr8_58,fr8_s6).
body(r_fr8_58,fr8_b2).
body(r_fr8_58,fr8_e1).
body(r_fr8_58,fr8_u7).
head(r_fr8_59,fr7_p4).
body(r_fr8_59,fr8_y1).
head(r_fr8_60,fr7_p4).
body(r_fr8_60,fr8_a3).
body(r_fr8_60,fr9_t2).
body(r_fr8_60,fr8_p5).
body(r_fr8_60,fr8_s3).
body(r_fr8_60,fr8_u1).
body(r_fr8_60,fr8_y5).
head(r_fr8_61,fr7_p4).
body(r_fr8_61,fr8_f1).
body(r_fr8_61,fr8_f2).
body(r_fr8_61,fr8_w3).
body(r_fr8_61,fr8_x6).
body(r_fr8_61,fr8_y5).
body(r_fr8_61,fr8_z5).
head(r_fr8_62,fr8_p7).
body(r_fr8_62,fr8_b3).
body(r_fr8_62,fr2_a4).
body(r_fr8_62,fr8_f1).
body(r_fr8_62,fr8_u4).
head(r_fr8_63,fr8_p7).
body(r_fr8_63,fr8_a3).
body(r_fr8_63,fr9_t2).
body(r_fr8_63,fr8_e2).
body(r_fr8_63,fr8_v1).
body(r_fr8_63,fr8_w5).
body(r_fr8_63,fr8_y2).
head(r_fr8_64,fr8_q3).
body(r_fr8_64,fr7_a5).
body(r_fr8_64,fr8_p3).
head(r_fr8_65,fr8_q3).
body(r_fr8_65,fr8_u4).
body(r_fr8_65,fr8_v6).
head(r_fr8_66,fr8_q3).
body(r_fr8_66,fr8_a2).
body(r_fr8_66,fr8_e1).
body(r_fr8_66,fr8_s3).
head(r_fr8_67,fr8_q3).

assumption(fr9_a1).
assumption(fr9_b1).
assumption(fr9_c1).
assumption(fr9_d1).
assumption(fr9_e1).
assumption(fr9_f1).
assumption(fr9_a2).
assumption(fr9_b2).
assumption(fr6_c3).
assumption(fr9_d2).
assumption(fr9_e2).
assumption(fr9_f2).
assumption(fr9_a3).
assumption(fr9_b3).
assumption(fr9_c3).
assumption(fr9_d3).
assumption(fr9_e3).
assumption(fr9_f3).
assumption(fr9_a4).
assumption(fr10_e2).
assumption(fr9_c4).
assumption(fr9_d4).
assumption(fr9_e4).
assumption(fr9_f4).
contrary(fr9_a1,fr1_w2).
contrary(fr9_a2,fr9_z1).
contrary(fr9_a3,fr9_q4).
contrary(fr9_a4,fr9_r1).
contrary(fr9_b1,fr9_p1).
contrary(fr9_b2,fr9_v4).
contrary(fr9_b3,fr7_v4).
contrary(fr10_e2,fr9_u1).
contrary(fr9_c1,fr9_u1).
contrary(fr6_c3,fr9_b2).
contrary(fr9_c3,fr9_v1).
contrary(fr9_c4,fr9_e3).
contrary(fr9_d1,fr9_a4).
contrary(fr9_d2,fr6_c3).
contrary(fr9_d3,fr10_e2).
contrary(fr9_d4,fr9_z3).
contrary(fr9_e1,fr9_y2).
contrary(fr9_e2,fr9_f1).
contrary(fr9_e3,fr9_u4).
contrary(fr9_e4,fr9_d3).
contrary(fr9_f1,fr9_v1).
contrary(fr9_f2,fr9_d1).
contrary(fr9_f3,fr9_e4).
contrary(fr9_f4,fr9_q3).
head(r_fr9_0,fr9_p2).
body(r_fr9_0,fr9_r4).
body(r_fr9_0,fr9_t2).
body(r_fr9_0,fr9_u4).
body(r_fr9_0,fr9_w1).
head(r_fr9_1,fr9_p2).
body(r_fr9_1,fr9_a2).
body(r_fr9_1,fr9_c4).
body(r_fr9_1,fr9_d2).
body(r_fr9_1,fr9_e2).
body(r_fr9_1,fr9_e3).
body(r_fr9_1,fr9_e4).
body(r_fr9_1,fr9_f2).
head(r_fr9_2,fr9_p2).
body(r_fr9_2,fr9_p3).
body(r_fr9_2,fr9_v1).
head(r_fr9_3,fr9_p2).
body(r_fr9_3,fr9_r1).
head(r_fr9_4,fr9_p2).
head(r_fr9_5,fr9_w2).
body(r_fr9_5,fr9_a1).
body(r_fr9_5,fr9_a2).
body(r_fr9_5,fr9_b3).
body(r_fr9_5,fr10_e2).
body(r_fr9_5,fr6_c3).
body(r_fr9_5,fr9_c3).
body(r_fr9_5,fr9_d2).
body(r_fr9_5,fr9_d4).
body(r_fr9_5,fr9_e1).
head(r_fr9_6,fr9_w2).
body(r_fr9_6,fr9_y3).
head(r_fr9_7,fr9_w2).
body(r_fr9_7,fr9_a4).
body(r_fr9_7,fr9_b2).
body(r_fr9_7,fr9_d2).
body(r_fr9_7,fr9_p3).
head(r_fr9_8,fr9_w2).
body(r_fr9_8,fr9_r2).
head(r_fr9_9,fr9_w2).
body(r_fr9_9,fr9_t1).
body(r_fr9_9,fr9_v4).
body(r_fr9_9,fr9_y2).
head(r_fr9_10,fr9_y2).
body(r_fr9_10,fr6_d1).
body(r_fr9_10,fr9_u2).
body(r_fr9_10,fr9_v4).
body(r_fr9_10,fr9_x3).
body(r_fr9_10,fr9_z1).
head(r_fr9_11,fr9_y2).
body(r_fr9_11,fr9_a1).
body(r_fr9_11,fr9_b3).
body(r_fr9_11,fr6_c3).
body(r_fr9_11,fr9_d1).
body(r_fr9_11,fr9_e1).
body(r_fr9_11,fr9_f2).
head(r_fr9_12,fr9_y2).
body(r_fr9_12,fr9_d4).
body(r_fr9_12,fr9_v1).
head(r_fr9_13,fr9_y2).
body(r_fr9_13,fr9_x2).
head(r_fr9_14,fr9_y2).
body(r_fr9_14,fr9_d1).
body(r_fr9_14,fr9_p1).
body(r_fr9_14,fr9_q3).
body(r_fr9_14,fr9_u1).
body(r_fr9_14,fr9_w1).
body(r_fr9_14,fr9_x1).
body(r_fr9_14,fr4_a2).
head(r_fr9_15,fr9_y2).
body(r_fr9_15,fr9_q3).
head(r_fr9_16,fr9_y2).
body(r_fr9_16,fr9_u2).
body(r_fr9_16,fr9_w3).
head(r_fr9_17,fr9_y2).
body(r_fr9_17,fr9_d2).
body(r_fr9_17,fr9_w3).
head(r_fr9_18,fr9_y1).
body(r_fr9_18,fr9_b1).
body(r_fr9_18,fr9_c3).
body(r_fr9_18,fr9_d2).
body(r_fr9_18,fr9_e2).
body(r_fr9_18,fr9_e3).
body(r_fr9_18,fr9_e4).
body(r_fr9_18,fr9_f2).
body(r_fr9_18,fr9_f3).
body(r_fr9_18,fr9_q3).
head(r_fr9_19,fr9_y1).
body(r_fr9_19,fr9_a2).
body(r_fr9_19,fr9_a3).
body(r_fr9_19,fr9_e3).
body(r_fr9_19,fr9_s1).
body(r_fr9_19,fr9_z1).
head(r_fr9_20,fr9_y1).
body(r_fr9_20,fr9_b3).
body(r_fr9_20,fr9_c4).
body(r_fr9_20,fr9_f3).
body(r_fr9_20,fr7_v4).
head(r_fr9_21,fr9_p3).
body(r_fr9_21,fr9_a3).
body(r_fr9_21,fr9_d1).
body(r_fr9_21,fr9_d3).
body(r_fr9_21,fr9_d4).
body(r_fr9_21,fr9_f1).
head(r_fr9_22,fr9_p3).
body(r_fr9_22,fr9_a4).
body(r_fr9_22,fr9_d1).
body(r_fr9_22,fr9_d2).
body(r_fr9_22,fr9_d4).
body(r_fr9_22,fr9_f2).
body(r_fr9_22,fr9_t1).
head(r_fr9_23,fr9_p3).
body(r_fr9_23,fr9_b3).
body(r_fr9_23,fr6_c3).
body(r_fr9_23,fr9_c3).
body(r_fr9_23,fr9_d1).
body(r_fr9_23,fr6_z2).
body(r_fr9_23,fr9_s2).
body(r_fr9_23,fr1_w2).
body(r_fr9_23,fr9_t1).
head(r_fr9_24,fr9_y3).
body(r_fr9_24,fr9_a1).
body(r_fr9_24,fr9_a2).
body(r_fr9_24,fr9_a4).
body(r_fr9_24,fr9_b3).
body(r_fr9_24,fr9_c4).
body(r_fr9_24,fr9_d3).
body(r_fr9_24,fr9_e4).
body(r_fr9_24,fr9_f4).
body(r_fr9_24,fr9_r1).
head(r_fr9_25,fr9_y3).
body(r_fr9_25,fr9_q4).
body(r_fr9_25,fr9_r4).
body(r_fr9_25,fr9_t1).
body(r_fr9_25,fr9_u2).
body(r_fr9_25,fr9_x1).
body(r_fr9_25,fr9_y2).
head(r_fr9_26,fr9_y3).
body(r_fr9_26,fr9_f1).
body(r_fr9_26,fr9_f2).
head(r_fr9_27,fr9_y3).
body(r_fr9_27,fr9_a2).
body(r_fr9_27,fr9_b2).
body(r_fr9_27,fr9_c1).
body(r_fr9_27,fr9_c4).
body(r_fr9_27,fr9_f2).
body(r_fr9_27,fr9_p1).
body(r_fr9_27,fr9_t2).
body(r_fr9_27,fr9_y2).
head(r_fr9_28,fr9_y3).
body(r_fr9_28,fr9_a2).
body(r_fr9_28,fr9_c1).
head(r_fr9_29,fr9_y3).
head(r_fr9_30,fr9_y3).
body(r_fr9_30,fr9_p3).
body(r_fr9_30,fr9_p4).
body(r_fr9_30,fr9_q4).
body(r_fr9_30,fr9_t4).
body(r_fr9_30,fr9_x2).
head(r_fr9_31,fr9_v2).
body(r_fr9_31,fr9_a3).
head(r_fr9_32,fr9_v2).
head(r_fr9_33,fr9_v2).
body(r_fr9_33,fr10_e2).
body(r_fr9_33,fr9_c3).
body(r_fr9_33,fr9_e1).
body(r_fr9_33,fr9_e4).
body(r_fr9_33,fr9_p2).
head(r_fr9_34,fr9_v2).
body(r_fr9_34,fr9_p2).
body(r_fr9_34,fr9_r2).
body(r_fr9_34,fr9_r4).
body(r_fr9_34,fr6_d1).
body(r_fr9_34,fr9_t1).
body(r_fr9_34,fr9_t4).
body(r_fr9_34,fr9_x2).
body(r_fr9_34,fr9_z3).
head(r_fr9_35,fr6_d1).
body(r_fr9_35,fr9_a4).
body(r_fr9_35,fr9_b3).
body(r_fr9_35,fr9_f1).
head(r_fr9_36,fr6_d1).
body(r_fr9_36,fr9_d1).
body(r_fr9_36,fr9_s2).
body(r_fr9_36,fr9_t1).
body(r_fr9_36,fr9_t4).
body(r_fr9_36,fr9_v3).
head(r_fr9_37,fr6_d1).
body(r_fr9_37,fr9_a1).
body(r_fr9_37,fr9_c1).
body(r_fr9_37,fr9_d2).
body(r_fr9_37,fr9_p1).
body(r_fr9_37,fr9_s1).
body(r_fr9_37,fr9_t3).
body(r_fr9_37,fr9_t4).
head(r_fr9_38,fr6_d1).
body(r_fr9_38,fr9_b2).
body(r_fr9_38,fr9_d3).
body(r_fr9_38,fr9_q4).
head(r_fr9_39,fr6_d1).
body(r_fr9_39,fr6_c3).
body(r_fr9_39,fr9_d4).
body(r_fr9_39,fr9_f1).
body(r_fr9_39,fr9_p4).
body(r_fr9_39,fr9_r1).
body(r_fr9_39,fr9_t2).
body(r_fr9_39,fr9_v2).
body(r_fr9_39,fr9_y2).
body(r_fr9_39,fr4_a2).
head(r_fr9_40,fr6_d1).
head(r_fr9_41,fr9_q3).
body(r_fr9_41,fr9_d4).
body(r_fr9_41,fr9_r4).
body(r_fr9_41,fr9_u2).
body(r_fr9_41,fr9_z1).
head(r_fr9_42,fr9_q3).
head(r_fr9_43,fr9_q3).
body(r_fr9_43,fr9_d3).
body(r_fr9_43,fr9_r4).
body(r_fr9_43,fr9_t1).
body(r_fr9_43,fr9_x1).
head(r_fr9_44,fr9_q3).
body(r_fr9_44,fr9_e2).
body(r_fr9_44,fr9_r3).
body(r_fr9_44,fr9_v1).
body(r_fr9_44,fr9_w2).
body(r_fr9_44,fr9_y2).
head(r_fr9_45,fr9_q3).
body(r_fr9_45,fr9_e3).
body(r_fr9_45,fr9_x1).
body(r_fr9_45,fr9_y3).
head(r_fr9_46,fr9_q3).
body(r_fr9_46,fr9_b1).
body(r_fr9_46,fr6_c3).
body(r_fr9_46,fr9_e4).
body(r_fr9_46,fr9_f1).
body(r_fr9_46,fr9_p2).
body(r_fr9_46,fr9_u3).
body(r_fr9_46,fr9_w1).
head(r_fr9_47,fr9_q3).
body(r_fr9_47,fr9_a4).
body(r_fr9_47,fr6_c3).
body(r_fr9_47,fr9_p2).
body(r_fr9_47,fr9_p4).
body(r_fr9_47,fr9_w2).
body(r_fr9_47,fr9_w3).
body(r_fr9_47,fr9_z1).
body(r_fr9_47,fr9_z3).
head(r_fr9_48,fr9_t3).
body(r_fr9_48,fr9_b3).
body(r_fr9_48,fr9_u4).
body(r_fr9_48,fr9_y2).
head(r_fr9_49,fr9_t3).
body(r_fr9_49,fr9_a4).
body(r_fr9_49,fr9_d2).
body(r_fr9_49,fr9_r2).
body(r_fr9_49,fr6_d1).
head(r_fr9_50,fr9_t3).
body(r_fr9_50,fr9_f1).
body(r_fr9_50,fr9_p4).
body(r_fr9_50,fr7_v4).
body(r_fr9_50,fr9_r4).
body(r_fr9_50,fr9_u4).
head(r_fr9_51,fr9_t3).
body(r_fr9_51,fr9_a2).
body(r_fr9_51,fr9_a4).
body(r_fr9_51,fr9_b2).
body(r_fr9_51,fr9_d3).
body(r_fr9_51,fr9_q4).
body(r_fr9_51,fr9_t4).
head(r_fr9_52,fr9_t3).
head(r_fr9_53,fr9_t3).
body(r_fr9_53,fr9_b3).
head(r_fr9_54,fr9_t3).
body(r_fr9_54,fr9_p4).
body(r_fr9_54,fr9_r3).
body(r_fr9_54,fr9_y2).
body(r_fr9_54,fr9_z1).
head(r_fr9_55,fr9_t3).
body(r_fr9_55,fr6_c3).
body(r_fr9_55,fr9_e3).
body(r_fr9_55,fr9_t1).
body(r_fr9_55,fr9_y3).
head(r_fr9_56,fr9_p1).
body(r_fr9_56,fr9_a4).
body(r_fr9_56,fr9_b2).
body(r_fr9_56,fr9_d4).
body(r_fr9_56,fr9_p3).
body(r_fr9_56,fr9_v2).
head(r_fr9_57,fr9_p1).
body(r_fr9_57,fr9_d4).
body(r_fr9_57,fr9_e1).
body(r_fr9_57,fr9_p4).
body(r_fr9_57,fr9_r4).
body(r_fr9_57,fr9_t3).
body(r_fr9_57,fr9_x1).
body(r_fr9_57,fr9_x3).
head(r_fr9_58,fr9_w1).
body(r_fr9_58,fr9_a3).
body(r_fr9_58,fr9_c3).
body(r_fr9_58,fr9_d2).
body(r_fr9_58,fr9_f2).
head(r_fr9_59,fr9_w1).
body(r_fr9_59,fr9_b3).
body(r_fr9_59,fr9_c3).
body(r_fr9_59,fr9_s1).
body(r_fr9_59,fr9_u2).
body(r_fr9_59,fr9_x3).
body(r_fr9_59,fr9_y2).
head(r_fr9_60,fr9_p4).
body(r_fr9_60,fr9_a2).
body(r_fr9_60,fr10_e2).
body(r_fr9_60,fr9_f3).
body(r_fr9_60,fr9_u3).
head(r_fr9_61,fr9_p4).
body(r_fr9_61,fr9_a1).
body(r_fr9_61,fr10_e2).
body(r_fr9_61,fr9_c1).
body(r_fr9_61,fr9_d2).
body(r_fr9_61,fr9_d4).
body(r_fr9_61,fr9_e3).
body(r_fr9_61,fr9_e4).
body(r_fr9_61,fr9_f1).
body(r_fr9_61,fr9_f4).
head(r_fr9_62,fr9_p4).
head(r_fr9_63,fr9_r2).
body(r_fr9_63,fr9_b3).
body(r_fr9_63,fr9_d4).
body(r_fr9_63,fr9_f4).
body(r_fr9_63,fr6_z2).
body(r_fr9_63,fr9_s2).
body(r_fr9_63,fr1_w2).
body(r_fr9_63,fr9_u4).
head(r_fr9_64,fr9_r2).
body(r_fr9_64,fr6_d1).
body(r_fr9_64,fr9_t1).
body(r_fr9_64,fr9_u3).
body(r_fr9_64,fr9_u4).
head(r_fr9_65,fr9_r2).
head(r_fr9_66,fr9_r2).
body(r_fr9_66,fr9_a2).
body(r_fr9_66,fr9_b1).
body(r_fr9_66,fr9_d4).
body(r_fr9_66,fr9_e1).
body(r_fr9_66,fr9_e3).
body(r_fr9_66,fr9_f1).
body(r_fr9_66,fr9_f2).
body(r_fr9_66,fr9_z1).
head(r_fr9_67,fr9_r2).
body(r_fr9_67,fr6_c3).
body(r_fr9_67,fr9_c4).
body(r_fr9_67,fr9_e2).
head(r_fr9_68,fr9_r1).
body(r_fr9_68,fr9_e3).
head(r_fr9_69,fr9_r1).
head(r_fr9_70,fr9_r1).
body(r_fr9_70,fr9_p1).
body(r_fr9_70,fr9_q3).
body(r_fr9_70,fr9_r4).
body(r_fr9_70,fr9_s2).
body(r_fr9_70,fr9_u1).
body(r_fr9_70,fr9_x2).
body(r_fr9_70,fr9_x3).
body(r_fr9_70,fr9_y1).
body(r_fr9_70,fr9_y3).
head(r_fr9_71,fr9_r1).
body(r_fr9_71,fr9_a3).
body(r_fr9_71,fr9_b1).
body(r_fr9_71,fr9_b2).
body(r_fr9_71,fr9_d1).
body(r_fr9_71,fr9_e4).
body(r_fr9_71,fr9_p1).
body(r_fr9_71,fr9_v1).
body(r_fr9_71,fr9_y3).
body(r_fr9_71,fr9_z1).
head(r_fr9_72,fr9_r1).
body(r_fr9_72,fr9_c1).
body(r_fr9_72,fr9_e2).
body(r_fr9_72,fr9_t2).
head(r_fr9_73,fr9_q4).
head(r_fr9_74,fr9_q4).
body(r_fr9_74,fr9_b1).
body(r_fr9_74,fr9_c1).
body(r_fr9_74,fr9_e3).
body(r_fr9_74,fr9_s2).
body(r_fr9_74,fr9_t2).
body(r_fr9_74,fr9_u2).
body(r_fr9_74,fr9_u3).
body(r_fr9_74,fr9_u4).
body(r_fr9_74,fr4_a2).
head(r_fr9_75,fr9_q4).
body(r_fr9_75,fr9_r1).
body(r_fr9_75,fr9_t3).
body(r_fr9_75,fr9_t4).
body(r_fr9_75,fr9_u1).
body(r_fr9_75,fr9_u4).
body(r_fr9_75,fr9_v4).
body(r_fr9_75,fr9_x2).
body(r_fr9_75,fr9_y2).
head(r_fr9_76,fr9_q4).
body(r_fr9_76,fr9_a3).
body(r_fr9_76,fr9_d3).
body(r_fr9_76,fr9_d4).
body(r_fr9_76,fr9_f1).
head(r_fr9_77,fr9_q4).
body(r_fr9_77,fr9_p2).
body(r_fr9_77,fr9_r4).
body(r_fr9_77,fr9_v2).
body(r_fr9_77,fr9_y1).
body(r_fr9_77,fr9_y3).
head(r_fr9_78,fr9_q4).
body(r_fr9_78,fr9_a3).
body(r_fr9_78,fr9_b3).
body(r_fr9_78,fr10_e2).
body(r_fr9_78,fr9_c4).
body(r_fr9_78,fr9_e3).
body(r_fr9_78,fr9_f3).
body(r_fr9_78,fr9_t2).
body(r_fr9_78,fr9_x3).
head(r_fr9_79,fr9_q4).
body(r_fr9_79,fr9_p2).
body(r_fr9_79,fr9_s2).
body(r_fr9_79,fr9_u2).
body(r_fr9_79,fr9_v2).
body(r_fr9_79,fr9_x1).
body(r_fr9_79,fr9_y3).
head(r_fr9_80,fr9_t1).
body(r_fr9_80,fr9_c4).
body(r_fr9_80,fr9_d2).
body(r_fr9_80,fr9_d4).
body(r_fr9_80,fr9_e4).
body(r_fr9_80,fr9_s1).
body(r_fr9_80,fr9_u2).
body(r_fr9_80,fr9_y3).
head(r_fr9_81,fr9_t1).
body(r_fr9_81,fr9_p1).
body(r_fr9_81,fr9_p4).
body(r_fr9_81,fr9_r1).
body(r_fr9_81,fr9_r2).
body(r_fr9_81,fr9_t3).
body(r_fr9_81,fr9_u4).
body(r_fr9_81,fr9_w3).
body(r_fr9_81,fr4_a2).
head(r_fr9_82,fr9_z3).
body(r_fr9_82,fr9_a4).
body(r_fr9_82,fr10_e2).
body(r_fr9_82,fr9_f1).
body(r_fr9_82,fr9_f2).
body(r_fr9_82,fr9_f4).
body(r_fr9_82,fr9_q3).
body(r_fr9_82,fr9_t1).
body(r_fr9_82,fr9_z1).
head(r_fr9_83,fr9_z3).
body(r_fr9_83,fr9_d1).
body(r_fr9_83,fr9_t3).
body(r_fr9_83,fr9_x3).
head(r_fr9_84,fr9_z3).
body(r_fr9_84,fr9_e3).
body(r_fr9_84,fr9_p1).
body(r_fr9_84,fr9_r4).
body(r_fr9_84,fr6_d1).
body(r_fr9_84,fr9_t2).
body(r_fr9_84,fr9_u1).
body(r_fr9_84,fr9_u2).
body(r_fr9_84,fr9_w2).
body(r_fr9_84,fr9_x1).
head(r_fr9_85,fr9_z3).
body(r_fr9_85,fr9_a1).
body(r_fr9_85,fr9_a3).
body(r_fr9_85,fr6_c3).
body(r_fr9_85,fr9_f2).
body(r_fr9_85,fr9_f4).
body(r_fr9_85,fr1_w2).
body(r_fr9_85,fr9_t4).
body(r_fr9_85,fr9_y3).
head(r_fr9_86,fr9_x3).
body(r_fr9_86,fr9_b3).
body(r_fr9_86,fr6_c3).
body(r_fr9_86,fr9_c3).
body(r_fr9_86,fr9_d2).
body(r_fr9_86,fr9_e4).
body(r_fr9_86,fr9_r1).
body(r_fr9_86,fr9_t1).
body(r_fr9_86,fr9_x1).
head(r_fr9_87,fr9_x3).
body(r_fr9_87,fr9_b2).
body(r_fr9_87,fr9_d1).
body(r_fr9_87,fr9_d2).
body(r_fr9_87,fr9_e1).
body(r_fr9_87,fr9_e3).
body(r_fr9_87,fr9_y2).
head(r_fr9_88,fr9_x3).
body(r_fr9_88,fr9_d1).
body(r_fr9_88,fr9_e2).
body(r_fr9_88,fr9_p4).
body(r_fr9_88,fr9_t1).
body(r_fr9_88,fr9_u4).
body(r_fr9_88,fr9_y3).
body(r_fr9_88,fr9_z3).
head(r_fr9_89,fr9_x3).
body(r_fr9_89,fr9_c1).
body(r_fr9_89,fr9_d4).
body(r_fr9_89,fr9_p1).
body(r_fr9_89,fr7_v4).
body(r_fr9_89,fr9_t4).
body(r_fr9_89,fr9_w3).
body(r_fr9_89,fr9_y1).
body(r_fr9_89,fr9_y2).
head(r_fr9_90,fr9_x3).
body(r_fr9_90,fr9_f4).
body(r_fr9_90,fr9_p2).
head(r_fr9_91,fr9_x3).
head(r_fr9_92,fr9_x2).
body(r_fr9_92,fr9_a3).
body(r_fr9_92,fr9_b3).
body(r_fr9_92,fr6_c3).
body(r_fr9_92,fr9_c4).
body(r_fr9_92,fr9_e3).
head(r_fr9_93,fr9_x2).
body(r_fr9_93,fr9_a4).
body(r_fr9_93,fr9_b3).
body(r_fr9_93,fr9_d3).
body(r_fr9_93,fr9_f2).
head(r_fr9_94,fr9_x2).
body(r_fr9_94,fr6_c3).
head(r_fr9_95,fr9_x2).
body(r_fr9_95,fr9_d4).
body(r_fr9_95,fr9_e1).
body(r_fr9_95,fr9_f2).
body(r_fr9_95,fr9_w3).
body(r_fr9_95,fr9_x3).
head(r_fr9_96,fr9_x2).
body(r_fr9_96,fr9_b1).
body(r_fr9_96,fr9_d1).
body(r_fr9_96,fr9_d2).
body(r_fr9_96,fr9_e4).
body(r_fr9_96,fr9_f1).
body(r_fr9_96,fr9_f4).
body(r_fr9_96,fr1_w2).
head(r_fr9_97,fr9_x2).
body(r_fr9_97,fr9_a2).
body(r_fr9_97,fr9_q3).
body(r_fr9_97,fr9_r3).
head(r_fr9_98,fr9_v1).
body(r_fr9_98,fr9_q4).
body(r_fr9_98,fr9_t3).
head(r_fr9_99,fr9_v1).
body(r_fr9_99,fr9_p4).
body(r_fr9_99,fr9_w1).
body(r_fr9_99,fr9_x2).
head(r_fr9_100,fr9_v1).
body(r_fr9_100,fr9_e1).
body(r_fr9_100,fr9_q4).
body(r_fr9_100,fr9_s2).
body(r_fr9_100,fr9_t1).
body(r_fr9_100,fr9_t4).
body(r_fr9_100,fr9_y2).
body(r_fr9_100,fr9_y3).
body(r_fr9_100,fr4_a2).
head(r_fr9_101,fr9_v1).
body(r_fr9_101,fr9_e1).
body(r_fr9_101,fr9_t2).
body(r_fr9_101,fr9_u2).
body(r_fr9_101,fr9_u4).
head(r_fr9_102,fr9_v1).
body(r_fr9_102,fr9_e4).
body(r_fr9_102,fr9_t1).
body(r_fr9_102,fr9_v3).
body(r_fr9_102,fr9_z3).
head(r_fr9_103,fr9_z1).
body(r_fr9_103,fr9_a1).
body(r_fr9_103,fr9_e2).
body(r_fr9_103,fr9_s2).
body(r_fr9_103,fr1_w2).
body(r_fr9_103,fr9_t3).
body(r_fr9_103,fr9_v4).
body(r_fr9_103,fr9_w1).
body(r_fr9_103,fr9_x2).
head(r_fr9_104,fr9_z1).
body(r_fr9_104,fr9_a1).
body(r_fr9_104,fr9_a3).
body(r_fr9_104,fr10_e2).
body(r_fr9_104,fr9_f4).
body(r_fr9_104,fr9_p3).
body(r_fr9_104,fr9_y2).
body(r_fr9_104,fr9_z3).
head(r_fr9_105,fr9_z1).
body(r_fr9_105,fr9_a2).
body(r_fr9_105,fr9_b1).
body(r_fr9_105,fr10_e2).
body(r_fr9_105,fr9_c4).
body(r_fr9_105,fr9_d1).
body(r_fr9_105,fr9_d2).
body(r_fr9_105,fr9_f1).
body(r_fr9_105,fr9_y1).
head(r_fr9_106,fr9_z1).
body(r_fr9_106,fr9_c4).
body(r_fr9_106,fr9_s1).
head(r_fr9_107,fr9_z1).
body(r_fr9_107,fr9_r1).
body(r_fr9_107,fr9_v1).
body(r_fr9_107,fr9_x3).
head(r_fr9_108,fr9_z1).
body(r_fr9_108,fr9_c3).
head(r_fr9_109,fr4_a2).
body(r_fr9_109,fr6_c3).
body(r_fr9_109,fr9_c3).
body(r_fr9_109,fr9_e1).
body(r_fr9_109,fr9_q4).
head(r_fr9_110,fr4_a2).
body(r_fr9_110,fr9_r2).
body(r_fr9_110,fr9_v1).
body(r_fr9_110,fr9_x1).
body(r_fr9_110,fr9_z1).
head(r_fr9_111,fr4_a2).
body(r_fr9_111,fr9_d1).
body(r_fr9_111,fr9_e1).
body(r_fr9_111,fr9_s2).
body(r_fr9_111,fr9_y3).
body(r_fr9_111,fr9_z1).
head(r_fr9_112,fr4_a2).
body(r_fr9_112,fr9_a1).
body(r_fr9_112,fr9_a4).
body(r_fr9_112,fr9_b3).
body(r_fr9_112,fr9_u2).
head(r_fr9_113,fr9_x1).
body(r_fr9_113,fr9_b1).
body(r_fr9_113,fr6_z2).
body(r_fr9_113,fr9_r3).
body(r_fr9_113,fr9_t4).
body(r_fr9_113,fr9_u2).
body(r_fr9_113,fr9_u4).
head(r_fr9_114,fr9_x1).
body(r_fr9_114,fr10_e2).
body(r_fr9_114,fr9_d2).
body(r_fr9_114,fr9_d3).
head(r_fr9_115,fr9_v4).
body(r_fr9_115,fr9_e2).
body(r_fr9_115,fr9_p2).
body(r_fr9_115,fr9_p4).
body(r_fr9_115,fr9_r1).
body(r_fr9_115,fr9_x3).
body(r_fr9_115,fr9_y1).
body(r_fr9_115,fr9_z1).
body(r_fr9_115,fr9_z3).
head(r_fr9_116,fr9_v4).
body(r_fr9_116,fr9_a1).
body(r_fr9_116,fr9_c3).
body(r_fr9_116,fr9_d1).
body(r_fr9_116,fr9_p1).
body(r_fr9_116,fr9_u3).
body(r_fr9_116,fr4_a2).
head(r_fr9_117,fr9_v4).
body(r_fr9_117,fr9_a1).
body(r_fr9_117,fr9_c1).
head(r_fr9_118,fr9_v4).
body(r_fr9_118,fr9_f4).
head(r_fr9_119,fr9_v4).
body(r_fr9_119,fr10_e2).
body(r_fr9_119,fr9_c1).
body(r_fr9_119,fr9_p1).
body(r_fr9_119,fr7_v4).
body(r_fr9_119,fr6_d1).
body(r_fr9_119,fr9_u4).
head(r_fr9_120,fr9_v4).
body(r_fr9_120,fr9_a1).
body(r_fr9_120,fr9_b1).
body(r_fr9_120,fr9_b2).
body(r_fr9_120,fr9_d3).
body(r_fr9_120,fr9_e1).
head(r_fr9_121,fr9_v4).
body(r_fr9_121,fr9_b3).
body(r_fr9_121,fr9_c1).
body(r_fr9_121,fr6_c3).
body(r_fr9_121,fr9_c4).
body(r_fr9_121,fr9_p4).
body(r_fr9_121,fr1_w2).
body(r_fr9_121,fr9_t3).
body(r_fr9_121,fr9_v3).
head(r_fr9_122,fr9_v4).
body(r_fr9_122,fr9_f2).
body(r_fr9_122,fr9_x2).
head(r_fr9_123,fr9_s2).
body(r_fr9_123,fr9_a1).
head(r_fr9_124,fr9_s2).
body(r_fr9_124,fr9_a4).
body(r_fr9_124,fr10_e2).
head(r_fr9_125,fr9_s2).
body(r_fr9_125,fr9_e1).
body(r_fr9_125,fr9_f1).
body(r_fr9_125,fr9_r1).
body(r_fr9_125,fr9_r4).
body(r_fr9_125,fr9_v1).
body(r_fr9_125,fr9_v2).
body(r_fr9_125,fr9_w2).
body(r_fr9_125,fr9_x2).
body(r_fr9_125,fr9_y1).
head(r_fr9_126,fr9_s2).
head(r_fr9_127,fr9_s2).
body(r_fr9_127,fr9_e1).
body(r_fr9_127,fr9_s1).
body(r_fr9_127,fr9_u1).
head(r_fr9_128,fr1_w2).
body(r_fr9_128,fr9_z3).
head(r_fr9_129,fr1_w2).
head(r_fr9_130,fr1_w2).
body(r_fr9_130,fr9_a2).
body(r_fr9_130,fr9_d4).
body(r_fr9_130,fr9_e2).
body(r_fr9_130,fr9_f3).
body(r_fr9_130,fr9_q3).
head(r_fr9_131,fr1_w2).
body(r_fr9_131,fr9_r3).
body(r_fr9_131,fr9_v2).
body(r_fr9_131,fr9_w1).
body(r_fr9_131,fr9_x2).
body(r_fr9_131,fr9_x3).
body(r_fr9_131,fr9_z3).
head(r_fr9_132,fr1_w2).
body(r_fr9_132,fr9_b1).
body(r_fr9_132,fr9_d4).
body(r_fr9_132,fr9_f1).
body(r_fr9_132,fr9_p1).
body(r_fr9_132,fr9_r1).
body(r_fr9_132,fr9_r3).
body(r_fr9_132,fr9_t3).
head(r_fr9_133,fr1_w2).
body(r_fr9_133,fr9_c3).
body(r_fr9_133,fr9_f3).
head(r_fr9_134,fr6_z2).
body(r_fr9_134,fr9_c1).
body(r_fr9_134,fr9_r1).
body(r_fr9_134,fr9_s1).
body(r_fr9_134,fr6_d1).
body(r_fr9_134,fr9_v4).
body(r_fr9_134,fr9_z1).
head(r_fr9_135,fr6_z2).
body(r_fr9_135,fr9_c4).
body(r_fr9_135,fr9_e1).
body(r_fr9_135,fr9_f4).
body(r_fr9_135,fr9_r2).
head(r_fr9_136,fr6_z2).
head(r_fr9_137,fr6_z2).
body(r_fr9_137,fr9_a4).
body(r_fr9_137,fr6_c3).
body(r_fr9_137,fr9_f1).
body(r_fr9_137,fr9_f3).
body(r_fr9_137,fr9_v2).
head(r_fr9_138,fr6_z2).
body(r_fr9_138,fr9_e2).
head(r_fr9_139,fr6_z2).
body(r_fr9_139,fr10_e2).
body(r_fr9_139,fr9_q3).
head(r_fr9_140,fr9_u3).
body(r_fr9_140,fr9_a1).
body(r_fr9_140,fr9_a3).
body(r_fr9_140,fr9_a4).
body(r_fr9_140,fr9_c1).
body(r_fr9_140,fr6_c3).
body(r_fr9_140,fr9_d3).
head(r_fr9_141,fr9_u3).
body(r_fr9_141,fr9_a1).
body(r_fr9_141,fr6_c3).
body(r_fr9_141,fr9_d2).
head(r_fr9_142,fr9_u3).
body(r_fr9_142,fr9_d1).
body(r_fr9_142,fr9_f1).
body(r_fr9_142,fr9_f3).
body(r_fr9_142,fr9_f4).
body(r_fr9_142,fr9_p4).
body(r_fr9_142,fr9_z3).
head(r_fr9_143,fr9_u3).
body(r_fr9_143,fr10_e2).
body(r_fr9_143,fr9_c3).
body(r_fr9_143,fr9_c4).
body(r_fr9_143,fr9_z1).
head(r_fr9_144,fr9_u3).
body(r_fr9_144,fr9_q3).
body(r_fr9_144,fr9_r3).
body(r_fr9_144,fr9_t1).
body(r_fr9_144,fr9_u4).
body(r_fr9_144,fr9_v3).
body(r_fr9_144,fr9_z1).
head(r_fr9_145,fr9_u3).
body(r_fr9_145,fr9_a3).
body(r_fr9_145,fr6_c3).
body(r_fr9_145,fr9_c3).
body(r_fr9_145,fr9_e1).
body(r_fr9_145,fr9_e2).
head(r_fr9_146,fr9_t4).
body(r_fr9_146,fr9_a1).
body(r_fr9_146,fr9_a3).
body(r_fr9_146,fr9_c1).
body(r_fr9_146,fr9_e1).
body(r_fr9_146,fr9_f1).
body(r_fr9_146,fr9_p1).
body(r_fr9_146,fr9_q3).
head(r_fr9_147,fr9_t4).
body(r_fr9_147,fr9_y1).
head(r_fr9_148,fr9_t4).
body(r_fr9_148,fr9_a3).
body(r_fr9_148,fr9_c1).
body(r_fr9_148,fr9_d4).
body(r_fr9_148,fr9_f1).
body(r_fr9_148,fr9_f2).
body(r_fr9_148,fr9_f4).
body(r_fr9_148,fr9_r4).
body(r_fr9_148,fr1_w2).
head(r_fr9_149,fr9_t4).
body(r_fr9_149,fr9_a1).
body(r_fr9_149,fr9_d3).
body(r_fr9_149,fr9_v3).
head(r_fr9_150,fr9_t4).
body(r_fr9_150,fr9_p2).
body(r_fr9_150,fr9_s2).
body(r_fr9_150,fr9_u1).
body(r_fr9_150,fr9_u4).
body(r_fr9_150,fr9_v2).
body(r_fr9_150,fr9_w2).
body(r_fr9_150,fr9_y1).
head(r_fr9_151,fr9_t4).
body(r_fr9_151,fr10_e2).
body(r_fr9_151,fr9_c1).
body(r_fr9_151,fr6_z2).
body(r_fr9_151,fr9_q4).
body(r_fr9_151,fr9_t3).
body(r_fr9_151,fr9_v1).
body(r_fr9_151,fr9_y3).
head(r_fr9_152,fr9_t4).
body(r_fr9_152,fr9_b3).
body(r_fr9_152,fr9_e1).
body(r_fr9_152,fr9_v4).
head(r_fr9_153,fr9_t4).
body(r_fr9_153,fr9_e1).
body(r_fr9_153,fr9_f3).
body(r_fr9_153,fr9_v1).
head(r_fr9_154,fr7_v4).
body(r_fr9_154,fr9_b1).
body(r_fr9_154,fr9_b2).
body(r_fr9_154,fr9_f4).
body(r_fr9_154,fr9_w3).
head(r_fr9_155,fr7_v4).
head(r_fr9_156,fr7_v4).
body(r_fr9_156,fr9_p2).
body(r_fr9_156,fr6_z2).
body(r_fr9_156,fr9_r2).
body(r_fr9_156,fr9_s2).
body(r_fr9_156,fr9_t1).
body(r_fr9_156,fr9_u2).
body(r_fr9_156,fr9_y2).
body(r_fr9_156,fr9_y3).
head(r_fr9_157,fr7_v4).
body(r_fr9_157,fr9_a1).
body(r_fr9_157,fr9_b1).
body(r_fr9_157,fr9_c1).
body(r_fr9_157,fr6_c3).
body(r_fr9_157,fr9_u4).
body(r_fr9_157,fr9_z3).
head(r_fr9_158,fr7_v4).
body(r_fr9_158,fr9_c1).
body(r_fr9_158,fr9_d1).
body(r_fr9_158,fr9_f4).
head(r_fr9_159,fr7_v4).
body(r_fr9_159,fr9_a4).
body(r_fr9_159,fr9_c3).
body(r_fr9_159,fr9_f2).
body(r_fr9_159,fr9_s2).
body(r_fr9_159,fr9_t4).
body(r_fr9_159,fr9_v4).
body(r_fr9_159,fr9_x2).
body(r_fr9_159,fr9_z3).
head(r_fr9_160,fr7_v4).
body(r_fr9_160,fr9_p1).
body(r_fr9_160,fr9_p4).
body(r_fr9_160,fr6_z2).
body(r_fr9_160,fr1_w2).
body(r_fr9_160,fr9_t2).
body(r_fr9_160,fr9_v2).
body(r_fr9_160,fr9_v4).
body(r_fr9_160,fr9_w2).
body(r_fr9_160,fr4_a2).
head(r_fr9_161,fr9_t2).
body(r_fr9_161,fr9_f1).
body(r_fr9_161,fr9_p1).
body(r_fr9_161,fr9_s1).
body(r_fr9_161,fr9_t1).
body(r_fr9_161,fr9_u3).
body(r_fr9_161,fr9_v3).
head(r_fr9_162,fr9_t2).
body(r_fr9_162,fr9_b2).
body(r_fr9_162,fr9_b3).
body(r_fr9_162,fr9_c3).
body(r_fr9_162,fr9_d1).
body(r_fr9_162,fr9_e3).
body(r_fr9_162,fr9_f4).
body(r_fr9_162,fr9_p2).
body(r_fr9_162,fr9_v4).
body(r_fr9_162,fr9_z3).
head(r_fr9_163,fr9_t2).
body(r_fr9_163,fr9_e4).
body(r_fr9_163,fr9_q3).
body(r_fr9_163,fr6_d1).
head(r_fr9_164,fr9_t2).
body(r_fr9_164,fr9_b2).
body(r_fr9_164,fr9_d1).
body(r_fr9_164,fr9_e2).
body(r_fr9_164,fr9_f2).
body(r_fr9_164,fr1_w2).
body(r_fr9_164,fr9_t1).
body(r_fr9_164,fr9_v1).
body(r_fr9_164,fr9_v3).
body(r_fr9_164,fr9_w3).
head(r_fr9_165,fr9_t2).
body(r_fr9_165,fr9_b2).
body(r_fr9_165,fr6_d1).

assumption(fr10_a1).
assumption(fr10_b1).
assumption(fr10_c1).
assumption(fr10_d1).
assumption(fr10_e1).
assumption(fr10_f1).
assumption(fr10_a2).
assumption(fr10_b2).
assumption(fr10_c2).
assumption(fr6_b2).
assumption(fr10_e2).
assumption(fr10_f2).
assumption(fr10_a3).
assumption(fr10_b3).
assumption(fr10_c3).
contrary(fr10_a1,fr10_p3).
contrary(fr10_a2,fr10_x2).
contrary(fr10_a3,fr10_a1).
contrary(fr10_b1,fr10_s2).
contrary(fr10_b2,fr6_u1).
contrary(fr10_b3,fr10_c3).
contrary(fr10_c1,fr10_w3).
contrary(fr10_c2,fr10_v1).
contrary(fr10_c3,fr10_z3).
contrary(fr10_d1,fr10_y2).
contrary(fr6_b2,fr10_w2).
contrary(fr10_e1,fr10_c1).
contrary(fr10_e2,fr10_t3).
contrary(fr10_f1,fr10_q2).
contrary(fr10_f2,fr10_b3).
head(r_fr10_0,fr10_z2).
body(r_fr10_0,fr10_q1).
body(r_fr10_0,fr10_q4).
body(r_fr10_0,fr10_r1).
body(r_fr10_0,fr10_r3).
body(r_fr10_0,fr10_s2).
body(r_fr10_0,fr10_t3).
body(r_fr10_0,fr10_u1).
body(r_fr10_0,fr10_v1).
body(r_fr10_0,fr10_v3).
body(r_fr10_0,fr10_w1).
body(r_fr10_0,fr10_x2).
body(r_fr10_0,fr10_y1).
body(r_fr10_0,fr10_y2).
head(r_fr10_1,fr10_z2).
body(r_fr10_1,fr10_a1).
body(r_fr10_1,fr10_a2).
body(r_fr10_1,fr10_b2).
body(r_fr10_1,fr10_c3).
body(r_fr10_1,fr10_p4).
body(r_fr10_1,fr10_s3).
body(r_fr10_1,fr10_t1).
body(r_fr10_1,fr10_t3).
body(r_fr10_1,fr10_v2).
body(r_fr10_1,fr10_v3).
body(r_fr10_1,fr10_w2).
body(r_fr10_1,fr10_x2).
body(r_fr10_1,fr10_z3).
head(r_fr10_2,fr10_z2).
body(r_fr10_2,fr10_a3).
body(r_fr10_2,fr10_b1).
body(r_fr10_2,fr10_c3).
body(r_fr10_2,fr10_d1).
body(r_fr10_2,fr6_b2).
body(r_fr10_2,fr10_p3).
body(r_fr10_2,fr10_p4).
body(r_fr10_2,fr10_r2).
body(r_fr10_2,fr10_u2).
body(r_fr10_2,fr10_v1).
body(r_fr10_2,fr10_w1).
body(r_fr10_2,fr6_u1).
body(r_fr10_2,fr10_x2).
body(r_fr10_2,fr10_y3).
body(r_fr10_2,fr10_z3).
head(r_fr10_3,fr10_z2).
body(r_fr10_3,fr10_a2).
body(r_fr10_3,fr10_b3).
body(r_fr10_3,fr10_c3).
body(r_fr10_3,fr10_p2).
body(r_fr10_3,fr10_s3).
body(r_fr10_3,fr10_t2).
body(r_fr10_3,fr10_t3).
body(r_fr10_3,fr10_u1).
body(r_fr10_3,fr10_u3).
body(r_fr10_3,fr10_v2).
body(r_fr10_3,fr10_z1).
body(r_fr10_3,fr10_z3).
head(r_fr10_4,fr10_z2).
body(r_fr10_4,fr10_c1).
body(r_fr10_4,fr10_d1).
body(r_fr10_4,fr10_f1).
body(r_fr10_4,fr10_p1).
body(r_fr10_4,fr10_q1).
body(r_fr10_4,fr10_q2).
body(r_fr10_4,fr10_q4).
body(r_fr10_4,fr10_r3).
body(r_fr10_4,fr10_t2).
body(r_fr10_4,fr10_w3).
body(r_fr10_4,fr10_y2).
body(r_fr10_4,fr10_z1).
head(r_fr10_5,fr10_z3).
body(r_fr10_5,fr10_a2).
body(r_fr10_5,fr10_c1).
body(r_fr10_5,fr10_p1).
body(r_fr10_5,fr10_p3).
body(r_fr10_5,fr10_r1).
body(r_fr10_5,fr10_r3).
body(r_fr10_5,fr10_t3).
body(r_fr10_5,fr10_u1).
body(r_fr10_5,fr10_u2).
body(r_fr10_5,fr10_v2).
body(r_fr10_5,fr10_w2).
body(r_fr10_5,fr6_u1).
body(r_fr10_5,fr10_y1).
head(r_fr10_6,fr10_z3).
body(r_fr10_6,fr10_a1).
body(r_fr10_6,fr10_a2).
body(r_fr10_6,fr10_b1).
body(r_fr10_6,fr10_d1).
body(r_fr10_6,fr10_e1).
body(r_fr10_6,fr10_q3).
body(r_fr10_6,fr10_s1).
body(r_fr10_6,fr10_s3).
body(r_fr10_6,fr10_t2).
body(r_fr10_6,fr10_u1).
body(r_fr10_6,fr10_v1).
body(r_fr10_6,fr10_w3).
body(r_fr10_6,fr10_x2).
body(r_fr10_6,fr10_z1).
head(r_fr10_7,fr10_z3).
body(r_fr10_7,fr10_b1).
body(r_fr10_7,fr10_b3).
body(r_fr10_7,fr10_c3).
body(r_fr10_7,fr10_e1).
body(r_fr10_7,fr10_p1).
body(r_fr10_7,fr10_r1).
body(r_fr10_7,fr10_r2).
body(r_fr10_7,fr10_r3).
body(r_fr10_7,fr10_s3).
body(r_fr10_7,fr10_t3).
body(r_fr10_7,fr10_u1).
body(r_fr10_7,fr10_v1).
body(r_fr10_7,fr10_x2).
body(r_fr10_7,fr10_z1).
body(r_fr10_7,fr10_z2).
head(r_fr10_8,fr10_z3).
body(r_fr10_8,fr10_c3).
body(r_fr10_8,fr10_e1).
body(r_fr10_8,fr10_e2).
body(r_fr10_8,fr10_p3).
body(r_fr10_8,fr10_r1).
body(r_fr10_8,fr10_r3).
body(r_fr10_8,fr10_s1).
body(r_fr10_8,fr10_s2).
body(r_fr10_8,fr10_t1).
body(r_fr10_8,fr10_t3).
body(r_fr10_8,fr10_u2).
body(r_fr10_8,fr10_w1).
body(r_fr10_8,fr10_w2).
body(r_fr10_8,fr6_u1).
head(r_fr10_9,fr10_q4).
body(r_fr10_9,fr10_e2).
body(r_fr10_9,fr10_f2).
body(r_fr10_9,fr10_p1).
body(r_fr10_9,fr10_p2).
body(r_fr10_9,fr10_q1).
body(r_fr10_9,fr10_q3).
body(r_fr10_9,fr10_r1).
body(r_fr10_9,fr10_t1).
body(r_fr10_9,fr10_u1).
body(r_fr10_9,fr10_u3).
body(r_fr10_9,fr10_v2).
body(r_fr10_9,fr10_w3).
body(r_fr10_9,fr10_x3).
body(r_fr10_9,fr10_z1).
body(r_fr10_9,fr10_z3).
head(r_fr10_10,fr10_q4).
body(r_fr10_10,fr10_p1).
body(r_fr10_10,fr10_p3).
body(r_fr10_10,fr10_p4).
body(r_fr10_10,fr10_q2).
body(r_fr10_10,fr10_s1).
body(r_fr10_10,fr10_t1).
body(r_fr10_10,fr10_t3).
body(r_fr10_10,fr10_u3).
body(r_fr10_10,fr10_v3).
body(r_fr10_10,fr10_w1).
body(r_fr10_10,fr6_u1).
body(r_fr10_10,fr10_x2).
body(r_fr10_10,fr10_z1).
head(r_fr10_11,fr10_q4).
body(r_fr10_11,fr10_a1).
body(r_fr10_11,fr10_b2).
body(r_fr10_11,fr10_c1).
body(r_fr10_11,fr10_c2).
body(r_fr10_11,fr10_c3).
body(r_fr10_11,fr10_f1).
body(r_fr10_11,fr10_p1).
body(r_fr10_11,fr10_q3).
body(r_fr10_11,fr10_t3).
body(r_fr10_11,fr10_u1).
body(r_fr10_11,fr10_u3).
body(r_fr10_11,fr10_v2).
body(r_fr10_11,fr10_v3).
body(r_fr10_11,fr10_w1).
body(r_fr10_11,fr10_w2).
head(r_fr10_12,fr10_q4).
body(r_fr10_12,fr10_a3).
body(r_fr10_12,fr10_b2).
body(r_fr10_12,fr10_b3).
body(r_fr10_12,fr6_b2).
body(r_fr10_12,fr10_p1).
body(r_fr10_12,fr10_p4).
body(r_fr10_12,fr10_u1).
body(r_fr10_12,fr10_v2).
body(r_fr10_12,fr10_w1).
body(r_fr10_12,fr10_w2).
body(r_fr10_12,fr10_y1).
body(r_fr10_12,fr10_z2).
body(r_fr10_12,fr10_z3).
head(r_fr10_13,fr10_q4).
body(r_fr10_13,fr10_a1).
body(r_fr10_13,fr10_a2).
body(r_fr10_13,fr10_b1).
body(r_fr10_13,fr10_d1).
body(r_fr10_13,fr10_e1).
body(r_fr10_13,fr10_f1).
body(r_fr10_13,fr10_p3).
body(r_fr10_13,fr10_r2).
body(r_fr10_13,fr10_t2).
body(r_fr10_13,fr10_u2).
body(r_fr10_13,fr10_w1).
body(r_fr10_13,fr6_u1).
body(r_fr10_13,fr10_x2).
body(r_fr10_13,fr10_y1).
head(r_fr10_14,fr10_x3).
body(r_fr10_14,fr10_a1).
body(r_fr10_14,fr10_a2).
body(r_fr10_14,fr10_b1).
body(r_fr10_14,fr10_b2).
body(r_fr10_14,fr10_d1).
body(r_fr10_14,fr10_f2).
body(r_fr10_14,fr10_p1).
body(r_fr10_14,fr10_s3).
body(r_fr10_14,fr10_t3).
body(r_fr10_14,fr10_u2).
body(r_fr10_14,fr10_x2).
body(r_fr10_14,fr10_y1).
body(r_fr10_14,fr10_z1).
head(r_fr10_15,fr10_x3).
body(r_fr10_15,fr10_a3).
body(r_fr10_15,fr10_d1).
body(r_fr10_15,fr10_f1).
body(r_fr10_15,fr10_q1).
body(r_fr10_15,fr10_r3).
body(r_fr10_15,fr10_s3).
body(r_fr10_15,fr10_t1).
body(r_fr10_15,fr10_t2).
body(r_fr10_15,fr10_t3).
body(r_fr10_15,fr10_v3).
body(r_fr10_15,fr10_w3).
body(r_fr10_15,fr10_y2).
body(r_fr10_15,fr10_z3).
head(r_fr10_16,fr10_x3).
body(r_fr10_16,fr10_c2).
body(r_fr10_16,fr10_c3).
body(r_fr10_16,fr10_p1).
body(r_fr10_16,fr10_p2).
body(r_fr10_16,fr10_p4).
body(r_fr10_16,fr10_r2).
body(r_fr10_16,fr10_r3).
body(r_fr10_16,fr10_s1).
body(r_fr10_16,fr10_t2).
body(r_fr10_16,fr10_t3).
body(r_fr10_16,fr10_w3).
body(r_fr10_16,fr6_u1).
body(r_fr10_16,fr10_y1).
body(r_fr10_16,fr10_z2).
body(r_fr10_16,fr10_z3).
head(r_fr10_17,fr10_y1).
body(r_fr10_17,fr10_a3).
body(r_fr10_17,fr10_b1).
body(r_fr10_17,fr10_b2).
body(r_fr10_17,fr10_b3).
body(r_fr10_17,fr10_e1).
body(r_fr10_17,fr10_e2).
body(r_fr10_17,fr10_q3).
body(r_fr10_17,fr10_q4).
body(r_fr10_17,fr10_r1).
body(r_fr10_17,fr10_r3).
body(r_fr10_17,fr10_u3).
body(r_fr10_17,fr10_w1).
body(r_fr10_17,fr10_x3).
body(r_fr10_17,fr10_y3).
head(r_fr10_18,fr10_y1).
body(r_fr10_18,fr10_a2).
body(r_fr10_18,fr10_b2).
body(r_fr10_18,fr10_e2).
body(r_fr10_18,fr10_f2).
body(r_fr10_18,fr10_p2).
body(r_fr10_18,fr10_p3).
body(r_fr10_18,fr10_q3).
body(r_fr10_18,fr10_q4).
body(r_fr10_18,fr10_s2).
body(r_fr10_18,fr10_u1).
body(r_fr10_18,fr10_v1).
body(r_fr10_18,fr10_w2).
body(r_fr10_18,fr10_w3).
head(r_fr10_19,fr10_y1).
body(r_fr10_19,fr10_b3).
body(r_fr10_19,fr10_c1).
body(r_fr10_19,fr10_c3).
body(r_fr10_19,fr10_p1).
body(r_fr10_19,fr10_p2).
body(r_fr10_19,fr10_p3).
body(r_fr10_19,fr10_p4).
body(r_fr10_19,fr10_r3).
body(r_fr10_19,fr10_s2).
body(r_fr10_19,fr10_t2).
body(r_fr10_19,fr10_t3).
body(r_fr10_19,fr10_y3).
body(r_fr10_19,fr10_z2).
body(r_fr10_19,fr10_z3).
head(r_fr10_20,fr10_r3).
body(r_fr10_20,fr10_a2).
body(r_fr10_20,fr10_a3).
body(r_fr10_20,fr10_b2).
body(r_fr10_20,fr10_c2).
body(r_fr10_20,fr10_c3).
body(r_fr10_20,fr6_b2).
body(r_fr10_20,fr10_p1).
body(r_fr10_20,fr10_p2).
body(r_fr10_20,fr10_q4).
body(r_fr10_20,fr10_u3).
body(r_fr10_20,fr10_x2).
body(r_fr10_20,fr10_y1).
body(r_fr10_20,fr10_y3).
head(r_fr10_21,fr10_r3).
body(r_fr10_21,fr10_a3).
body(r_fr10_21,fr10_b2).
body(r_fr10_21,fr10_c3).
body(r_fr10_21,fr10_e2).
body(r_fr10_21,fr10_p3).
body(r_fr10_21,fr10_p4).
body(r_fr10_21,fr10_q2).
body(r_fr10_21,fr10_r2).
body(r_fr10_21,fr10_s2).
body(r_fr10_21,fr10_s3).
body(r_fr10_21,fr10_u1).
body(r_fr10_21,fr10_x2).
body(r_fr10_21,fr10_y2).
body(r_fr10_21,fr10_z1).
body(r_fr10_21,fr10_z3).
head(r_fr10_22,fr10_r3).
body(r_fr10_22,fr10_q1).
body(r_fr10_22,fr10_q2).
body(r_fr10_22,fr10_q4).
body(r_fr10_22,fr10_s1).
body(r_fr10_22,fr10_s3).
body(r_fr10_22,fr10_t2).
body(r_fr10_22,fr10_t3).
body(r_fr10_22,fr10_u2).
body(r_fr10_22,fr10_u3).
body(r_fr10_22,fr10_w1).
body(r_fr10_22,fr6_u1).
body(r_fr10_22,fr10_x2).
body(r_fr10_22,fr10_y2).
head(r_fr10_23,fr10_r3).
body(r_fr10_23,fr10_p2).
body(r_fr10_23,fr10_p4).
body(r_fr10_23,fr10_q1).
body(r_fr10_23,fr10_q3).
body(r_fr10_23,fr10_t3).
body(r_fr10_23,fr10_v1).
body(r_fr10_23,fr10_v2).
body(r_fr10_23,fr10_v3).
body(r_fr10_23,fr10_w3).
body(r_fr10_23,fr10_y1).
body(r_fr10_23,fr10_y3).
body(r_fr10_23,fr10_z1).
head(r_fr10_24,fr10_q2).
body(r_fr10_24,fr10_a2).
body(r_fr10_24,fr10_b1).
body(r_fr10_24,fr10_b2).
body(r_fr10_24,fr10_b3).
body(r_fr10_24,fr10_c1).
body(r_fr10_24,fr10_c2).
body(r_fr10_24,fr10_s2).
body(r_fr10_24,fr10_w1).
body(r_fr10_24,fr10_w2).
body(r_fr10_24,fr10_x2).
body(r_fr10_24,fr10_y2).
body(r_fr10_24,fr10_y3).
body(r_fr10_24,fr10_z3).
head(r_fr10_25,fr10_q2).
body(r_fr10_25,fr10_f1).
body(r_fr10_25,fr10_p4).
body(r_fr10_25,fr10_r1).
body(r_fr10_25,fr10_s1).
body(r_fr10_25,fr10_s3).
body(r_fr10_25,fr10_t1).
body(r_fr10_25,fr10_t2).
body(r_fr10_25,fr10_u2).
body(r_fr10_25,fr10_v3).
body(r_fr10_25,fr10_w1).
body(r_fr10_25,fr10_y2).
body(r_fr10_25,fr10_y3).
body(r_fr10_25,fr10_z2).
body(r_fr10_25,fr10_z3).
head(r_fr10_26,fr10_q2).
body(r_fr10_26,fr10_a1).
body(r_fr10_26,fr10_b3).
body(r_fr10_26,fr10_r3).
body(r_fr10_26,fr10_s1).
body(r_fr10_26,fr10_s2).
body(r_fr10_26,fr10_s3).
body(r_fr10_26,fr10_u3).
body(r_fr10_26,fr10_v1).
body(r_fr10_26,fr10_v2).
body(r_fr10_26,fr10_w2).
body(r_fr10_26,fr10_x3).
body(r_fr10_26,fr10_y1).
body(r_fr10_26,fr10_y2).
body(r_fr10_26,fr10_y3).
head(r_fr10_27,fr10_t3).
body(r_fr10_27,fr10_b2).
body(r_fr10_27,fr10_c2).
body(r_fr10_27,fr10_d1).
body(r_fr10_27,fr6_b2).
body(r_fr10_27,fr10_f2).
body(r_fr10_27,fr10_p4).
body(r_fr10_27,fr10_q2).
body(r_fr10_27,fr10_q4).
body(r_fr10_27,fr10_r1).
body(r_fr10_27,fr10_r3).
body(r_fr10_27,fr10_t1).
body(r_fr10_27,fr10_y3).
head(r_fr10_28,fr10_t3).
body(r_fr10_28,fr10_e1).
body(r_fr10_28,fr10_p4).
body(r_fr10_28,fr10_q2).
body(r_fr10_28,fr10_q3).
body(r_fr10_28,fr10_r2).
body(r_fr10_28,fr10_s3).
body(r_fr10_28,fr10_w1).
body(r_fr10_28,fr10_w2).
body(r_fr10_28,fr6_u1).
body(r_fr10_28,fr10_x2).
body(r_fr10_28,fr10_x3).
body(r_fr10_28,fr10_y2).
body(r_fr10_28,fr10_z3).
head(r_fr10_29,fr10_t3).
body(r_fr10_29,fr10_a2).
body(r_fr10_29,fr10_a3).
body(r_fr10_29,fr10_d1).
body(r_fr10_29,fr6_b2).
body(r_fr10_29,fr10_e2).
body(r_fr10_29,fr10_p2).
body(r_fr10_29,fr10_t1).
body(r_fr10_29,fr10_t2).
body(r_fr10_29,fr10_u1).
body(r_fr10_29,fr10_w3).
body(r_fr10_29,fr10_x2).
body(r_fr10_29,fr10_y3).
head(r_fr10_30,fr10_t3).
body(r_fr10_30,fr10_b3).
body(r_fr10_30,fr10_c3).
body(r_fr10_30,fr10_d1).
body(r_fr10_30,fr10_p1).
body(r_fr10_30,fr10_p3).
body(r_fr10_30,fr10_q1).
body(r_fr10_30,fr10_q2).
body(r_fr10_30,fr10_r3).
body(r_fr10_30,fr10_t2).
body(r_fr10_30,fr10_u1).
body(r_fr10_30,fr10_w1).
body(r_fr10_30,fr10_y3).
body(r_fr10_30,fr10_z1).
body(r_fr10_30,fr10_z3).
head(r_fr10_31,fr10_q1).
body(r_fr10_31,fr10_d1).
body(r_fr10_31,fr10_f2).
body(r_fr10_31,fr10_p2).
body(r_fr10_31,fr10_p4).
body(r_fr10_31,fr10_q3).
body(r_fr10_31,fr10_q4).
body(r_fr10_31,fr10_r2).
body(r_fr10_31,fr10_s1).
body(r_fr10_31,fr10_s2).
body(r_fr10_31,fr10_s3).
body(r_fr10_31,fr10_t3).
body(r_fr10_31,fr10_u3).
body(r_fr10_31,fr10_v1).
body(r_fr10_31,fr10_w2).
body(r_fr10_31,fr6_u1).
head(r_fr10_32,fr10_q1).
body(r_fr10_32,fr10_a1).
body(r_fr10_32,fr10_b3).
body(r_fr10_32,fr10_c2).
body(r_fr10_32,fr10_e1).
body(r_fr10_32,fr10_e2).
body(r_fr10_32,fr10_q2).
body(r_fr10_32,fr10_q4).
body(r_fr10_32,fr10_r1).
body(r_fr10_32,fr10_s1).
body(r_fr10_32,fr10_t1).
body(r_fr10_32,fr10_t2).
body(r_fr10_32,fr10_v1).
body(r_fr10_32,fr10_x3).
body(r_fr10_32,fr10_y3).
body(r_fr10_32,fr10_z1).
head(r_fr10_33,fr10_q1).
body(r_fr10_33,fr10_b2).
body(r_fr10_33,fr10_d1).
body(r_fr10_33,fr10_p2).
body(r_fr10_33,fr10_p4).
body(r_fr10_33,fr10_q3).
body(r_fr10_33,fr10_q4).
body(r_fr10_33,fr10_r1).
body(r_fr10_33,fr10_s1).
body(r_fr10_33,fr10_s2).
body(r_fr10_33,fr10_u3).
body(r_fr10_33,fr10_v1).
body(r_fr10_33,fr10_w3).
body(r_fr10_33,fr6_u1).
body(r_fr10_33,fr10_x3).
body(r_fr10_33,fr10_y3).
head(r_fr10_34,fr10_q1).
body(r_fr10_34,fr10_a3).
body(r_fr10_34,fr10_b1).
body(r_fr10_34,fr10_c1).
body(r_fr10_34,fr10_c2).
body(r_fr10_34,fr10_e1).
body(r_fr10_34,fr10_e2).
body(r_fr10_34,fr10_p2).
body(r_fr10_34,fr10_p4).
body(r_fr10_34,fr10_q4).
body(r_fr10_34,fr10_s3).
body(r_fr10_34,fr10_t1).
body(r_fr10_34,fr10_w2).
body(r_fr10_34,fr6_u1).
body(r_fr10_34,fr10_y1).
body(r_fr10_34,fr10_y3).
head(r_fr10_35,fr10_q1).
body(r_fr10_35,fr10_p2).
body(r_fr10_35,fr10_p4).
body(r_fr10_35,fr10_r3).
body(r_fr10_35,fr10_s1).
body(r_fr10_35,fr10_s2).
body(r_fr10_35,fr10_t2).
body(r_fr10_35,fr10_t3).
body(r_fr10_35,fr10_u2).
body(r_fr10_35,fr10_u3).
body(r_fr10_35,fr10_v1).
body(r_fr10_35,fr10_w1).
body(r_fr10_35,fr10_x2).
body(r_fr10_35,fr10_z2).
head(r_fr10_36,fr10_p3).
body(r_fr10_36,fr10_f1).
body(r_fr10_36,fr10_f2).
body(r_fr10_36,fr10_p1).
body(r_fr10_36,fr10_p2).
body(r_fr10_36,fr10_p4).
body(r_fr10_36,fr10_q1).
body(r_fr10_36,fr10_q4).
body(r_fr10_36,fr10_u1).
body(r_fr10_36,fr10_u3).
body(r_fr10_36,fr10_v2).
body(r_fr10_36,fr10_w3).
body(r_fr10_36,fr6_u1).
body(r_fr10_36,fr10_y1).
body(r_fr10_36,fr10_z2).
head(r_fr10_37,fr10_p3).
body(r_fr10_37,fr10_a3).
body(r_fr10_37,fr10_b1).
body(r_fr10_37,fr10_b2).
body(r_fr10_37,fr10_c1).
body(r_fr10_37,fr10_c2).
body(r_fr10_37,fr10_e2).
body(r_fr10_37,fr10_p2).
body(r_fr10_37,fr10_q3).
body(r_fr10_37,fr10_t1).
body(r_fr10_37,fr10_t2).
body(r_fr10_37,fr10_u2).
body(r_fr10_37,fr10_v3).
body(r_fr10_37,fr10_w2).
head(r_fr10_38,fr10_p3).
body(r_fr10_38,fr10_b3).
body(r_fr10_38,fr10_e2).
body(r_fr10_38,fr10_f2).
body(r_fr10_38,fr10_p2).
body(r_fr10_38,fr10_q3).
body(r_fr10_38,fr10_r3).
body(r_fr10_38,fr10_t1).
body(r_fr10_38,fr10_t3).
body(r_fr10_38,fr10_u3).
body(r_fr10_38,fr10_w2).
body(r_fr10_38,fr10_x2).
body(r_fr10_38,fr10_x3).
body(r_fr10_38,fr10_y1).
body(r_fr10_38,fr10_y2).
body(r_fr10_38,fr10_z2).
head(r_fr10_39,fr10_p3).
body(r_fr10_39,fr10_a3).
body(r_fr10_39,fr10_c2).
body(r_fr10_39,fr10_c3).
body(r_fr10_39,fr10_f1).
body(r_fr10_39,fr10_f2).
body(r_fr10_39,fr10_p1).
body(r_fr10_39,fr10_q1).
body(r_fr10_39,fr10_q3).
body(r_fr10_39,fr10_r1).
body(r_fr10_39,fr10_r3).
body(r_fr10_39,fr10_s2).
body(r_fr10_39,fr10_s3).
body(r_fr10_39,fr10_t2).
body(r_fr10_39,fr10_t3).
body(r_fr10_39,fr10_u2).
head(r_fr10_40,fr10_p3).
body(r_fr10_40,fr10_a3).
body(r_fr10_40,fr10_b1).
body(r_fr10_40,fr10_c2).
body(r_fr10_40,fr10_c3).
body(r_fr10_40,fr10_f1).
body(r_fr10_40,fr10_p1).
body(r_fr10_40,fr10_q2).
body(r_fr10_40,fr10_r1).
body(r_fr10_40,fr10_s1).
body(r_fr10_40,fr10_t1).
body(r_fr10_40,fr10_u1).
body(r_fr10_40,fr10_u3).
body(r_fr10_40,fr10_v2).
body(r_fr10_40,fr6_u1).
body(r_fr10_40,fr10_y1).
head(r_fr10_41,fr10_t1).
body(r_fr10_41,fr10_b1).
body(r_fr10_41,fr10_b3).
body(r_fr10_41,fr10_c1).
body(r_fr10_41,fr10_d1).
body(r_fr10_41,fr6_b2).
body(r_fr10_41,fr10_p1).
body(r_fr10_41,fr10_p4).
body(r_fr10_41,fr10_q2).
body(r_fr10_41,fr10_r1).
body(r_fr10_41,fr10_t2).
body(r_fr10_41,fr10_u2).
body(r_fr10_41,fr10_v3).
body(r_fr10_41,fr10_x3).
body(r_fr10_41,fr10_y3).
body(r_fr10_41,fr10_z3).
head(r_fr10_42,fr10_t1).
body(r_fr10_42,fr10_b3).
body(r_fr10_42,fr10_e2).
body(r_fr10_42,fr10_f2).
body(r_fr10_42,fr10_p1).
body(r_fr10_42,fr10_p2).
body(r_fr10_42,fr10_q2).
body(r_fr10_42,fr10_r3).
body(r_fr10_42,fr10_v2).
body(r_fr10_42,fr10_v3).
body(r_fr10_42,fr6_u1).
body(r_fr10_42,fr10_x3).
body(r_fr10_42,fr10_z2).
head(r_fr10_43,fr10_t1).
body(r_fr10_43,fr10_a1).
body(r_fr10_43,fr10_a3).
body(r_fr10_43,fr10_p3).
body(r_fr10_43,fr10_r1).
body(r_fr10_43,fr10_r2).
body(r_fr10_43,fr10_r3).
body(r_fr10_43,fr10_s2).
body(r_fr10_43,fr10_t3).
body(r_fr10_43,fr10_v1).
body(r_fr10_43,fr10_v2).
body(r_fr10_43,fr10_w1).
body(r_fr10_43,fr10_x2).
head(r_fr10_44,fr10_t1).
body(r_fr10_44,fr10_b3).
body(r_fr10_44,fr10_e1).
body(r_fr10_44,fr10_e2).
body(r_fr10_44,fr10_f1).
body(r_fr10_44,fr10_q2).
body(r_fr10_44,fr10_r1).
body(r_fr10_44,fr10_s2).
body(r_fr10_44,fr10_s3).
body(r_fr10_44,fr10_t2).
body(r_fr10_44,fr10_x2).
body(r_fr10_44,fr10_x3).
body(r_fr10_44,fr10_y2).
body(r_fr10_44,fr10_z3).
head(r_fr10_45,fr10_t1).
body(r_fr10_45,fr10_b3).
body(r_fr10_45,fr10_c2).
body(r_fr10_45,fr10_e1).
body(r_fr10_45,fr10_p4).
body(r_fr10_45,fr10_q1).
body(r_fr10_45,fr10_r1).
body(r_fr10_45,fr10_r2).
body(r_fr10_45,fr10_s1).
body(r_fr10_45,fr10_v2).
body(r_fr10_45,fr10_v3).
body(r_fr10_45,fr6_u1).
body(r_fr10_45,fr10_y1).
body(r_fr10_45,fr10_y3).
head(r_fr10_46,fr10_t2).
body(r_fr10_46,fr10_a3).
body(r_fr10_46,fr10_p1).
body(r_fr10_46,fr10_p2).
body(r_fr10_46,fr10_r3).
body(r_fr10_46,fr10_s1).
body(r_fr10_46,fr10_s3).
body(r_fr10_46,fr10_u1).
body(r_fr10_46,fr10_w1).
body(r_fr10_46,fr10_w3).
body(r_fr10_46,fr6_u1).
body(r_fr10_46,fr10_z1).
body(r_fr10_46,fr10_z3).
head(r_fr10_47,fr10_t2).
body(r_fr10_47,fr10_p2).
body(r_fr10_47,fr10_q3).
body(r_fr10_47,fr10_r1).
body(r_fr10_47,fr10_r3).
body(r_fr10_47,fr10_s2).
body(r_fr10_47,fr10_s3).
body(r_fr10_47,fr10_t1).
body(r_fr10_47,fr10_u1).
body(r_fr10_47,fr10_u3).
body(r_fr10_47,fr10_w1).
body(r_fr10_47,fr6_u1).
body(r_fr10_47,fr10_z1).
head(r_fr10_48,fr10_v3).
body(r_fr10_48,fr10_p2).
body(r_fr10_48,fr10_q2).
body(r_fr10_48,fr10_q3).
body(r_fr10_48,fr10_s1).
body(r_fr10_48,fr10_s2).
body(r_fr10_48,fr10_s3).
body(r_fr10_48,fr10_u2).
body(r_fr10_48,fr10_w1).
body(r_fr10_48,fr10_x2).
body(r_fr10_48,fr10_x3).
body(r_fr10_48,fr10_z1).
body(r_fr10_48,fr10_z2).
body(r_fr10_48,fr10_z3).
head(r_fr10_49,fr10_v3).
body(r_fr10_49,fr10_a3).
body(r_fr10_49,fr10_d1).
body(r_fr10_49,fr10_e2).
body(r_fr10_49,fr10_p2).
body(r_fr10_49,fr10_p4).
body(r_fr10_49,fr10_q4).
body(r_fr10_49,fr10_r2).
body(r_fr10_49,fr10_r3).
body(r_fr10_49,fr10_s2).
body(r_fr10_49,fr10_t2).
body(r_fr10_49,fr10_t3).
body(r_fr10_49,fr10_u1).
body(r_fr10_49,fr10_u3).
body(r_fr10_49,fr10_x3).
head(r_fr10_50,fr10_v3).
body(r_fr10_50,fr10_a2).
body(r_fr10_50,fr10_b3).
body(r_fr10_50,fr10_c2).
body(r_fr10_50,fr10_d1).
body(r_fr10_50,fr10_e1).
body(r_fr10_50,fr10_f2).
body(r_fr10_50,fr10_q1).
body(r_fr10_50,fr10_r1).
body(r_fr10_50,fr10_r3).
body(r_fr10_50,fr10_t2).
body(r_fr10_50,fr10_t3).
body(r_fr10_50,fr10_z2).
head(r_fr10_51,fr10_v3).
body(r_fr10_51,fr10_p1).
body(r_fr10_51,fr10_p3).
body(r_fr10_51,fr10_q2).
body(r_fr10_51,fr10_r3).
body(r_fr10_51,fr10_s2).
body(r_fr10_51,fr10_v1).
body(r_fr10_51,fr10_w1).
body(r_fr10_51,fr10_w3).
body(r_fr10_51,fr6_u1).
body(r_fr10_51,fr10_x3).
body(r_fr10_51,fr10_y2).
body(r_fr10_51,fr10_z3).
head(r_fr10_52,fr10_v3).
body(r_fr10_52,fr10_p1).
body(r_fr10_52,fr10_p2).
body(r_fr10_52,fr10_p4).
body(r_fr10_52,fr10_q2).
body(r_fr10_52,fr10_q3).
body(r_fr10_52,fr10_q4).
body(r_fr10_52,fr10_r2).
body(r_fr10_52,fr10_r3).
body(r_fr10_52,fr10_s1).
body(r_fr10_52,fr10_v2).
body(r_fr10_52,fr10_y2).
body(r_fr10_52,fr10_y3).
body(r_fr10_52,fr10_z1).
body(r_fr10_52,fr10_z2).
body(r_fr10_52,fr10_z3).
head(r_fr10_53,fr10_u3).
body(r_fr10_53,fr10_b3).
body(r_fr10_53,fr10_c1).
body(r_fr10_53,fr10_c3).
body(r_fr10_53,fr10_d1).
body(r_fr10_53,fr10_p4).
body(r_fr10_53,fr10_q3).
body(r_fr10_53,fr10_s1).
body(r_fr10_53,fr10_s3).
body(r_fr10_53,fr10_t1).
body(r_fr10_53,fr10_t2).
body(r_fr10_53,fr10_t3).
body(r_fr10_53,fr10_x3).
body(r_fr10_53,fr10_y2).
body(r_fr10_53,fr10_z2).
head(r_fr10_54,fr10_u3).
body(r_fr10_54,fr10_p4).
body(r_fr10_54,fr10_q2).
body(r_fr10_54,fr10_q4).
body(r_fr10_54,fr10_r2).
body(r_fr10_54,fr10_s1).
body(r_fr10_54,fr10_s2).
body(r_fr10_54,fr10_s3).
body(r_fr10_54,fr10_t1).
body(r_fr10_54,fr10_u2).
body(r_fr10_54,fr10_v1).
body(r_fr10_54,fr10_w1).
body(r_fr10_54,fr10_w2).
body(r_fr10_54,fr6_u1).
body(r_fr10_54,fr10_y3).
head(r_fr10_55,fr10_u3).
body(r_fr10_55,fr10_a1).
body(r_fr10_55,fr10_e2).
body(r_fr10_55,fr10_f1).
body(r_fr10_55,fr10_p2).
body(r_fr10_55,fr10_p3).
body(r_fr10_55,fr10_p4).
body(r_fr10_55,fr10_q2).
body(r_fr10_55,fr10_q3).
body(r_fr10_55,fr10_q4).
body(r_fr10_55,fr10_s1).
body(r_fr10_55,fr10_s3).
body(r_fr10_55,fr10_t2).
body(r_fr10_55,fr10_u2).
body(r_fr10_55,fr10_w2).
body(r_fr10_55,fr10_x3).
head(r_fr10_56,fr10_u3).
body(r_fr10_56,fr10_a2).
body(r_fr10_56,fr10_b2).
body(r_fr10_56,fr10_b3).
body(r_fr10_56,fr10_c3).
body(r_fr10_56,fr10_f2).
body(r_fr10_56,fr10_q2).
body(r_fr10_56,fr10_r2).
body(r_fr10_56,fr10_s1).
body(r_fr10_56,fr10_v2).
body(r_fr10_56,fr10_w1).
body(r_fr10_56,fr10_y3).
body(r_fr10_56,fr10_z1).
body(r_fr10_56,fr10_z3).
head(r_fr10_57,fr10_u3).
body(r_fr10_57,fr10_b2).
body(r_fr10_57,fr10_b3).
body(r_fr10_57,fr10_c2).
body(r_fr10_57,fr10_e1).
body(r_fr10_57,fr10_f2).
body(r_fr10_57,fr10_p3).
body(r_fr10_57,fr10_q3).
body(r_fr10_57,fr10_r2).
body(r_fr10_57,fr10_s1).
body(r_fr10_57,fr10_s3).
body(r_fr10_57,fr10_t3).
body(r_fr10_57,fr10_v2).
body(r_fr10_57,fr10_w1).
body(r_fr10_57,fr6_u1).
body(r_fr10_57,fr10_x2).
head(r_fr10_58,fr10_w1).
body(r_fr10_58,fr10_p3).
body(r_fr10_58,fr10_q4).
body(r_fr10_58,fr10_s1).
body(r_fr10_58,fr10_s3).
body(r_fr10_58,fr10_t1).
body(r_fr10_58,fr10_u2).
body(r_fr10_58,fr10_v1).
body(r_fr10_58,fr10_v3).
body(r_fr10_58,fr10_w2).
body(r_fr10_58,fr6_u1).
body(r_fr10_58,fr10_x2).
body(r_fr10_58,fr10_y1).
body(r_fr10_58,fr10_y3).
body(r_fr10_58,fr10_z1).
body(r_fr10_58,fr10_z3).
head(r_fr10_59,fr10_w1).
body(r_fr10_59,fr10_a3).
body(r_fr10_59,fr10_b1).
body(r_fr10_59,fr10_b2).
body(r_fr10_59,fr6_b2).
body(r_fr10_59,fr10_f2).
body(r_fr10_59,fr10_r3).
body(r_fr10_59,fr10_s3).
body(r_fr10_59,fr10_u2).
body(r_fr10_59,fr10_v1).
body(r_fr10_59,fr10_x2).
body(r_fr10_59,fr10_y2).
body(r_fr10_59,fr10_y3).
head(r_fr10_60,fr10_w1).
body(r_fr10_60,fr6_b2).
body(r_fr10_60,fr10_e1).
body(r_fr10_60,fr10_f2).
body(r_fr10_60,fr10_q3).
body(r_fr10_60,fr10_q4).
body(r_fr10_60,fr10_s2).
body(r_fr10_60,fr10_s3).
body(r_fr10_60,fr10_t1).
body(r_fr10_60,fr10_t3).
body(r_fr10_60,fr10_u1).
body(r_fr10_60,fr10_v1).
body(r_fr10_60,fr10_w3).
body(r_fr10_60,fr6_u1).
body(r_fr10_60,fr10_z2).
body(r_fr10_60,fr10_z3).
head(r_fr10_61,fr10_y2).
body(r_fr10_61,fr10_b1).
body(r_fr10_61,fr10_b3).
body(r_fr10_61,fr10_c1).
body(r_fr10_61,fr10_e1).
body(r_fr10_61,fr10_e2).
body(r_fr10_61,fr10_f2).
body(r_fr10_61,fr10_q4).
body(r_fr10_61,fr10_r3).
body(r_fr10_61,fr10_s1).
body(r_fr10_61,fr10_s3).
body(r_fr10_61,fr10_t2).
body(r_fr10_61,fr10_v1).
body(r_fr10_61,fr10_z1).
body(r_fr10_61,fr10_z2).
head(r_fr10_62,fr10_y2).
body(r_fr10_62,fr6_b2).
body(r_fr10_62,fr10_p3).
body(r_fr10_62,fr10_p4).
body(r_fr10_62,fr10_q1).
body(r_fr10_62,fr10_q3).
body(r_fr10_62,fr10_q4).
body(r_fr10_62,fr10_r1).
body(r_fr10_62,fr10_s3).
body(r_fr10_62,fr10_u2).
body(r_fr10_62,fr10_w2).
body(r_fr10_62,fr10_w3).
body(r_fr10_62,fr10_x2).
body(r_fr10_62,fr10_y3).
body(r_fr10_62,fr10_z2).
body(r_fr10_62,fr10_z3).
head(r_fr10_63,fr10_y2).
body(r_fr10_63,fr10_b3).
body(r_fr10_63,fr6_b2).
body(r_fr10_63,fr10_f1).
body(r_fr10_63,fr10_f2).
body(r_fr10_63,fr10_p3).
body(r_fr10_63,fr10_q2).
body(r_fr10_63,fr10_q4).
body(r_fr10_63,fr10_s1).
body(r_fr10_63,fr10_w2).
body(r_fr10_63,fr10_x3).
body(r_fr10_63,fr10_y3).
body(r_fr10_63,fr10_z2).
head(r_fr10_64,fr10_v2).
body(r_fr10_64,fr10_a1).
body(r_fr10_64,fr10_p3).
body(r_fr10_64,fr10_p4).
body(r_fr10_64,fr10_q3).
body(r_fr10_64,fr10_q4).
body(r_fr10_64,fr10_s2).
body(r_fr10_64,fr10_s3).
body(r_fr10_64,fr10_t2).
body(r_fr10_64,fr10_w1).
body(r_fr10_64,fr10_x2).
body(r_fr10_64,fr10_y2).
body(r_fr10_64,fr10_y3).
head(r_fr10_65,fr10_v2).
body(r_fr10_65,fr10_a3).
body(r_fr10_65,fr10_b1).
body(r_fr10_65,fr10_e2).
body(r_fr10_65,fr10_f1).
body(r_fr10_65,fr10_p2).
body(r_fr10_65,fr10_q4).
body(r_fr10_65,fr10_t3).
body(r_fr10_65,fr10_u1).
body(r_fr10_65,fr10_v1).
body(r_fr10_65,fr6_u1).
body(r_fr10_65,fr10_x3).
body(r_fr10_65,fr10_y2).
head(r_fr10_66,fr10_v2).
body(r_fr10_66,fr10_b3).
body(r_fr10_66,fr10_d1).
body(r_fr10_66,fr10_p1).
body(r_fr10_66,fr10_p2).
body(r_fr10_66,fr10_p4).
body(r_fr10_66,fr10_q1).
body(r_fr10_66,fr10_q4).
body(r_fr10_66,fr10_r1).
body(r_fr10_66,fr10_r2).
body(r_fr10_66,fr10_r3).
body(r_fr10_66,fr10_v3).
body(r_fr10_66,fr10_w2).
body(r_fr10_66,fr6_u1).
body(r_fr10_66,fr10_x3).
body(r_fr10_66,fr10_z2).
head(r_fr10_67,fr10_v2).
body(r_fr10_67,fr10_a2).
body(r_fr10_67,fr10_b1).
body(r_fr10_67,fr10_e2).
body(r_fr10_67,fr10_f1).
body(r_fr10_67,fr10_f2).
body(r_fr10_67,fr10_q4).
body(r_fr10_67,fr10_r2).
body(r_fr10_67,fr10_s2).
body(r_fr10_67,fr10_u2).
body(r_fr10_67,fr10_v1).
body(r_fr10_67,fr6_u1).
body(r_fr10_67,fr10_x2).
body(r_fr10_67,fr10_y1).
body(r_fr10_67,fr10_z1).
body(r_fr10_67,fr10_z2).
head(r_fr10_68,fr10_v2).
body(r_fr10_68,fr10_a1).
body(r_fr10_68,fr10_a2).
body(r_fr10_68,fr10_d1).
body(r_fr10_68,fr10_e2).
body(r_fr10_68,fr10_q2).
body(r_fr10_68,fr10_q4).
body(r_fr10_68,fr10_t3).
body(r_fr10_68,fr10_u1).
body(r_fr10_68,fr10_x2).
body(r_fr10_68,fr10_y2).
body(r_fr10_68,fr10_y3).
body(r_fr10_68,fr10_z1).
body(r_fr10_68,fr10_z3).
head(r_fr10_69,fr10_r2).
body(r_fr10_69,fr10_a1).
body(r_fr10_69,fr10_f1).
body(r_fr10_69,fr10_p2).
body(r_fr10_69,fr10_p3).
body(r_fr10_69,fr10_q2).
body(r_fr10_69,fr10_q3).
body(r_fr10_69,fr10_r1).
body(r_fr10_69,fr10_s1).
body(r_fr10_69,fr10_s2).
body(r_fr10_69,fr10_s3).
body(r_fr10_69,fr10_t1).
body(r_fr10_69,fr10_t2).
body(r_fr10_69,fr10_u1).
body(r_fr10_69,fr10_v1).
body(r_fr10_69,fr10_y2).
head(r_fr10_70,fr10_r2).
body(r_fr10_70,fr10_a3).
body(r_fr10_70,fr10_b1).
body(r_fr10_70,fr10_c1).
body(r_fr10_70,fr10_d1).
body(r_fr10_70,fr10_e1).
body(r_fr10_70,fr10_f2).
body(r_fr10_70,fr10_p1).
body(r_fr10_70,fr10_s2).
body(r_fr10_70,fr10_u3).
body(r_fr10_70,fr10_v1).
body(r_fr10_70,fr10_w1).
body(r_fr10_70,fr10_z3).
head(r_fr10_71,fr10_r2).
body(r_fr10_71,fr10_a3).
body(r_fr10_71,fr10_d1).
body(r_fr10_71,fr6_b2).
body(r_fr10_71,fr10_q2).
body(r_fr10_71,fr10_r3).
body(r_fr10_71,fr10_s1).
body(r_fr10_71,fr10_s3).
body(r_fr10_71,fr10_t1).
body(r_fr10_71,fr10_v3).
body(r_fr10_71,fr10_w3).
body(r_fr10_71,fr10_x3).
body(r_fr10_71,fr10_y2).
body(r_fr10_71,fr10_z2).
head(r_fr10_72,fr10_r2).
body(r_fr10_72,fr10_a1).
body(r_fr10_72,fr10_b1).
body(r_fr10_72,fr10_b3).
body(r_fr10_72,fr6_b2).
body(r_fr10_72,fr10_p1).
body(r_fr10_72,fr10_p3).
body(r_fr10_72,fr10_p4).
body(r_fr10_72,fr10_q3).
body(r_fr10_72,fr10_t3).
body(r_fr10_72,fr10_u3).
body(r_fr10_72,fr10_w3).
body(r_fr10_72,fr10_x2).
body(r_fr10_72,fr10_y1).
body(r_fr10_72,fr10_z2).
body(r_fr10_72,fr10_z3).
head(r_fr10_73,fr10_p4).
body(r_fr10_73,fr10_p3).
body(r_fr10_73,fr10_q2).
body(r_fr10_73,fr10_r1).
body(r_fr10_73,fr10_r2).
body(r_fr10_73,fr10_s1).
body(r_fr10_73,fr10_t3).
body(r_fr10_73,fr10_u1).
body(r_fr10_73,fr10_u2).
body(r_fr10_73,fr10_v2).
body(r_fr10_73,fr10_w2).
body(r_fr10_73,fr10_w3).
body(r_fr10_73,fr10_y3).
body(r_fr10_73,fr10_z1).
head(r_fr10_74,fr10_p4).
body(r_fr10_74,fr10_e1).
body(r_fr10_74,fr10_p2).
body(r_fr10_74,fr10_q3).
body(r_fr10_74,fr10_q4).
body(r_fr10_74,fr10_r2).
body(r_fr10_74,fr10_s1).
body(r_fr10_74,fr10_s2).
body(r_fr10_74,fr10_t1).
body(r_fr10_74,fr10_v1).
body(r_fr10_74,fr10_v2).
body(r_fr10_74,fr10_w2).
body(r_fr10_74,fr10_w3).
body(r_fr10_74,fr10_x2).
body(r_fr10_74,fr10_x3).
body(r_fr10_74,fr10_z2).
head(r_fr10_75,fr10_w3).
body(r_fr10_75,fr10_a1).
body(r_fr10_75,fr10_a3).
body(r_fr10_75,fr10_b3).
body(r_fr10_75,fr10_c1).
body(r_fr10_75,fr10_c2).
body(r_fr10_75,fr10_d1).
body(r_fr10_75,fr10_p1).
body(r_fr10_75,fr10_q1).
body(r_fr10_75,fr10_u3).
body(r_fr10_75,fr10_v2).
body(r_fr10_75,fr10_w2).
body(r_fr10_75,fr10_y1).
body(r_fr10_75,fr10_y3).
head(r_fr10_76,fr10_w3).
body(r_fr10_76,fr10_a2).
body(r_fr10_76,fr10_c1).
body(r_fr10_76,fr10_d1).
body(r_fr10_76,fr6_b2).
body(r_fr10_76,fr10_e1).
body(r_fr10_76,fr10_p1).
body(r_fr10_76,fr10_p3).
body(r_fr10_76,fr10_p4).
body(r_fr10_76,fr10_s3).
body(r_fr10_76,fr10_u2).
body(r_fr10_76,fr10_v1).
body(r_fr10_76,fr10_y2).
body(r_fr10_76,fr10_z1).
body(r_fr10_76,fr10_z2).
body(r_fr10_76,fr10_z3).
head(r_fr10_77,fr10_w3).
body(r_fr10_77,fr10_b2).
body(r_fr10_77,fr10_p4).
body(r_fr10_77,fr10_q1).
body(r_fr10_77,fr10_q2).
body(r_fr10_77,fr10_q3).
body(r_fr10_77,fr10_r3).
body(r_fr10_77,fr10_t1).
body(r_fr10_77,fr10_t2).
body(r_fr10_77,fr10_t3).
body(r_fr10_77,fr10_v3).
body(r_fr10_77,fr10_w2).
body(r_fr10_77,fr10_x2).
body(r_fr10_77,fr10_y2).
body(r_fr10_77,fr10_z3).
head(r_fr10_78,fr10_w3).
body(r_fr10_78,fr10_a2).
body(r_fr10_78,fr10_a3).
body(r_fr10_78,fr10_c2).
body(r_fr10_78,fr10_c3).
body(r_fr10_78,fr10_e1).
body(r_fr10_78,fr10_f1).
body(r_fr10_78,fr10_q1).
body(r_fr10_78,fr10_q2).
body(r_fr10_78,fr10_q4).
body(r_fr10_78,fr10_r2).
body(r_fr10_78,fr10_t3).
body(r_fr10_78,fr10_v2).
body(r_fr10_78,fr10_w1).
body(r_fr10_78,fr10_x3).
body(r_fr10_78,fr10_y3).
head(r_fr10_79,fr10_w3).
body(r_fr10_79,fr10_a1).
body(r_fr10_79,fr10_a2).
body(r_fr10_79,fr10_c1).
body(r_fr10_79,fr10_c2).
body(r_fr10_79,fr10_c3).
body(r_fr10_79,fr10_p3).
body(r_fr10_79,fr10_q1).
body(r_fr10_79,fr10_q3).
body(r_fr10_79,fr10_r1).
body(r_fr10_79,fr10_s1).
body(r_fr10_79,fr10_t3).
body(r_fr10_79,fr10_u3).
body(r_fr10_79,fr10_w1).
body(r_fr10_79,fr10_x3).

